<?xml version="1.0"?>
<VTKFile type="UnstructuredGrid" version="0.1" byte_order="LittleEndian">
<UnstructuredGrid>
<Piece NumberOfPoints="31898" NumberOfCells="11152">
<Points>
<DataArray type="Float64" NumberOfComponents="3" format="ascii">
-0.5 -0.5 0 -0.47620991077874902 -0.44978878706170539 0 -0.49999999999999473 -0.42132396840504388 0 -0.5 -0.5 0 -0.47160970827802529 -0.4793630013852106 0 -0.47620991077874902 -0.44978878706170539 0 -0.5 -0.5 0 -0.47160970827802529 -0.4793630013852106 0 -0.44860394795025399 -0.5 0 -0.47160970827802529 -0.4793630013852106 0 -0.44860394795025399 -0.5 0 -0.4490820238307246 -0.45820516232899983 0 -0.44860394795025399 -0.5 0 -0.4490820238307246 -0.45820516232899983 0 -0.42881687682924802 -0.47781464288736519 0 -0.4490820238307246 -0.45820516232899983 0 -0.45555437223955858 -0.42914059360647611 0 -0.4490820238307246 -0.45820516232899983 0 -0.45555437223955858 -0.42914059360647611 0 -0.43867285131603428 -0.4271457417558665 0 -0.4490820238307246 -0.45820516232899983 0 -0.43867285131603428 -0.4271457417558665 0 -0.4263356171060747 -0.44269880333887462 0 -0.47160970827802529 -0.4793630013852106 0 -0.4490820238307246 -0.45820516232899983 0 -0.47620991077874902 -0.44978878706170539 0 -0.4490820238307246 -0.45820516232899983 0 -0.47620991077874902 -0.44978878706170539 0 -0.45555437223955858 -0.42914059360647611 0 -0.47620991077874902 -0.44978878706170539 0 -0.48101336032419229 -0.41069999664450008 0 -0.45555437223955858 -0.42914059360647611 0 -0.47620991077874902 -0.44978878706170539 0 -0.49999999999999473 -0.42132396840504388 0 -0.48101336032419229 -0.41069999664450008 0 -0.49999999999999473 -0.42132396840504388 0 -0.48101336032419229 -0.41069999664450008 0 -0.5 -0.393886241813306 0 -0.49999999999999473 -0.42132396840504388 0 -0.48101336032419229 -0.41069999664450008 0 -0.5 -0.393886241813306 0 -0.47854472220918332 -0.38978458738689759 0 -0.48422759779560409 -0.37130120630367158 0 -0.5 -0.393886241813306 0 -0.5 -0.36644851522156802 0 -0.48422759779560409 -0.37130120630367158 0 -0.48101336032419229 -0.41069999664450008 0 -0.5 -0.393886241813306 0 -0.47854472220918332 -0.38978458738689759 0 -0.48101336032419229 -0.41069999664450008 0 -0.47854472220918332 -0.38978458738689759 0 -0.46202672064839212 -0.40007602488395211 0 -0.48101336032419229 -0.41069999664450008 0 -0.46202672064839212 -0.40007602488395211 0 -0.47854472220918332 -0.38978458738689759 0 -0.46725442735267431 -0.37660061361585562 0 -0.46202672064839212 -0.40007602488395211 0 -0.47854472220918332 -0.38978458738689759 0 -0.46725442735267431 -0.37660061361585562 0 -0.48422759779560409 -0.37130120630367158 0 -0.46725442735267431 -0.37660061361585562 0 -0.46202672064839212 -0.40007602488395211 0 -0.46725442735267431 -0.37660061361585562 0 -0.45645674801697989 -0.38644133236760531 0 -0.46202672064839212 -0.40007602488395211 0 -0.46725442735267431 -0.37660061361585562 0 -0.45645674801697989 -0.38644133236760531 0 -0.4540003998136638 -0.37455519391687309 0 -0.45645674801697989 -0.38644133236760531 0 -0.46202672064839212 -0.40007602488395211 0 -0.44257020456291563 -0.38918913383950271 0 -0.46202672064839212 -0.40007602488395211 0 -0.44257020456291563 -0.38918913383950271 0 -0.44727608925983742 -0.41095911152778891 0 -0.46202672064839212 -0.40007602488395211 0 -0.44257020456291563 -0.38918913383950271 0 -0.44257020456291563 -0.38918913383950271 0 -0.44727608925983742 -0.41095911152778891 0 -0.43479358559901082 -0.4041454901736512 0 -0.44257020456291563 -0.38918913383950271 0 -0.4540003998136638 -0.37455519391687309 0 -0.44172858264042247 -0.37082207246888088 0 -0.45645674801697989 -0.38644133236760531 0 -0.44257020456291563 -0.38918913383950271 0 -0.4540003998136638 -0.37455519391687309 0 -0.46202672064839212 -0.40007602488395211 0 -0.45555437223955858 -0.42914059360647611 0 -0.44727608925983742 -0.41095911152778891 0 -0.46202672064839212 -0.40007602488395211 0 -0.45555437223955858 -0.42914059360647611 0 -0.48101336032419229 -0.41069999664450008 0 -0.46202672064839212 -0.40007602488395211 0 -0.45555437223955858 -0.42914059360647611 0 -0.44727608925983742 -0.41095911152778891 0 -0.43867285131603428 -0.4271457417558665 0 -0.43676601469929588 -0.41441201227470881 0 -0.44727608925983742 -0.41095911152778891 0 -0.43676601469929588 -0.41441201227470881 0 -0.43479358559901082 -0.4041454901736512 0 -0.45555437223955858 -0.42914059360647611 0 -0.44727608925983742 -0.41095911152778891 0 -0.43867285131603428 -0.4271457417558665 0 -0.43867285131603428 -0.4271457417558665 0 -0.42681803064840879 -0.42717069814352421 0 -0.4263356171060747 -0.44269880333887462 0 -0.42681803064840879 -0.42717069814352421 0 -0.41531815884496182 -0.42985383783075998 0 -0.4263356171060747 -0.44269880333887462 0 -0.42681803064840879 -0.42717069814352421 0 -0.42624289495594048 -0.42089725947505818 0 -0.42083332353326591 -0.42146747131641099 0 -0.42681803064840879 -0.42717069814352421 0 -0.43096994786351572 -0.41951492446283251 0 -0.42624289495594048 -0.42089725947505818 0 -0.43867285131603428 -0.4271457417558665 0 -0.42681803064840879 -0.42717069814352421 0 -0.43096994786351572 -0.41951492446283251 0 -0.43867285131603428 -0.4271457417558665 0 -0.43676601469929588 -0.41441201227470881 0 -0.43096994786351572 -0.41951492446283251 0 -0.43676601469929588 -0.41441201227470881 0 -0.43096994786351572 -0.41951492446283251 0 -0.42907264086257813 -0.41311715872526122 0 -0.43676601469929588 -0.41441201227470881 0 -0.42907264086257813 -0.41311715872526122 0 -0.43479358559901082 -0.4041454901736512 0 -0.42907264086257813 -0.41311715872526122 0 -0.43479358559901082 -0.4041454901736512 0 -0.42460885511582858 -0.40417321677700252 0 -0.42907264086257813 -0.41311715872526122 0 -0.41997834854398469 -0.41180534796019508 0 -0.42907264086257813 -0.41311715872526122 0 -0.42635027777857132 -0.41543594397746519 0 -0.41997834854398469 -0.41180534796019508 0 -0.42907264086257813 -0.41311715872526122 0 -0.41997834854398469 -0.41180534796019508 0 -0.42460885511582858 -0.40417321677700252 0 -0.42635027777857132 -0.41543594397746519 0 -0.41997834854398469 -0.41180534796019508 0 -0.42635027777857132 -0.41543594397746519 0 -0.42083332353326591 -0.42146747131641099 0 -0.41997834854398469 -0.41180534796019508 0 -0.43096994786351572 -0.41951492446283251 0 -0.42624289495594048 -0.42089725947505818 0 -0.42635027777857132 -0.41543594397746519 0 -0.43096994786351572 -0.41951492446283251 0 -0.42907264086257813 -0.41311715872526122 0 -0.42635027777857132 -0.41543594397746519 0 -0.42624289495594048 -0.42089725947505818 0 -0.42635027777857132 -0.41543594397746519 0 -0.42083332353326591 -0.42146747131641099 0 -0.42083332353326591 -0.42146747131641099 0 -0.41997834854398469 -0.41180534796019508 0 -0.40992282953163789 -0.42011435591993562 0 -0.41997834854398469 -0.41180534796019508 0 -0.39756877647335259 -0.40857286797681719 0 -0.41997834854398469 -0.41180534796019508 0 -0.40992282953163789 -0.42011435591993562 0 -0.39756877647335259 -0.40857286797681719 0 -0.40992282953163789 -0.42011435591993562 0 -0.41531815884496182 -0.42985383783075998 0 -0.39591554026262499 -0.42887225451549271 0 -0.41531815884496182 -0.42985383783075998 0 -0.39591554026262499 -0.42887225451549271 0 -0.41160927495564159 -0.44339431233754628 0 -0.42083332353326591 -0.42146747131641099 0 -0.40992282953163789 -0.42011435591993562 0 -0.41531815884496182 -0.42985383783075998 0 -0.42681803064840879 -0.42717069814352421 0 -0.42083332353326591 -0.42146747131641099 0 -0.41531815884496182 -0.42985383783075998 0 -0.44257020456291563 -0.38918913383950271 0 -0.42311368847744002 -0.37830224279505142 0 -0.42594061475171041 -0.39368797999533162 0 -0.44257020456291563 -0.38918913383950271 0 -0.42311368847744002 -0.37830224279505142 0 -0.44172858264042247 -0.37082207246888088 0 -0.44257020456291563 -0.38918913383950271 0 -0.42311368847744002 -0.37830224279505142 0 -0.42311368847744002 -0.37830224279505142 0 -0.42594061475171041 -0.39368797999533162 0 -0.416587075656149 -0.38785930376960043 0 -0.44257020456291563 -0.38918913383950271 0 -0.42594061475171041 -0.39368797999533162 0 -0.43479358559901082 -0.4041454901736512 0 -0.42594061475171041 -0.39368797999533162 0 -0.43479358559901082 -0.4041454901736512 0 -0.42460885511582858 -0.40417321677700252 0 -0.41997834854398469 -0.41180534796019508 0 -0.41325908582185972 -0.39811010703057192 0 -0.39770572831670092 -0.39911486077581648 0 -0.41997834854398469 -0.41180534796019508 0 -0.39770572831670092 -0.39911486077581648 0 -0.42594061475171041 -0.39368797999533162 0 -0.42460885511582858 -0.40417321677700252 0 -0.41325908582185972 -0.39811010703057192 0 -0.41997834854398469 -0.41180534796019508 0 -0.42460885511582858 -0.40417321677700252 0 -0.41325908582185972 -0.39811010703057192 0 -0.42594061475171041 -0.39368797999533162 0 -0.41325908582185972 -0.39811010703057192 0 -0.416587075656149 -0.38785930376960043 0 -0.41325908582185972 -0.39811010703057192 0 -0.416587075656149 -0.38785930376960043 0 -0.40403491357358612 -0.38133688525744702 0 -0.42311368847744002 -0.37830224279505142 0 -0.40403491357358612 -0.38133688525744702 0 -0.40365717239196519 -0.36741535175059892 0 -0.42311368847744002 -0.37830224279505142 0 -0.416587075656149 -0.38785930376960043 0 -0.40403491357358612 -0.38133688525744702 0 -0.40403491357358612 -0.38133688525744702 0 -0.39190790742475001 -0.38540387676521748 0 -0.39770572831670092 -0.39911486077581648 0 -0.40403491357358612 -0.38133688525744702 0 -0.39190790742475001 -0.38540387676521748 0 -0.3904578797192948 -0.37473938743617019 0 -0.41325908582185972 -0.39811010703057192 0 -0.40403491357358612 -0.38133688525744702 0 -0.39770572831670092 -0.39911486077581648 0 -0.39770572831670092 -0.39911486077581648 0 -0.37543310808941849 -0.38642437359143528 0 -0.39770572831670092 -0.39911486077581648 0 -0.37515920440272033 -0.40534038799344108 0 -0.37543310808941849 -0.38642437359143528 0 -0.39770572831670092 -0.39911486077581648 0 -0.37515920440272033 -0.40534038799344108 0 -0.39756877647335259 -0.40857286797681719 0 -0.37515920440272033 -0.40534038799344108 0 -0.37543310808941849 -0.38642437359143528 0 -0.37543310808941849 -0.38642437359143528 0 -0.3904578797192948 -0.37473938743617019 0 -0.37568304780698558 -0.36916333065311507 0 -0.39190790742475001 -0.38540387676521748 0 -0.37543310808941849 -0.38642437359143528 0 -0.3904578797192948 -0.37473938743617019 0 -0.37543310808941849 -0.38642437359143528 0 -0.37568304780698558 -0.36916333065311507 0 -0.39190790742475001 -0.38540387676521748 0 -0.39770572831670092 -0.39911486077581648 0 -0.37543310808941849 -0.38642437359143528 0 -0.41997834854398469 -0.41180534796019508 0 -0.39770572831670092 -0.39911486077581648 0 -0.39756877647335259 -0.40857286797681719 0 -0.40992282953163789 -0.42011435591993562 0 -0.39591554026262499 -0.42887225451549271 0 -0.39756877647335259 -0.40857286797681719 0 -0.37515920440272033 -0.40534038799344108 0 -0.39591554026262499 -0.42887225451549271 0 -0.39756877647335259 -0.40857286797681719 0 -0.37515920440272033 -0.40534038799344108 0 -0.39756877647335259 -0.40857286797681719 0 -0.37515920440272033 -0.40534038799344108 0 -0.39591554026262499 -0.42887225451549271 0 -0.37472313619600889 -0.43545561783144832 0 -0.39591554026262499 -0.42887225451549271 0 -0.39301703415267508 -0.44654444244683272 0 -0.37472313619600889 -0.43545561783144832 0 -0.39301703415267508 -0.44654444244683272 0 -0.37428706798929601 -0.46557084766945539 0 -0.37472313619600889 -0.43545561783144832 0 -0.39591554026262499 -0.42887225451549271 0 -0.39301703415267508 -0.44654444244683272 0 -0.41160927495564159 -0.44339431233754628 0 -0.39301703415267508 -0.44654444244683272 0 -0.40396056051613372 -0.45751466911048011 0 -0.41160927495564159 -0.44339431233754628 0 -0.40396056051613372 -0.45751466911048011 0 -0.39245383412573559 -0.47875733455523922 0 -0.41207507163844148 -0.46917161410542801 0 -0.40396056051613372 -0.45751466911048011 0 -0.38912381425271458 -0.46154275838996711 0 -0.39245383412573559 -0.47875733455523922 0 -0.40396056051613372 -0.45751466911048011 0 -0.39245383412573559 -0.47875733455523922 0 -0.40396056051613372 -0.45751466911048011 0 -0.40649676728151513 -0.45682610390212369 0 -0.40396056051613372 -0.45751466911048011 0 -0.38912381425271458 -0.46154275838996711 0 -0.39301703415267508 -0.44654444244683272 0 -0.40396056051613372 -0.45751466911048011 0 -0.38912381425271458 -0.46154275838996711 0 -0.39301703415267508 -0.44654444244683272 0 -0.38912381425271458 -0.46154275838996711 0 -0.37428706798929601 -0.46557084766945539 0 -0.38912381425271458 -0.46154275838996711 0 -0.37428706798929601 -0.46557084766945539 0 -0.38912381425271458 -0.46154275838996711 0 -0.38378714202547332 -0.47159002408209011 0 -0.37428706798929601 -0.46557084766945539 0 -0.38378714202547332 -0.47159002408209011 0 -0.39245383412573559 -0.47875733455523922 0 -0.37411677223754131 -0.47733161267270968 0 -0.39245383412573559 -0.47875733455523922 0 -0.37240076261097882 -0.48974555046165519 0 -0.37411677223754131 -0.47733161267270968 0 -0.38378714202547332 -0.47159002408209011 0 -0.37411677223754131 -0.47733161267270968 0 -0.37428706798929601 -0.46557084766945539 0 -0.38912381425271458 -0.46154275838996711 0 -0.38378714202547332 -0.47159002408209011 0 -0.39245383412573559 -0.47875733455523922 0 -0.38094710773533791 -0.49999999999999839 0 -0.39245383412573559 -0.47875733455523922 0 -0.38094710773533791 -0.49999999999999839 0 -0.39245383412573559 -0.47875733455523922 0 -0.37240076261097882 -0.48974555046165519 0 -0.38094710773533791 -0.49999999999999839 0 -0.39245383412573559 -0.47875733455523922 0 -0.40997732063196057 -0.5 0 -0.39245383412573559 -0.47875733455523922 0 -0.41207507163844148 -0.46917161410542801 0 -0.40997732063196057 -0.5 0 -0.41207507163844148 -0.46917161410542801 0 -0.40997732063196057 -0.5 0 -0.42881687682924802 -0.47781464288736519 0 -0.44860394795025399 -0.5 0 -0.40997732063196057 -0.5 0 -0.42881687682924802 -0.47781464288736519 0 -0.41207507163844148 -0.46917161410542801 0 -0.42881687682924802 -0.47781464288736519 0 -0.42627766738448791 -0.46032764904509182 0 -0.4490820238307246 -0.45820516232899983 0 -0.42881687682924802 -0.47781464288736519 0 -0.42627766738448791 -0.46032764904509182 0 -0.4490820238307246 -0.45820516232899983 0 -0.42627766738448791 -0.46032764904509182 0 -0.4263356171060747 -0.44269880333887462 0 -0.42627766738448791 -0.46032764904509182 0 -0.4263356171060747 -0.44269880333887462 0 -0.41655419253802572 -0.45404861160063659 0 -0.4263356171060747 -0.44269880333887462 0 -0.41160927495564159 -0.44339431233754628 0 -0.41655419253802572 -0.45404861160063659 0 -0.41531815884496182 -0.42985383783075998 0 -0.4263356171060747 -0.44269880333887462 0 -0.41160927495564159 -0.44339431233754628 0 -0.40396056051613372 -0.45751466911048011 0 -0.41160927495564159 -0.44339431233754628 0 -0.40649676728151513 -0.45682610390212369 0 -0.41160927495564159 -0.44339431233754628 0 -0.40649676728151513 -0.45682610390212369 0 -0.41655419253802572 -0.45404861160063659 0 -0.40396056051613372 -0.45751466911048011 0 -0.41160927495564159 -0.44339431233754628 0 -0.41207507163844148 -0.46917161410542801 0 -0.40649676728151513 -0.45682610390212369 0 -0.41655419253802572 -0.45404861160063659 0 -0.40396056051613372 -0.45751466911048011 0 -0.41207507163844148 -0.46917161410542801 0 -0.40649676728151513 -0.45682610390212369 0 -0.41207507163844148 -0.46917161410542801 0 -0.42627766738448791 -0.46032764904509182 0 -0.41655419253802572 -0.45404861160063659 0 -0.45662330498375908 -0.25656877445722759 0 -0.43445882011373449 -0.25478651907497341 0 -0.45662330498375908 -0.25656877445722759 0 -0.43445882011373449 -0.25478651907497341 0 -0.45034617445999431 -0.24335722649563979 0 -0.44999384684511368 -0.2755750489792308 0 -0.45662330498375908 -0.25656877445722759 0 -0.43445882011373449 -0.25478651907497341 0 -0.44999384684511368 -0.2755750489792308 0 -0.43077531442077321 -0.27459050524281542 0 -0.43445882011373449 -0.25478651907497341 0 -0.44999384684511368 -0.2755750489792308 0 -0.441361257405879 -0.29303276451920029 0 -0.43077531442077321 -0.27459050524281542 0 -0.44999384684511368 -0.2755750489792308 0 -0.4670541169931961 -0.26846056693166809 0 -0.46910519348062618 -0.28320526693770848 0 -0.44999384684511368 -0.2755750489792308 0 -0.4670541169931961 -0.26846056693166809 0 -0.45662330498375908 -0.25656877445722759 0 -0.45662330498375908 -0.25656877445722759 0 -0.47878778985378329 -0.25835102983948688 0 -0.4670541169931961 -0.26846056693166809 0 -0.45662330498375908 -0.25656877445722759 0 -0.47878778985378329 -0.25835102983948688 0 -0.45662330498375908 -0.25656877445722759 0 -0.47878778985378329 -0.25835102983948688 0 -0.47142395938804471 -0.23802335247430181 0 -0.47878778985378329 -0.25835102983948688 0 -0.5 -0.25669760885461612 0 -0.48361763707807442 -0.27426406281091331 0 -0.47878778985378329 -0.25835102983948688 0 -0.5 -0.25669760885461612 0 -0.4875835208682564 -0.24248539692068891 0 -0.5 -0.25669760885461612 0 -0.48361763707807442 -0.27426406281091331 0 -0.5 -0.28413533544635422 0 -0.4670541169931961 -0.26846056693166809 0 -0.47878778985378329 -0.25835102983948688 0 -0.48361763707807442 -0.27426406281091331 0 -0.4670541169931961 -0.26846056693166809 0 -0.48361763707807442 -0.27426406281091331 0 -0.46910519348062618 -0.28320526693770848 0 -0.46910519348062618 -0.28320526693770848 0 -0.48580896399913942 -0.29193665231809679 0 -0.47164434439118558 -0.29859902487093259 0 -0.48361763707807442 -0.27426406281091331 0 -0.46910519348062618 -0.28320526693770848 0 -0.48580896399913942 -0.29193665231809679 0 -0.5 -0.28413533544635422 0 -0.48580896399913942 -0.29193665231809679 0 -0.5 -0.3115730620380921 0 -0.48361763707807442 -0.27426406281091331 0 -0.5 -0.28413533544635422 0 -0.48580896399913942 -0.29193665231809679 0 -0.48580896399913942 -0.29193665231809679 0 -0.5 -0.3115730620380921 0 -0.48293754746551898 -0.30617437981156609 0 -0.48293754746551898 -0.30617437981156609 0 -0.47164434439118558 -0.29859902487093259 0 -0.47203566342767839 -0.31514771464943409 0 -0.48580896399913942 -0.29193665231809679 0 -0.48293754746551898 -0.30617437981156609 0 -0.47164434439118558 -0.29859902487093259 0 -0.47164434439118558 -0.29859902487093259 0 -0.46096111539772322 -0.3069557537098867 0 -0.47203566342767839 -0.31514771464943409 0 -0.46096111539772322 -0.3069557537098867 0 -0.44739706002137658 -0.30395698434733032 0 -0.45229582611609759 -0.31444164243390338 0 -0.46096111539772322 -0.3069557537098867 0 -0.45682111422556548 -0.29317658806621089 0 -0.44739706002137658 -0.30395698434733032 0 -0.47164434439118558 -0.29859902487093259 0 -0.46096111539772322 -0.3069557537098867 0 -0.45682111422556548 -0.29317658806621089 0 -0.44999384684511368 -0.2755750489792308 0 -0.46910519348062618 -0.28320526693770848 0 -0.45682111422556548 -0.29317658806621089 0 -0.46910519348062618 -0.28320526693770848 0 -0.47164434439118558 -0.29859902487093259 0 -0.45682111422556548 -0.29317658806621089 0 -0.44999384684511368 -0.2755750489792308 0 -0.45682111422556548 -0.29317658806621089 0 -0.441361257405879 -0.29303276451920029 0 -0.45682111422556548 -0.29317658806621089 0 -0.441361257405879 -0.29303276451920029 0 -0.44739706002137658 -0.30395698434733032 0 -0.441361257405879 -0.29303276451920029 0 -0.44739706002137658 -0.30395698434733032 0 -0.43527018611072049 -0.30465000121327751 0 -0.44739706002137658 -0.30395698434733032 0 -0.44024276041750632 -0.31887045497680111 0 -0.43527018611072049 -0.30465000121327751 0 -0.44739706002137658 -0.30395698434733032 0 -0.45229582611609759 -0.31444164243390338 0 -0.44024276041750632 -0.31887045497680111 0 -0.44024276041750632 -0.31887045497680111 0 -0.45653421084860168 -0.32646185290925811 0 -0.44024276041750632 -0.31887045497680111 0 -0.43930980958642257 -0.33554338078202212 0 -0.45653421084860168 -0.32646185290925811 0 -0.45229582611609759 -0.31444164243390338 0 -0.44024276041750632 -0.31887045497680111 0 -0.45653421084860168 -0.32646185290925811 0 -0.43930980958642257 -0.33554338078202212 0 -0.44966367396753332 -0.33841986907325933 0 -0.46855294336124231 -0.32873531729210143 0 -0.43930980958642257 -0.33554338078202212 0 -0.4507851133594416 -0.34910720111649318 0 -0.43930980958642257 -0.33554338078202212 0 -0.44966367396753332 -0.33841986907325933 0 -0.4507851133594416 -0.34910720111649318 0 -0.44966367396753332 -0.33841986907325933 0 -0.46855294336124231 -0.32873531729210143 0 -0.46386644800117471 -0.33586508895417932 0 -0.43930980958642257 -0.33554338078202212 0 -0.46855294336124231 -0.32873531729210143 0 -0.43930980958642257 -0.33554338078202212 0 -0.46855294336124231 -0.32873531729210143 0 -0.45653421084860168 -0.32646185290925811 0 -0.44966367396753332 -0.33841986907325933 0 -0.4586808436472537 -0.3401528003513713 0 -0.45711636988675219 -0.34547487934353349 0 -0.44966367396753332 -0.33841986907325933 0 -0.4586808436472537 -0.3401528003513713 0 -0.46386644800117471 -0.33586508895417932 0 -0.4586808436472537 -0.3401528003513713 0 -0.46472493826860672 -0.34236766697450172 0 -0.45711636988675219 -0.34547487934353349 0 -0.4586808436472537 -0.3401528003513713 0 -0.46472493826860672 -0.34236766697450172 0 -0.46386644800117471 -0.33586508895417932 0 -0.46855294336124231 -0.32873531729210143 0 -0.46207595183026873 -0.31834845619891672 0 -0.47203566342767839 -0.31514771464943409 0 -0.46855294336124231 -0.32873531729210143 0 -0.45653421084860168 -0.32646185290925811 0 -0.46207595183026873 -0.31834845619891672 0 -0.46096111539772322 -0.3069557537098867 0 -0.45229582611609759 -0.31444164243390338 0 -0.46207595183026873 -0.31834845619891672 0 -0.45229582611609759 -0.31444164243390338 0 -0.45653421084860168 -0.32646185290925811 0 -0.46207595183026873 -0.31834845619891672 0 -0.46096111539772322 -0.3069557537098867 0 -0.46207595183026873 -0.31834845619891672 0 -0.47203566342767839 -0.31514771464943409 0 -0.48293754746551898 -0.30617437981156609 0 -0.47203566342767839 -0.31514771464943409 0 -0.47770984076123751 -0.32964979107966252 0 -0.48293754746551898 -0.30617437981156609 0 -0.47770984076123751 -0.32964979107966252 0 -0.48293754746551898 -0.30617437981156609 0 -0.48763303240419292 -0.31981883507337211 0 -0.47770984076123751 -0.32964979107966252 0 -0.46855294336124231 -0.32873531729210143 0 -0.47203566342767839 -0.31514771464943409 0 -0.47770984076123751 -0.32964979107966252 0 -0.5 -0.3115730620380921 0 -0.5 -0.33901078862982997 0 -0.49048543526404831 -0.32960291085151988 0 -0.5 -0.3115730620380921 0 -0.48763303240419292 -0.31981883507337211 0 -0.49048543526404831 -0.32960291085151988 0 -0.5 -0.3115730620380921 0 -0.48293754746551898 -0.30617437981156609 0 -0.48763303240419292 -0.31981883507337211 0 -0.48763303240419292 -0.31981883507337211 0 -0.49048543526404831 -0.32960291085151988 0 -0.47770984076123751 -0.32964979107966252 0 -0.49048543526404831 -0.32960291085151988 0 -0.47770984076123751 -0.32964979107966252 0 -0.48708430315481122 -0.3479620774366432 0 -0.5 -0.33901078862982997 0 -0.49048543526404831 -0.32960291085151988 0 -0.48708430315481122 -0.3479620774366432 0 -0.47770984076123751 -0.32964979107966252 0 -0.47248213405695583 -0.35312520234775913 0 -0.47770984076123751 -0.32964979107966252 0 -0.47248213405695583 -0.35312520234775913 0 -0.48708430315481122 -0.3479620774366432 0 -0.46472493826860672 -0.34236766697450172 0 -0.47770984076123751 -0.32964979107966252 0 -0.47248213405695583 -0.35312520234775913 0 -0.46855294336124231 -0.32873531729210143 0 -0.46386644800117471 -0.33586508895417932 0 -0.47770984076123751 -0.32964979107966252 0 -0.46472493826860672 -0.34236766697450172 0 -0.46386644800117471 -0.33586508895417932 0 -0.47770984076123751 -0.32964979107966252 0 -0.47248213405695583 -0.35312520234775913 0 -0.48708430315481122 -0.3479620774366432 0 -0.48422759779560409 -0.37130120630367158 0 -0.5 -0.33901078862982997 0 -0.48708430315481122 -0.3479620774366432 0 -0.5 -0.36644851522156802 0 -0.48708430315481122 -0.3479620774366432 0 -0.5 -0.36644851522156802 0 -0.48422759779560409 -0.37130120630367158 0 -0.46725442735267431 -0.37660061361585562 0 -0.47248213405695583 -0.35312520234775913 0 -0.48422759779560409 -0.37130120630367158 0 -0.46725442735267431 -0.37660061361585562 0 -0.47248213405695583 -0.35312520234775913 0 -0.46725442735267431 -0.37660061361585562 0 -0.4540003998136638 -0.37455519391687309 0 -0.46226041713245919 -0.36267102145096558 0 -0.46725442735267431 -0.37660061361585562 0 -0.47248213405695583 -0.35312520234775913 0 -0.46226041713245919 -0.36267102145096558 0 -0.4540003998136638 -0.37455519391687309 0 -0.46226041713245919 -0.36267102145096558 0 -0.45167034254705118 -0.36337553476545958 0 -0.47248213405695583 -0.35312520234775913 0 -0.46226041713245919 -0.36267102145096558 0 -0.46130034509645268 -0.35111989715704561 0 -0.46472493826860672 -0.34236766697450172 0 -0.47248213405695583 -0.35312520234775913 0 -0.46130034509645268 -0.35111989715704561 0 -0.46472493826860672 -0.34236766697450172 0 -0.46130034509645268 -0.35111989715704561 0 -0.45711636988675219 -0.34547487934353349 0 -0.46130034509645268 -0.35111989715704561 0 -0.45711636988675219 -0.34547487934353349 0 -0.4507851133594416 -0.34910720111649318 0 -0.46226041713245919 -0.36267102145096558 0 -0.4507851133594416 -0.34910720111649318 0 -0.45167034254705118 -0.36337553476545958 0 -0.46226041713245919 -0.36267102145096558 0 -0.46130034509645268 -0.35111989715704561 0 -0.4507851133594416 -0.34910720111649318 0 -0.46226041713245919 -0.36267102145096558 0 -0.4507851133594416 -0.34910720111649318 0 -0.4507851133594416 -0.34910720111649318 0 -0.44504098357239391 -0.35771747353496869 0 -0.45167034254705118 -0.36337553476545958 0 -0.44966367396753332 -0.33841986907325933 0 -0.45711636988675219 -0.34547487934353349 0 -0.4507851133594416 -0.34910720111649318 0 -0.4507851133594416 -0.34910720111649318 0 -0.44408457896710762 -0.34741130507322732 0 -0.44504098357239391 -0.35771747353496869 0 -0.43930980958642257 -0.33554338078202212 0 -0.4507851133594416 -0.34910720111649318 0 -0.44408457896710762 -0.34741130507322732 0 -0.44408457896710762 -0.34741130507322732 0 -0.43834809566141358 -0.35386966642967582 0 -0.4310745521241639 -0.35060051531725012 0 -0.44408457896710762 -0.34741130507322732 0 -0.43834809566141358 -0.35386966642967582 0 -0.44504098357239391 -0.35771747353496869 0 -0.43834809566141358 -0.35386966642967582 0 -0.44504098357239391 -0.35771747353496869 0 -0.43256408976529492 -0.36260533289695268 0 -0.44504098357239391 -0.35771747353496869 0 -0.44172858264042247 -0.37082207246888088 0 -0.43256408976529492 -0.36260533289695268 0 -0.4540003998136638 -0.37455519391687309 0 -0.44172858264042247 -0.37082207246888088 0 -0.45167034254705118 -0.36337553476545958 0 -0.44504098357239391 -0.35771747353496869 0 -0.44172858264042247 -0.37082207246888088 0 -0.45167034254705118 -0.36337553476545958 0 -0.42311368847744002 -0.37830224279505142 0 -0.44172858264042247 -0.37082207246888088 0 -0.43256408976529492 -0.36260533289695268 0 -0.42311368847744002 -0.37830224279505142 0 -0.43256408976529492 -0.36260533289695268 0 -0.41867380740831611 -0.36398836527224071 0 -0.43256408976529492 -0.36260533289695268 0 -0.42210656065146929 -0.35476551363046099 0 -0.41867380740831611 -0.36398836527224071 0 -0.44408457896710762 -0.34741130507322732 0 -0.4310745521241639 -0.35060051531725012 0 -0.42443636388738298 -0.3390060521705498 0 -0.43834809566141358 -0.35386966642967582 0 -0.43256408976529492 -0.36260533289695268 0 -0.4310745521241639 -0.35060051531725012 0 -0.4310745521241639 -0.35060051531725012 0 -0.42266042161335821 -0.34652378860874011 0 -0.42210656065146929 -0.35476551363046099 0 -0.4310745521241639 -0.35060051531725012 0 -0.42266042161335821 -0.34652378860874011 0 -0.42443636388738298 -0.3390060521705498 0 -0.43256408976529492 -0.36260533289695268 0 -0.4310745521241639 -0.35060051531725012 0 -0.42210656065146929 -0.35476551363046099 0 -0.42210656065146929 -0.35476551363046099 0 -0.41243440171204931 -0.35621682403100541 0 -0.41867380740831611 -0.36398836527224071 0 -0.41243440171204931 -0.35621682403100541 0 -0.40365717239196519 -0.36741535175059892 0 -0.40302160193259851 -0.3439916005776541 0 -0.42210656065146929 -0.35476551363046099 0 -0.41714587076776338 -0.34786779488983011 0 -0.41243440171204931 -0.35621682403100541 0 -0.42266042161335821 -0.34652378860874011 0 -0.42210656065146929 -0.35476551363046099 0 -0.41714587076776338 -0.34786779488983011 0 -0.42266042161335821 -0.34652378860874011 0 -0.41714587076776338 -0.34786779488983011 0 -0.41853876063601031 -0.34037906703560689 0 -0.41714587076776338 -0.34786779488983011 0 -0.41853876063601031 -0.34037906703560689 0 -0.41714587076776338 -0.34786779488983011 0 -0.41243440171204931 -0.35621682403100541 0 -0.40302160193259851 -0.3439916005776541 0 -0.41714587076776338 -0.34786779488983011 0 -0.40302160193259851 -0.3439916005776541 0 -0.41853876063601031 -0.34037906703560689 0 -0.42311368847744002 -0.37830224279505142 0 -0.41867380740831611 -0.36398836527224071 0 -0.40365717239196519 -0.36741535175059892 0 -0.42311368847744002 -0.37830224279505142 0 -0.40365717239196519 -0.36741535175059892 0 -0.41243440171204931 -0.35621682403100541 0 -0.41867380740831611 -0.36398836527224071 0 -0.40365717239196519 -0.36741535175059892 0 -0.40403491357358612 -0.38133688525744702 0 -0.40365717239196519 -0.36741535175059892 0 -0.40403491357358612 -0.38133688525744702 0 -0.40365717239196519 -0.36741535175059892 0 -0.3904578797192948 -0.37473938743617019 0 -0.40365717239196519 -0.36741535175059892 0 -0.38979507995825918 -0.35965881973269581 0 -0.40365717239196519 -0.36741535175059892 0 -0.3904578797192948 -0.37473938743617019 0 -0.38979507995825918 -0.35965881973269581 0 -0.3904578797192948 -0.37473938743617019 0 -0.38979507995825918 -0.35965881973269581 0 -0.37568304780698558 -0.36916333065311507 0 -0.37568304780698558 -0.36916333065311507 0 -0.37593298752455201 -0.35190228771479481 0 -0.38979507995825918 -0.35965881973269581 0 -0.37568304780698558 -0.36916333065311507 0 -0.37593298752455201 -0.35190228771479481 0 -0.38979507995825918 -0.35965881973269581 0 -0.37595629511297179 -0.35029264644438168 0 -0.40302160193259851 -0.3439916005776541 0 -0.37595629511297179 -0.35029264644438168 0 -0.40302160193259851 -0.3439916005776541 0 -0.38842354837557669 -0.33756560667471242 0 -0.37595629511297179 -0.35029264644438168 0 -0.40302160193259851 -0.3439916005776541 0 -0.37595629511297179 -0.35029264644438168 0 -0.37607676276689278 -0.3419730509543204 0 -0.37390838074359528 -0.35076941925389299 0 -0.37595629511297179 -0.35029264644438168 0 -0.37607676276689278 -0.3419730509543204 0 -0.37595629511297179 -0.35029264644438168 0 -0.37593298752455201 -0.35190228771479481 0 -0.37390838074359528 -0.35076941925389299 0 -0.37595629511297179 -0.35029264644438168 0 -0.37593298752455201 -0.35190228771479481 0 -0.38979507995825918 -0.35965881973269581 0 -0.37595629511297179 -0.35029264644438168 0 -0.37593298752455201 -0.35190228771479481 0 -0.38979507995825918 -0.35965881973269581 0 -0.37593298752455201 -0.35190228771479481 0 -0.40365717239196519 -0.36741535175059892 0 -0.40302160193259851 -0.3439916005776541 0 -0.40365717239196519 -0.36741535175059892 0 -0.38979507995825918 -0.35965881973269581 0 -0.40302160193259851 -0.3439916005776541 0 -0.40302160193259851 -0.3439916005776541 0 -0.40263324863316441 -0.32967896077653092 0 -0.40263324863316441 -0.32967896077653092 0 -0.38842354837557669 -0.33756560667471242 0 -0.38442983343225828 -0.32189177462067481 0 -0.40302160193259851 -0.3439916005776541 0 -0.40263324863316441 -0.32967896077653092 0 -0.38842354837557669 -0.33756560667471242 0 -0.37607676276689278 -0.3419730509543204 0 -0.37641717267996733 -0.3184640617331177 0 -0.38842354837557669 -0.33756560667471242 0 -0.37607676276689278 -0.3419730509543204 0 -0.38442983343225828 -0.32189177462067481 0 -0.37607676276689278 -0.3419730509543204 0 -0.38442983343225828 -0.32189177462067481 0 -0.37595629511297179 -0.35029264644438168 0 -0.38842354837557669 -0.33756560667471242 0 -0.37607676276689278 -0.3419730509543204 0 -0.37607676276689278 -0.3419730509543204 0 -0.37641717267996733 -0.3184640617331177 0 -0.38442983343225828 -0.32189177462067481 0 -0.37641717267996733 -0.3184640617331177 0 -0.38442983343225828 -0.32189177462067481 0 -0.3841914044669909 -0.30132118344037401 0 -0.37641717267996733 -0.3184640617331177 0 -0.38442983343225828 -0.32189177462067481 0 -0.40263324863316441 -0.32967896077653092 0 -0.38442983343225828 -0.32189177462067481 0 -0.40185461233875269 -0.30098256284660307 0 -0.40263324863316441 -0.32967896077653092 0 -0.38442983343225828 -0.32189177462067481 0 -0.40263324863316441 -0.32967896077653092 0 -0.40185461233875269 -0.30098256284660307 0 -0.40263324863316441 -0.32967896077653092 0 -0.41242695344044827 -0.31820451366256841 0 -0.40185461233875269 -0.30098256284660307 0 -0.41242695344044827 -0.31820451366256841 0 -0.41920998916455232 -0.33677027649670849 0 -0.42301959421646518 -0.31628833020920039 0 -0.41920998916455232 -0.33677027649670849 0 -0.42301959421646518 -0.31628833020920039 0 -0.41242695344044827 -0.31820451366256841 0 -0.42301959421646518 -0.31628833020920039 0 -0.41541732284930832 -0.30730243798379953 0 -0.40302160193259851 -0.3439916005776541 0 -0.41920998916455232 -0.33677027649670849 0 -0.41853876063601031 -0.34037906703560689 0 -0.40302160193259851 -0.3439916005776541 0 -0.40263324863316441 -0.32967896077653092 0 -0.41920998916455232 -0.33677027649670849 0 -0.40263324863316441 -0.32967896077653092 0 -0.41920998916455232 -0.33677027649670849 0 -0.40263324863316441 -0.32967896077653092 0 -0.41242695344044827 -0.31820451366256841 0 -0.41920998916455232 -0.33677027649670849 0 -0.40302160193259851 -0.3439916005776541 0 -0.41853876063601031 -0.34037906703560689 0 -0.41853876063601031 -0.34037906703560689 0 -0.42443636388738298 -0.3390060521705498 0 -0.41920998916455232 -0.33677027649670849 0 -0.42443636388738298 -0.3390060521705498 0 -0.41920998916455232 -0.33677027649670849 0 -0.41853876063601031 -0.34037906703560689 0 -0.42443636388738298 -0.3390060521705498 0 -0.41920998916455232 -0.33677027649670849 0 -0.41853876063601031 -0.34037906703560689 0 -0.43930980958642257 -0.33554338078202212 0 -0.44408457896710762 -0.34741130507322732 0 -0.42443636388738298 -0.3390060521705498 0 -0.43930980958642257 -0.33554338078202212 0 -0.42443636388738298 -0.3390060521705498 0 -0.42301959421646518 -0.31628833020920039 0 -0.41920998916455232 -0.33677027649670849 0 -0.42443636388738298 -0.3390060521705498 0 -0.42301959421646518 -0.31628833020920039 0 -0.44408457896710762 -0.34741130507322732 0 -0.42443636388738298 -0.3390060521705498 0 -0.42266042161335821 -0.34652378860874011 0 -0.41853876063601031 -0.34037906703560689 0 -0.42443636388738298 -0.3390060521705498 0 -0.43930980958642257 -0.33554338078202212 0 -0.42443636388738298 -0.3390060521705498 0 -0.43930980958642257 -0.33554338078202212 0 -0.42301959421646518 -0.31628833020920039 0 -0.44024276041750632 -0.31887045497680111 0 -0.42395130998641067 -0.31127905704434472 0 -0.44024276041750632 -0.31887045497680111 0 -0.43930980958642257 -0.33554338078202212 0 -0.42301959421646518 -0.31628833020920039 0 -0.44024276041750632 -0.31887045497680111 0 -0.42301959421646518 -0.31628833020920039 0 -0.42395130998641067 -0.31127905704434472 0 -0.42301959421646518 -0.31628833020920039 0 -0.42395130998641067 -0.31127905704434472 0 -0.42395130998641067 -0.31127905704434472 0 -0.42709180872781188 -0.29439449141065738 0 -0.44024276041750632 -0.31887045497680111 0 -0.42395130998641067 -0.31127905704434472 0 -0.43527018611072049 -0.30465000121327751 0 -0.42395130998641067 -0.31127905704434472 0 -0.42709180872781188 -0.29439449141065738 0 -0.41541732284930832 -0.30730243798379953 0 -0.42395130998641067 -0.31127905704434472 0 -0.43527018611072049 -0.30465000121327751 0 -0.42709180872781188 -0.29439449141065738 0 -0.441361257405879 -0.29303276451920029 0 -0.43527018611072049 -0.30465000121327751 0 -0.42709180872781188 -0.29439449141065738 0 -0.42709180872781188 -0.29439449141065738 0 -0.43077531442077321 -0.27459050524281542 0 -0.42709180872781188 -0.29439449141065738 0 -0.41684225135067149 -0.28376244362903152 0 -0.43077531442077321 -0.27459050524281542 0 -0.441361257405879 -0.29303276451920029 0 -0.42709180872781188 -0.29439449141065738 0 -0.441361257405879 -0.29303276451920029 0 -0.42709180872781188 -0.29439449141065738 0 -0.43077531442077321 -0.27459050524281542 0 -0.42709180872781188 -0.29439449141065738 0 -0.41684225135067149 -0.28376244362903152 0 -0.40618483967714292 -0.29638963380315841 0 -0.42709180872781188 -0.29439449141065738 0 -0.40618483967714292 -0.29638963380315841 0 -0.41684225135067149 -0.28376244362903152 0 -0.40690107601488551 -0.28490397733270861 0 -0.40618483967714292 -0.29638963380315841 0 -0.41541732284930832 -0.30730243798379953 0 -0.40185461233875269 -0.30098256284660307 0 -0.40618483967714292 -0.29638963380315841 0 -0.42709180872781188 -0.29439449141065738 0 -0.41541732284930832 -0.30730243798379953 0 -0.40618483967714292 -0.29638963380315841 0 -0.41541732284930832 -0.30730243798379953 0 -0.40618483967714292 -0.29638963380315841 0 -0.41242695344044827 -0.31820451366256841 0 -0.41541732284930832 -0.30730243798379953 0 -0.40185461233875269 -0.30098256284660307 0 -0.41541732284930832 -0.30730243798379953 0 -0.40185461233875269 -0.30098256284660307 0 -0.42301959421646518 -0.31628833020920039 0 -0.41541732284930832 -0.30730243798379953 0 -0.42395130998641067 -0.31127905704434472 0 -0.41541732284930832 -0.30730243798379953 0 -0.42301959421646518 -0.31628833020920039 0 -0.42395130998641067 -0.31127905704434472 0 -0.41541732284930832 -0.30730243798379953 0 -0.38442983343225828 -0.32189177462067481 0 -0.40185461233875269 -0.30098256284660307 0 -0.39448508010510541 -0.297525044214214 0 -0.40185461233875269 -0.30098256284660307 0 -0.40174149504185092 -0.29681366012781812 0 -0.40618483967714292 -0.29638963380315841 0 -0.40185461233875269 -0.30098256284660307 0 -0.40174149504185092 -0.29681366012781812 0 -0.40185461233875269 -0.30098256284660307 0 -0.39448508010510541 -0.297525044214214 0 -0.40174149504185092 -0.29681366012781812 0 -0.40185461233875269 -0.30098256284660307 0 -0.39448508010510541 -0.297525044214214 0 -0.39448508010510541 -0.297525044214214 0 -0.40174149504185092 -0.29681366012781812 0 -0.37641717267996733 -0.3184640617331177 0 -0.37669606201677502 -0.29920373422444158 0 -0.38442983343225828 -0.32189177462067481 0 -0.39448508010510541 -0.297525044214214 0 -0.38442983343225828 -0.32189177462067481 0 -0.39448508010510541 -0.297525044214214 0 -0.3841914044669909 -0.30132118344037401 0 -0.37641717267996733 -0.3184640617331177 0 -0.3841914044669909 -0.30132118344037401 0 -0.37669606201677502 -0.29920373422444158 0 -0.39448508010510541 -0.297525044214214 0 -0.3841914044669909 -0.30132118344037401 0 -0.37928718982873688 -0.29895646409505849 0 -0.39448508010510541 -0.297525044214214 0 -0.37928718982873688 -0.29895646409505849 0 -0.3841914044669909 -0.30132118344037401 0 -0.37928718982873688 -0.29895646409505849 0 -0.3841914044669909 -0.30132118344037401 0 -0.37928718982873688 -0.29895646409505849 0 -0.37669606201677502 -0.29920373422444158 0 -0.37928718982873688 -0.29895646409505849 0 -0.37669606201677502 -0.29920373422444158 0 -0.37671758341694961 -0.29771744858697219 0 -0.37928718982873688 -0.29895646409505849 0 -0.37671758341694961 -0.29771744858697219 0 -0.37928718982873688 -0.29895646409505849 0 -0.37669606201677502 -0.29920373422444158 0 -0.37669606201677502 -0.29920373422444158 0 -0.37671758341694961 -0.29771744858697219 0 -0.37671758341694961 -0.29771744858697219 0 -0.38607699004493318 -0.28757386461908069 0 -0.38483052758877101 -0.28123782127595193 0 -0.37671758341694961 -0.29771744858697219 0 -0.3770412393053626 -0.27536550612006683 0 -0.37671758341694961 -0.29771744858697219 0 -0.38483052758877101 -0.28123782127595193 0 -0.3770412393053626 -0.27536550612006683 0 -0.37928718982873688 -0.29895646409505849 0 -0.37671758341694961 -0.29771744858697219 0 -0.38467000758835601 -0.29297497791584359 0 -0.37671758341694961 -0.29771744858697219 0 -0.38467000758835601 -0.29297497791584359 0 -0.38607699004493318 -0.28757386461908069 0 -0.39448508010510541 -0.297525044214214 0 -0.37928718982873688 -0.29895646409505849 0 -0.38467000758835601 -0.29297497791584359 0 -0.39448508010510541 -0.297525044214214 0 -0.38467000758835601 -0.29297497791584359 0 -0.39448508010510541 -0.297525044214214 0 -0.38467000758835601 -0.29297497791584359 0 -0.39217701296355612 -0.28987936211692023 0 -0.38467000758835601 -0.29297497791584359 0 -0.38607699004493318 -0.28757386461908069 0 -0.39217701296355612 -0.28987936211692023 0 -0.38607699004493318 -0.28757386461908069 0 -0.39049541959166939 -0.28414526237041138 0 -0.39217701296355612 -0.28987936211692023 0 -0.39049541959166939 -0.28414526237041138 0 -0.39420405367365152 -0.27853706101481662 0 -0.38483052758877101 -0.28123782127595193 0 -0.38607699004493318 -0.28757386461908069 0 -0.39049541959166939 -0.28414526237041138 0 -0.38483052758877101 -0.28123782127595193 0 -0.39597078832761667 -0.28551153658085893 0 -0.40174149504185092 -0.29681366012781812 0 -0.40123596036735593 -0.27818233727432817 0 -0.39049541959166939 -0.28414526237041138 0 -0.39597078832761667 -0.28551153658085893 0 -0.39420405367365152 -0.27853706101481662 0 -0.40174149504185092 -0.29681366012781812 0 -0.40123596036735593 -0.27818233727432817 0 -0.40174149504185092 -0.29681366012781812 0 -0.40322207619149192 -0.29288764445213411 0 -0.40123596036735593 -0.27818233727432817 0 -0.39049541959166939 -0.28414526237041138 0 -0.39597078832761667 -0.28551153658085893 0 -0.39217701296355612 -0.28987936211692023 0 -0.39597078832761667 -0.28551153658085893 0 -0.39217701296355612 -0.28987936211692023 0 -0.40174149504185092 -0.29681366012781812 0 -0.39448508010510541 -0.297525044214214 0 -0.39217701296355612 -0.28987936211692023 0 -0.40174149504185092 -0.29681366012781812 0 -0.40690107601488551 -0.28490397733270861 0 -0.40322207619149192 -0.29288764445213411 0 -0.40618483967714292 -0.29638963380315841 0 -0.40174149504185092 -0.29681366012781812 0 -0.40322207619149192 -0.29288764445213411 0 -0.40618483967714292 -0.29638963380315841 0 -0.40174149504185092 -0.29681366012781812 0 -0.40618483967714292 -0.29638963380315841 0 -0.40322207619149192 -0.29288764445213411 0 -0.40618483967714292 -0.29638963380315841 0 -0.40690107601488551 -0.28490397733270861 0 -0.40322207619149192 -0.29288764445213411 0 -0.40123596036735593 -0.27818233727432817 0 -0.39420405367365152 -0.27853706101481662 0 -0.37710287173325818 -0.2711091198417086 0 -0.40073042569286338 -0.25955101442083811 0 -0.40123596036735593 -0.27818233727432817 0 -0.39420405367365152 -0.27853706101481662 0 -0.40073042569286338 -0.25955101442083811 0 -0.40123596036735593 -0.27818233727432817 0 -0.40073042569286338 -0.25955101442083811 0 -0.40123596036735593 -0.27818233727432817 0 -0.40073042569286338 -0.25955101442083811 0 -0.41341650638623911 -0.27076301679274262 0 -0.39597078832761667 -0.28551153658085893 0 -0.40123596036735593 -0.27818233727432817 0 -0.39420405367365152 -0.27853706101481662 0 -0.39420405367365152 -0.27853706101481662 0 -0.37710287173325818 -0.2711091198417086 0 -0.3770412393053626 -0.27536550612006683 0 -0.39420405367365152 -0.27853706101481662 0 -0.3770412393053626 -0.27536550612006683 0 -0.39420405367365152 -0.27853706101481662 0 -0.38483052758877101 -0.28123782127595193 0 -0.3770412393053626 -0.27536550612006683 0 -0.37710287173325818 -0.2711091198417086 0 -0.3770412393053626 -0.27536550612006683 0 -0.37710287173325818 -0.2711091198417086 0 -0.38543722149146659 -0.25821727905458303 0 -0.40073042569286338 -0.25955101442083811 0 -0.37710287173325818 -0.2711091198417086 0 -0.37747963509906429 -0.24508953120583671 0 -0.37710287173325818 -0.2711091198417086 0 -0.40073042569286338 -0.25955101442083811 0 -0.37710287173325818 -0.2711091198417086 0 -0.38543722149146659 -0.25821727905458303 0 -0.37747963509906429 -0.24508953120583671 0 -0.38543722149146659 -0.25821727905458303 0 -0.3938256931015453 -0.25037754026629511 0 -0.37747963509906429 -0.24508953120583671 0 -0.38543722149146659 -0.25821727905458303 0 -0.3938256931015453 -0.25037754026629511 0 -0.40073042569286338 -0.25955101442083811 0 -0.40073042569286338 -0.25955101442083811 0 -0.40282532782868952 -0.25224285689579767 0 -0.40022281387448849 -0.24084313907701979 0 -0.40073042569286338 -0.25955101442083811 0 -0.40022281387448849 -0.24084313907701979 0 -0.3938256931015453 -0.25037754026629511 0 -0.40073042569286338 -0.25955101442083811 0 -0.40022281387448849 -0.24084313907701979 0 -0.40073042569286338 -0.25955101442083811 0 -0.40282532782868952 -0.25224285689579767 0 -0.41385673751816382 -0.25312989710486528 0 -0.40073042569286338 -0.25955101442083811 0 -0.41385673751816382 -0.25312989710486528 0 -0.40073042569286338 -0.25955101442083811 0 -0.41385673751816382 -0.25312989710486528 0 -0.41341650638623911 -0.27076301679274262 0 -0.41385673751816382 -0.25312989710486528 0 -0.41341650638623911 -0.27076301679274262 0 -0.42312684460972783 -0.26331748455384929 0 -0.41385673751816382 -0.25312989710486528 0 -0.41679144862722167 -0.25169429778568547 0 -0.43445882011373449 -0.25478651907497341 0 -0.40282532782868952 -0.25224285689579767 0 -0.41385673751816382 -0.25312989710486528 0 -0.4086566941719203 -0.24778871483445111 0 -0.40282532782868952 -0.25224285689579767 0 -0.41385673751816382 -0.25312989710486528 0 -0.41385673751816382 -0.25312989710486528 0 -0.41679144862722167 -0.25169429778568547 0 -0.41627810448972868 -0.24641300060905449 0 -0.41385673751816382 -0.25312989710486528 0 -0.41679144862722167 -0.25169429778568547 0 -0.41684225135067149 -0.28376244362903152 0 -0.41341650638623911 -0.27076301679274262 0 -0.43077531442077321 -0.27459050524281542 0 -0.40690107601488551 -0.28490397733270861 0 -0.40123596036735593 -0.27818233727432817 0 -0.41341650638623911 -0.27076301679274262 0 -0.41684225135067149 -0.28376244362903152 0 -0.40690107601488551 -0.28490397733270861 0 -0.41341650638623911 -0.27076301679274262 0 -0.41341650638623911 -0.27076301679274262 0 -0.43077531442077321 -0.27459050524281542 0 -0.42312684460972783 -0.26331748455384929 0 -0.43077531442077321 -0.27459050524281542 0 -0.42312684460972783 -0.26331748455384929 0 -0.43445882011373449 -0.25478651907497341 0 -0.41385673751816382 -0.25312989710486528 0 -0.43445882011373449 -0.25478651907497341 0 -0.43077531442077321 -0.27459050524281542 0 -0.43445882011373449 -0.25478651907497341 0 -0.41385673751816382 -0.25312989710486528 0 -0.42312684460972783 -0.26331748455384929 0 -0.43445882011373449 -0.25478651907497341 0 -0.41679144862722167 -0.25169429778568547 0 -0.43445882011373449 -0.25478651907497341 0 -0.42335340856967768 -0.24893549408922019 0 -0.32580796388430833 -0.26195871891040218 0 -0.34139866608006603 -0.2687790352098644 0 -0.31202674084989918 -0.26335133138269068 0 -0.32580796388430833 -0.26195871891040218 0 -0.33345250408021371 -0.25331871279766999 0 -0.32023222063025569 -0.2489608815952247 0 -0.32580796388430833 -0.26195871891040218 0 -0.31664960680882542 -0.25714232151458272 0 -0.32023222063025569 -0.2489608815952247 0 -0.31664960680882542 -0.25714232151458272 0 -0.30853150187083839 -0.25429835417001312 0 -0.32023222063025569 -0.2489608815952247 0 -0.32580796388430833 -0.26195871891040218 0 -0.31664960680882542 -0.25714232151458272 0 -0.31202674084989918 -0.26335133138269068 0 -0.33223611708196649 -0.27626932861073827 0 -0.31972670239926188 -0.28454160199560091 0 -0.31187737399160442 -0.27618124236115132 0 -0.34139866608006603 -0.2687790352098644 0 -0.31202674084989918 -0.26335133138269068 0 -0.33223611708196649 -0.27626932861073827 0 -0.31202674084989918 -0.26335133138269068 0 -0.3062135479255173 -0.26372173898871692 0 -0.33223611708196649 -0.27626932861073827 0 -0.31187737399160442 -0.27618124236115132 0 -0.3062135479255173 -0.26372173898871692 0 -0.33260241140844943 -0.2743168067351805 0 -0.33223611708196649 -0.27626932861073827 0 -0.31202674084989918 -0.26335133138269068 0 -0.33223611708196649 -0.27626932861073827 0 -0.3062135479255173 -0.26372173898871692 0 -0.33260241140844943 -0.2743168067351805 0 -0.34139866608006603 -0.2687790352098644 0 -0.31202674084989918 -0.26335133138269068 0 -0.33223611708196649 -0.27626932861073827 0 -0.34139866608006603 -0.2687790352098644 0 -0.34951875912658742 -0.28460269103381453 0 -0.33223611708196649 -0.27626932861073827 0 -0.34951875912658742 -0.28460269103381453 0 -0.33260241140844943 -0.2743168067351805 0 -0.33223611708196649 -0.27626932861073827 0 -0.34139866608006603 -0.2687790352098644 0 -0.33260241140844943 -0.2743168067351805 0 -0.33223611708196649 -0.27626932861073827 0 -0.34139866608006603 -0.2687790352098644 0 -0.3363084638556994 -0.26041051377605268 0 -0.34457472137820933 -0.25758558818627408 0 -0.32580796388430833 -0.26195871891040218 0 -0.34139866608006603 -0.2687790352098644 0 -0.3363084638556994 -0.26041051377605268 0 -0.32580796388430833 -0.26195871891040218 0 -0.3363084638556994 -0.26041051377605268 0 -0.33345250408021371 -0.25331871279766999 0 -0.3363084638556994 -0.26041051377605268 0 -0.33345250408021371 -0.25331871279766999 0 -0.34457472137820933 -0.25758558818627408 0 -0.33345250408021371 -0.25331871279766999 0 -0.34457472137820933 -0.25758558818627408 0 -0.34395992200845399 -0.24382677409400949 0 -0.34139866608006603 -0.2687790352098644 0 -0.34457472137820933 -0.25758558818627408 0 -0.35733732661955131 -0.26288598862094092 0 -0.34457472137820933 -0.25758558818627408 0 -0.35872453044413888 -0.25078889886649508 0 -0.34395992200845399 -0.24382677409400949 0 -0.34457472137820933 -0.25758558818627408 0 -0.35733732661955131 -0.26288598862094092 0 -0.35872453044413888 -0.25078889886649508 0 -0.37710287173325818 -0.2711091198417086 0 -0.36828299104124951 -0.26081605551440462 0 -0.37747963509906429 -0.24508953120583671 0 -0.35872453044413888 -0.25078889886649508 0 -0.36828299104124951 -0.26081605551440462 0 -0.37747963509906429 -0.24508953120583671 0 -0.35733732661955131 -0.26288598862094092 0 -0.35872453044413888 -0.25078889886649508 0 -0.36828299104124951 -0.26081605551440462 0 -0.37077059131023282 -0.27420673903703829 0 -0.34951875912658742 -0.28460269103381453 0 -0.37710287173325818 -0.2711091198417086 0 -0.3770412393053626 -0.27536550612006683 0 -0.37077059131023282 -0.27420673903703829 0 -0.3770412393053626 -0.27536550612006683 0 -0.37077059131023282 -0.27420673903703829 0 -0.37710287173325818 -0.2711091198417086 0 -0.36828299104124951 -0.26081605551440462 0 -0.37077059131023282 -0.27420673903703829 0 -0.37710287173325818 -0.2711091198417086 0 -0.37077059131023282 -0.27420673903703829 0 -0.35733732661955131 -0.26288598862094092 0 -0.36828299104124951 -0.26081605551440462 0 -0.37077059131023282 -0.27420673903703829 0 -0.34139866608006603 -0.2687790352098644 0 -0.35733732661955131 -0.26288598862094092 0 -0.37077059131023282 -0.27420673903703829 0 -0.34139866608006603 -0.2687790352098644 0 -0.37077059131023282 -0.27420673903703829 0 -0.34951875912658742 -0.28460269103381453 0 -0.34139866608006603 -0.2687790352098644 0 -0.37077059131023282 -0.27420673903703829 0 -0.34951875912658742 -0.28460269103381453 0 -0.3581763596052473 -0.30097106086504849 0 -0.34010739644885768 -0.2892065328944351 0 -0.34951875912658742 -0.28460269103381453 0 -0.34010739644885768 -0.2892065328944351 0 -0.37671758341694961 -0.29771744858697219 0 -0.37077059131023282 -0.27420673903703829 0 -0.34951875912658742 -0.28460269103381453 0 -0.37671758341694961 -0.29771744858697219 0 -0.34951875912658742 -0.28460269103381453 0 -0.37671758341694961 -0.29771744858697219 0 -0.3770412393053626 -0.27536550612006683 0 -0.37077059131023282 -0.27420673903703829 0 -0.37671758341694961 -0.29771744858697219 0 -0.34951875912658742 -0.28460269103381453 0 -0.3581763596052473 -0.30097106086504849 0 -0.37669606201677502 -0.29920373422444158 0 -0.37671758341694961 -0.29771744858697219 0 -0.3581763596052473 -0.30097106086504849 0 -0.37641717267996733 -0.3184640617331177 0 -0.37669606201677502 -0.29920373422444158 0 -0.36799370156123501 -0.30592930732763762 0 -0.37641717267996733 -0.3184640617331177 0 -0.36799370156123501 -0.30592930732763762 0 -0.35803691493684492 -0.31060122461938489 0 -0.37669606201677502 -0.29920373422444158 0 -0.36799370156123501 -0.30592930732763762 0 -0.3581763596052473 -0.30097106086504849 0 -0.37669606201677502 -0.29920373422444158 0 -0.3581763596052473 -0.30097106086504849 0 -0.36799370156123501 -0.30592930732763762 0 -0.35803691493684492 -0.31060122461938489 0 -0.3581763596052473 -0.30097106086504849 0 -0.35803691493684492 -0.31060122461938489 0 -0.33965665719371979 -0.30273838750565862 0 -0.35803691493684492 -0.31060122461938489 0 -0.33965665719371979 -0.30273838750565862 0 -0.34514704515453298 -0.31300544250539297 0 -0.3581763596052473 -0.30097106086504849 0 -0.33965665719371979 -0.30273838750565862 0 -0.34010739644885768 -0.2892065328944351 0 -0.35803691493684492 -0.31060122461938489 0 -0.3581763596052473 -0.30097106086504849 0 -0.33965665719371979 -0.30273838750565862 0 -0.3581763596052473 -0.30097106086504849 0 -0.33965665719371979 -0.30273838750565862 0 -0.33676996251121621 -0.31158184422573892 0 -0.33965665719371979 -0.30273838750565862 0 -0.34514704515453298 -0.31300544250539297 0 -0.33676996251121621 -0.31158184422573892 0 -0.33965665719371979 -0.30273838750565862 0 -0.32704471803945162 -0.30394193902942662 0 -0.33676996251121621 -0.31158184422573892 0 -0.32594772137393307 -0.30978944971135602 0 -0.32704471803945162 -0.30394193902942662 0 -0.33965665719371979 -0.30273838750565862 0 -0.32704471803945162 -0.30394193902942662 0 -0.32819068517220462 -0.29783339261299951 0 -0.33965665719371979 -0.30273838750565862 0 -0.32704471803945162 -0.30394193902942662 0 -0.32819068517220462 -0.29783339261299951 0 -0.33965665719371979 -0.30273838750565862 0 -0.33223611708196649 -0.27626932861073827 0 -0.32819068517220462 -0.29783339261299951 0 -0.33223611708196649 -0.27626932861073827 0 -0.32819068517220462 -0.29783339261299951 0 -0.34010739644885768 -0.2892065328944351 0 -0.33223611708196649 -0.27626932861073827 0 -0.34951875912658742 -0.28460269103381453 0 -0.34010739644885768 -0.2892065328944351 0 -0.32819068517220462 -0.29783339261299951 0 -0.33965665719371979 -0.30273838750565862 0 -0.34010739644885768 -0.2892065328944351 0 -0.32819068517220462 -0.29783339261299951 0 -0.31972670239926188 -0.28454160199560091 0 -0.31332574866090718 -0.291474364566292 0 -0.32819068517220462 -0.29783339261299951 0 -0.31332574866090718 -0.291474364566292 0 -0.33223611708196649 -0.27626932861073827 0 -0.32819068517220462 -0.29783339261299951 0 -0.31972670239926188 -0.28454160199560091 0 -0.31972670239926188 -0.28454160199560091 0 -0.31332574866090718 -0.291474364566292 0 -0.30937392239009109 -0.28339120160471948 0 -0.31972670239926188 -0.28454160199560091 0 -0.30937392239009109 -0.28339120160471948 0 -0.31187737399160442 -0.27618124236115132 0 -0.31992409361072222 -0.30462145692723192 0 -0.32594772137393307 -0.30978944971135602 0 -0.31307430431717392 -0.31869978567557272 0 -0.31992409361072222 -0.30462145692723192 0 -0.32594772137393307 -0.30978944971135602 0 -0.32594772137393307 -0.30978944971135602 0 -0.32704471803945162 -0.30394193902942662 0 -0.31992409361072222 -0.30462145692723192 0 -0.32594772137393307 -0.30978944971135602 0 -0.32704471803945162 -0.30394193902942662 0 -0.32819068517220462 -0.29783339261299951 0 -0.31332574866090718 -0.291474364566292 0 -0.31992409361072222 -0.30462145692723192 0 -0.32819068517220462 -0.29783339261299951 0 -0.32704471803945162 -0.30394193902942662 0 -0.32819068517220462 -0.29783339261299951 0 -0.31992409361072222 -0.30462145692723192 0 -0.32704471803945162 -0.30394193902942662 0 -0.31992409361072222 -0.30462145692723192 0 -0.32704471803945162 -0.30394193902942662 0 -0.32594772137393307 -0.30978944971135602 0 -0.31307430431717392 -0.31869978567557272 0 -0.32184288384298337 -0.33167017375041419 0 -0.32594772137393307 -0.30978944971135602 0 -0.32184288384298337 -0.33167017375041419 0 -0.32184288384298337 -0.33167017375041419 0 -0.31773804631203251 -0.35355089778947202 0 -0.32184288384298337 -0.33167017375041419 0 -0.34475024534571441 -0.34586667392980902 0 -0.31773804631203251 -0.35355089778947202 0 -0.32184288384298337 -0.33167017375041419 0 -0.34612464597635118 -0.32710031367078812 0 -0.34475024534571441 -0.34586667392980902 0 -0.33676996251121621 -0.31158184422573892 0 -0.32594772137393307 -0.30978944971135602 0 -0.34612464597635118 -0.32710031367078812 0 -0.32594772137393307 -0.30978944971135602 0 -0.34612464597635118 -0.32710031367078812 0 -0.32594772137393307 -0.30978944971135602 0 -0.32184288384298337 -0.33167017375041419 0 -0.34612464597635118 -0.32710031367078812 0 -0.33676996251121621 -0.31158184422573892 0 -0.34514704515453298 -0.31300544250539297 0 -0.34612464597635118 -0.32710031367078812 0 -0.35803691493684492 -0.31060122461938489 0 -0.34514704515453298 -0.31300544250539297 0 -0.34612464597635118 -0.32710031367078812 0 -0.35803691493684492 -0.31060122461938489 0 -0.34612464597635118 -0.32710031367078812 0 -0.35600230731325749 -0.33324145173106873 0 -0.37641717267996733 -0.3184640617331177 0 -0.35803691493684492 -0.31060122461938489 0 -0.37641717267996733 -0.3184640617331177 0 -0.35803691493684492 -0.31060122461938489 0 -0.36719759625642318 -0.33008752154143739 0 -0.35803691493684492 -0.31060122461938489 0 -0.36719759625642318 -0.33008752154143739 0 -0.35600230731325749 -0.33324145173106873 0 -0.37607676276689278 -0.3419730509543204 0 -0.37641717267996733 -0.3184640617331177 0 -0.36719759625642318 -0.33008752154143739 0 -0.37607676276689278 -0.3419730509543204 0 -0.3688763256213185 -0.34309961767568647 0 -0.36719759625642318 -0.33008752154143739 0 -0.36719759625642318 -0.33008752154143739 0 -0.36118874601324108 -0.3436521492952741 0 -0.35600230731325749 -0.33324145173106873 0 -0.3688763256213185 -0.34309961767568647 0 -0.36719759625642318 -0.33008752154143739 0 -0.36118874601324108 -0.3436521492952741 0 -0.34612464597635118 -0.32710031367078812 0 -0.35600230731325749 -0.33324145173106873 0 -0.34475024534571441 -0.34586667392980902 0 -0.36118874601324108 -0.3436521492952741 0 -0.35600230731325749 -0.33324145173106873 0 -0.34475024534571441 -0.34586667392980902 0 -0.36118874601324108 -0.3436521492952741 0 -0.34475024534571441 -0.34586667392980902 0 -0.35925477447714671 -0.35134479444962452 0 -0.34475024534571441 -0.34586667392980902 0 -0.35480891830463612 -0.3592101017575729 0 -0.33937201587241012 -0.36587749477948078 0 -0.34475024534571441 -0.34586667392980902 0 -0.35480891830463612 -0.3592101017575729 0 -0.35925477447714671 -0.35134479444962452 0 -0.36118874601324108 -0.3436521492952741 0 -0.37225797237559449 -0.35115364910559932 0 -0.36118874601324108 -0.3436521492952741 0 -0.35925477447714671 -0.35134479444962452 0 -0.36985982957495511 -0.35171195823109852 0 -0.37568304780698558 -0.36916333065311507 0 -0.37593298752455201 -0.35190228771479481 0 -0.37225797237559449 -0.35115364910559932 0 -0.35480891830463612 -0.3592101017575729 0 -0.35925477447714671 -0.35134479444962452 0 -0.36985982957495511 -0.35171195823109852 0 -0.37607676276689278 -0.3419730509543204 0 -0.3688763256213185 -0.34309961767568647 0 -0.37225797237559449 -0.35115364910559932 0 -0.37607676276689278 -0.3419730509543204 0 -0.37225797237559449 -0.35115364910559932 0 -0.37607676276689278 -0.3419730509543204 0 -0.37390838074359528 -0.35076941925389299 0 -0.37225797237559449 -0.35115364910559932 0 -0.37593298752455201 -0.35190228771479481 0 -0.37390838074359528 -0.35076941925389299 0 -0.37225797237559449 -0.35115364910559932 0 -0.3688763256213185 -0.34309961767568647 0 -0.36118874601324108 -0.3436521492952741 0 -0.37225797237559449 -0.35115364910559932 0 -0.37593298752455201 -0.35190228771479481 0 -0.37390838074359528 -0.35076941925389299 0 -0.36118874601324108 -0.3436521492952741 0 -0.36985982957495511 -0.35171195823109852 0 -0.37225797237559449 -0.35115364910559932 0 -0.37595629511297179 -0.35029264644438168 0 -0.37390838074359528 -0.35076941925389299 0 -0.37390838074359528 -0.35076941925389299 0 -0.37225797237559449 -0.35115364910559932 0 -0.36985982957495511 -0.35171195823109852 0 -0.37225797237559449 -0.35115364910559932 0 -0.37568304780698558 -0.36916333065311507 0 -0.37225797237559449 -0.35115364910559932 0 -0.36100598543278789 -0.37820409176948921 0 -0.35480891830463612 -0.3592101017575729 0 -0.36985982957495511 -0.35171195823109852 0 -0.36100598543278789 -0.37820409176948921 0 -0.36985982957495511 -0.35171195823109852 0 -0.37225797237559449 -0.35115364910559932 0 -0.36100598543278789 -0.37820409176948921 0 -0.37225797237559449 -0.35115364910559932 0 -0.36100598543278789 -0.37820409176948921 0 -0.33937201587241012 -0.36587749477948078 0 -0.36100598543278789 -0.37820409176948921 0 -0.35480891830463612 -0.3592101017575729 0 -0.33937201587241012 -0.36587749477948078 0 -0.36100598543278789 -0.37820409176948921 0 -0.33937201587241012 -0.36587749477948078 0 -0.31773804631203251 -0.35355089778947202 0 -0.33937201587241012 -0.36587749477948078 0 -0.31773804631203251 -0.35355089778947202 0 -0.32803705280137402 -0.37447550275240871 0 -0.34475024534571441 -0.34586667392980902 0 -0.33937201587241012 -0.36587749477948078 0 -0.31773804631203251 -0.35355089778947202 0 -0.31773804631203251 -0.35355089778947202 0 -0.31381007312398762 -0.37448885129246268 0 -0.31773804631203251 -0.35355089778947202 0 -0.31381007312398762 -0.37448885129246268 0 -0.32803705280137402 -0.37447550275240871 0 -0.31381007312398762 -0.37448885129246268 0 -0.29871455833571747 -0.36148408621311728 0 -0.29196992941862432 -0.3825632544476108 0 -0.31773804631203251 -0.35355089778947202 0 -0.31381007312398762 -0.37448885129246268 0 -0.29871455833571747 -0.36148408621311728 0 -0.31773804631203251 -0.35355089778947202 0 -0.29871455833571747 -0.36148408621311728 0 -0.29282778547957722 -0.33935753649529382 0 -0.31773804631203251 -0.35355089778947202 0 -0.29282778547957722 -0.33935753649529382 0 -0.29871455833571747 -0.36148408621311728 0 -0.27675503022224163 -0.36681377825091099 0 -0.29282778547957722 -0.33935753649529382 0 -0.29871455833571747 -0.36148408621311728 0 -0.27675503022224163 -0.36681377825091099 0 -0.29196992941862432 -0.3825632544476108 0 -0.27675503022224163 -0.36681377825091099 0 -0.25757508569408222 -0.36424633604315798 0 -0.26546808025963542 -0.34847395767735678 0 -0.27675503022224163 -0.36681377825091099 0 -0.25757508569408222 -0.36424633604315798 0 -0.25812358553267323 -0.37605355791306738 0 -0.25757508569408222 -0.36424633604315798 0 -0.24839247009954951 -0.37292447016044328 0 -0.24532753696728959 -0.36501789644951049 0 -0.25757508569408222 -0.36424633604315798 0 -0.25812358553267323 -0.37605355791306738 0 -0.24839247009954951 -0.37292447016044328 0 -0.25757508569408222 -0.36424633604315798 0 -0.26546808025963542 -0.34847395767735678 0 -0.24650166737573331 -0.3569693529562265 0 -0.26546808025963542 -0.34847395767735678 0 -0.24650166737573331 -0.3569693529562265 0 -0.24881121389389799 -0.33838995723746451 0 -0.27675503022224163 -0.36681377825091099 0 -0.26546808025963542 -0.34847395767735678 0 -0.29282778547957722 -0.33935753649529382 0 -0.26791752464712137 -0.32516417520111718 0 -0.27544300416693679 -0.31995488319631832 0 -0.29282778547957722 -0.33935753649529382 0 -0.26546808025963542 -0.34847395767735678 0 -0.26791752464712137 -0.32516417520111718 0 -0.29282778547957722 -0.33935753649529382 0 -0.26791752464712137 -0.32516417520111718 0 -0.29282778547957722 -0.33935753649529382 0 -0.26791752464712137 -0.32516417520111718 0 -0.24881121389389799 -0.33838995723746451 0 -0.26546808025963542 -0.34847395767735678 0 -0.26791752464712137 -0.32516417520111718 0 -0.24881121389389799 -0.33838995723746451 0 -0.26791752464712137 -0.32516417520111718 0 -0.24881121389389799 -0.33838995723746451 0 -0.2441082332202735 -0.32380704628422963 0 -0.26791752464712137 -0.32516417520111718 0 -0.2444966906846206 -0.31181945912301329 0 -0.26791752464712137 -0.32516417520111718 0 -0.26963915832665503 -0.30942012505775762 0 -0.2444966906846206 -0.31181945912301329 0 -0.26791752464712137 -0.32516417520111718 0 -0.2441082332202735 -0.32380704628422963 0 -0.2444966906846206 -0.31181945912301329 0 -0.26791752464712137 -0.32516417520111718 0 -0.27544300416693679 -0.31995488319631832 0 -0.26963915832665503 -0.30942012505775762 0 -0.26791752464712137 -0.32516417520111718 0 -0.27544300416693679 -0.31995488319631832 0 -0.27544300416693679 -0.31995488319631832 0 -0.29403167998309421 -0.32125824908992018 0 -0.29478162596868879 -0.30702079099249591 0 -0.27544300416693679 -0.31995488319631832 0 -0.29403167998309421 -0.32125824908992018 0 -0.29282778547957722 -0.33935753649529382 0 -0.31307430431717392 -0.31869978567557272 0 -0.32184288384298337 -0.33167017375041419 0 -0.29282778547957722 -0.33935753649529382 0 -0.32184288384298337 -0.33167017375041419 0 -0.31773804631203251 -0.35355089778947202 0 -0.29282778547957722 -0.33935753649529382 0 -0.31307430431717392 -0.31869978567557272 0 -0.29403167998309421 -0.32125824908992018 0 -0.29282778547957722 -0.33935753649529382 0 -0.31307430431717392 -0.31869978567557272 0 -0.29403167998309421 -0.32125824908992018 0 -0.29478162596868879 -0.30702079099249591 0 -0.31992409361072222 -0.30462145692723192 0 -0.29478162596868879 -0.30702079099249591 0 -0.31992409361072222 -0.30462145692723192 0 -0.31307430431717392 -0.31869978567557272 0 -0.29478162596868879 -0.30702079099249591 0 -0.31992409361072222 -0.30462145692723192 0 -0.30687808727867438 -0.29770175581860719 0 -0.29478162596868879 -0.30702079099249591 0 -0.30687808727867438 -0.29770175581860719 0 -0.29813438661480679 -0.29530641477552327 0 -0.29478162596868879 -0.30702079099249591 0 -0.31992409361072222 -0.30462145692723192 0 -0.2984608121496099 -0.28511533651958437 0 -0.31992409361072222 -0.30462145692723192 0 -0.30687808727867438 -0.29770175581860719 0 -0.2984608121496099 -0.28511533651958437 0 -0.31332574866090718 -0.291474364566292 0 -0.31992409361072222 -0.30462145692723192 0 -0.2984608121496099 -0.28511533651958437 0 -0.31332574866090718 -0.291474364566292 0 -0.30937392239009109 -0.28339120160471948 0 -0.2984608121496099 -0.28511533651958437 0 -0.31332574866090718 -0.291474364566292 0 -0.2984608121496099 -0.28511533651958437 0 -0.30937392239009109 -0.28339120160471948 0 -0.2984608121496099 -0.28511533651958437 0 -0.30347897474907187 -0.279643462580969 0 -0.30687808727867438 -0.29770175581860719 0 -0.29951482580247829 -0.29240083595456018 0 -0.29813438661480679 -0.29530641477552327 0 -0.30687808727867438 -0.29770175581860719 0 -0.2984608121496099 -0.28511533651958437 0 -0.29951482580247829 -0.29240083595456018 0 -0.29951482580247829 -0.29240083595456018 0 -0.29813438661480679 -0.29530641477552327 0 -0.29499124589990039 -0.29073588210889412 0 -0.2984608121496099 -0.28511533651958437 0 -0.29951482580247829 -0.29240083595456018 0 -0.29499124589990039 -0.29073588210889412 0 -0.29499124589990039 -0.29073588210889412 0 -0.29148170063899659 -0.29460773718781319 0 -0.28586576089235322 -0.28577101837165192 0 -0.29813438661480679 -0.29530641477552327 0 -0.29499124589990039 -0.29073588210889412 0 -0.29148170063899659 -0.29460773718781319 0 -0.2984608121496099 -0.28511533651958437 0 -0.29499124589990039 -0.29073588210889412 0 -0.28586576089235322 -0.28577101837165192 0 -0.29148170063899659 -0.29460773718781319 0 -0.28586576089235322 -0.28577101837165192 0 -0.2798353156189245 -0.29508903771003908 0 -0.29148170063899659 -0.29460773718781319 0 -0.29478162596868879 -0.30702079099249591 0 -0.2798353156189245 -0.29508903771003908 0 -0.29478162596868879 -0.30702079099249591 0 -0.26963915832665503 -0.30942012505775762 0 -0.2798353156189245 -0.29508903771003908 0 -0.29478162596868879 -0.30702079099249591 0 -0.26963915832665503 -0.30942012505775762 0 -0.29813438661480679 -0.29530641477552327 0 -0.29148170063899659 -0.29460773718781319 0 -0.29478162596868879 -0.30702079099249591 0 -0.27544300416693679 -0.31995488319631832 0 -0.29478162596868879 -0.30702079099249591 0 -0.26963915832665503 -0.30942012505775762 0 -0.26963915832665503 -0.30942012505775762 0 -0.26057201890547982 -0.29344093798311832 0 -0.2798353156189245 -0.29508903771003908 0 -0.26963915832665503 -0.30942012505775762 0 -0.2444966906846206 -0.31181945912301329 0 -0.26963915832665503 -0.30942012505775762 0 -0.26057201890547982 -0.29344093798311832 0 -0.2444966906846206 -0.31181945912301329 0 -0.26057201890547982 -0.29344093798311832 0 -0.27108878797196961 -0.28331686931735522 0 -0.25298377122075039 -0.27518622721876451 0 -0.26057201890547982 -0.29344093798311832 0 -0.25298377122075039 -0.27518622721876451 0 -0.2435111179254994 -0.29490773243705071 0 -0.26057201890547982 -0.29344093798311832 0 -0.27108878797196961 -0.28331686931735522 0 -0.2798353156189245 -0.29508903771003908 0 -0.28586576089235322 -0.28577101837165192 0 -0.27108878797196961 -0.28331686931735522 0 -0.2798353156189245 -0.29508903771003908 0 -0.27108878797196961 -0.28331686931735522 0 -0.27618707322233982 -0.26709712530320262 0 -0.25298377122075039 -0.27518622721876451 0 -0.28586576089235322 -0.28577101837165192 0 -0.27108878797196961 -0.28331686931735522 0 -0.27618707322233982 -0.26709712530320262 0 -0.27618707322233982 -0.26709712530320262 0 -0.25431856302814809 -0.24833495949118861 0 -0.27618707322233982 -0.26709712530320262 0 -0.25298377122075039 -0.27518622721876451 0 -0.25431856302814809 -0.24833495949118861 0 -0.27618707322233982 -0.26709712530320262 0 -0.27309361240676189 -0.24179026653703889 0 -0.25431856302814809 -0.24833495949118861 0 -0.27618707322233982 -0.26709712530320262 0 -0.2907170577323625 -0.25177677077710309 0 -0.27309361240676189 -0.24179026653703889 0 -0.27618707322233982 -0.26709712530320262 0 -0.2907170577323625 -0.25177677077710309 0 -0.29477899871119112 -0.26293378760569941 0 -0.2984608121496099 -0.28511533651958437 0 -0.28586576089235322 -0.28577101837165192 0 -0.27618707322233982 -0.26709712530320262 0 -0.2984608121496099 -0.28511533651958437 0 -0.27618707322233982 -0.26709712530320262 0 -0.27618707322233982 -0.26709712530320262 0 -0.29477899871119112 -0.26293378760569941 0 -0.29948479845841441 -0.27338487519771032 0 -0.2984608121496099 -0.28511533651958437 0 -0.27618707322233982 -0.26709712530320262 0 -0.29948479845841441 -0.27338487519771032 0 -0.29477899871119112 -0.26293378760569941 0 -0.29948479845841441 -0.27338487519771032 0 -0.30156079933714469 -0.26765617134954151 0 -0.30156079933714469 -0.26765617134954151 0 -0.30403476516136241 -0.27459464834518948 0 -0.30588444940973558 -0.27063474712059482 0 -0.29948479845841441 -0.27338487519771032 0 -0.30156079933714469 -0.26765617134954151 0 -0.30403476516136241 -0.27459464834518948 0 -0.30156079933714469 -0.26765617134954151 0 -0.30588444940973558 -0.27063474712059482 0 -0.3062135479255173 -0.26372173898871692 0 -0.2984608121496099 -0.28511533651958437 0 -0.29948479845841441 -0.27338487519771032 0 -0.30347897474907187 -0.279643462580969 0 -0.29948479845841441 -0.27338487519771032 0 -0.30403476516136241 -0.27459464834518948 0 -0.30347897474907187 -0.279643462580969 0 -0.30937392239009109 -0.28339120160471948 0 -0.30347897474907187 -0.279643462580969 0 -0.31187737399160442 -0.27618124236115132 0 -0.30403476516136241 -0.27459464834518948 0 -0.30347897474907187 -0.279643462580969 0 -0.31187737399160442 -0.27618124236115132 0 -0.30403476516136241 -0.27459464834518948 0 -0.31187737399160442 -0.27618124236115132 0 -0.30588444940973558 -0.27063474712059482 0 -0.31187737399160442 -0.27618124236115132 0 -0.30588444940973558 -0.27063474712059482 0 -0.3062135479255173 -0.26372173898871692 0 -0.31664960680882542 -0.25714232151458272 0 -0.31202674084989918 -0.26335133138269068 0 -0.30853150187083839 -0.25429835417001312 0 -0.2907170577323625 -0.25177677077710309 0 -0.29477899871119112 -0.26293378760569941 0 -0.30853150187083839 -0.25429835417001312 0 -0.31202674084989918 -0.26335133138269068 0 -0.3062135479255173 -0.26372173898871692 0 -0.30853150187083839 -0.25429835417001312 0 -0.29477899871119112 -0.26293378760569941 0 -0.30156079933714469 -0.26765617134954151 0 -0.3062135479255173 -0.26372173898871692 0 -0.29477899871119112 -0.26293378760569941 0 -0.3062135479255173 -0.26372173898871692 0 -0.30853150187083839 -0.25429835417001312 0 -0.33709504481289931 -0.46474263175187808 0 -0.33075086723682939 -0.45093918684289991 0 -0.35302422329502631 -0.44785824460859458 0 -0.33709504481289931 -0.46474263175187808 0 -0.33075086723682939 -0.45093918684289991 0 -0.32054712240525829 -0.47546959342145068 0 -0.33075086723682939 -0.45093918684289991 0 -0.34095461206840061 -0.42640878026434909 0 -0.33075086723682939 -0.45093918684289991 0 -0.35302422329502631 -0.44785824460859458 0 -0.34095461206840061 -0.42640878026434909 0 -0.33075086723682939 -0.45093918684289991 0 -0.32054706720266329 -0.44859283512714471 0 -0.3206124180200437 -0.43193612962395289 0 -0.33075086723682939 -0.45093918684289991 0 -0.32054706720266329 -0.44859283512714471 0 -0.31571728338184601 -0.45752087103574601 0 -0.32054706720266329 -0.44859283512714471 0 -0.31571728338184601 -0.45752087103574601 0 -0.30706080135445341 -0.45057148265483188 0 -0.33075086723682939 -0.45093918684289991 0 -0.32054712240525829 -0.47546959342145068 0 -0.33075086723682939 -0.45093918684289991 0 -0.31571728338184601 -0.45752087103574601 0 -0.32054712240525829 -0.47546959342145068 0 -0.32054712240525829 -0.47546959342145068 0 -0.32750579650535672 -0.48798687004089669 0 -0.32933965142182292 -0.47777380670114528 0 -0.32054712240525829 -0.47546959342145068 0 -0.31034337757368669 -0.50000000000000133 0 -0.32750579650535672 -0.48798687004089669 0 -0.33387795429423722 -0.5 0 -0.31034337757368669 -0.50000000000000133 0 -0.32054712240525829 -0.47546959342145068 0 -0.32750579650535672 -0.48798687004089669 0 -0.31034337757368669 -0.50000000000000133 0 -0.32750579650535672 -0.48798687004089669 0 -0.34342087683177741 -0.48669095008188618 0 -0.33387795429423722 -0.5 0 -0.33709504481289931 -0.46474263175187808 0 -0.32933965142182292 -0.47777380670114528 0 -0.35181335970555933 -0.47167232718529989 0 -0.34342087683177741 -0.48669095008188618 0 -0.32933965142182292 -0.47777380670114528 0 -0.35181335970555933 -0.47167232718529989 0 -0.32750579650535672 -0.48798687004089669 0 -0.34342087683177741 -0.48669095008188618 0 -0.32933965142182292 -0.47777380670114528 0 -0.33709504481289931 -0.46474263175187808 0 -0.32054712240525829 -0.47546959342145068 0 -0.32933965142182292 -0.47777380670114528 0 -0.32933965142182292 -0.47777380670114528 0 -0.35181335970555933 -0.47167232718529989 0 -0.34342087683177741 -0.48669095008188618 0 -0.35181335970555933 -0.47167232718529989 0 -0.35979455825166368 -0.48519290092039941 0 -0.34342087683177741 -0.48669095008188618 0 -0.35741253101478748 -0.5 0 -0.35979455825166368 -0.48519290092039941 0 -0.34342087683177741 -0.48669095008188618 0 -0.33387795429423722 -0.5 0 -0.35741253101478748 -0.5 0 -0.38094710773533791 -0.49999999999999839 0 -0.35741253101478748 -0.5 0 -0.37240076261097882 -0.48974555046165519 0 -0.35741253101478748 -0.5 0 -0.35979455825166368 -0.48519290092039941 0 -0.37240076261097882 -0.48974555046165519 0 -0.35181335970555933 -0.47167232718529989 0 -0.35979455825166368 -0.48519290092039941 0 -0.37411677223754131 -0.47733161267270968 0 -0.35181335970555933 -0.47167232718529989 0 -0.37411677223754131 -0.47733161267270968 0 -0.37428706798929601 -0.46557084766945539 0 -0.35979455825166368 -0.48519290092039941 0 -0.37240076261097882 -0.48974555046165519 0 -0.37411677223754131 -0.47733161267270968 0 -0.37411677223754131 -0.47733161267270968 0 -0.37428706798929601 -0.46557084766945539 0 -0.35181335970555933 -0.47167232718529989 0 -0.37428706798929601 -0.46557084766945539 0 -0.35302422329502631 -0.44785824460859458 0 -0.35181335970555933 -0.47167232718529989 0 -0.37428706798929601 -0.46557084766945539 0 -0.33709504481289931 -0.46474263175187808 0 -0.35181335970555933 -0.47167232718529989 0 -0.35302422329502631 -0.44785824460859458 0 -0.37428706798929601 -0.46557084766945539 0 -0.35302422329502631 -0.44785824460859458 0 -0.37472313619600889 -0.43545561783144832 0 -0.37428706798929601 -0.46557084766945539 0 -0.37472313619600889 -0.43545561783144832 0 -0.35302422329502631 -0.44785824460859458 0 -0.37472313619600889 -0.43545561783144832 0 -0.36076670325611282 -0.42019275678090617 0 -0.37515920440272033 -0.40534038799344108 0 -0.37472313619600889 -0.43545561783144832 0 -0.36076670325611282 -0.42019275678090617 0 -0.37515920440272033 -0.40534038799344108 0 -0.36076670325611282 -0.42019275678090617 0 -0.35115835689997099 -0.40187837368579798 0 -0.37515920440272033 -0.40534038799344108 0 -0.37472313619600889 -0.43545561783144832 0 -0.36076670325611282 -0.42019275678090617 0 -0.35115835689997099 -0.40187837368579798 0 -0.34095461206840061 -0.42640878026434909 0 -0.34815033243380111 -0.40144447968524521 0 -0.35115835689997099 -0.40187837368579798 0 -0.34095461206840061 -0.42640878026434909 0 -0.35115835689997099 -0.40187837368579798 0 -0.34095461206840061 -0.42640878026434909 0 -0.35302422329502631 -0.44785824460859458 0 -0.36076670325611282 -0.42019275678090617 0 -0.34095461206840061 -0.42640878026434909 0 -0.37543310808941849 -0.38642437359143528 0 -0.36100598543278789 -0.37820409176948921 0 -0.35115835689997099 -0.40187837368579798 0 -0.37543310808941849 -0.38642437359143528 0 -0.37568304780698558 -0.36916333065311507 0 -0.36100598543278789 -0.37820409176948921 0 -0.37543310808941849 -0.38642437359143528 0 -0.36100598543278789 -0.37820409176948921 0 -0.37515920440272033 -0.40534038799344108 0 -0.37543310808941849 -0.38642437359143528 0 -0.35115835689997099 -0.40187837368579798 0 -0.37515920440272033 -0.40534038799344108 0 -0.35115835689997099 -0.40187837368579798 0 -0.35115835689997099 -0.40187837368579798 0 -0.34646966066369161 -0.38533898881774881 0 -0.34316085436749 -0.39382471367395527 0 -0.34815033243380111 -0.40144447968524521 0 -0.35115835689997099 -0.40187837368579798 0 -0.34316085436749 -0.39382471367395527 0 -0.34815033243380111 -0.40144447968524521 0 -0.35115835689997099 -0.40187837368579798 0 -0.33937201587241012 -0.36587749477948078 0 -0.36100598543278789 -0.37820409176948921 0 -0.34646966066369161 -0.38533898881774881 0 -0.36100598543278789 -0.37820409176948921 0 -0.35115835689997099 -0.40187837368579798 0 -0.36100598543278789 -0.37820409176948921 0 -0.35115835689997099 -0.40187837368579798 0 -0.34646966066369161 -0.38533898881774881 0 -0.33937201587241012 -0.36587749477948078 0 -0.32803705280137402 -0.37447550275240871 0 -0.34646966066369161 -0.38533898881774881 0 -0.32803705280137402 -0.37447550275240871 0 -0.34646966066369161 -0.38533898881774881 0 -0.32931529664348408 -0.38869437358142001 0 -0.34646966066369161 -0.38533898881774881 0 -0.32931529664348408 -0.38869437358142001 0 -0.34316085436749 -0.39382471367395527 0 -0.34815033243380111 -0.40144447968524521 0 -0.33486919938690762 -0.39884665705885908 0 -0.32944617452305069 -0.41182817437998842 0 -0.32931529664348408 -0.38869437358142001 0 -0.34316085436749 -0.39382471367395527 0 -0.33486919938690762 -0.39884665705885908 0 -0.32931529664348408 -0.38869437358142001 0 -0.33486919938690762 -0.39884665705885908 0 -0.32365381597648563 -0.39942827076698811 0 -0.34815033243380111 -0.40144447968524521 0 -0.34316085436749 -0.39382471367395527 0 -0.33486919938690762 -0.39884665705885908 0 -0.33486919938690762 -0.39884665705885908 0 -0.32365381597648563 -0.39942827076698811 0 -0.32944617452305069 -0.41182817437998842 0 -0.32931529664348408 -0.38869437358142001 0 -0.32365381597648563 -0.39942827076698811 0 -0.30988209993594379 -0.39542680479545339 0 -0.32365381597648563 -0.39942827076698811 0 -0.30595412674790001 -0.41636475829844438 0 -0.30988209993594379 -0.39542680479545339 0 -0.31381007312398762 -0.37448885129246268 0 -0.32931529664348408 -0.38869437358142001 0 -0.30988209993594379 -0.39542680479545339 0 -0.31381007312398762 -0.37448885129246268 0 -0.32803705280137402 -0.37447550275240871 0 -0.32931529664348408 -0.38869437358142001 0 -0.34095461206840061 -0.42640878026434909 0 -0.32944617452305069 -0.41182817437998842 0 -0.3206124180200437 -0.43193612962395289 0 -0.33075086723682939 -0.45093918684289991 0 -0.34095461206840061 -0.42640878026434909 0 -0.3206124180200437 -0.43193612962395289 0 -0.34815033243380111 -0.40144447968524521 0 -0.34095461206840061 -0.42640878026434909 0 -0.32944617452305069 -0.41182817437998842 0 -0.32944617452305069 -0.41182817437998842 0 -0.3206124180200437 -0.43193612962395289 0 -0.30595412674790001 -0.41636475829844438 0 -0.32365381597648563 -0.39942827076698811 0 -0.32944617452305069 -0.41182817437998842 0 -0.30595412674790001 -0.41636475829844438 0 -0.3206124180200437 -0.43193612962395289 0 -0.30595412674790001 -0.41636475829844438 0 -0.29602166034141808 -0.43748304283089118 0 -0.30595412674790001 -0.41636475829844438 0 -0.28680587137917263 -0.41476105187328532 0 -0.29502227998321778 -0.40112933436643161 0 -0.30595412674790001 -0.41636475829844438 0 -0.28680587137917263 -0.41476105187328532 0 -0.29602166034141808 -0.43748304283089118 0 -0.28680587137917263 -0.41476105187328532 0 -0.29602166034141808 -0.43748304283089118 0 -0.27149625348017281 -0.42637325053463759 0 -0.29602166034141808 -0.43748304283089118 0 -0.27149625348017281 -0.42637325053463759 0 -0.29602166034141808 -0.43748304283089118 0 -0.27149625348017281 -0.42637325053463759 0 -0.27906578537949278 -0.44687665772048962 0 -0.31381007312398762 -0.37448885129246268 0 -0.30988209993594379 -0.39542680479545339 0 -0.31381007312398762 -0.37448885129246268 0 -0.30988209993594379 -0.39542680479545339 0 -0.29196992941862432 -0.3825632544476108 0 -0.30595412674790001 -0.41636475829844438 0 -0.30988209993594379 -0.39542680479545339 0 -0.30595412674790001 -0.41636475829844438 0 -0.30988209993594379 -0.39542680479545339 0 -0.29502227998321778 -0.40112933436643161 0 -0.30988209993594379 -0.39542680479545339 0 -0.29502227998321778 -0.40112933436643161 0 -0.29196992941862432 -0.3825632544476108 0 -0.28680587137917263 -0.41476105187328532 0 -0.29502227998321778 -0.40112933436643161 0 -0.2806661672136338 -0.39648987600255969 0 -0.29502227998321778 -0.40112933436643161 0 -0.29196992941862432 -0.3825632544476108 0 -0.2806661672136338 -0.39648987600255969 0 -0.27675503022224163 -0.36681377825091099 0 -0.29196992941862432 -0.3825632544476108 0 -0.26924588117792803 -0.38334910629271668 0 -0.29196992941862432 -0.3825632544476108 0 -0.26924588117792803 -0.38334910629271668 0 -0.2806661672136338 -0.39648987600255969 0 -0.27675503022224163 -0.36681377825091099 0 -0.26924588117792803 -0.38334910629271668 0 -0.25812358553267323 -0.37605355791306738 0 -0.28680587137917263 -0.41476105187328532 0 -0.2806661672136338 -0.39648987600255969 0 -0.26326431180229581 -0.40282557300305732 0 -0.26924588117792803 -0.38334910629271668 0 -0.2806661672136338 -0.39648987600255969 0 -0.26326431180229581 -0.40282557300305732 0 -0.26326431180229581 -0.40282557300305732 0 -0.2504897110532438 -0.38524934403489181 0 -0.24394706363899241 -0.39877073912243299 0 -0.26326431180229581 -0.40282557300305732 0 -0.24697084661892749 -0.41526345823838401 0 -0.24394706363899241 -0.39877073912243299 0 -0.26924588117792803 -0.38334910629271668 0 -0.26326431180229581 -0.40282557300305732 0 -0.2504897110532438 -0.38524934403489181 0 -0.26924588117792803 -0.38334910629271668 0 -0.2504897110532438 -0.38524934403489181 0 -0.25812358553267323 -0.37605355791306738 0 -0.2504897110532438 -0.38524934403489181 0 -0.25812358553267323 -0.37605355791306738 0 -0.24839247009954951 -0.37292447016044328 0 -0.28680587137917263 -0.41476105187328532 0 -0.26326431180229581 -0.40282557300305732 0 -0.27149625348017281 -0.42637325053463759 0 -0.27149625348017281 -0.42637325053463759 0 -0.24697084661892749 -0.41526345823838401 0 -0.26326431180229581 -0.40282557300305732 0 -0.27149625348017281 -0.42637325053463759 0 -0.24697084661892749 -0.41526345823838401 0 -0.27149625348017281 -0.42637325053463759 0 -0.25687425522332558 -0.44642006451091643 0 -0.24697084661892749 -0.41526345823838401 0 -0.25687425522332558 -0.44642006451091643 0 -0.27607931301277078 -0.46657199895299017 0 -0.25409384940020791 -0.47271975939701871 0 -0.25687425522332558 -0.44642006451091643 0 -0.27607931301277078 -0.46657199895299017 0 -0.27906578537949278 -0.44687665772048962 0 -0.27149625348017281 -0.42637325053463759 0 -0.25687425522332558 -0.44642006451091643 0 -0.27906578537949278 -0.44687665772048962 0 -0.29602166034141808 -0.43748304283089118 0 -0.27906578537949278 -0.44687665772048962 0 -0.29968055871002541 -0.46203125713240301 0 -0.27607931301277078 -0.46657199895299017 0 -0.27906578537949278 -0.44687665772048962 0 -0.29968055871002541 -0.46203125713240301 0 -0.31571728338184601 -0.45752087103574601 0 -0.29968055871002541 -0.46203125713240301 0 -0.30706080135445341 -0.45057148265483188 0 -0.31571728338184601 -0.45752087103574601 0 -0.32054712240525829 -0.47546959342145068 0 -0.29968055871002541 -0.46203125713240301 0 -0.32054706720266329 -0.44859283512714471 0 -0.29602166034141808 -0.43748304283089118 0 -0.32054706720266329 -0.44859283512714471 0 -0.3206124180200437 -0.43193612962395289 0 -0.29602166034141808 -0.43748304283089118 0 -0.32054706720266329 -0.44859283512714471 0 -0.29602166034141808 -0.43748304283089118 0 -0.30706080135445341 -0.45057148265483188 0 -0.29602166034141808 -0.43748304283089118 0 -0.29968055871002541 -0.46203125713240301 0 -0.30706080135445341 -0.45057148265483188 0 -0.32054712240525829 -0.47546959342145068 0 -0.31034337757368669 -0.50000000000000133 0 -0.2941570887960146 -0.48201569375099518 0 -0.32054712240525829 -0.47546959342145068 0 -0.29968055871002541 -0.46203125713240301 0 -0.2941570887960146 -0.48201569375099518 0 -0.27607931301277078 -0.46657199895299017 0 -0.29968055871002541 -0.46203125713240301 0 -0.2941570887960146 -0.48201569375099518 0 -0.2941570887960146 -0.48201569375099518 0 -0.28248249767631262 -0.5 0 -0.27039562620846602 -0.48462576079096858 0 -0.31034337757368669 -0.50000000000000133 0 -0.2941570887960146 -0.48201569375099518 0 -0.28248249767631262 -0.5 0 -0.28248249767631262 -0.5 0 -0.27039562620846602 -0.48462576079096858 0 -0.25462161777893849 -0.5 0 -0.27607931301277078 -0.46657199895299017 0 -0.2941570887960146 -0.48201569375099518 0 -0.27039562620846602 -0.48462576079096858 0 -0.27607931301277078 -0.46657199895299017 0 -0.27039562620846602 -0.48462576079096858 0 -0.25409384940020791 -0.47271975939701871 0 -0.27039562620846602 -0.48462576079096858 0 -0.25409384940020791 -0.47271975939701871 0 -0.25462161777893849 -0.5 0 -0.25462161777893849 -0.5 0 -0.23155232774708009 -0.47932355884050398 0 -0.22676073788156451 -0.5 0 -0.25409384940020791 -0.47271975939701871 0 -0.25462161777893849 -0.5 0 -0.23155232774708009 -0.47932355884050398 0 -0.25409384940020791 -0.47271975939701871 0 -0.23155232774708009 -0.47932355884050398 0 -0.2350399564306665 -0.45937717328673289 0 -0.23155232774708009 -0.47932355884050398 0 -0.2350399564306665 -0.45937717328673289 0 -0.2080224731694312 -0.47403962225972662 0 -0.23155232774708009 -0.47932355884050398 0 -0.22676073788156451 -0.5 0 -0.2080224731694312 -0.47403962225972662 0 -0.25687425522332558 -0.44642006451091643 0 -0.2350399564306665 -0.45937717328673289 0 -0.23180750449586429 -0.4343742486430574 0 -0.25687425522332558 -0.44642006451091643 0 -0.25409384940020791 -0.47271975939701871 0 -0.2350399564306665 -0.45937717328673289 0 -0.2350399564306665 -0.45937717328673289 0 -0.21590660946663959 -0.44883644739355771 0 -0.2080224731694312 -0.47403962225972662 0 -0.2350399564306665 -0.45937717328673289 0 -0.21590660946663959 -0.44883644739355771 0 -0.23180750449586429 -0.4343742486430574 0 -0.21590660946663959 -0.44883644739355771 0 -0.1943898331460783 -0.4473597119794826 0 -0.20910912931781811 -0.42543372189632289 0 -0.21590660946663959 -0.44883644739355771 0 -0.1943898331460783 -0.4473597119794826 0 -0.2080224731694312 -0.47403962225972662 0 -0.1943898331460783 -0.4473597119794826 0 -0.2080224731694312 -0.47403962225972662 0 -0.17967053697433849 -0.46928570206264231 0 -0.22676073788156451 -0.5 0 -0.2080224731694312 -0.47403962225972662 0 -0.19889985798419041 -0.5 0 -0.2080224731694312 -0.47403962225972662 0 -0.1821948971586228 -0.48648437486529872 0 -0.17967053697433849 -0.46928570206264231 0 -0.2080224731694312 -0.47403962225972662 0 -0.19889985798419041 -0.5 0 -0.1821948971586228 -0.48648437486529872 0 -0.19889985798419041 -0.5 0 -0.1821948971586228 -0.48648437486529872 0 -0.17103897808681609 -0.49999999999999778 0 -0.1821948971586228 -0.48648437486529872 0 -0.17103897808681609 -0.49999999999999778 0 -0.16495124080259491 -0.49121169214579941 0 -0.17103897808681609 -0.49999999999999778 0 -0.16495124080259491 -0.49121169214579941 0 -0.17103897808681609 -0.49999999999999778 0 -0.16495124080259491 -0.49121169214579941 0 -0.15905149781887321 -0.49999999999999961 0 -0.16495124080259491 -0.49121169214579941 0 -0.15905149781887321 -0.49999999999999961 0 -0.1545750311736096 -0.49062041690426861 0 -0.16495124080259491 -0.49121169214579941 0 -0.15905149781887321 -0.49999999999999961 0 -0.16495124080259491 -0.49121169214579941 0 -0.16530166315622061 -0.47155300009798301 0 -0.17967053697433849 -0.46928570206264231 0 -0.16495124080259491 -0.49121169214579941 0 -0.16530166315622061 -0.47155300009798301 0 -0.15083103946930049 -0.47082765280793248 0 -0.16495124080259491 -0.49121169214579941 0 -0.1545750311736096 -0.49062041690426861 0 -0.15083103946930049 -0.47082765280793248 0 -0.16495124080259491 -0.49121169214579941 0 -0.15083103946930049 -0.47082765280793248 0 -0.16495124080259491 -0.49121169214579941 0 -0.17967053697433849 -0.46928570206264231 0 -0.1821948971586228 -0.48648437486529872 0 -0.16495124080259491 -0.49121169214579941 0 -0.17967053697433849 -0.46928570206264231 0 -0.1943898331460783 -0.4473597119794826 0 -0.17967053697433849 -0.46928570206264231 0 -0.1943898331460783 -0.4473597119794826 0 -0.17967053697433849 -0.46928570206264231 0 -0.1657538353786501 -0.45488695337555668 0 -0.1943898331460783 -0.4473597119794826 0 -0.1657538353786501 -0.45488695337555668 0 -0.1755027511393909 -0.43471579892562301 0 -0.1657538353786501 -0.45488695337555668 0 -0.15761868306950341 -0.43586407366366631 0 -0.1755027511393909 -0.43471579892562301 0 -0.16530166315622061 -0.47155300009798301 0 -0.1657538353786501 -0.45488695337555668 0 -0.15083103946930049 -0.47082765280793248 0 -0.16530166315622061 -0.47155300009798301 0 -0.17967053697433849 -0.46928570206264231 0 -0.1657538353786501 -0.45488695337555668 0 -0.13671083813600751 -0.45044361347006462 0 -0.15083103946930049 -0.47082765280793248 0 -0.13671083813600751 -0.45044361347006462 0 -0.13441782301728619 -0.47175980973682791 0 -0.15083103946930049 -0.47082765280793248 0 -0.1657538353786501 -0.45488695337555668 0 -0.13671083813600751 -0.45044361347006462 0 -0.15083103946930049 -0.47082765280793248 0 -0.13671083813600751 -0.45044361347006462 0 -0.13816776916695811 -0.432543871779144 0 -0.15761868306950341 -0.43586407366366631 0 -0.1657538353786501 -0.45488695337555668 0 -0.13671083813600751 -0.45044361347006462 0 -0.15761868306950341 -0.43586407366366631 0 -0.13671083813600751 -0.45044361347006462 0 -0.13816776916695811 -0.432543871779144 0 -0.1225906368027144 -0.43005957413219659 0 -0.13671083813600751 -0.45044361347006462 0 -0.1225906368027144 -0.43005957413219659 0 -0.13671083813600751 -0.45044361347006462 0 -0.13441782301728619 -0.47175980973682791 0 -0.1201929706126502 -0.46127799294672761 0 -0.13441782301728619 -0.47175980973682791 0 -0.12605423818426559 -0.48707922202292669 0 -0.14429533434837091 -0.48908967660720287 0 -0.13441782301728619 -0.47175980973682791 0 -0.12605423818426559 -0.48707922202292669 0 -0.1201929706126502 -0.46127799294672761 0 -0.1295391708778694 -0.5 0 -0.12605423818426559 -0.48707922202292669 0 -0.14429533434837091 -0.48908967660720287 0 -0.15905149781887321 -0.49999999999999961 0 -0.1295391708778694 -0.5 0 -0.14429533434837091 -0.48908967660720287 0 -0.15905149781887321 -0.49999999999999961 0 -0.14429533434837091 -0.48908967660720287 0 -0.1545750311736096 -0.49062041690426861 0 -0.14429533434837091 -0.48908967660720287 0 -0.1545750311736096 -0.49062041690426861 0 -0.15083103946930049 -0.47082765280793248 0 -0.13441782301728619 -0.47175980973682791 0 -0.14429533434837091 -0.48908967660720287 0 -0.15083103946930049 -0.47082765280793248 0 -0.15345949684661231 -0.4053237642064671 0 -0.15136585988972451 -0.39002590355483568 0 -0.13982663417143551 -0.39933000433158738 0 -0.15136585988972451 -0.39002590355483568 0 -0.1368738238800834 -0.3880397179408614 0 -0.13982663417143551 -0.39933000433158738 0 -0.15345949684661231 -0.4053237642064671 0 -0.13982663417143551 -0.39933000433158738 0 -0.1398029654186671 -0.41064466143528439 0 -0.15136585988972451 -0.39002590355483568 0 -0.1368738238800834 -0.3880397179408614 0 -0.13959568407155781 -0.37291875636350952 0 -0.15136585988972451 -0.39002590355483568 0 -0.15951650330528561 -0.37856285477961621 0 -0.13959568407155781 -0.37291875636350952 0 -0.1368738238800834 -0.3880397179408614 0 -0.12625141541498519 -0.38197991289387551 0 -0.13959568407155781 -0.37291875636350952 0 -0.1368738238800834 -0.3880397179408614 0 -0.12625141541498519 -0.38197991289387551 0 -0.1273295258527142 -0.39594401256049883 0 -0.1368738238800834 -0.3880397179408614 0 -0.1273295258527142 -0.39594401256049883 0 -0.13982663417143551 -0.39933000433158738 0 -0.13982663417143551 -0.39933000433158738 0 -0.1295768038857959 -0.40463739140698729 0 -0.1398029654186671 -0.41064466143528439 0 -0.1273295258527142 -0.39594401256049883 0 -0.13982663417143551 -0.39933000433158738 0 -0.1295768038857959 -0.40463739140698729 0 -0.1273295258527142 -0.39594401256049883 0 -0.1295768038857959 -0.40463739140698729 0 -0.1219584454402414 -0.40406961642135292 0 -0.1295768038857959 -0.40463739140698729 0 -0.1296119374269841 -0.41417592727859581 0 -0.1225700411049412 -0.40994677461386392 0 -0.1296119374269841 -0.41417592727859581 0 -0.12315425937001 -0.41747458531602638 0 -0.1225700411049412 -0.40994677461386392 0 -0.1296119374269841 -0.41417592727859581 0 -0.13713184062407599 -0.42036644340313623 0 -0.12908399078123631 -0.42243277819987513 0 -0.1296119374269841 -0.41417592727859581 0 -0.12908399078123631 -0.42243277819987513 0 -0.12315425937001 -0.41747458531602638 0 -0.1296119374269841 -0.41417592727859581 0 -0.13713184062407599 -0.42036644340313623 0 -0.1398029654186671 -0.41064466143528439 0 -0.1295768038857959 -0.40463739140698729 0 -0.1296119374269841 -0.41417592727859581 0 -0.1398029654186671 -0.41064466143528439 0 -0.12908399078123631 -0.42243277819987513 0 -0.13816776916695811 -0.432543871779144 0 -0.1225906368027144 -0.43005957413219659 0 -0.13713184062407599 -0.42036644340313623 0 -0.12908399078123631 -0.42243277819987513 0 -0.13816776916695811 -0.432543871779144 0 -0.13816776916695811 -0.432543871779144 0 -0.14921107955709881 -0.42003443798493328 0 -0.15761868306950341 -0.43586407366366631 0 -0.13713184062407599 -0.42036644340313623 0 -0.13816776916695811 -0.432543871779144 0 -0.14921107955709881 -0.42003443798493328 0 -0.15345949684661231 -0.4053237642064671 0 -0.1398029654186671 -0.41064466143528439 0 -0.14921107955709881 -0.42003443798493328 0 -0.13713184062407599 -0.42036644340313623 0 -0.1398029654186671 -0.41064466143528439 0 -0.14921107955709881 -0.42003443798493328 0 -0.15345949684661231 -0.4053237642064671 0 -0.14921107955709881 -0.42003443798493328 0 -0.17009787391258249 -0.41611158199907422 0 -0.14921107955709881 -0.42003443798493328 0 -0.17009787391258249 -0.41611158199907422 0 -0.15761868306950341 -0.43586407366366631 0 -0.17009787391258249 -0.41611158199907422 0 -0.15761868306950341 -0.43586407366366631 0 -0.1755027511393909 -0.43471579892562301 0 -0.1943898331460783 -0.4473597119794826 0 -0.1755027511393909 -0.43471579892562301 0 -0.18951413900105801 -0.42212105940109063 0 -0.17009787391258249 -0.41611158199907422 0 -0.1755027511393909 -0.43471579892562301 0 -0.18951413900105801 -0.42212105940109063 0 -0.17009787391258249 -0.41611158199907422 0 -0.18562609472684241 -0.40161550393767448 0 -0.18951413900105801 -0.42212105940109063 0 -0.18562609472684241 -0.40161550393767448 0 -0.16863204450281991 -0.39380366607865908 0 -0.18254917963999329 -0.38971973427100182 0 -0.17009787391258249 -0.41611158199907422 0 -0.18562609472684241 -0.40161550393767448 0 -0.16863204450281991 -0.39380366607865908 0 -0.18562609472684241 -0.40161550393767448 0 -0.18254917963999329 -0.38971973427100182 0 -0.19364364155811911 -0.391297223908462 0 -0.15345949684661231 -0.4053237642064671 0 -0.17009787391258249 -0.41611158199907422 0 -0.16863204450281991 -0.39380366607865908 0 -0.15345949684661231 -0.4053237642064671 0 -0.15136585988972451 -0.39002590355483568 0 -0.16863204450281991 -0.39380366607865908 0 -0.15951650330528561 -0.37856285477961621 0 -0.17625218554490921 -0.38180729220612769 0 -0.1663610822414904 -0.3702523776444529 0 -0.16863204450281991 -0.39380366607865908 0 -0.15951650330528561 -0.37856285477961621 0 -0.17625218554490921 -0.38180729220612769 0 -0.15136585988972451 -0.39002590355483568 0 -0.16863204450281991 -0.39380366607865908 0 -0.15951650330528561 -0.37856285477961621 0 -0.17625218554490921 -0.38180729220612769 0 -0.1663610822414904 -0.3702523776444529 0 -0.18579747934449059 -0.37379744869579251 0 -0.16863204450281991 -0.39380366607865908 0 -0.17625218554490921 -0.38180729220612769 0 -0.18254917963999329 -0.38971973427100182 0 -0.17625218554490921 -0.38180729220612769 0 -0.18254917963999329 -0.38971973427100182 0 -0.18859193186727599 -0.38007498522408562 0 -0.17625218554490921 -0.38180729220612769 0 -0.18859193186727599 -0.38007498522408562 0 -0.18579747934449059 -0.37379744869579251 0 -0.18859193186727599 -0.38007498522408562 0 -0.2014200033848125 -0.37119512976538899 0 -0.18859193186727599 -0.38007498522408562 0 -0.2014200033848125 -0.37119512976538899 0 -0.18579747934449059 -0.37379744869579251 0 -0.18859193186727599 -0.38007498522408562 0 -0.1989719328316337 -0.38216032023399737 0 -0.2014200033848125 -0.37119512976538899 0 -0.1989719328316337 -0.38216032023399737 0 -0.20694960464083431 -0.38128159833907621 0 -0.2014200033848125 -0.37119512976538899 0 -0.1989719328316337 -0.38216032023399737 0 -0.19364364155811911 -0.391297223908462 0 -0.20620014074293039 -0.39180645285032889 0 -0.18859193186727599 -0.38007498522408562 0 -0.1989719328316337 -0.38216032023399737 0 -0.19364364155811911 -0.391297223908462 0 -0.18254917963999329 -0.38971973427100182 0 -0.18859193186727599 -0.38007498522408562 0 -0.19364364155811911 -0.391297223908462 0 -0.18562609472684241 -0.40161550393767448 0 -0.19364364155811911 -0.391297223908462 0 -0.20208872018367391 -0.4070926974887904 0 -0.19364364155811911 -0.391297223908462 0 -0.20620014074293039 -0.39180645285032889 0 -0.20208872018367391 -0.4070926974887904 0 -0.20620014074293039 -0.39180645285032889 0 -0.21479853281951461 -0.38638530273916921 0 -0.22382842548955789 -0.4035077318131633 0 -0.20620014074293039 -0.39180645285032889 0 -0.20208872018367391 -0.4070926974887904 0 -0.22382842548955789 -0.4035077318131633 0 -0.21479853281951461 -0.38638530273916921 0 -0.20694960464083431 -0.38128159833907621 0 -0.21335741342528061 -0.3748607861064962 0 -0.21479853281951461 -0.38638530273916921 0 -0.22412886374227589 -0.38235217247817599 0 -0.21335741342528061 -0.3748607861064962 0 -0.20694960464083431 -0.38128159833907621 0 -0.2014200033848125 -0.37119512976538899 0 -0.21335741342528061 -0.3748607861064962 0 -0.20620014074293039 -0.39180645285032889 0 -0.21479853281951461 -0.38638530273916921 0 -0.20694960464083431 -0.38128159833907621 0 -0.1989719328316337 -0.38216032023399737 0 -0.20620014074293039 -0.39180645285032889 0 -0.20694960464083431 -0.38128159833907621 0 -0.1943898331460783 -0.4473597119794826 0 -0.20910912931781811 -0.42543372189632289 0 -0.1943898331460783 -0.4473597119794826 0 -0.18951413900105801 -0.42212105940109063 0 -0.20910912931781811 -0.42543372189632289 0 -0.18951413900105801 -0.42212105940109063 0 -0.20208872018367391 -0.4070926974887904 0 -0.20910912931781811 -0.42543372189632289 0 -0.18562609472684241 -0.40161550393767448 0 -0.18951413900105801 -0.42212105940109063 0 -0.20208872018367391 -0.4070926974887904 0 -0.20208872018367391 -0.4070926974887904 0 -0.20910912931781811 -0.42543372189632289 0 -0.22382842548955789 -0.4035077318131633 0 -0.20910912931781811 -0.42543372189632289 0 -0.22382842548955789 -0.4035077318131633 0 -0.21590660946663959 -0.44883644739355771 0 -0.20910912931781811 -0.42543372189632289 0 -0.23180750449586429 -0.4343742486430574 0 -0.20910912931781811 -0.42543372189632289 0 -0.23180750449586429 -0.4343742486430574 0 -0.22382842548955789 -0.4035077318131633 0 -0.23180750449586429 -0.4343742486430574 0 -0.24697084661892749 -0.41526345823838401 0 -0.22382842548955789 -0.4035077318131633 0 -0.25687425522332558 -0.44642006451091643 0 -0.23180750449586429 -0.4343742486430574 0 -0.24697084661892749 -0.41526345823838401 0 -0.22412886374227589 -0.38235217247817599 0 -0.2351820232309369 -0.38700758852266848 0 -0.22952037500089251 -0.37311519752493849 0 -0.22412886374227589 -0.38235217247817599 0 -0.22186900287429051 -0.37074082218821958 0 -0.21335741342528061 -0.3748607861064962 0 -0.22412886374227589 -0.38235217247817599 0 -0.22952037500089251 -0.37311519752493849 0 -0.22186900287429051 -0.37074082218821958 0 -0.22382842548955789 -0.4035077318131633 0 -0.24394706363899241 -0.39877073912243299 0 -0.2351820232309369 -0.38700758852266848 0 -0.21479853281951461 -0.38638530273916921 0 -0.22412886374227589 -0.38235217247817599 0 -0.22382842548955789 -0.4035077318131633 0 -0.22412886374227589 -0.38235217247817599 0 -0.22382842548955789 -0.4035077318131633 0 -0.2351820232309369 -0.38700758852266848 0 -0.24697084661892749 -0.41526345823838401 0 -0.22382842548955789 -0.4035077318131633 0 -0.24394706363899241 -0.39877073912243299 0 -0.2504897110532438 -0.38524934403489181 0 -0.24394706363899241 -0.39877073912243299 0 -0.2351820232309369 -0.38700758852266848 0 -0.2504897110532438 -0.38524934403489181 0 -0.2351820232309369 -0.38700758852266848 0 -0.24036284435674521 -0.37772398595485779 0 -0.2351820232309369 -0.38700758852266848 0 -0.24036284435674521 -0.37772398595485779 0 -0.22952037500089251 -0.37311519752493849 0 -0.2504897110532438 -0.38524934403489181 0 -0.24036284435674521 -0.37772398595485779 0 -0.24839247009954951 -0.37292447016044328 0 -0.24839247009954951 -0.37292447016044328 0 -0.24532753696728959 -0.36501789644951049 0 -0.23861636880082099 -0.36955921174380651 0 -0.24036284435674521 -0.37772398595485779 0 -0.24839247009954951 -0.37292447016044328 0 -0.23861636880082099 -0.36955921174380651 0 -0.25757508569408222 -0.36424633604315798 0 -0.24532753696728959 -0.36501789644951049 0 -0.24650166737573331 -0.3569693529562265 0 -0.24532753696728959 -0.36501789644951049 0 -0.24234943749700691 -0.36154613291017651 0 -0.24650166737573331 -0.3569693529562265 0 -0.24532753696728959 -0.36501789644951049 0 -0.24234943749700691 -0.36154613291017651 0 -0.23928568589256061 -0.36455139619594779 0 -0.24234943749700691 -0.36154613291017651 0 -0.23928568589256061 -0.36455139619594779 0 -0.23696933381926599 -0.3585493042599866 0 -0.24532753696728959 -0.36501789644951049 0 -0.23928568589256061 -0.36455139619594779 0 -0.23861636880082099 -0.36955921174380651 0 -0.23928568589256061 -0.36455139619594779 0 -0.23861636880082099 -0.36955921174380651 0 -0.23345080570298909 -0.36409891217005902 0 -0.23928568589256061 -0.36455139619594779 0 -0.23345080570298909 -0.36409891217005902 0 -0.23696933381926599 -0.3585493042599866 0 -0.24036284435674521 -0.37772398595485779 0 -0.23861636880082099 -0.36955921174380651 0 -0.22952037500089251 -0.37311519752493849 0 -0.23345080570298909 -0.36409891217005902 0 -0.22186900287429051 -0.37074082218821958 0 -0.21424807490234879 -0.36231527430669241 0 -0.22952037500089251 -0.37311519752493849 0 -0.23345080570298909 -0.36409891217005902 0 -0.22186900287429051 -0.37074082218821958 0 -0.23696933381926599 -0.3585493042599866 0 -0.21424807490234879 -0.36231527430669241 0 -0.23861636880082099 -0.36955921174380651 0 -0.22952037500089251 -0.37311519752493849 0 -0.23345080570298909 -0.36409891217005902 0 -0.23345080570298909 -0.36409891217005902 0 -0.23696933381926599 -0.3585493042599866 0 -0.21424807490234879 -0.36231527430669241 0 -0.22913587473404851 -0.35200963246311751 0 -0.2097464541822805 -0.33582260124732738 0 -0.22913587473404851 -0.35200963246311751 0 -0.23696933381926599 -0.3585493042599866 0 -0.21424807490234879 -0.36231527430669241 0 -0.22913587473404851 -0.35200963246311751 0 -0.21998707993494029 -0.33959044394559312 0 -0.22913587473404851 -0.35200963246311751 0 -0.21424807490234879 -0.36231527430669241 0 -0.22913587473404851 -0.35200963246311751 0 -0.23696933381926599 -0.3585493042599866 0 -0.22913587473404851 -0.35200963246311751 0 -0.24881121389389799 -0.33838995723746451 0 -0.22913587473404851 -0.35200963246311751 0 -0.23696933381926599 -0.3585493042599866 0 -0.24650166737573331 -0.3569693529562265 0 -0.22913587473404851 -0.35200963246311751 0 -0.24650166737573331 -0.3569693529562265 0 -0.24881121389389799 -0.33838995723746451 0 -0.23696933381926599 -0.3585493042599866 0 -0.24650166737573331 -0.3569693529562265 0 -0.24234943749700691 -0.36154613291017651 0 -0.23696933381926599 -0.3585493042599866 0 -0.24650166737573331 -0.3569693529562265 0 -0.22913587473404851 -0.35200963246311751 0 -0.24881121389389799 -0.33838995723746451 0 -0.2325545649384867 -0.33453283978227571 0 -0.24881121389389799 -0.33838995723746451 0 -0.2441082332202735 -0.32380704628422963 0 -0.2325545649384867 -0.33453283978227571 0 -0.23613058105125781 -0.31890710479075163 0 -0.2279063026952847 -0.3135077128279592 0 -0.2444966906846206 -0.31181945912301329 0 -0.2441082332202735 -0.32380704628422963 0 -0.23498207165859719 -0.32537142019391418 0 -0.23613058105125781 -0.31890710479075163 0 -0.2441082332202735 -0.32380704628422963 0 -0.23498207165859719 -0.32537142019391418 0 -0.2325545649384867 -0.33453283978227571 0 -0.2441082332202735 -0.32380704628422963 0 -0.23613058105125781 -0.31890710479075163 0 -0.2444966906846206 -0.31181945912301329 0 -0.2279063026952847 -0.3135077128279592 0 -0.2193464910840433 -0.31976030368968739 0 -0.21134622408423179 -0.310554889255794 0 -0.23613058105125781 -0.31890710479075163 0 -0.2279063026952847 -0.3135077128279592 0 -0.22829430606921119 -0.32293804105388452 0 -0.23498207165859719 -0.32537142019391418 0 -0.22829430606921119 -0.32293804105388452 0 -0.2325545649384867 -0.33453283978227571 0 -0.23498207165859719 -0.32537142019391418 0 -0.23613058105125781 -0.31890710479075163 0 -0.22829430606921119 -0.32293804105388452 0 -0.22829430606921119 -0.32293804105388452 0 -0.2193464910840433 -0.31976030368968739 0 -0.22209033975117781 -0.32887735541776358 0 -0.2279063026952847 -0.3135077128279592 0 -0.22829430606921119 -0.32293804105388452 0 -0.2193464910840433 -0.31976030368968739 0 -0.22913587473404851 -0.35200963246311751 0 -0.2325545649384867 -0.33453283978227571 0 -0.21998707993494029 -0.33959044394559312 0 -0.22913587473404851 -0.35200963246311751 0 -0.21998707993494029 -0.33959044394559312 0 -0.2097464541822805 -0.33582260124732738 0 -0.22829430606921119 -0.32293804105388452 0 -0.2325545649384867 -0.33453283978227571 0 -0.22209033975117781 -0.32887735541776358 0 -0.2325545649384867 -0.33453283978227571 0 -0.22209033975117781 -0.32887735541776358 0 -0.21998707993494029 -0.33959044394559312 0 -0.21998707993494029 -0.33959044394559312 0 -0.21026925672920721 -0.32756514861737779 0 -0.22209033975117781 -0.32887735541776358 0 -0.21998707993494029 -0.33959044394559312 0 -0.21026925672920721 -0.32756514861737779 0 -0.21998707993494029 -0.33959044394559312 0 -0.2097464541822805 -0.33582260124732738 0 -0.21026925672920721 -0.32756514861737779 0 -0.2097464541822805 -0.33582260124732738 0 -0.21026925672920721 -0.32756514861737779 0 -0.21026925672920721 -0.32756514861737779 0 -0.21134622408423179 -0.310554889255794 0 -0.19267178705524021 -0.30578920503631912 0 -0.21026925672920721 -0.32756514861737779 0 -0.21134622408423179 -0.310554889255794 0 -0.2097464541822805 -0.33582260124732738 0 -0.21026925672920721 -0.32756514861737779 0 -0.19254159852174429 -0.31996122112867409 0 -0.2193464910840433 -0.31976030368968739 0 -0.21026925672920721 -0.32756514861737779 0 -0.21134622408423179 -0.310554889255794 0 -0.2193464910840433 -0.31976030368968739 0 -0.22209033975117781 -0.32887735541776358 0 -0.21026925672920721 -0.32756514861737779 0 -0.2097464541822805 -0.33582260124732738 0 -0.1943588054861482 -0.32297640251143073 0 -0.19254159852174429 -0.31996122112867409 0 -0.21026925672920721 -0.32756514861737779 0 -0.19267178705524021 -0.30578920503631912 0 -0.21026925672920721 -0.32756514861737779 0 -0.19254159852174429 -0.31996122112867409 0 -0.19267178705524021 -0.30578920503631912 0 -0.2097464541822805 -0.33582260124732738 0 -0.19254159852174429 -0.31996122112867409 0 -0.1943588054861482 -0.32297640251143073 0 -0.18737083868624629 -0.33075534874643497 0 -0.18479650728396149 -0.32227615663527998 0 -0.1943588054861482 -0.32297640251143073 0 -0.19254159852174429 -0.31996122112867409 0 -0.1789711567900161 -0.3101302037755338 0 -0.2097464541822805 -0.33582260124732738 0 -0.19466829689393059 -0.33824472710720138 0 -0.19565175395430129 -0.3512554891803924 0 -0.2097464541822805 -0.33582260124732738 0 -0.1943588054861482 -0.32297640251143073 0 -0.19466829689393059 -0.33824472710720138 0 -0.2097464541822805 -0.33582260124732738 0 -0.1943588054861482 -0.32297640251143073 0 -0.1943588054861482 -0.32297640251143073 0 -0.19466829689393059 -0.33824472710720138 0 -0.18737083868624629 -0.33075534874643497 0 -0.19466829689393059 -0.33824472710720138 0 -0.18164424501215659 -0.34621916084723381 0 -0.18737083868624629 -0.33075534874643497 0 -0.19466829689393059 -0.33824472710720138 0 -0.19565175395430129 -0.3512554891803924 0 -0.18164424501215659 -0.34621916084723381 0 -0.20800359978069241 -0.36335027445133922 0 -0.18480326185087809 -0.36719565018674682 0 -0.19565175395430129 -0.3512554891803924 0 -0.20800359978069241 -0.36335027445133922 0 -0.18480326185087809 -0.36719565018674682 0 -0.2014200033848125 -0.37119512976538899 0 -0.18480326185087809 -0.36719565018674682 0 -0.18579747934449059 -0.37379744869579251 0 -0.2014200033848125 -0.37119512976538899 0 -0.20800359978069241 -0.36335027445133922 0 -0.18480326185087809 -0.36719565018674682 0 -0.2014200033848125 -0.37119512976538899 0 -0.20800359978069241 -0.36335027445133922 0 -0.20803809997708481 -0.36661394692190907 0 -0.20800359978069241 -0.36335027445133922 0 -0.20803809997708481 -0.36661394692190907 0 -0.21424807490234879 -0.36231527430669241 0 -0.20800359978069241 -0.36335027445133922 0 -0.20803809997708481 -0.36661394692190907 0 -0.2014200033848125 -0.37119512976538899 0 -0.20803809997708481 -0.36661394692190907 0 -0.21335741342528061 -0.3748607861064962 0 -0.2014200033848125 -0.37119512976538899 0 -0.20803809997708481 -0.36661394692190907 0 -0.20803809997708481 -0.36661394692190907 0 -0.21335741342528061 -0.3748607861064962 0 -0.21424807490234879 -0.36231527430669241 0 -0.22186900287429051 -0.37074082218821958 0 -0.21335741342528061 -0.3748607861064962 0 -0.21424807490234879 -0.36231527430669241 0 -0.20800359978069241 -0.36335027445133922 0 -0.21424807490234879 -0.36231527430669241 0 -0.20803809997708481 -0.36661394692190907 0 -0.21424807490234879 -0.36231527430669241 0 -0.2097464541822805 -0.33582260124732738 0 -0.19565175395430129 -0.3512554891803924 0 -0.20800359978069241 -0.36335027445133922 0 -0.2097464541822805 -0.33582260124732738 0 -0.20800359978069241 -0.36335027445133922 0 -0.2097464541822805 -0.33582260124732738 0 -0.20800359978069241 -0.36335027445133922 0 -0.21424807490234879 -0.36231527430669241 0 -0.22913587473404851 -0.35200963246311751 0 -0.2097464541822805 -0.33582260124732738 0 -0.21424807490234879 -0.36231527430669241 0 -0.2335542019388327 -0.26090262277066528 0 -0.21472073189145299 -0.25725591714607071 0 -0.22837296648480071 -0.23789375384220129 0 -0.2335542019388327 -0.26090262277066528 0 -0.21357196166535461 -0.27540027352014051 0 -0.21472073189145299 -0.25725591714607071 0 -0.25298377122075039 -0.27518622721876451 0 -0.2335542019388327 -0.26090262277066528 0 -0.25431856302814809 -0.24833495949118861 0 -0.25298377122075039 -0.27518622721876451 0 -0.2335542019388327 -0.26090262277066528 0 -0.23093648268818689 -0.28342115129973 0 -0.2335542019388327 -0.26090262277066528 0 -0.23093648268818689 -0.28342115129973 0 -0.21357196166535461 -0.27540027352014051 0 -0.23093648268818689 -0.28342115129973 0 -0.21242319143925911 -0.29354462989421048 0 -0.21357196166535461 -0.27540027352014051 0 -0.23093648268818689 -0.28342115129973 0 -0.2435111179254994 -0.29490773243705071 0 -0.2284599410619414 -0.30268204450860919 0 -0.23093648268818689 -0.28342115129973 0 -0.2284599410619414 -0.30268204450860919 0 -0.21242319143925911 -0.29354462989421048 0 -0.25298377122075039 -0.27518622721876451 0 -0.23093648268818689 -0.28342115129973 0 -0.2435111179254994 -0.29490773243705071 0 -0.2444966906846206 -0.31181945912301329 0 -0.2284599410619414 -0.30268204450860919 0 -0.2435111179254994 -0.29490773243705071 0 -0.2444966906846206 -0.31181945912301329 0 -0.2284599410619414 -0.30268204450860919 0 -0.26057201890547982 -0.29344093798311832 0 -0.2435111179254994 -0.29490773243705071 0 -0.2444966906846206 -0.31181945912301329 0 -0.2279063026952847 -0.3135077128279592 0 -0.2444966906846206 -0.31181945912301329 0 -0.2284599410619414 -0.30268204450860919 0 -0.2284599410619414 -0.30268204450860919 0 -0.21242319143925911 -0.29354462989421048 0 -0.2279063026952847 -0.3135077128279592 0 -0.2284599410619414 -0.30268204450860919 0 -0.21134622408423179 -0.310554889255794 0 -0.2284599410619414 -0.30268204450860919 0 -0.21134622408423179 -0.310554889255794 0 -0.21242319143925911 -0.29354462989421048 0 -0.21134622408423179 -0.310554889255794 0 -0.19267178705524021 -0.30578920503631912 0 -0.21242319143925911 -0.29354462989421048 0 -0.21134622408423179 -0.310554889255794 0 -0.21242319143925911 -0.29354462989421048 0 -0.19267178705524021 -0.30578920503631912 0 -0.19410774352861071 -0.2831088592208712 0 -0.21242319143925911 -0.29354462989421048 0 -0.19410774352861071 -0.2831088592208712 0 -0.21242319143925911 -0.29354462989421048 0 -0.21357196166535461 -0.27540027352014051 0 -0.19410774352861071 -0.2831088592208712 0 -0.21242319143925911 -0.29354462989421048 0 -0.21242319143925911 -0.29354462989421048 0 -0.21357196166535461 -0.27540027352014051 0 -0.21357196166535461 -0.27540027352014051 0 -0.21472073189145299 -0.25725591714607071 0 -0.19410774352861071 -0.2831088592208712 0 -0.21357196166535461 -0.27540027352014051 0 -0.1965391795889786 -0.26204425282134669 0 -0.19410774352861071 -0.2831088592208712 0 -0.1965391795889786 -0.26204425282134669 0 -0.17579229561796161 -0.27267308854753308 0 -0.1965391795889786 -0.26204425282134669 0 -0.20565562739327201 -0.24334207984173631 0 -0.18863044441395099 -0.24733650333174401 0 -0.1965391795889786 -0.26204425282134669 0 -0.18340152769721799 -0.25642831405215172 0 -0.18863044441395099 -0.24733650333174401 0 -0.1965391795889786 -0.26204425282134669 0 -0.21472073189145299 -0.25725591714607071 0 -0.20565562739327201 -0.24334207984173631 0 -0.21357196166535461 -0.27540027352014051 0 -0.1965391795889786 -0.26204425282134669 0 -0.21472073189145299 -0.25725591714607071 0 -0.15747684770731041 -0.26223731787419863 0 -0.16344648285301799 -0.25937253054906129 0 -0.17579229561796161 -0.27267308854753308 0 -0.1593809120407062 -0.25278805690175971 0 -0.16344648285301799 -0.25937253054906129 0 -0.1534429259631987 -0.25724555178864622 0 -0.1593809120407062 -0.25278805690175971 0 -0.16344648285301799 -0.25937253054906129 0 -0.16709258238786229 -0.25188408856254202 0 -0.1593809120407062 -0.25278805690175971 0 -0.16709258238786229 -0.25188408856254202 0 -0.1601832428566283 -0.24550858739866141 0 -0.15747684770731041 -0.26223731787419863 0 -0.16344648285301799 -0.25937253054906129 0 -0.1534429259631987 -0.25724555178864622 0 -0.16344648285301799 -0.25937253054906129 0 -0.1534429259631987 -0.25724555178864622 0 -0.16344648285301799 -0.25937253054906129 0 -0.17379217291466831 -0.25992581321180469 0 -0.17579229561796161 -0.27267308854753308 0 -0.16344648285301799 -0.25937253054906129 0 -0.16709258238786229 -0.25188408856254202 0 -0.17379217291466831 -0.25992581321180469 0 -0.16709258238786229 -0.25188408856254202 0 -0.17679077873490559 -0.25046109420941731 0 -0.17379217291466831 -0.25992581321180469 0 -0.1965391795889786 -0.26204425282134669 0 -0.18340152769721799 -0.25642831405215172 0 -0.17579229561796161 -0.27267308854753308 0 -0.17679077873490559 -0.25046109420941731 0 -0.18340152769721799 -0.25642831405215172 0 -0.17379217291466831 -0.25992581321180469 0 -0.18340152769721799 -0.25642831405215172 0 -0.17379217291466831 -0.25992581321180469 0 -0.17579229561796161 -0.27267308854753308 0 -0.17679077873490559 -0.25046109420941731 0 -0.18340152769721799 -0.25642831405215172 0 -0.18863044441395099 -0.24733650333174401 0 -0.19410774352861071 -0.2831088592208712 0 -0.17579229561796161 -0.27267308854753308 0 -0.17507431738127369 -0.28401326145526029 0 -0.19410774352861071 -0.2831088592208712 0 -0.17579229561796161 -0.27267308854753308 0 -0.15747684770731041 -0.26223731787419863 0 -0.17507431738127369 -0.28401326145526029 0 -0.15747684770731041 -0.26223731787419863 0 -0.17579229561796161 -0.27267308854753308 0 -0.15747684770731041 -0.26223731787419863 0 -0.17579229561796161 -0.27267308854753308 0 -0.17507431738127369 -0.28401326145526029 0 -0.15747684770731041 -0.26223731787419863 0 -0.1596399504195592 -0.27820623095404468 0 -0.17507431738127369 -0.28401326145526029 0 -0.1596399504195592 -0.27820623095404468 0 -0.1624028041075358 -0.29248408411088062 0 -0.1494793968803598 -0.28070198605355251 0 -0.1624028041075358 -0.29248408411088062 0 -0.15973767967650701 -0.30493196891575292 0 -0.15108397830665751 -0.29236825921418419 0 -0.1624028041075358 -0.29248408411088062 0 -0.17507431738127369 -0.28401326145526029 0 -0.17391538329452061 -0.29489800819007239 0 -0.1596399504195592 -0.27820623095404468 0 -0.1624028041075358 -0.29248408411088062 0 -0.17507431738127369 -0.28401326145526029 0 -0.19267178705524021 -0.30578920503631912 0 -0.19410774352861071 -0.2831088592208712 0 -0.17507431738127369 -0.28401326145526029 0 -0.19267178705524021 -0.30578920503631912 0 -0.17507431738127369 -0.28401326145526029 0 -0.17391538329452061 -0.29489800819007239 0 -0.19267178705524021 -0.30578920503631912 0 -0.17507431738127369 -0.28401326145526029 0 -0.17391538329452061 -0.29489800819007239 0 -0.17532621133471249 -0.30426618216820789 0 -0.19254159852174429 -0.31996122112867409 0 -0.19267178705524021 -0.30578920503631912 0 -0.17532621133471249 -0.30426618216820789 0 -0.19267178705524021 -0.30578920503631912 0 -0.17391538329452061 -0.29489800819007239 0 -0.17532621133471249 -0.30426618216820789 0 -0.19254159852174429 -0.31996122112867409 0 -0.17532621133471249 -0.30426618216820789 0 -0.1789711567900161 -0.3101302037755338 0 -0.19254159852174429 -0.31996122112867409 0 -0.17532621133471249 -0.30426618216820789 0 -0.17532621133471249 -0.30426618216820789 0 -0.15973767967650701 -0.30493196891575292 0 -0.16582550601247259 -0.31644195918285489 0 -0.1624028041075358 -0.29248408411088062 0 -0.17532621133471249 -0.30426618216820789 0 -0.15973767967650701 -0.30493196891575292 0 -0.1624028041075358 -0.29248408411088062 0 -0.17532621133471249 -0.30426618216820789 0 -0.1624028041075358 -0.29248408411088062 0 -0.17391538329452061 -0.29489800819007239 0 -0.17532621133471249 -0.30426618216820789 0 -0.144593184228827 -0.30237793828586917 0 -0.15261731536399281 -0.31699983390472031 0 -0.1327552185807534 -0.31482398186879779 0 -0.15973767967650701 -0.30493196891575292 0 -0.144593184228827 -0.30237793828586917 0 -0.15261731536399281 -0.31699983390472031 0 -0.15973767967650701 -0.30493196891575292 0 -0.144593184228827 -0.30237793828586917 0 -0.15108397830665751 -0.29236825921418419 0 -0.144593184228827 -0.30237793828586917 0 -0.1304175251842298 -0.30012492429455973 0 -0.1327552185807534 -0.31482398186879779 0 -0.1304175251842298 -0.30012492429455973 0 -0.1327552185807534 -0.31482398186879779 0 -0.11567190875339491 -0.3081878681979589 0 -0.1304175251842298 -0.30012492429455973 0 -0.13697378053928061 -0.28594316463020741 0 -0.11725087491461519 -0.29108504565108578 0 -0.144593184228827 -0.30237793828586917 0 -0.1304175251842298 -0.30012492429455973 0 -0.13697378053928061 -0.28594316463020741 0 -0.13697378053928061 -0.28594316463020741 0 -0.15108397830665751 -0.29236825921418419 0 -0.1494793968803598 -0.28070198605355251 0 -0.144593184228827 -0.30237793828586917 0 -0.13697378053928061 -0.28594316463020741 0 -0.15108397830665751 -0.29236825921418419 0 -0.1624028041075358 -0.29248408411088062 0 -0.15108397830665751 -0.29236825921418419 0 -0.1494793968803598 -0.28070198605355251 0 -0.1624028041075358 -0.29248408411088062 0 -0.1494793968803598 -0.28070198605355251 0 -0.15747684770731041 -0.26223731787419863 0 -0.1596399504195592 -0.27820623095404468 0 -0.1503927610565664 -0.27179087804580171 0 -0.1596399504195592 -0.27820623095404468 0 -0.1494793968803598 -0.28070198605355251 0 -0.1503927610565664 -0.27179087804580171 0 -0.15747684770731041 -0.26223731787419863 0 -0.1503927610565664 -0.27179087804580171 0 -0.1469785187108 -0.2635474229235048 0 -0.1503927610565664 -0.27179087804580171 0 -0.13966748117377659 -0.26847157538705668 0 -0.1469785187108 -0.2635474229235048 0 -0.1503927610565664 -0.27179087804580171 0 -0.14153524490660671 -0.2763029116229278 0 -0.13966748117377659 -0.26847157538705668 0 -0.1494793968803598 -0.28070198605355251 0 -0.1503927610565664 -0.27179087804580171 0 -0.14153524490660671 -0.2763029116229278 0 -0.13697378053928061 -0.28594316463020741 0 -0.1494793968803598 -0.28070198605355251 0 -0.14153524490660671 -0.2763029116229278 0 -0.13697378053928061 -0.28594316463020741 0 -0.14153524490660671 -0.2763029116229278 0 -0.13219795163187159 -0.27110871778552531 0 -0.13697378053928061 -0.28594316463020741 0 -0.1173011125765811 -0.2721428964285707 0 -0.13697378053928061 -0.28594316463020741 0 -0.13219795163187159 -0.27110871778552531 0 -0.1173011125765811 -0.2721428964285707 0 -0.13219795163187159 -0.27110871778552531 0 -0.1333337708168415 -0.26377523499205202 0 -0.12600056203783161 -0.26301541000095829 0 -0.13219795163187159 -0.27110871778552531 0 -0.12600056203783161 -0.26301541000095829 0 -0.1173011125765811 -0.2721428964285707 0 -0.13219795163187159 -0.27110871778552531 0 -0.13966748117377659 -0.26847157538705668 0 -0.1333337708168415 -0.26377523499205202 0 -0.14153524490660671 -0.2763029116229278 0 -0.13219795163187159 -0.27110871778552531 0 -0.13966748117377659 -0.26847157538705668 0 -0.13966748117377659 -0.26847157538705668 0 -0.13807993829988649 -0.25979154560904222 0 -0.1333337708168415 -0.26377523499205202 0 -0.13807993829988649 -0.25979154560904222 0 -0.1333337708168415 -0.26377523499205202 0 -0.13072292094084129 -0.25648892617767749 0 -0.12600056203783161 -0.26301541000095829 0 -0.13072292094084129 -0.25648892617767749 0 -0.1187556211832122 -0.25814451816493872 0 -0.1333337708168415 -0.26377523499205202 0 -0.12600056203783161 -0.26301541000095829 0 -0.13072292094084129 -0.25648892617767749 0 -0.13072292094084129 -0.25648892617767749 0 -0.13218950310710981 -0.25272660122947088 0 -0.1187556211832122 -0.25814451816493872 0 -0.13072292094084129 -0.25648892617767749 0 -0.13218950310710981 -0.25272660122947088 0 -0.13218950310710981 -0.25272660122947088 0 -0.1459019403517107 -0.25564217047089421 0 -0.13375162957080131 -0.24871916986845621 0 -0.13218950310710981 -0.25272660122947088 0 -0.1459019403517107 -0.25564217047089421 0 -0.13218950310710981 -0.25272660122947088 0 -0.13375162957080131 -0.24871916986845621 0 -0.1459019403517107 -0.25564217047089421 0 -0.13375162957080131 -0.24871916986845621 0 -0.13807993829988649 -0.25979154560904222 0 -0.13218950310710981 -0.25272660122947088 0 -0.1459019403517107 -0.25564217047089421 0 -0.13807993829988649 -0.25979154560904222 0 -0.13072292094084129 -0.25648892617767749 0 -0.13218950310710981 -0.25272660122947088 0 -0.1459019403517107 -0.25564217047089421 0 -0.1534429259631987 -0.25724555178864622 0 -0.1378886282313006 -0.2381062402767252 0 -0.13966748117377659 -0.26847157538705668 0 -0.13807993829988649 -0.25979154560904222 0 -0.1469785187108 -0.2635474229235048 0 -0.13807993829988649 -0.25979154560904222 0 -0.1459019403517107 -0.25564217047089421 0 -0.1469785187108 -0.2635474229235048 0 -0.15747684770731041 -0.26223731787419863 0 -0.1459019403517107 -0.25564217047089421 0 -0.1534429259631987 -0.25724555178864622 0 -0.15747684770731041 -0.26223731787419863 0 -0.1459019403517107 -0.25564217047089421 0 -0.1469785187108 -0.2635474229235048 0 -0.15747684770731041 -0.26223731787419863 0 -0.1459019403517107 -0.25564217047089421 0 -0.15747684770731041 -0.26223731787419863 0 -0.1534429259631987 -0.25724555178864622 0 -0.1593809120407062 -0.25278805690175971 0 -0.1534429259631987 -0.25724555178864622 0 -0.15289321433053751 -0.246830478479277 0 -0.1459019403517107 -0.25564217047089421 0 -0.1534429259631987 -0.25724555178864622 0 -0.17143624801538501 -0.35840063883308271 0 -0.1580141783998408 -0.34710035810185619 0 -0.15489216358121211 -0.36256913283011211 0 -0.17143624801538501 -0.35840063883308271 0 -0.1580141783998408 -0.34710035810185619 0 -0.18164424501215659 -0.34621916084723381 0 -0.17143624801538501 -0.35840063883308271 0 -0.1663610822414904 -0.3702523776444529 0 -0.15489216358121211 -0.36256913283011211 0 -0.15951650330528561 -0.37856285477961621 0 -0.1663610822414904 -0.3702523776444529 0 -0.15489216358121211 -0.36256913283011211 0 -0.17143624801538501 -0.35840063883308271 0 -0.1663610822414904 -0.3702523776444529 0 -0.18480326185087809 -0.36719565018674682 0 -0.1663610822414904 -0.3702523776444529 0 -0.18480326185087809 -0.36719565018674682 0 -0.1663610822414904 -0.3702523776444529 0 -0.18480326185087809 -0.36719565018674682 0 -0.18579747934449059 -0.37379744869579251 0 -0.18480326185087809 -0.36719565018674682 0 -0.18579747934449059 -0.37379744869579251 0 -0.18480326185087809 -0.36719565018674682 0 -0.18164424501215659 -0.34621916084723381 0 -0.19565175395430129 -0.3512554891803924 0 -0.18480326185087809 -0.36719565018674682 0 -0.18164424501215659 -0.34621916084723381 0 -0.17143624801538501 -0.35840063883308271 0 -0.18480326185087809 -0.36719565018674682 0 -0.18164424501215659 -0.34621916084723381 0 -0.18164424501215659 -0.34621916084723381 0 -0.17848522817343529 -0.32524267150772068 0 -0.1629610955137164 -0.33076913941787212 0 -0.18164424501215659 -0.34621916084723381 0 -0.17848522817343529 -0.32524267150772068 0 -0.18164424501215659 -0.34621916084723381 0 -0.18737083868624629 -0.33075534874643497 0 -0.17848522817343529 -0.32524267150772068 0 -0.17532621133471249 -0.30426618216820789 0 -0.17848522817343529 -0.32524267150772068 0 -0.17532621133471249 -0.30426618216820789 0 -0.1789711567900161 -0.3101302037755338 0 -0.17848522817343529 -0.32524267150772068 0 -0.17532621133471249 -0.30426618216820789 0 -0.17848522817343529 -0.32524267150772068 0 -0.16582550601247259 -0.31644195918285489 0 -0.1943588054861482 -0.32297640251143073 0 -0.1789711567900161 -0.3101302037755338 0 -0.18479650728396149 -0.32227615663527998 0 -0.1789711567900161 -0.3101302037755338 0 -0.18479650728396149 -0.32227615663527998 0 -0.17848522817343529 -0.32524267150772068 0 -0.1943588054861482 -0.32297640251143073 0 -0.1789711567900161 -0.3101302037755338 0 -0.18737083868624629 -0.33075534874643497 0 -0.18479650728396149 -0.32227615663527998 0 -0.17848522817343529 -0.32524267150772068 0 -0.17848522817343529 -0.32524267150772068 0 -0.16582550601247259 -0.31644195918285489 0 -0.1629610955137164 -0.33076913941787212 0 -0.16582550601247259 -0.31644195918285489 0 -0.1629610955137164 -0.33076913941787212 0 -0.15261731536399281 -0.31699983390472031 0 -0.15973767967650701 -0.30493196891575292 0 -0.16582550601247259 -0.31644195918285489 0 -0.15261731536399281 -0.31699983390472031 0 -0.1580141783998408 -0.34710035810185619 0 -0.18164424501215659 -0.34621916084723381 0 -0.1629610955137164 -0.33076913941787212 0 -0.1580141783998408 -0.34710035810185619 0 -0.1629610955137164 -0.33076913941787212 0 -0.14559484309128301 -0.3331209990743299 0 -0.14559484309128301 -0.3331209990743299 0 -0.15261731536399281 -0.31699983390472031 0 -0.1327552185807534 -0.31482398186879779 0 -0.1629610955137164 -0.33076913941787212 0 -0.14559484309128301 -0.3331209990743299 0 -0.15261731536399281 -0.31699983390472031 0 -0.14559484309128301 -0.3331209990743299 0 -0.1327552185807534 -0.31482398186879779 0 -0.12678352480283511 -0.3369129194106073 0 -0.14559484309128301 -0.3331209990743299 0 -0.12678352480283511 -0.3369129194106073 0 -0.14043772588655989 -0.35211976174212622 0 -0.12678352480283511 -0.3369129194106073 0 -0.14043772588655989 -0.35211976174212622 0 -0.1203130985899742 -0.35955571918490481 0 -0.1580141783998408 -0.34710035810185619 0 -0.14043772588655989 -0.35211976174212622 0 -0.15489216358121211 -0.36256913283011211 0 -0.1580141783998408 -0.34710035810185619 0 -0.14559484309128301 -0.3331209990743299 0 -0.14043772588655989 -0.35211976174212622 0 -0.14043772588655989 -0.35211976174212622 0 -0.15489216358121211 -0.36256913283011211 0 -0.13959568407155781 -0.37291875636350952 0 -0.15951650330528561 -0.37856285477961621 0 -0.15489216358121211 -0.36256913283011211 0 -0.13959568407155781 -0.37291875636350952 0 -0.12625141541498519 -0.38197991289387551 0 -0.13959568407155781 -0.37291875636350952 0 -0.1203130985899742 -0.35955571918490481 0 -0.14043772588655989 -0.35211976174212622 0 -0.13959568407155781 -0.37291875636350952 0 -0.1203130985899742 -0.35955571918490481 0 -0.1203130985899742 -0.35955571918490481 0 -0.11384267237711319 -0.38219851895920232 0 -0.1203130985899742 -0.35955571918490481 0 -0.10849363524981311 -0.36442991456039969 0 -0.11384267237711319 -0.38219851895920232 0 -0.12625141541498519 -0.38197991289387551 0 -0.1203130985899742 -0.35955571918490481 0 -0.11384267237711319 -0.38219851895920232 0 -0.10849363524981311 -0.36442991456039969 0 -0.096157591159299352 -0.35547454281719221 0 -0.10176491866177829 -0.38015793077534599 0 -0.096157591159299352 -0.35547454281719221 0 -0.10176491866177829 -0.38015793077534599 0 -0.096157591159299352 -0.35547454281719221 0 -0.10176491866177829 -0.38015793077534599 0 -0.085276019388031976 -0.37619188405436782 0 -0.096157591159299352 -0.35547454281719221 0 -0.10964553082547281 -0.34513317088572909 0 -0.090550263656820479 -0.33079115485903843 0 -0.10849363524981311 -0.36442991456039969 0 -0.096157591159299352 -0.35547454281719221 0 -0.10964553082547281 -0.34513317088572909 0 -0.1203130985899742 -0.35955571918490481 0 -0.10849363524981311 -0.36442991456039969 0 -0.10964553082547281 -0.34513317088572909 0 -0.12678352480283511 -0.3369129194106073 0 -0.1203130985899742 -0.35955571918490481 0 -0.10964553082547281 -0.34513317088572909 0 -0.12678352480283511 -0.3369129194106073 0 -0.1203130985899742 -0.35955571918490481 0 -0.12678352480283511 -0.3369129194106073 0 -0.10964553082547281 -0.34513317088572909 0 -0.1112875311940303 -0.32576775904759792 0 -0.1327552185807534 -0.31482398186879779 0 -0.12678352480283511 -0.3369129194106073 0 -0.1112875311940303 -0.32576775904759792 0 -0.1327552185807534 -0.31482398186879779 0 -0.1112875311940303 -0.32576775904759792 0 -0.11567190875339491 -0.3081878681979589 0 -0.1112875311940303 -0.32576775904759792 0 -0.1011365257202933 -0.31403431577096802 0 -0.11567190875339491 -0.3081878681979589 0 -0.1112875311940303 -0.32576775904759792 0 -0.1011365257202933 -0.31403431577096802 0 -0.090550263656820479 -0.33079115485903843 0 -0.10964553082547281 -0.34513317088572909 0 -0.1112875311940303 -0.32576775904759792 0 -0.090550263656820479 -0.33079115485903843 0 -0.096157591159299352 -0.35547454281719221 0 -0.090550263656820479 -0.33079115485903843 0 -0.096157591159299352 -0.35547454281719221 0 -0.090550263656820479 -0.33079115485903843 0 -0.073144777225565616 -0.33606175945158517 0 -0.090550263656820479 -0.33079115485903843 0 -0.084942936154341619 -0.30610776690088481 0 -0.090550263656820479 -0.33079115485903843 0 -0.073144777225565616 -0.33606175945158517 0 -0.084942936154341619 -0.30610776690088481 0 -0.1011365257202933 -0.31403431577096802 0 -0.090550263656820479 -0.33079115485903843 0 -0.084942936154341619 -0.30610776690088481 0 -0.073144777225565616 -0.33606175945158517 0 -0.084942936154341619 -0.30610776690088481 0 -0.060613113796085999 -0.32288269869712272 0 -0.073144777225565616 -0.33606175945158517 0 -0.076755031766953086 -0.35884624094615858 0 -0.063306301319701316 -0.35299520754669739 0 -0.076755031766953086 -0.35884624094615858 0 -0.063306301319701316 -0.35299520754669739 0 -0.065890469742167113 -0.37350781086095058 0 -0.076755031766953086 -0.35884624094615858 0 -0.065890469742167113 -0.37350781086095058 0 -0.085276019388031976 -0.37619188405436782 0 -0.096157591159299352 -0.35547454281719221 0 -0.076755031766953086 -0.35884624094615858 0 -0.085276019388031976 -0.37619188405436782 0 -0.096157591159299352 -0.35547454281719221 0 -0.073144777225565616 -0.33606175945158517 0 -0.076755031766953086 -0.35884624094615858 0 -0.097628444613881649 -0.25834262822693399 0 -0.1173011125765811 -0.2721428964285707 0 -0.097628444613881649 -0.25834262822693399 0 -0.1187556211832122 -0.25814451816493872 0 -0.1098930818979398 -0.24798588601512411 0 -0.13218950310710981 -0.25272660122947088 0 -0.1187556211832122 -0.25814451816493872 0 -0.1098930818979398 -0.24798588601512411 0 -0.097628444613881649 -0.25834262822693399 0 -0.1187556211832122 -0.25814451816493872 0 -0.1173011125765811 -0.2721428964285707 0 -0.13218950310710981 -0.25272660122947088 0 -0.1098930818979398 -0.24798588601512411 0 -0.12600056203783161 -0.26301541000095829 0 -0.1187556211832122 -0.25814451816493872 0 -0.1173011125765811 -0.2721428964285707 0 -0.097628444613881649 -0.25834262822693399 0 -0.1173011125765811 -0.2721428964285707 0 -0.090762408808148426 -0.27102181932101072 0 -0.1173011125765811 -0.2721428964285707 0 -0.096655829275762523 -0.28444542957314378 0 -0.090762408808148426 -0.27102181932101072 0 -0.096655829275762523 -0.28444542957314378 0 -0.10322998884287909 -0.29931702984935987 0 -0.084942936154341619 -0.30610776690088481 0 -0.096655829275762523 -0.28444542957314378 0 -0.11725087491461519 -0.29108504565108578 0 -0.10322998884287909 -0.29931702984935987 0 -0.13697378053928061 -0.28594316463020741 0 -0.1173011125765811 -0.2721428964285707 0 -0.11725087491461519 -0.29108504565108578 0 -0.1173011125765811 -0.2721428964285707 0 -0.096655829275762523 -0.28444542957314378 0 -0.11725087491461519 -0.29108504565108578 0 -0.11725087491461519 -0.29108504565108578 0 -0.11567190875339491 -0.3081878681979589 0 -0.10322998884287909 -0.29931702984935987 0 -0.1304175251842298 -0.30012492429455973 0 -0.11725087491461519 -0.29108504565108578 0 -0.11567190875339491 -0.3081878681979589 0 -0.1011365257202933 -0.31403431577096802 0 -0.10322998884287909 -0.29931702984935987 0 -0.084942936154341619 -0.30610776690088481 0 -0.1011365257202933 -0.31403431577096802 0 -0.11567190875339491 -0.3081878681979589 0 -0.10322998884287909 -0.29931702984935987 0 -0.084942936154341619 -0.30610776690088481 0 -0.066237696895848033 -0.30175990202967712 0 -0.078368201618682937 -0.28822753231137022 0 -0.084942936154341619 -0.30610776690088481 0 -0.066237696895848033 -0.30175990202967712 0 -0.060613113796085999 -0.32288269869712272 0 -0.066237696895848033 -0.30175990202967712 0 -0.078368201618682937 -0.28822753231137022 0 -0.057136779716869042 -0.28712205926022771 0 -0.078368201618682937 -0.28822753231137022 0 -0.072744725061100565 -0.27289296274949931 0 -0.057136779716869042 -0.28712205926022771 0 -0.096655829275762523 -0.28444542957314378 0 -0.084942936154341619 -0.30610776690088481 0 -0.078368201618682937 -0.28822753231137022 0 -0.096655829275762523 -0.28444542957314378 0 -0.078368201618682937 -0.28822753231137022 0 -0.090762408808148426 -0.27102181932101072 0 -0.078368201618682937 -0.28822753231137022 0 -0.090762408808148426 -0.27102181932101072 0 -0.072744725061100565 -0.27289296274949931 0 -0.090762408808148426 -0.27102181932101072 0 -0.072744725061100565 -0.27289296274949931 0 -0.081281336266817772 -0.26097832242812891 0 -0.072744725061100565 -0.27289296274949931 0 -0.067161912638977472 -0.25903173736147111 0 -0.055745381016590281 -0.2682223094504298 0 -0.072744725061100565 -0.27289296274949931 0 -0.067161912638977472 -0.25903173736147111 0 -0.081281336266817772 -0.26097832242812891 0 -0.067161912638977472 -0.25903173736147111 0 -0.081281336266817772 -0.26097832242812891 0 -0.077955776651182085 -0.24454236002529731 0 -0.067161912638977472 -0.25903173736147111 0 -0.056939497423126581 -0.24878681181634871 0 -0.077955776651182085 -0.24454236002529731 0 -0.097628444613881649 -0.25834262822693399 0 -0.081281336266817772 -0.26097832242812891 0 -0.077955776651182085 -0.24454236002529731 0 -0.097628444613881649 -0.25834262822693399 0 -0.090762408808148426 -0.27102181932101072 0 -0.081281336266817772 -0.26097832242812891 0 -0.097628444613881649 -0.25834262822693399 0 -0.077955776651182085 -0.24454236002529731 0 -0.025857267464119819 -0.25506418495113531 0 -0.050191684441297867 -0.2485850187836515 0 -0.034199021844566052 -0.25740496373097072 0 -0.056939497423126581 -0.24878681181634871 0 -0.034199021844566052 -0.25740496373097072 0 -0.041398382443623198 -0.25192549838374201 0 -0.056939497423126581 -0.24878681181634871 0 -0.041398382443623198 -0.25192549838374201 0 -0.025857267464119819 -0.25506418495113531 0 -0.050191684441297867 -0.2485850187836515 0 -0.034199021844566052 -0.25740496373097072 0 -0.048255079716108998 -0.25800015923011232 0 -0.056939497423126581 -0.24878681181634871 0 -0.034199021844566052 -0.25740496373097072 0 -0.041398382443623198 -0.25192549838374201 0 -0.025857267464119819 -0.25506418495113531 0 -0.041398382443623198 -0.25192549838374201 0 -0.025857267464119819 -0.25506418495113531 0 -0.034199021844566052 -0.25740496373097072 0 -0.037307574571523318 -0.26201401924185519 0 -0.024854767991187229 -0.26705994663832661 0 -0.037307574571523318 -0.26201401924185519 0 -0.048255079716108998 -0.25800015923011232 0 -0.046606779304586107 -0.26584835010199509 0 -0.034199021844566052 -0.25740496373097072 0 -0.037307574571523318 -0.26201401924185519 0 -0.048255079716108998 -0.25800015923011232 0 -0.05702546769870083 -0.25851025446459042 0 -0.048255079716108998 -0.25800015923011232 0 -0.056939497423126581 -0.24878681181634871 0 -0.041398382443623198 -0.25192549838374201 0 -0.056939497423126581 -0.24878681181634871 0 -0.067161912638977472 -0.25903173736147111 0 -0.05702546769870083 -0.25851025446459042 0 -0.056939497423126581 -0.24878681181634871 0 -0.067161912638977472 -0.25903173736147111 0 -0.05702546769870083 -0.25851025446459042 0 -0.055745381016590281 -0.2682223094504298 0 -0.05702546769870083 -0.25851025446459042 0 -0.048255079716108998 -0.25800015923011232 0 -0.055745381016590281 -0.2682223094504298 0 -0.048255079716108998 -0.25800015923011232 0 -0.055745381016590281 -0.2682223094504298 0 -0.046606779304586107 -0.26584835010199509 0 -0.055745381016590281 -0.2682223094504298 0 -0.045119081914121867 -0.27515691248558288 0 -0.046606779304586107 -0.26584835010199509 0 -0.055745381016590281 -0.2682223094504298 0 -0.045119081914121867 -0.27515691248558288 0 -0.057136779716869042 -0.28712205926022771 0 -0.072744725061100565 -0.27289296274949931 0 -0.055745381016590281 -0.2682223094504298 0 -0.057136779716869042 -0.28712205926022771 0 -0.037307574571523318 -0.26201401924185519 0 -0.034478529498429812 -0.28951379058442123 0 -0.037307574571523318 -0.26201401924185519 0 -0.034478529498429812 -0.28951379058442123 0 -0.024854767991187229 -0.26705994663832661 0 -0.037307574571523318 -0.26201401924185519 0 -0.045119081914121867 -0.27515691248558288 0 -0.034478529498429812 -0.28951379058442123 0 -0.037307574571523318 -0.26201401924185519 0 -0.045119081914121867 -0.27515691248558288 0 -0.046606779304586107 -0.26584835010199509 0 -0.045119081914121867 -0.27515691248558288 0 -0.034478529498429812 -0.28951379058442123 0 -0.057136779716869042 -0.28712205926022771 0 -0.034478529498429812 -0.28951379058442123 0 -0.057136779716869042 -0.28712205926022771 0 -0.05012745319326059 -0.30445945297878008 0 -0.066237696895848033 -0.30175990202967712 0 -0.05012745319326059 -0.30445945297878008 0 -0.060613113796085999 -0.32288269869712272 0 -0.066237696895848033 -0.30175990202967712 0 -0.057136779716869042 -0.28712205926022771 0 -0.05012745319326059 -0.30445945297878008 0 -0.034478529498429812 -0.28951379058442123 0 -0.05012745319326059 -0.30445945297878008 0 -0.031649484425336299 -0.31701356192698721 0 -0.034478529498429812 -0.28951379058442123 0 -0.031649484425336299 -0.31701356192698721 0 -0.034478529498429812 -0.28951379058442123 0 -0.020284114256294641 -0.29759304008048471 0 -0.031649484425336299 -0.31701356192698721 0 -0.020284114256294641 -0.29759304008048471 0 -0.01007927323019326 -0.3103345258507364 0 -0.031649484425336299 -0.31701356192698721 0 -0.020284114256294641 -0.29759304008048471 0 -0.01007927323019326 -0.3103345258507364 0 -0.0080748459131490501 -0.2914060437848453 0 -0.01007927323019326 -0.3103345258507364 0 -0.0080748459131490501 -0.2914060437848453 0 0.0017563221397047381 -0.2997067901486577 0 -0.020284114256294641 -0.29759304008048471 0 -0.0080748459131490501 -0.2914060437848453 0 -0.017138438214364771 -0.27969727825543328 0 -0.0080748459131490501 -0.2914060437848453 0 -0.002848760243290064 -0.27761611820401882 0 0.0066437179820165657 -0.2861171845936395 0 -0.0080748459131490501 -0.2914060437848453 0 -0.017138438214364771 -0.27969727825543328 0 -0.002848760243290064 -0.27761611820401882 0 -0.034478529498429812 -0.28951379058442123 0 -0.020284114256294641 -0.29759304008048471 0 -0.017138438214364771 -0.27969727825543328 0 -0.034478529498429812 -0.28951379058442123 0 -0.024854767991187229 -0.26705994663832661 0 -0.017138438214364771 -0.27969727825543328 0 -0.024854767991187229 -0.26705994663832661 0 -0.01588915841142927 -0.27169793716392882 0 -0.01145854626600548 -0.26602311564559261 0 -0.024854767991187229 -0.26705994663832661 0 -0.01588915841142927 -0.27169793716392882 0 -0.017138438214364771 -0.27969727825543328 0 -0.017138438214364771 -0.27969727825543328 0 -0.011833725783772399 -0.27375861231724341 0 -0.002848760243290064 -0.27761611820401882 0 -0.01145854626600548 -0.26602311564559261 0 0.01128192931255503 -0.27464126756021451 0 -0.002848760243290064 -0.27761611820401882 0 -0.01145854626600548 -0.26602311564559261 0 0.01128192931255503 -0.27464126756021451 0 -0.01588915841142927 -0.27169793716392882 0 -0.017138438214364771 -0.27969727825543328 0 -0.011833725783772399 -0.27375861231724341 0 -0.011833725783772399 -0.27375861231724341 0 -0.002848760243290064 -0.27761611820401882 0 -0.01145854626600548 -0.26602311564559261 0 -0.01588915841142927 -0.27169793716392882 0 -0.011833725783772399 -0.27375861231724341 0 -0.01145854626600548 -0.26602311564559261 0 -0.01269776775011346 -0.25850600500130039 0 -0.0051360078472848583 -0.25701396995817721 0 0.0057158633005241696 -0.26337829885565528 0 -0.01145854626600548 -0.26602311564559261 0 -0.01269776775011346 -0.25850600500130039 0 0.0057158633005241696 -0.26337829885565528 0 -0.01269776775011346 -0.25850600500130039 0 0.0057158633005241696 -0.26337829885565528 0 -0.0009620894167222515 -0.25496392916579452 0 -0.0051360078472848583 -0.25701396995817721 0 0.0057158633005241696 -0.26337829885565528 0 -0.0071971320314794382 -0.2528457057960789 0 -0.01082738352359053 -0.24876902592697839 0 -0.0029313858115674811 -0.24854412401401971 0 -0.0009620894167222515 -0.25496392916579452 0 -0.0071971320314794382 -0.2528457057960789 0 -0.0029313858115674811 -0.24854412401401971 0 -0.0009620894167222515 -0.25496392916579452 0 -0.0051360078472848583 -0.25701396995817721 0 -0.0071971320314794382 -0.2528457057960789 0 -0.0051360078472848583 -0.25701396995817721 0 -0.0071971320314794382 -0.2528457057960789 0 -0.0094143843739788544 -0.25459574361389747 0 -0.0071971320314794382 -0.2528457057960789 0 -0.0094143843739788544 -0.25459574361389747 0 -0.01082738352359053 -0.24876902592697839 0 -0.01269776775011346 -0.25850600500130039 0 -0.0094143843739788544 -0.25459574361389747 0 -0.01082738352359053 -0.24876902592697839 0 -0.01269776775011346 -0.25850600500130039 0 -0.0051360078472848583 -0.25701396995817721 0 -0.0094143843739788544 -0.25459574361389747 0 -0.01269776775011346 -0.25850600500130039 0 -0.025857267464119819 -0.25506418495113531 0 -0.034199021844566052 -0.25740496373097072 0 -0.01145854626600548 -0.26602311564559261 0 -0.025857267464119819 -0.25506418495113531 0 -0.01269776775011346 -0.25850600500130039 0 -0.025857267464119819 -0.25506418495113531 0 -0.02368513365757598 -0.23851275990414511 0 -0.034199021844566052 -0.25740496373097072 0 -0.024854767991187229 -0.26705994663832661 0 -0.01145854626600548 -0.26602311564559261 0 -0.034199021844566052 -0.25740496373097072 0 -0.01145854626600548 -0.26602311564559261 0 -0.01145854626600548 -0.26602311564559261 0 -0.01269776775011346 -0.25850600500130039 0 -0.025857267464119819 -0.25506418495113531 0 -0.046940286889098168 -0.35955036210978841 0 -0.050269733973634309 -0.3392354021108881 0 -0.02882043935224279 -0.34451333326955308 0 -0.046940286889098168 -0.35955036210978841 0 -0.02882043935224279 -0.34451333326955308 0 -0.026419717968229769 -0.36867473508972981 0 -0.046940286889098168 -0.35955036210978841 0 -0.026419717968229769 -0.36867473508972981 0 -0.046935058978613817 -0.3783756837809118 0 -0.065890469742167113 -0.37350781086095058 0 -0.046940286889098168 -0.35955036210978841 0 -0.046935058978613817 -0.3783756837809118 0 -0.063306301319701316 -0.35299520754669739 0 -0.065890469742167113 -0.37350781086095058 0 -0.046940286889098168 -0.35955036210978841 0 -0.063306301319701316 -0.35299520754669739 0 -0.046940286889098168 -0.35955036210978841 0 -0.050269733973634309 -0.3392354021108881 0 -0.073144777225565616 -0.33606175945158517 0 -0.063306301319701316 -0.35299520754669739 0 -0.050269733973634309 -0.3392354021108881 0 -0.073144777225565616 -0.33606175945158517 0 -0.050269733973634309 -0.3392354021108881 0 -0.060613113796085999 -0.32288269869712272 0 -0.050269733973634309 -0.3392354021108881 0 -0.060613113796085999 -0.32288269869712272 0 -0.031649484425336299 -0.31701356192698721 0 -0.05012745319326059 -0.30445945297878008 0 -0.060613113796085999 -0.32288269869712272 0 -0.031649484425336299 -0.31701356192698721 0 -0.050269733973634309 -0.3392354021108881 0 -0.031649484425336299 -0.31701356192698721 0 -0.02882043935224279 -0.34451333326955308 0 -0.031649484425336299 -0.31701356192698721 0 -0.02882043935224279 -0.34451333326955308 0 -0.031649484425336299 -0.31701356192698721 0 -0.0038616663111063101 -0.33241552487502413 0 -0.02882043935224279 -0.34451333326955308 0 -0.01007927323019326 -0.3103345258507364 0 -0.031649484425336299 -0.31701356192698721 0 -0.0038616663111063101 -0.33241552487502413 0 -0.01007927323019326 -0.3103345258507364 0 -0.0038616663111063101 -0.33241552487502413 0 0.0094652366165251054 -0.31053241408104548 0 -0.0038616663111063101 -0.33241552487502413 0 -0.0043130761299947744 -0.35643483176966217 0 -0.02882043935224279 -0.34451333326955308 0 -0.0043130761299947744 -0.35643483176966217 0 -0.02882043935224279 -0.34451333326955308 0 -0.026419717968229769 -0.36867473508972981 0 -0.0043130761299947744 -0.35643483176966217 0 -0.026419717968229769 -0.36867473508972981 0 -0.0064694903547723136 -0.38059021958606692 0 -0.0064694903547723136 -0.38059021958606692 0 -0.0080625817845775948 -0.40608726553411861 0 -0.026496984295852101 -0.39226102623928111 0 -0.0064694903547723136 -0.38059021958606692 0 -0.0080625817845775948 -0.40608726553411861 0 0.009690974369139977 -0.39295199195252922 0 -0.0080625817845775948 -0.40608726553411861 0 -0.026496984295852101 -0.39226102623928111 0 -0.029852467816379728 -0.41236872525256307 0 -0.026419717968229769 -0.36867473508972981 0 -0.0064694903547723136 -0.38059021958606692 0 -0.026496984295852101 -0.39226102623928111 0 -0.026496984295852101 -0.39226102623928111 0 -0.048213792324517578 -0.39768762776665978 0 -0.046935058978613817 -0.3783756837809118 0 -0.026419717968229769 -0.36867473508972981 0 -0.026496984295852101 -0.39226102623928111 0 -0.046935058978613817 -0.3783756837809118 0 -0.026496984295852101 -0.39226102623928111 0 -0.048213792324517578 -0.39768762776665978 0 -0.029852467816379728 -0.41236872525256307 0 -0.048213792324517578 -0.39768762776665978 0 -0.065379196062645584 -0.39052657147488062 0 -0.06528413140028641 -0.40548789039177052 0 -0.048213792324517578 -0.39768762776665978 0 -0.046935058978613817 -0.3783756837809118 0 -0.065379196062645584 -0.39052657147488062 0 -0.065890469742167113 -0.37350781086095058 0 -0.046935058978613817 -0.3783756837809118 0 -0.065379196062645584 -0.39052657147488062 0 -0.052630130657334448 -0.42871109396582502 0 -0.036803499053157718 -0.43392585985635063 0 -0.055908543568221357 -0.44353945242809251 0 -0.052630130657334448 -0.42871109396582502 0 -0.048282499091199083 -0.41684649723306111 0 -0.065713266975248902 -0.42040157794015642 0 -0.052630130657334448 -0.42871109396582502 0 -0.055908543568221357 -0.44353945242809251 0 -0.077753046024815156 -0.43509142098737241 0 -0.048282499091199083 -0.41684649723306111 0 -0.06528413140028641 -0.40548789039177052 0 -0.065713266975248902 -0.42040157794015642 0 -0.048213792324517578 -0.39768762776665978 0 -0.048282499091199083 -0.41684649723306111 0 -0.06528413140028641 -0.40548789039177052 0 -0.048213792324517578 -0.39768762776665978 0 -0.048282499091199083 -0.41684649723306111 0 -0.029852467816379728 -0.41236872525256307 0 -0.048282499091199083 -0.41684649723306111 0 -0.036803499053157718 -0.43392585985635063 0 -0.029852467816379728 -0.41236872525256307 0 -0.052630130657334448 -0.42871109396582502 0 -0.048282499091199083 -0.41684649723306111 0 -0.036803499053157718 -0.43392585985635063 0 -0.036803499053157718 -0.43392585985635063 0 -0.01686747062211669 -0.42668809062348251 0 -0.022482277956740859 -0.44034230556013138 0 -0.036803499053157718 -0.43392585985635063 0 -0.01686747062211669 -0.42668809062348251 0 -0.029852467816379728 -0.41236872525256307 0 -0.0080625817845775948 -0.40608726553411861 0 -0.01686747062211669 -0.42668809062348251 0 -0.029852467816379728 -0.41236872525256307 0 -0.0080625817845775948 -0.40608726553411861 0 -0.01686747062211669 -0.42668809062348251 0 0.01224976062295041 -0.42183763890738629 0 -0.01686747062211669 -0.42668809062348251 0 -0.008216644178786571 -0.4466179140804285 0 0.01224976062295041 -0.42183763890738629 0 -0.008216644178786571 -0.4466179140804285 0 -0.0021957942935651631 -0.46571035637089769 0 -0.016151777162071251 -0.46269316979172348 0 -0.0021957942935651631 -0.46571035637089769 0 -0.016151777162071251 -0.46269316979172348 0 -0.01292321871024151 -0.47600360382280887 0 -0.008216644178786571 -0.4466179140804285 0 -0.016151777162071251 -0.46269316979172348 0 -0.028753682251359231 -0.45370767630375852 0 -0.016151777162071251 -0.46269316979172348 0 -0.030722049445265721 -0.46513815794063051 0 -0.025757536927686689 -0.47561542944709773 0 -0.016151777162071251 -0.46269316979172348 0 -0.030722049445265721 -0.46513815794063051 0 -0.028753682251359231 -0.45370767630375852 0 -0.036803499053157718 -0.43392585985635063 0 -0.028753682251359231 -0.45370767630375852 0 -0.022482277956740859 -0.44034230556013138 0 -0.01686747062211669 -0.42668809062348251 0 -0.008216644178786571 -0.4466179140804285 0 -0.022482277956740859 -0.44034230556013138 0 -0.008216644178786571 -0.4466179140804285 0 -0.028753682251359231 -0.45370767630375852 0 -0.022482277956740859 -0.44034230556013138 0 -0.011489863113854141 -0.5 0 -0.010144146689038991 -0.48941639725935437 0 0.012735562036971701 -0.48508522326900949 0 -0.010144146689038991 -0.48941639725935437 0 -0.00065605929082254884 -0.47874224407546379 0 -0.01292321871024151 -0.47600360382280887 0 -0.010144146689038991 -0.48941639725935437 0 -0.01292321871024151 -0.47600360382280887 0 -0.022633997898264431 -0.48384402599231691 0 -0.0021957942935651631 -0.46571035637089769 0 -0.00065605929082254884 -0.47874224407546379 0 -0.01292321871024151 -0.47600360382280887 0 -0.016151777162071251 -0.46269316979172348 0 -0.01292321871024151 -0.47600360382280887 0 -0.025757536927686689 -0.47561542944709773 0 -0.025757536927686689 -0.47561542944709773 0 -0.022633997898264431 -0.48384402599231691 0 -0.032724513000240443 -0.48384135401243772 0 -0.01292321871024151 -0.47600360382280887 0 -0.025757536927686689 -0.47561542944709773 0 -0.022633997898264431 -0.48384402599231691 0 -0.011489863113854141 -0.5 0 -0.010144146689038991 -0.48941639725935437 0 -0.033023855415049652 -0.49374757124969931 0 -0.010144146689038991 -0.48941639725935437 0 -0.022633997898264431 -0.48384402599231691 0 -0.033023855415049652 -0.49374757124969931 0 -0.011489863113854141 -0.5 0 -0.041002190054857779 -0.5 0 -0.033023855415049652 -0.49374757124969931 0 -0.010144146689038991 -0.48941639725935437 0 -0.033023855415049652 -0.49374757124969931 0 -0.022633997898264431 -0.48384402599231691 0 -0.033023855415049652 -0.49374757124969931 0 -0.032724513000240443 -0.48384135401243772 0 -0.041002190054857779 -0.5 0 -0.040644419244316249 -0.48874723383863622 0 -0.055758353525359711 -0.48944453406372251 0 -0.041002190054857779 -0.5 0 -0.033023855415049652 -0.49374757124969931 0 -0.040644419244316249 -0.48874723383863622 0 -0.033023855415049652 -0.49374757124969931 0 -0.040644419244316249 -0.48874723383863622 0 -0.032724513000240443 -0.48384135401243772 0 -0.040644419244316249 -0.48874723383863622 0 -0.040713184226073652 -0.47670270986732172 0 -0.055758353525359711 -0.48944453406372251 0 -0.040644419244316249 -0.48874723383863622 0 -0.040713184226073652 -0.47670270986732172 0 -0.032724513000240443 -0.48384135401243772 0 -0.025757536927686689 -0.47561542944709773 0 -0.040713184226073652 -0.47670270986732172 0 -0.032724513000240443 -0.48384135401243772 0 -0.030722049445265721 -0.46513815794063051 0 -0.025757536927686689 -0.47561542944709773 0 -0.040713184226073652 -0.47670270986732172 0 -0.040713184226073652 -0.47670270986732172 0 -0.05604151524233808 -0.47085547185542692 0 -0.042137987481662489 -0.46199998676314519 0 -0.040713184226073652 -0.47670270986732172 0 -0.05604151524233808 -0.47085547185542692 0 -0.055758353525359711 -0.48944453406372251 0 -0.05604151524233808 -0.47085547185542692 0 -0.055758353525359711 -0.48944453406372251 0 -0.068357021366280857 -0.47830767763467641 0 -0.041002190054857779 -0.5 0 -0.055758353525359711 -0.48944453406372251 0 -0.070514516995861642 -0.5 0 -0.036803499053157718 -0.43392585985635063 0 -0.028753682251359231 -0.45370767630375852 0 -0.042591220718736618 -0.44931976272637059 0 -0.036803499053157718 -0.43392585985635063 0 -0.042591220718736618 -0.44931976272637059 0 -0.055908543568221357 -0.44353945242809251 0 -0.028753682251359231 -0.45370767630375852 0 -0.042591220718736618 -0.44931976272637059 0 -0.042137987481662489 -0.46199998676314519 0 -0.030722049445265721 -0.46513815794063051 0 -0.028753682251359231 -0.45370767630375852 0 -0.042137987481662489 -0.46199998676314519 0 -0.030722049445265721 -0.46513815794063051 0 -0.040713184226073652 -0.47670270986732172 0 -0.042137987481662489 -0.46199998676314519 0 -0.042591220718736618 -0.44931976272637059 0 -0.042137987481662489 -0.46199998676314519 0 -0.054601469153056192 -0.45704509188174619 0 -0.05604151524233808 -0.47085547185542692 0 -0.054601469153056192 -0.45704509188174619 0 -0.071896784036839162 -0.45711427830285839 0 -0.05604151524233808 -0.47085547185542692 0 -0.042137987481662489 -0.46199998676314519 0 -0.054601469153056192 -0.45704509188174619 0 -0.054601469153056192 -0.45704509188174619 0 -0.055908543568221357 -0.44353945242809251 0 -0.071896784036839162 -0.45711427830285839 0 -0.042591220718736618 -0.44931976272637059 0 -0.054601469153056192 -0.45704509188174619 0 -0.055908543568221357 -0.44353945242809251 0 -0.055908543568221357 -0.44353945242809251 0 -0.071896784036839162 -0.45711427830285839 0 -0.077753046024815156 -0.43509142098737241 0 -0.071896784036839162 -0.45711427830285839 0 -0.087573937031005744 -0.47412410395137422 0 -0.093954286744555499 -0.45179652052777369 0 -0.087573937031005744 -0.47412410395137422 0 -0.093954286744555499 -0.45179652052777369 0 -0.071896784036839162 -0.45711427830285839 0 -0.093954286744555499 -0.45179652052777369 0 -0.077753046024815156 -0.43509142098737241 0 -0.093954286744555499 -0.45179652052777369 0 -0.10033463645810529 -0.42946893710417328 0 -0.077753046024815156 -0.43509142098737241 0 -0.055758353525359711 -0.48944453406372251 0 -0.070514516995861642 -0.5 0 -0.068357021366280857 -0.47830767763467641 0 -0.05604151524233808 -0.47085547185542692 0 -0.071896784036839162 -0.45711427830285839 0 -0.068357021366280857 -0.47830767763467641 0 -0.071896784036839162 -0.45711427830285839 0 -0.068357021366280857 -0.47830767763467641 0 -0.087573937031005744 -0.47412410395137422 0 -0.070514516995861642 -0.5 0 -0.068357021366280857 -0.47830767763467641 0 -0.087573937031005744 -0.47412410395137422 0 -0.070514516995861642 -0.5 0 -0.087573937031005744 -0.47412410395137422 0 -0.10002684393686551 -0.5 0 -0.087573937031005744 -0.47412410395137422 0 -0.10002684393686551 -0.5 0 -0.10780494223314389 -0.47765854937150709 0 -0.087573937031005744 -0.47412410395137422 0 -0.10780494223314389 -0.47765854937150709 0 -0.1029954147344513 -0.46359439800738522 0 -0.12605423818426559 -0.48707922202292669 0 -0.10780494223314389 -0.47765854937150709 0 -0.1201929706126502 -0.46127799294672761 0 -0.12605423818426559 -0.48707922202292669 0 -0.1201929706126502 -0.46127799294672761 0 -0.12605423818426559 -0.48707922202292669 0 -0.10002684393686551 -0.5 0 -0.10780494223314389 -0.47765854937150709 0 -0.1295391708778694 -0.5 0 -0.12605423818426559 -0.48707922202292669 0 -0.10002684393686551 -0.5 0 -0.093954286744555499 -0.45179652052777369 0 -0.10033463645810529 -0.42946893710417328 0 -0.10636180231815941 -0.44832292249131772 0 -0.11433170304103479 -0.43547676387052858 0 -0.10033463645810529 -0.42946893710417328 0 -0.10636180231815941 -0.44832292249131772 0 -0.093954286744555499 -0.45179652052777369 0 -0.10033463645810529 -0.42946893710417328 0 -0.087573937031005744 -0.47412410395137422 0 -0.093954286744555499 -0.45179652052777369 0 -0.1029954147344513 -0.46359439800738522 0 -0.10636180231815941 -0.44832292249131772 0 -0.093954286744555499 -0.45179652052777369 0 -0.1029954147344513 -0.46359439800738522 0 -0.10780494223314389 -0.47765854937150709 0 -0.1029954147344513 -0.46359439800738522 0 -0.1201929706126502 -0.46127799294672761 0 -0.10636180231815941 -0.44832292249131772 0 -0.1029954147344513 -0.46359439800738522 0 -0.1201929706126502 -0.46127799294672761 0 -0.13671083813600751 -0.45044361347006462 0 -0.1201929706126502 -0.46127799294672761 0 -0.11433170304103479 -0.43547676387052858 0 -0.10636180231815941 -0.44832292249131772 0 -0.1201929706126502 -0.46127799294672761 0 -0.11433170304103479 -0.43547676387052858 0 -0.13671083813600751 -0.45044361347006462 0 -0.1225906368027144 -0.43005957413219659 0 -0.11433170304103479 -0.43547676387052858 0 -0.1201929706126502 -0.46127799294672761 0 -0.11433170304103479 -0.43547676387052858 0 -0.1225906368027144 -0.43005957413219659 0 -0.11433170304103479 -0.43547676387052858 0 -0.10847043546942051 -0.40967553479432928 0 -0.11433170304103479 -0.43547676387052858 0 -0.10847043546942051 -0.40967553479432928 0 -0.12908399078123631 -0.42243277819987513 0 -0.1225906368027144 -0.43005957413219659 0 -0.12315425937001 -0.41747458531602638 0 -0.11433170304103479 -0.43547676387052858 0 -0.10033463645810529 -0.42946893710417328 0 -0.10847043546942051 -0.40967553479432928 0 -0.10033463645810529 -0.42946893710417328 0 -0.094107383989168333 -0.41562629379671062 0 -0.1067149861716557 -0.40714135368057303 0 -0.10033463645810529 -0.42946893710417328 0 -0.1067149861716557 -0.40714135368057303 0 -0.10847043546942051 -0.40967553479432928 0 -0.10033463645810529 -0.42946893710417328 0 -0.1067149861716557 -0.40714135368057303 0 -0.094107383989168333 -0.41562629379671062 0 -0.1067149861716557 -0.40714135368057303 0 -0.093615658715422545 -0.40476526464288082 0 -0.10847043546942051 -0.40967553479432928 0 -0.1105756132387118 -0.40676785322215941 0 -0.1073722461642546 -0.40484131873350049 0 -0.10847043546942051 -0.40967553479432928 0 -0.1073722461642546 -0.40484131873350049 0 -0.1067149861716557 -0.40714135368057303 0 -0.10847043546942051 -0.40967553479432928 0 -0.1073722461642546 -0.40484131873350049 0 -0.1067149861716557 -0.40714135368057303 0 -0.10847043546942051 -0.40967553479432928 0 -0.1225906368027144 -0.43005957413219659 0 -0.1163272184937543 -0.41351727508190028 0 -0.12315425937001 -0.41747458531602638 0 -0.10847043546942051 -0.40967553479432928 0 -0.1125412123036873 -0.40894162881917728 0 -0.1163272184937543 -0.41351727508190028 0 -0.1125412123036873 -0.40894162881917728 0 -0.1105756132387118 -0.40676785322215941 0 -0.1147915820128618 -0.40580585217832088 0 -0.1225906368027144 -0.43005957413219659 0 -0.10847043546942051 -0.40967553479432928 0 -0.1163272184937543 -0.41351727508190028 0 -0.10847043546942051 -0.40967553479432928 0 -0.1125412123036873 -0.40894162881917728 0 -0.1105756132387118 -0.40676785322215941 0 -0.1225906368027144 -0.43005957413219659 0 -0.10847043546942051 -0.40967553479432928 0 -0.1125412123036873 -0.40894162881917728 0 -0.1163272184937543 -0.41351727508190028 0 -0.1147915820128618 -0.40580585217832088 0 -0.1225700411049412 -0.40994677461386392 0 -0.1219584454402414 -0.40406961642135292 0 -0.1147915820128618 -0.40580585217832088 0 -0.1163272184937543 -0.41351727508190028 0 -0.1225700411049412 -0.40994677461386392 0 -0.1147915820128618 -0.40580585217832088 0 -0.1163272184937543 -0.41351727508190028 0 -0.12315425937001 -0.41747458531602638 0 -0.1225700411049412 -0.40994677461386392 0 -0.1273295258527142 -0.39594401256049883 0 -0.1219584454402414 -0.40406961642135292 0 -0.1190781430676657 -0.39944145851713192 0 -0.11305295545189779 -0.39895005080087959 0 -0.11384267237711319 -0.38219851895920232 0 -0.1073722461642546 -0.40484131873350049 0 -0.1295768038857959 -0.40463739140698729 0 -0.1225700411049412 -0.40994677461386392 0 -0.1219584454402414 -0.40406961642135292 0 -0.1182582065806136 -0.392437760624607 0 -0.11305295545189779 -0.39895005080087959 0 -0.11384267237711319 -0.38219851895920232 0 -0.11384267237711319 -0.38219851895920232 0 -0.1073722461642546 -0.40484131873350049 0 -0.1219584454402414 -0.40406961642135292 0 -0.1190781430676657 -0.39944145851713192 0 -0.1147915820128618 -0.40580585217832088 0 -0.1273295258527142 -0.39594401256049883 0 -0.1190781430676657 -0.39944145851713192 0 -0.1182582065806136 -0.392437760624607 0 -0.1190781430676657 -0.39944145851713192 0 -0.1182582065806136 -0.392437760624607 0 -0.11305295545189779 -0.39895005080087959 0 -0.1105756132387118 -0.40676785322215941 0 -0.1114480992169309 -0.40409126873371493 0 -0.1073722461642546 -0.40484131873350049 0 -0.1105756132387118 -0.40676785322215941 0 -0.1114480992169309 -0.40409126873371493 0 -0.1147915820128618 -0.40580585217832088 0 -0.11305295545189779 -0.39895005080087959 0 -0.1114480992169309 -0.40409126873371493 0 -0.1147915820128618 -0.40580585217832088 0 -0.11305295545189779 -0.39895005080087959 0 -0.1114480992169309 -0.40409126873371493 0 -0.1073722461642546 -0.40484131873350049 0 -0.1190781430676657 -0.39944145851713192 0 -0.11305295545189779 -0.39895005080087959 0 -0.1147915820128618 -0.40580585217832088 0 -0.12625141541498519 -0.38197991289387551 0 -0.1182582065806136 -0.392437760624607 0 -0.11384267237711319 -0.38219851895920232 0 -0.12625141541498519 -0.38197991289387551 0 -0.1273295258527142 -0.39594401256049883 0 -0.1182582065806136 -0.392437760624607 0 -0.11384267237711319 -0.38219851895920232 0 -0.10176491866177829 -0.38015793077534599 0 -0.1073722461642546 -0.40484131873350049 0 -0.10176491866177829 -0.38015793077534599 0 -0.095995502779844255 -0.39166661886747001 0 -0.085276019388031976 -0.37619188405436782 0 -0.10849363524981311 -0.36442991456039969 0 -0.11384267237711319 -0.38219851895920232 0 -0.10176491866177829 -0.38015793077534599 0 -0.10176491866177829 -0.38015793077534599 0 -0.1073722461642546 -0.40484131873350049 0 -0.095995502779844255 -0.39166661886747001 0 -0.10176491866177829 -0.38015793077534599 0 -0.1073722461642546 -0.40484131873350049 0 -0.1067149861716557 -0.40714135368057303 0 -0.1073722461642546 -0.40484131873350049 0 -0.095995502779844255 -0.39166661886747001 0 -0.1067149861716557 -0.40714135368057303 0 -0.1073722461642546 -0.40484131873350049 0 -0.1067149861716557 -0.40714135368057303 0 -0.095995502779844255 -0.39166661886747001 0 -0.1067149861716557 -0.40714135368057303 0 -0.095995502779844255 -0.39166661886747001 0 -0.093615658715422545 -0.40476526464288082 0 -0.093615658715422545 -0.40476526464288082 0 -0.081664681120336771 -0.39582842074610342 0 -0.082451352827770552 -0.41163664718976212 0 -0.095995502779844255 -0.39166661886747001 0 -0.093615658715422545 -0.40476526464288082 0 -0.081664681120336771 -0.39582842074610342 0 -0.095995502779844255 -0.39166661886747001 0 -0.081664681120336771 -0.39582842074610342 0 -0.085276019388031976 -0.37619188405436782 0 -0.081664681120336771 -0.39582842074610342 0 -0.085276019388031976 -0.37619188405436782 0 -0.074552591578295357 -0.38401367178407558 0 -0.095995502779844255 -0.39166661886747001 0 -0.085276019388031976 -0.37619188405436782 0 -0.081664681120336771 -0.39582842074610342 0 -0.065379196062645584 -0.39052657147488062 0 -0.074552591578295357 -0.38401367178407558 0 -0.065890469742167113 -0.37350781086095058 0 -0.085276019388031976 -0.37619188405436782 0 -0.074552591578295357 -0.38401367178407558 0 -0.065890469742167113 -0.37350781086095058 0 -0.065379196062645584 -0.39052657147488062 0 -0.074552591578295357 -0.38401367178407558 0 -0.081664681120336771 -0.39582842074610342 0 -0.06528413140028641 -0.40548789039177052 0 -0.082451352827770552 -0.41163664718976212 0 -0.081664681120336771 -0.39582842074610342 0 -0.065379196062645584 -0.39052657147488062 0 -0.06528413140028641 -0.40548789039177052 0 -0.065713266975248902 -0.42040157794015642 0 -0.085028608260126398 -0.42320905853578622 0 -0.082451352827770552 -0.41163664718976212 0 -0.06528413140028641 -0.40548789039177052 0 -0.065713266975248902 -0.42040157794015642 0 -0.082451352827770552 -0.41163664718976212 0 -0.065713266975248902 -0.42040157794015642 0 -0.077753046024815156 -0.43509142098737241 0 -0.085028608260126398 -0.42320905853578622 0 -0.052630130657334448 -0.42871109396582502 0 -0.065713266975248902 -0.42040157794015642 0 -0.077753046024815156 -0.43509142098737241 0 -0.10033463645810529 -0.42946893710417328 0 -0.077753046024815156 -0.43509142098737241 0 -0.085028608260126398 -0.42320905853578622 0 -0.10033463645810529 -0.42946893710417328 0 -0.094107383989168333 -0.41562629379671062 0 -0.085028608260126398 -0.42320905853578622 0 -0.094107383989168333 -0.41562629379671062 0 -0.085028608260126398 -0.42320905853578622 0 -0.082451352827770552 -0.41163664718976212 0 -0.094107383989168333 -0.41562629379671062 0 -0.093615658715422545 -0.40476526464288082 0 -0.082451352827770552 -0.41163664718976212 0 -0.080832567710134945 -0.085265223789800185 0 -0.09573268077664969 -0.090624673380050064 0 -0.094924188455715333 -0.074372309221374736 0 -0.080832567710134945 -0.085265223789800185 0 -0.0944050220014645 -0.1050702242089397 0 -0.09573268077664969 -0.090624673380050064 0 -0.094924188455715333 -0.074372309221374736 0 -0.077079431972146645 -0.050953682142663811 0 -0.080832567710134945 -0.085265223789800185 0 -0.077460787511610923 -0.070469280456870842 0 -0.094924188455715333 -0.074372309221374736 0 -0.077460787511610923 -0.070469280456870842 0 -0.094924188455715333 -0.074372309221374736 0 -0.078535685693175539 -0.061573663464548622 0 -0.080832567710134945 -0.085265223789800185 0 -0.072736864716213656 -0.076885636419884412 0 -0.077460787511610923 -0.070469280456870842 0 -0.072736864716213656 -0.076885636419884412 0 -0.077460787511610923 -0.070469280456870842 0 -0.067174029152377468 -0.071022972744677337 0 -0.077460787511610923 -0.070469280456870842 0 -0.067174029152377468 -0.071022972744677337 0 -0.070308423821052124 -0.061023041189074957 0 -0.077460787511610923 -0.070469280456870842 0 -0.078535685693175539 -0.061573663464548622 0 -0.070308423821052124 -0.061023041189074957 0 -0.067174029152377468 -0.071022972744677337 0 -0.070308423821052124 -0.061023041189074957 0 -0.060830035872249492 -0.064558057335980773 0 -0.072736864716213656 -0.076885636419884412 0 -0.067174029152377468 -0.071022972744677337 0 -0.063732237529271596 -0.080733089011810297 0 -0.067174029152377468 -0.071022972744677337 0 -0.063732237529271596 -0.080733089011810297 0 -0.058000192015007383 -0.073011667883306972 0 -0.080832567710134945 -0.085265223789800185 0 -0.063732237529271596 -0.080733089011810297 0 -0.066023591375222151 -0.09957098179305135 0 -0.080832567710134945 -0.085265223789800185 0 -0.072736864716213656 -0.076885636419884412 0 -0.063732237529271596 -0.080733089011810297 0 -0.066023591375222151 -0.09957098179305135 0 -0.069466171350113709 -0.1135628440840601 0 -0.0944050220014645 -0.1050702242089397 0 -0.066023591375222151 -0.09957098179305135 0 -0.069466171350113709 -0.1135628440840601 0 -0.054384952187449757 -0.110609208962567 0 -0.077516787342341589 -0.1242022911324857 0 -0.069466171350113709 -0.1135628440840601 0 -0.059238207921678762 -0.13024384051707169 0 -0.077516787342341589 -0.1242022911324857 0 -0.093262550211769629 -0.1231040070079162 0 -0.0944050220014645 -0.1050702242089397 0 -0.077516787342341589 -0.1242022911324857 0 -0.069466171350113709 -0.1135628440840601 0 -0.0944050220014645 -0.1050702242089397 0 -0.066023591375222151 -0.09957098179305135 0 -0.0944050220014645 -0.1050702242089397 0 -0.080832567710134945 -0.085265223789800185 0 -0.066023591375222151 -0.09957098179305135 0 -0.0944050220014645 -0.1050702242089397 0 -0.0944050220014645 -0.1050702242089397 0 -0.1071147179002416 -0.1244919901550422 0 -0.11276894493928399 -0.097790936300085646 0 -0.0944050220014645 -0.1050702242089397 0 -0.11276894493928399 -0.097790936300085646 0 -0.09573268077664969 -0.090624673380050064 0 -0.093262550211769629 -0.1231040070079162 0 -0.0944050220014645 -0.1050702242089397 0 -0.1071147179002416 -0.1244919901550422 0 -0.1071147179002416 -0.1244919901550422 0 -0.11276894493928399 -0.097790936300085646 0 -0.1306137014228527 -0.1212095633787966 0 -0.11276894493928399 -0.097790936300085646 0 -0.1306137014228527 -0.1212095633787966 0 -0.112702195828283 -0.076339248342475546 0 -0.13438499311011279 -0.096174695905308166 0 -0.11276894493928399 -0.097790936300085646 0 -0.112702195828283 -0.076339248342475546 0 -0.13438499311011279 -0.096174695905308166 0 -0.11276894493928399 -0.097790936300085646 0 -0.094924188455715333 -0.074372309221374736 0 -0.112702195828283 -0.076339248342475546 0 -0.11276894493928399 -0.097790936300085646 0 -0.094924188455715333 -0.074372309221374736 0 -0.11276894493928399 -0.097790936300085646 0 -0.09573268077664969 -0.090624673380050064 0 -0.094924188455715333 -0.074372309221374736 0 -0.094924188455715333 -0.074372309221374736 0 -0.1026030192468113 -0.064894788769428779 0 -0.112702195828283 -0.076339248342475546 0 -0.094924188455715333 -0.074372309221374736 0 -0.1026030192468113 -0.064894788769428779 0 -0.090333769324138391 -0.059362086744932152 0 -0.1026030192468113 -0.064894788769428779 0 -0.112702195828283 -0.076339248342475546 0 -0.1158705629695205 -0.060236298698018297 0 -0.112702195828283 -0.076339248342475546 0 -0.1158705629695205 -0.060236298698018297 0 -0.13497135686491851 -0.078315161523928284 0 -0.1158705629695205 -0.060236298698018297 0 -0.1150956899200111 -0.045830426672337207 0 -0.1070798181065768 -0.041876824406217303 0 -0.1158705629695205 -0.060236298698018297 0 -0.1150956899200111 -0.045830426672337207 0 -0.12809376798702951 -0.047905065599393698 0 -0.1163329610324388 -0.034474533447810513 0 -0.12530131535501859 -0.034952786400489197 0 -0.12809376798702951 -0.047905065599393698 0 -0.11023593420079281 -0.033339602888773932 0 -0.1150956899200111 -0.045830426672337207 0 -0.12809376798702951 -0.047905065599393698 0 -0.11023593420079281 -0.033339602888773932 0 -0.1163329610324388 -0.034474533447810513 0 -0.12809376798702951 -0.047905065599393698 0 -0.11023593420079281 -0.033339602888773932 0 -0.12809376798702951 -0.047905065599393698 0 -0.1163329610324388 -0.034474533447810513 0 -0.1221370268088495 -0.025998648103035 0 -0.12530131535501859 -0.034952786400489197 0 -0.11023593420079281 -0.033339602888773932 0 -0.1150956899200111 -0.045830426672337207 0 -0.1070798181065768 -0.041876824406217303 0 -0.11023593420079281 -0.033339602888773932 0 -0.1163329610324388 -0.034474533447810513 0 -0.097427134368436918 -0.027820357899848831 0 -0.11023593420079281 -0.033339602888773932 0 -0.1070798181065768 -0.041876824406217303 0 -0.097427134368436918 -0.027820357899848831 0 -0.1070798181065768 -0.041876824406217303 0 -0.096769769074122519 -0.04215743587210824 0 -0.097427134368436918 -0.027820357899848831 0 -0.1158705629695205 -0.060236298698018297 0 -0.1070798181065768 -0.041876824406217303 0 -0.096769769074122519 -0.04215743587210824 0 -0.1026030192468113 -0.064894788769428779 0 -0.1158705629695205 -0.060236298698018297 0 -0.099264754381345577 -0.055060356505970513 0 -0.1158705629695205 -0.060236298698018297 0 -0.096769769074122519 -0.04215743587210824 0 -0.099264754381345577 -0.055060356505970513 0 -0.096769769074122519 -0.04215743587210824 0 -0.099264754381345577 -0.055060356505970513 0 -0.090746651292135133 -0.048651172445365112 0 -0.1158705629695205 -0.060236298698018297 0 -0.096769769074122519 -0.04215743587210824 0 -0.1026030192468113 -0.064894788769428779 0 -0.099264754381345577 -0.055060356505970513 0 -0.090333769324138391 -0.059362086744932152 0 -0.1029392013539359 -0.0085751277431150782 0 -0.12735709500343681 0.004015926865657337 0 -0.1236693299605585 -0.0137973575501921 0 -0.1110604598185659 -0.0207882196779367 0 -0.1029392013539359 -0.0085751277431150782 0 -0.1236693299605585 -0.0137973575501921 0 -0.1029392013539359 -0.0085751277431150782 0 -0.12735709500343681 0.004015926865657337 0 -0.1236693299605585 -0.0137973575501921 0 -0.1110604598185659 -0.0207882196779367 0 -0.1221370268088495 -0.025998648103035 0 -0.1163329610324388 -0.034474533447810513 0 -0.1221370268088495 -0.025998648103035 0 -0.11173939550707281 -0.027270439782157759 0 -0.1110604598185659 -0.0207882196779367 0 -0.1221370268088495 -0.025998648103035 0 -0.11173939550707281 -0.027270439782157759 0 -0.1163329610324388 -0.034474533447810513 0 -0.097427134368436918 -0.027820357899848831 0 -0.1110604598185659 -0.0207882196779367 0 -0.097427134368436918 -0.027820357899848831 0 -0.1029392013539359 -0.0085751277431150782 0 -0.1163329610324388 -0.034474533447810513 0 -0.11173939550707281 -0.027270439782157759 0 -0.097427134368436918 -0.027820357899848831 0 -0.1110604598185659 -0.0207882196779367 0 -0.11173939550707281 -0.027270439782157759 0 -0.097427134368436918 -0.027820357899848831 0 -0.1029392013539359 -0.0085751277431150782 0 -0.086097875964997059 -0.0058870606910941042 0 -0.078521307704434995 -0.021166182351887271 0 -0.1029392013539359 -0.0085751277431150782 0 -0.078521307704434995 -0.021166182351887271 0 -0.1029392013539359 -0.0085751277431150782 0 -0.086097875964997059 -0.0058870606910941042 0 -0.091682611010439896 0.0063963380850077774 0 -0.086097875964997059 -0.0058870606910941042 0 -0.073830544796709738 -0.0078542708917730738 0 -0.078933949510919491 0.00072378658541613432 0 -0.086097875964997059 -0.0058870606910941042 0 -0.078521307704434995 -0.021166182351887271 0 -0.073830544796709738 -0.0078542708917730738 0 -0.097427134368436918 -0.027820357899848831 0 -0.078521307704434995 -0.021166182351887271 0 -0.097427134368436918 -0.027820357899848831 0 -0.078521307704434995 -0.021166182351887271 0 -0.077668975178724509 -0.024078573046198169 0 -0.097427134368436918 -0.027820357899848831 0 -0.1029392013539359 -0.0085751277431150782 0 -0.078521307704434995 -0.021166182351887271 0 -0.078521307704434995 -0.021166182351887271 0 -0.055132092173872667 -0.033226800447327051 0 -0.05822397002114936 -0.01402224463886402 0 -0.078521307704434995 -0.021166182351887271 0 -0.055132092173872667 -0.033226800447327051 0 -0.077668975178724509 -0.024078573046198169 0 -0.075465350998538308 -0.032772608828030472 0 -0.055132092173872667 -0.033226800447327051 0 -0.078521307704434995 -0.021166182351887271 0 -0.077668975178724509 -0.024078573046198169 0 -0.055132092173872667 -0.033226800447327051 0 -0.078521307704434995 -0.021166182351887271 0 -0.05822397002114936 -0.01402224463886402 0 -0.078521307704434995 -0.021166182351887271 0 -0.073830544796709738 -0.0078542708917730738 0 -0.05822397002114936 -0.01402224463886402 0 -0.073830544796709738 -0.0078542708917730738 0 -0.05822397002114936 -0.01402224463886402 0 -0.068462160169621672 0.0025537029525893409 0 -0.073830544796709738 -0.0078542708917730738 0 -0.078933949510919491 0.00072378658541613432 0 -0.068462160169621672 0.0025537029525893409 0 -0.094924188455715333 -0.074372309221374736 0 -0.090333769324138391 -0.059362086744932152 0 -0.077079431972146645 -0.050953682142663811 0 -0.094924188455715333 -0.074372309221374736 0 -0.078535685693175539 -0.061573663464548622 0 -0.077079431972146645 -0.050953682142663811 0 -0.084868245962835154 -0.053326759561897898 0 -0.090333769324138391 -0.059362086744932152 0 -0.077079431972146645 -0.050953682142663811 0 -0.084868245962835154 -0.053326759561897898 0 -0.080876314157704687 -0.04955372347343575 0 -0.082849096915408454 -0.045583035938281863 0 -0.080876314157704687 -0.04955372347343575 0 -0.078708481780428496 -0.048351416250899462 0 -0.082849096915408454 -0.045583035938281863 0 -0.080876314157704687 -0.04955372347343575 0 -0.078708481780428496 -0.048351416250899462 0 -0.077079431972146645 -0.050953682142663811 0 -0.084868245962835154 -0.053326759561897898 0 -0.080876314157704687 -0.04955372347343575 0 -0.077079431972146645 -0.050953682142663811 0 -0.084868245962835154 -0.053326759561897898 0 -0.090746651292135133 -0.048651172445365112 0 -0.082849096915408454 -0.045583035938281863 0 -0.084868245962835154 -0.053326759561897898 0 -0.090333769324138391 -0.059362086744932152 0 -0.090746651292135133 -0.048651172445365112 0 -0.099264754381345577 -0.055060356505970513 0 -0.090333769324138391 -0.059362086744932152 0 -0.090746651292135133 -0.048651172445365112 0 -0.096769769074122519 -0.04215743587210824 0 -0.088481073739883592 -0.043344290748051233 0 -0.083558777677868248 -0.036985518736449702 0 -0.096769769074122519 -0.04215743587210824 0 -0.097427134368436918 -0.027820357899848831 0 -0.077668975178724509 -0.024078573046198169 0 -0.096769769074122519 -0.04215743587210824 0 -0.077668975178724509 -0.024078573046198169 0 -0.083558777677868248 -0.036985518736449702 0 -0.096769769074122519 -0.04215743587210824 0 -0.077668975178724509 -0.024078573046198169 0 -0.090746651292135133 -0.048651172445365112 0 -0.088481073739883592 -0.043344290748051233 0 -0.082849096915408454 -0.045583035938281863 0 -0.096769769074122519 -0.04215743587210824 0 -0.090746651292135133 -0.048651172445365112 0 -0.088481073739883592 -0.043344290748051233 0 -0.077668975178724509 -0.024078573046198169 0 -0.083558777677868248 -0.036985518736449702 0 -0.075465350998538308 -0.032772608828030472 0 -0.083558777677868248 -0.036985518736449702 0 -0.082849096915408454 -0.045583035938281863 0 -0.075062618692292638 -0.040325846155841297 0 -0.088481073739883592 -0.043344290748051233 0 -0.083558777677868248 -0.036985518736449702 0 -0.082849096915408454 -0.045583035938281863 0 -0.082849096915408454 -0.045583035938281863 0 -0.078067002861142085 -0.04575568247049161 0 -0.075062618692292638 -0.040325846155841297 0 -0.078708481780428496 -0.048351416250899462 0 -0.082849096915408454 -0.045583035938281863 0 -0.078067002861142085 -0.04575568247049161 0 -0.075647814056438792 -0.048762431536943832 0 -0.055132092173872667 -0.033226800447327051 0 -0.078067002861142085 -0.04575568247049161 0 -0.075062618692292638 -0.040325846155841297 0 -0.075647814056438792 -0.048762431536943832 0 -0.075062618692292638 -0.040325846155841297 0 -0.075465350998538308 -0.032772608828030472 0 -0.055132092173872667 -0.033226800447327051 0 -0.075647814056438792 -0.048762431536943832 0 -0.061428605263776047 -0.046553119166432878 0 -0.055132092173872667 -0.033226800447327051 0 -0.075062618692292638 -0.040325846155841297 0 -0.075647814056438792 -0.048762431536943832 0 -0.055132092173872667 -0.033226800447327051 0 -0.083558777677868248 -0.036985518736449702 0 -0.075062618692292638 -0.040325846155841297 0 -0.075465350998538308 -0.032772608828030472 0 -0.065722760200719738 -0.052253177456942877 0 -0.075647814056438792 -0.048762431536943832 0 -0.061428605263776047 -0.046553119166432878 0 -0.065722760200719738 -0.052253177456942877 0 -0.07269306068786438 -0.052406879740114577 0 -0.069833853901725543 -0.055329661047837618 0 -0.065722760200719738 -0.052253177456942877 0 -0.07269306068786438 -0.052406879740114577 0 -0.075647814056438792 -0.048762431536943832 0 -0.07269306068786438 -0.052406879740114577 0 -0.073703714626092445 -0.056102563442451223 0 -0.069833853901725543 -0.055329661047837618 0 -0.07269306068786438 -0.052406879740114577 0 -0.077079431972146645 -0.050953682142663811 0 -0.073703714626092445 -0.056102563442451223 0 -0.078708481780428496 -0.048351416250899462 0 -0.077079431972146645 -0.050953682142663811 0 -0.075647814056438792 -0.048762431536943832 0 -0.07269306068786438 -0.052406879740114577 0 -0.077079431972146645 -0.050953682142663811 0 -0.075647814056438792 -0.048762431536943832 0 -0.078708481780428496 -0.048351416250899462 0 -0.078067002861142085 -0.04575568247049161 0 -0.075647814056438792 -0.048762431536943832 0 -0.078535685693175539 -0.061573663464548622 0 -0.073703714626092445 -0.056102563442451223 0 -0.070308423821052124 -0.061023041189074957 0 -0.078535685693175539 -0.061573663464548622 0 -0.077079431972146645 -0.050953682142663811 0 -0.073703714626092445 -0.056102563442451223 0 -0.073703714626092445 -0.056102563442451223 0 -0.070308423821052124 -0.061023041189074957 0 -0.069833853901725543 -0.055329661047837618 0 -0.070308423821052124 -0.061023041189074957 0 -0.064391701294429504 -0.057679717025484439 0 -0.060830035872249492 -0.064558057335980773 0 -0.070308423821052124 -0.061023041189074957 0 -0.069833853901725543 -0.055329661047837618 0 -0.064391701294429504 -0.057679717025484439 0 -0.065722760200719738 -0.052253177456942877 0 -0.069833853901725543 -0.055329661047837618 0 -0.064391701294429504 -0.057679717025484439 0 -0.064391701294429504 -0.057679717025484439 0 -0.055978059279945473 -0.056388284161067823 0 -0.060830035872249492 -0.064558057335980773 0 -0.065722760200719738 -0.052253177456942877 0 -0.064391701294429504 -0.057679717025484439 0 -0.055978059279945473 -0.056388284161067823 0 -0.055978059279945473 -0.056388284161067823 0 -0.041230103293456458 -0.058058117591144771 0 -0.049479852383656611 -0.067543566470139038 0 -0.055978059279945473 -0.056388284161067823 0 -0.049741921456861897 -0.048697412542500033 0 -0.041230103293456458 -0.058058117591144771 0 -0.055978059279945473 -0.056388284161067823 0 -0.049741921456861897 -0.048697412542500033 0 -0.061428605263776047 -0.046553119166432878 0 -0.065722760200719738 -0.052253177456942877 0 -0.055978059279945473 -0.056388284161067823 0 -0.061428605263776047 -0.046553119166432878 0 -0.049741921456861897 -0.048697412542500033 0 -0.061428605263776047 -0.046553119166432878 0 -0.055132092173872667 -0.033226800447327051 0 -0.049741921456861897 -0.048697412542500033 0 -0.055132092173872667 -0.033226800447327051 0 -0.032367863380537598 -0.044965144957206583 0 -0.055132092173872667 -0.033226800447327051 0 -0.032367863380537598 -0.044965144957206583 0 -0.055132092173872667 -0.033226800447327051 0 -0.032367863380537598 -0.044965144957206583 0 -0.031233838643279398 -0.031193199633022049 0 -0.049741921456861897 -0.048697412542500033 0 -0.032367863380537598 -0.044965144957206583 0 -0.041230103293456458 -0.058058117591144771 0 -0.032367863380537598 -0.044965144957206583 0 -0.041230103293456458 -0.058058117591144771 0 -0.026902341230915561 -0.060374551747501753 0 -0.05822397002114936 -0.01402224463886402 0 -0.057836245250817257 0.0062936453779614283 0 -0.044352522143416888 0.0050416822031405977 0 -0.05822397002114936 -0.01402224463886402 0 -0.037926632337863607 -0.0068783069258408786 0 -0.05822397002114936 -0.01402224463886402 0 -0.068462160169621672 0.0025537029525893409 0 -0.057836245250817257 0.0062936453779614283 0 -0.055132092173872667 -0.033226800447327051 0 -0.05822397002114936 -0.01402224463886402 0 -0.036243114184870161 -0.018923029155399909 0 -0.055132092173872667 -0.033226800447327051 0 -0.036243114184870161 -0.018923029155399909 0 -0.031233838643279398 -0.031193199633022049 0 -0.055132092173872667 -0.033226800447327051 0 -0.036243114184870161 -0.018923029155399909 0 -0.05822397002114936 -0.01402224463886402 0 -0.036243114184870161 -0.018923029155399909 0 -0.037926632337863607 -0.0068783069258408786 0 -0.05822397002114936 -0.01402224463886402 0 -0.037926632337863607 -0.0068783069258408786 0 -0.044352522143416888 0.0050416822031405977 0 -0.036243114184870161 -0.018923029155399909 0 -0.037926632337863607 -0.0068783069258408786 0 -0.029121832422534862 -0.0067169982391169078 0 -0.037926632337863607 -0.0068783069258408786 0 -0.029539197120254941 -0.00051038393964639519 0 -0.029121832422534862 -0.0067169982391169078 0 -0.037926632337863607 -0.0068783069258408786 0 -0.029539197120254941 -0.00051038393964639519 0 -0.03614709390981162 0.0015378833132510439 0 -0.037926632337863607 -0.0068783069258408786 0 -0.03614709390981162 0.0015378833132510439 0 -0.044352522143416888 0.0050416822031405977 0 -0.036243114184870161 -0.018923029155399909 0 -0.017354136195868258 -0.0046192578634720229 0 -0.01819617019275287 -0.0061732580868559192 0 -0.036243114184870161 -0.018923029155399909 0 -0.017354136195868258 -0.0046192578634720229 0 -0.029121832422534862 -0.0067169982391169078 0 -0.036243114184870161 -0.018923029155399909 0 -0.01819617019275287 -0.0061732580868559192 0 -0.019637671972121611 -0.02148729346067638 0 -0.036243114184870161 -0.018923029155399909 0 -0.017354136195868258 -0.0046192578634720229 0 -0.017354136195868258 -0.0046192578634720229 0 -0.01819617019275287 -0.0061732580868559192 0 -0.013500839782477779 -0.0058155532537883976 0 -0.017354136195868258 -0.0046192578634720229 0 -0.01819617019275287 -0.0061732580868559192 0 -0.017354136195868258 -0.0046192578634720229 0 -0.024546082273817361 -0.00265401331122534 0 -0.02112675760807068 0.0030512678310729521 0 -0.024546082273817361 -0.00265401331122534 0 -0.029539197120254941 -0.00051038393964639519 0 -0.02112675760807068 0.0030512678310729521 0 -0.017354136195868258 -0.0046192578634720229 0 -0.024546082273817361 -0.00265401331122534 0 -0.029121832422534862 -0.0067169982391169078 0 -0.024546082273817361 -0.00265401331122534 0 -0.029539197120254941 -0.00051038393964639519 0 -0.029121832422534862 -0.0067169982391169078 0 -0.01819617019275287 -0.0061732580868559192 0 -0.019637671972121611 -0.02148729346067638 0 -0.011008321991883009 -0.01057962122923565 0 -0.036243114184870161 -0.018923029155399909 0 -0.019637671972121611 -0.02148729346067638 0 -0.031233838643279398 -0.031193199633022049 0 -0.019637671972121611 -0.02148729346067638 0 -0.031233838643279398 -0.031193199633022049 0 -0.016064986363794779 -0.036441041599790329 0 -0.0077215053668332834 -0.022860670268973711 0 -0.00118246574067416 -0.01324232368796026 0 0.0015263381015913891 -0.033415212413580753 0 -0.0077215053668332834 -0.022860670268973711 0 -0.016064986363794779 -0.036441041599790329 0 0.0015263381015913891 -0.033415212413580753 0 -0.019637671972121611 -0.02148729346067638 0 -0.0077215053668332834 -0.022860670268973711 0 -0.016064986363794779 -0.036441041599790329 0 -0.019637671972121611 -0.02148729346067638 0 -0.0077215053668332834 -0.022860670268973711 0 -0.011008321991883009 -0.01057962122923565 0 -0.011008321991883009 -0.01057962122923565 0 -0.00118246574067416 -0.01324232368796026 0 -0.0072764121498596901 -0.0036325873431357339 0 -0.0077215053668332834 -0.022860670268973711 0 -0.011008321991883009 -0.01057962122923565 0 -0.00118246574067416 -0.01324232368796026 0 -0.00118246574067416 -0.01324232368796026 0 -0.0072764121498596901 -0.0036325873431357339 0 0.0012074066645448821 -0.00065723147797176382 0 -0.0072764121498596901 -0.0036325873431357339 0 -0.013500839782477779 -0.0058155532537883976 0 -0.013607688627124061 -0.00178224205395049 0 -0.011008321991883009 -0.01057962122923565 0 -0.0072764121498596901 -0.0036325873431357339 0 -0.013500839782477779 -0.0058155532537883976 0 -0.01819617019275287 -0.0061732580868559192 0 -0.011008321991883009 -0.01057962122923565 0 -0.013500839782477779 -0.0058155532537883976 0 -0.017354136195868258 -0.0046192578634720229 0 -0.013500839782477779 -0.0058155532537883976 0 -0.013607688627124061 -0.00178224205395049 0 -0.017354136195868258 -0.0046192578634720229 0 -0.013607688627124061 -0.00178224205395049 0 -0.032367863380537598 -0.044965144957206583 0 -0.0096036345872028556 -0.056703489467087059 0 -0.032367863380537598 -0.044965144957206583 0 -0.026902341230915561 -0.060374551747501753 0 -0.0096036345872028556 -0.056703489467087059 0 -0.032367863380537598 -0.044965144957206583 0 -0.031233838643279398 -0.031193199633022049 0 -0.016064986363794779 -0.036441041599790329 0 -0.032367863380537598 -0.044965144957206583 0 -0.016064986363794779 -0.036441041599790329 0 -0.0096036345872028556 -0.056703489467087059 0 -0.0096036345872028556 -0.056703489467087059 0 0.0015263381015913891 -0.033415212413580753 0 -0.016064986363794779 -0.036441041599790329 0 -0.0096036345872028556 -0.056703489467087059 0 0.0015263381015913891 -0.033415212413580753 0 -0.0096036345872028556 -0.056703489467087059 0 0.0015263381015913891 -0.033415212413580753 0 0.007298405735321048 -0.051477207310420908 0 -0.0096036345872028556 -0.056703489467087059 0 0.0052181775422467033 -0.064346337314722044 0 -0.0096036345872028556 -0.056703489467087059 0 -0.0043762627118289626 -0.071729097412358583 0 0.0052181775422467033 -0.064346337314722044 0 -0.0043762627118289626 -0.071729097412358583 0 -0.0092607301227374331 -0.088572496961274561 0 -0.01646375475339092 -0.071057556949349329 0 -0.0096036345872028556 -0.056703489467087059 0 -0.01646375475339092 -0.071057556949349329 0 -0.0096036345872028556 -0.056703489467087059 0 -0.0043762627118289626 -0.071729097412358583 0 -0.01646375475339092 -0.071057556949349329 0 -0.0092607301227374331 -0.088572496961274561 0 -0.00044729776891663488 -0.1011528385718463 0 0.0042106568376920582 -0.081118225430045127 0 -0.0043762627118289626 -0.071729097412358583 0 -0.0092607301227374331 -0.088572496961274561 0 0.0042106568376920582 -0.081118225430045127 0 -0.0092607301227374331 -0.088572496961274561 0 -0.037642160748979789 -0.094071739377162955 0 -0.0092607301227374331 -0.088572496961274561 0 -0.023323874919582349 -0.085411624431610003 0 -0.01646375475339092 -0.071057556949349329 0 -0.0092607301227374331 -0.088572496961274561 0 -0.023323874919582349 -0.085411624431610003 0 -0.037642160748979789 -0.094071739377162955 0 -0.023323874919582349 -0.085411624431610003 0 -0.01646375475339092 -0.071057556949349329 0 -0.023323874919582349 -0.085411624431610003 0 -0.01646375475339092 -0.071057556949349329 0 -0.034846350139989962 -0.07108844977272101 0 -0.026902341230915561 -0.060374551747501753 0 -0.01646375475339092 -0.071057556949349329 0 -0.034846350139989962 -0.07108844977272101 0 -0.026902341230915561 -0.060374551747501753 0 -0.0096036345872028556 -0.056703489467087059 0 -0.01646375475339092 -0.071057556949349329 0 -0.041230103293456458 -0.058058117591144771 0 -0.026902341230915561 -0.060374551747501753 0 -0.034846350139989962 -0.07108844977272101 0 -0.041230103293456458 -0.058058117591144771 0 -0.034846350139989962 -0.07108844977272101 0 -0.049479852383656611 -0.067543566470139038 0 -0.034846350139989962 -0.07108844977272101 0 -0.048784805137481749 -0.081200653853927454 0 -0.049479852383656611 -0.067543566470139038 0 -0.023323874919582349 -0.085411624431610003 0 -0.034846350139989962 -0.07108844977272101 0 -0.036149297736508462 -0.082943116858855345 0 -0.023323874919582349 -0.085411624431610003 0 -0.036149297736508462 -0.082943116858855345 0 -0.037642160748979789 -0.094071739377162955 0 -0.036149297736508462 -0.082943116858855345 0 -0.048784805137481749 -0.081200653853927454 0 -0.037642160748979789 -0.094071739377162955 0 -0.034846350139989962 -0.07108844977272101 0 -0.036149297736508462 -0.082943116858855345 0 -0.048784805137481749 -0.081200653853927454 0 -0.063732237529271596 -0.080733089011810297 0 -0.066023591375222151 -0.09957098179305135 0 -0.048784805137481749 -0.081200653853927454 0 -0.066023591375222151 -0.09957098179305135 0 -0.048784805137481749 -0.081200653853927454 0 -0.037642160748979789 -0.094071739377162955 0 -0.063732237529271596 -0.080733089011810297 0 -0.048784805137481749 -0.081200653853927454 0 -0.058000192015007383 -0.073011667883306972 0 -0.055978059279945473 -0.056388284161067823 0 -0.060830035872249492 -0.064558057335980773 0 -0.049479852383656611 -0.067543566470139038 0 -0.058000192015007383 -0.073011667883306972 0 -0.060830035872249492 -0.064558057335980773 0 -0.049479852383656611 -0.067543566470139038 0 -0.067174029152377468 -0.071022972744677337 0 -0.058000192015007383 -0.073011667883306972 0 -0.060830035872249492 -0.064558057335980773 0 -0.048784805137481749 -0.081200653853927454 0 -0.058000192015007383 -0.073011667883306972 0 -0.049479852383656611 -0.067543566470139038 0 -0.069466171350113709 -0.1135628440840601 0 -0.054384952187449757 -0.110609208962567 0 -0.059238207921678762 -0.13024384051707169 0 -0.054384952187449757 -0.110609208962567 0 -0.059238207921678762 -0.13024384051707169 0 -0.032945469352336033 -0.1293562392835419 0 -0.066023591375222151 -0.09957098179305135 0 -0.054384952187449757 -0.110609208962567 0 -0.037642160748979789 -0.094071739377162955 0 -0.066023591375222151 -0.09957098179305135 0 -0.037642160748979789 -0.094071739377162955 0 -0.054384952187449757 -0.110609208962567 0 -0.037642160748979789 -0.094071739377162955 0 -0.035661083064217503 -0.11124856921529409 0 -0.054384952187449757 -0.110609208962567 0 -0.032945469352336033 -0.1293562392835419 0 -0.054384952187449757 -0.110609208962567 0 -0.035661083064217503 -0.11124856921529409 0 -0.032945469352336033 -0.1293562392835419 0 -0.01767174996810443 -0.1109570892379047 0 -0.012892303975098539 -0.12786221844410239 0 -0.032945469352336033 -0.1293562392835419 0 -0.035661083064217503 -0.11124856921529409 0 -0.01767174996810443 -0.1109570892379047 0 -0.032945469352336033 -0.1293562392835419 0 -0.0092607301227374331 -0.088572496961274561 0 -0.037642160748979789 -0.094071739377162955 0 -0.01767174996810443 -0.1109570892379047 0 -0.037642160748979789 -0.094071739377162955 0 -0.035661083064217503 -0.11124856921529409 0 -0.01767174996810443 -0.1109570892379047 0 -0.01767174996810443 -0.1109570892379047 0 -0.00044729776891663488 -0.1011528385718463 0 0.005085065621477718 -0.1151057880332567 0 -0.0092607301227374331 -0.088572496961274561 0 -0.01767174996810443 -0.1109570892379047 0 -0.00044729776891663488 -0.1011528385718463 0 -0.01767174996810443 -0.1109570892379047 0 -0.012892303975098539 -0.12786221844410239 0 0.005085065621477718 -0.1151057880332567 0 -0.012892303975098539 -0.12786221844410239 0 0.0027021066240326768 -0.1317064378292063 0 0.005085065621477718 -0.1151057880332567 0 -0.011505986517222349 -0.14810326960451681 0 -0.033736789854580403 -0.16402697950055581 0 -0.032945469352336033 -0.1293562392835419 0 -0.012892303975098539 -0.12786221844410239 0 -0.011505986517222349 -0.14810326960451681 0 0.0027021066240326768 -0.1317064378292063 0 -0.011505986517222349 -0.14810326960451681 0 -0.032945469352336033 -0.1293562392835419 0 -0.012892303975098539 -0.12786221844410239 0 -0.011505986517222349 -0.14810326960451681 0 -0.032945469352336033 -0.1293562392835419 0 -0.011505986517222349 -0.14810326960451681 0 0.009933496317892726 -0.16685029992549011 0 -0.011505986517222349 -0.14810326960451681 0 -0.0085976242789068957 -0.177408956520272 0 0.009933496317892726 -0.16685029992549011 0 -0.0085976242789068957 -0.177408956520272 0 -0.003739977245034012 -0.19168309442994089 0 -0.02712874487570623 -0.18796761311505439 0 -0.0085976242789068957 -0.177408956520272 0 -0.003739977245034012 -0.19168309442994089 0 0.0034571977838801569 -0.17702496179755631 0 -0.0085976242789068957 -0.177408956520272 0 -0.02712874487570623 -0.18796761311505439 0 -0.0085976242789068957 -0.177408956520272 0 -0.033736789854580403 -0.16402697950055581 0 -0.02712874487570623 -0.18796761311505439 0 -0.011505986517222349 -0.14810326960451681 0 -0.0085976242789068957 -0.177408956520272 0 -0.033736789854580403 -0.16402697950055581 0 -0.033736789854580403 -0.16402697950055581 0 -0.041678182321736049 -0.18065303021324261 0 -0.02712874487570623 -0.18796761311505439 0 -0.033736789854580403 -0.16402697950055581 0 -0.041678182321736049 -0.18065303021324261 0 -0.060187329084152079 -0.17209125852752319 0 -0.041678182321736049 -0.18065303021324261 0 -0.060187329084152079 -0.17209125852752319 0 -0.045659865472505487 -0.198526269709837 0 -0.060187329084152079 -0.17209125852752319 0 -0.045659865472505487 -0.198526269709837 0 -0.033736789854580403 -0.16402697950055581 0 -0.060187329084152079 -0.17209125852752319 0 -0.051699405537506939 -0.14899167338562519 0 -0.060187329084152079 -0.17209125852752319 0 -0.051699405537506939 -0.14899167338562519 0 -0.072389231474787458 -0.1492400490994332 0 -0.051699405537506939 -0.14899167338562519 0 -0.059238207921678762 -0.13024384051707169 0 -0.072389231474787458 -0.1492400490994332 0 -0.033736789854580403 -0.16402697950055581 0 -0.051699405537506939 -0.14899167338562519 0 -0.032945469352336033 -0.1293562392835419 0 -0.051699405537506939 -0.14899167338562519 0 -0.059238207921678762 -0.13024384051707169 0 -0.032945469352336033 -0.1293562392835419 0 -0.025857267464119819 -0.25506418495113531 0 -0.02368513365757598 -0.23851275990414511 0 -0.036167443228362108 -0.24337299090061551 0 -0.01269776775011346 -0.25850600500130039 0 -0.02368513365757598 -0.23851275990414511 0 -0.01269776775011346 -0.25850600500130039 0 -0.02368513365757598 -0.23851275990414511 0 -0.01082738352359053 -0.24876902592697839 0 -0.02368513365757598 -0.23851275990414511 0 -0.0067432183097289999 -0.239968376336817 0 -0.0090267388034834407 -0.23007068799598671 0 -0.02368513365757598 -0.23851275990414511 0 -0.01082738352359053 -0.24876902592697839 0 -0.0067432183097289999 -0.239968376336817 0 -0.01082738352359053 -0.24876902592697839 0 -0.0029313858115674811 -0.24854412401401971 0 -0.0067432183097289999 -0.239968376336817 0 -0.0029313858115674811 -0.24854412401401971 0 -0.0067432183097289999 -0.239968376336817 0 0.0026199421412959989 -0.2430643023623929 0 -0.0067432183097289999 -0.239968376336817 0 0.0026199421412959989 -0.2430643023623929 0 0.0017465435191736189 -0.23378549097037141 0 -0.0067432183097289999 -0.239968376336817 0 -0.0090267388034834407 -0.23007068799598671 0 0.0017465435191736189 -0.23378549097037141 0 -0.0090267388034834407 -0.23007068799598671 0 -0.00080535468136348092 -0.21995366459000901 0 -0.01839049427805331 -0.2195873775130934 0 -0.0090267388034834407 -0.23007068799598671 0 -0.00080535468136348092 -0.21995366459000901 0 0.0017465435191736189 -0.23378549097037141 0 -0.02368513365757598 -0.23851275990414511 0 -0.0090267388034834407 -0.23007068799598671 0 -0.01839049427805331 -0.2195873775130934 0 -0.02368513365757598 -0.23851275990414511 0 -0.01839049427805331 -0.2195873775130934 0 -0.034672499565036527 -0.2185195148069887 0 -0.02368513365757598 -0.23851275990414511 0 -0.034672499565036527 -0.2185195148069887 0 -0.01839049427805331 -0.2195873775130934 0 -0.027127261386640289 -0.20489204062456881 0 -0.034672499565036527 -0.2185195148069887 0 -0.01839049427805331 -0.2195873775130934 0 -0.027127261386640289 -0.20489204062456881 0 -0.01084996336714465 -0.20584666152463099 0 -0.00080535468136348092 -0.21995366459000901 0 -0.01839049427805331 -0.2195873775130934 0 -0.01084996336714465 -0.20584666152463099 0 -0.00080535468136348092 -0.21995366459000901 0 -0.01084996336714465 -0.20584666152463099 0 0.01016515501406726 -0.20926501301563591 0 -0.01084996336714465 -0.20584666152463099 0 -0.003739977245034012 -0.19168309442994089 0 0.01016515501406726 -0.20926501301563591 0 -0.01084996336714465 -0.20584666152463099 0 -0.003739977245034012 -0.19168309442994089 0 -0.02712874487570623 -0.18796761311505439 0 -0.027127261386640289 -0.20489204062456881 0 -0.01084996336714465 -0.20584666152463099 0 -0.02712874487570623 -0.18796761311505439 0 -0.041678182321736049 -0.18065303021324261 0 -0.02712874487570623 -0.18796761311505439 0 -0.045659865472505487 -0.198526269709837 0 -0.02712874487570623 -0.18796761311505439 0 -0.045659865472505487 -0.198526269709837 0 -0.027127261386640289 -0.20489204062456881 0 -0.02712874487570623 -0.18796761311505439 0 -0.045659865472505487 -0.198526269709837 0 -0.045659865472505487 -0.198526269709837 0 -0.067682806497079445 -0.21107449474949169 0 -0.062708331551170268 -0.19442045911658551 0 -0.060187329084152079 -0.17209125852752319 0 -0.045659865472505487 -0.198526269709837 0 -0.062708331551170268 -0.19442045911658551 0 -0.045659865472505487 -0.198526269709837 0 -0.067682806497079445 -0.21107449474949169 0 -0.045659865472505487 -0.198526269709837 0 -0.054546183461555722 -0.22015285450131489 0 -0.067682806497079445 -0.21107449474949169 0 -0.045659865472505487 -0.198526269709837 0 -0.034672499565036527 -0.2185195148069887 0 -0.054546183461555722 -0.22015285450131489 0 -0.045659865472505487 -0.198526269709837 0 -0.034672499565036527 -0.2185195148069887 0 -0.027127261386640289 -0.20489204062456881 0 -0.045659865472505487 -0.198526269709837 0 -0.034672499565036527 -0.2185195148069887 0 -0.034672499565036527 -0.2185195148069887 0 -0.044145410485190079 -0.23242073182379891 0 -0.054546183461555722 -0.22015285450131489 0 -0.02368513365757598 -0.23851275990414511 0 -0.034672499565036527 -0.2185195148069887 0 -0.044145410485190079 -0.23242073182379891 0 -0.044145410485190079 -0.23242073182379891 0 -0.054546183461555722 -0.22015285450131489 0 -0.061280333386656921 -0.23284462843810469 0 -0.061280333386656921 -0.23284462843810469 0 -0.050191684441297867 -0.2485850187836515 0 -0.071591358857016049 -0.2429226102204386 0 -0.050191684441297867 -0.2485850187836515 0 -0.071591358857016049 -0.2429226102204386 0 -0.056939497423126581 -0.24878681181634871 0 -0.050191684441297867 -0.2485850187836515 0 -0.071591358857016049 -0.2429226102204386 0 -0.044145410485190079 -0.23242073182379891 0 -0.061280333386656921 -0.23284462843810469 0 -0.050191684441297867 -0.2485850187836515 0 -0.041398382443623198 -0.25192549838374201 0 -0.056939497423126581 -0.24878681181634871 0 -0.050191684441297867 -0.2485850187836515 0 -0.044145410485190079 -0.23242073182379891 0 -0.050191684441297867 -0.2485850187836515 0 -0.036167443228362108 -0.24337299090061551 0 -0.02368513365757598 -0.23851275990414511 0 -0.044145410485190079 -0.23242073182379891 0 -0.036167443228362108 -0.24337299090061551 0 -0.025857267464119819 -0.25506418495113531 0 -0.050191684441297867 -0.2485850187836515 0 -0.036167443228362108 -0.24337299090061551 0 -0.097628444613881649 -0.25834262822693399 0 -0.087470553331264578 -0.24262075389877999 0 -0.077955776651182085 -0.24454236002529731 0 -0.087470553331264578 -0.24262075389877999 0 -0.087928467376508473 -0.23859976953689591 0 -0.1005617376665941 -0.23997685579502359 0 -0.087928467376508473 -0.23859976953689591 0 -0.07453604668454375 -0.2421434382925548 0 -0.07383618536286593 -0.22753148747966839 0 -0.087928467376508473 -0.23859976953689591 0 -0.07453604668454375 -0.2421434382925548 0 -0.087928467376508473 -0.23859976953689591 0 -0.077955776651182085 -0.24454236002529731 0 -0.07453604668454375 -0.2421434382925548 0 -0.087470553331264578 -0.24262075389877999 0 -0.087928467376508473 -0.23859976953689591 0 -0.077955776651182085 -0.24454236002529731 0 -0.087470553331264578 -0.24262075389877999 0 -0.077955776651182085 -0.24454236002529731 0 -0.056939497423126581 -0.24878681181634871 0 -0.077955776651182085 -0.24454236002529731 0 -0.071591358857016049 -0.2429226102204386 0 -0.056939497423126581 -0.24878681181634871 0 -0.077955776651182085 -0.24454236002529731 0 -0.077955776651182085 -0.24454236002529731 0 -0.071591358857016049 -0.2429226102204386 0 -0.07453604668454375 -0.2421434382925548 0 -0.077955776651182085 -0.24454236002529731 0 -0.07453604668454375 -0.2421434382925548 0 -0.071591358857016049 -0.2429226102204386 0 -0.07453604668454375 -0.2421434382925548 0 -0.056939497423126581 -0.24878681181634871 0 -0.071591358857016049 -0.2429226102204386 0 -0.061280333386656921 -0.23284462843810469 0 -0.071591358857016049 -0.2429226102204386 0 -0.07453604668454375 -0.2421434382925548 0 -0.061280333386656921 -0.23284462843810469 0 -0.07453604668454375 -0.2421434382925548 0 -0.07383618536286593 -0.22753148747966839 0 -0.089705747521653334 -0.22362271978914661 0 -0.067682806497079445 -0.21107449474949169 0 -0.054546183461555722 -0.22015285450131489 0 -0.061280333386656921 -0.23284462843810469 0 -0.07383618536286593 -0.22753148747966839 0 -0.054546183461555722 -0.22015285450131489 0 -0.07383618536286593 -0.22753148747966839 0 -0.067682806497079445 -0.21107449474949169 0 -0.061280333386656921 -0.23284462843810469 0 -0.07453604668454375 -0.2421434382925548 0 -0.07383618536286593 -0.22753148747966839 0 -0.087928467376508473 -0.23859976953689591 0 -0.07383618536286593 -0.22753148747966839 0 -0.089705747521653334 -0.22362271978914661 0 -0.087928467376508473 -0.23859976953689591 0 -0.089705747521653334 -0.22362271978914661 0 -0.1005617376665941 -0.23997685579502359 0 -0.089705747521653334 -0.22362271978914661 0 -0.067682806497079445 -0.21107449474949169 0 -0.089705747521653334 -0.22362271978914661 0 -0.084027466008495671 -0.20735524824550181 0 -0.09921486728828334 -0.20109800384388701 0 -0.089705747521653334 -0.22362271978914661 0 -0.084027466008495671 -0.20735524824550181 0 -0.067682806497079445 -0.21107449474949169 0 -0.084027466008495671 -0.20735524824550181 0 -0.067682806497079445 -0.21107449474949169 0 -0.079506442726966622 -0.19362577459948219 0 -0.067682806497079445 -0.21107449474949169 0 -0.062708331551170268 -0.19442045911658551 0 -0.079506442726966622 -0.19362577459948219 0 -0.079506442726966622 -0.19362577459948219 0 -0.09921486728828334 -0.20109800384388701 0 -0.089369030920126963 -0.1732707743578942 0 -0.084027466008495671 -0.20735524824550181 0 -0.079506442726966622 -0.19362577459948219 0 -0.09921486728828334 -0.20109800384388701 0 -0.09921486728828334 -0.20109800384388701 0 -0.1156293974943295 -0.1822747327150937 0 -0.1210853022939376 -0.205467400633562 0 -0.1156293974943295 -0.1822747327150937 0 -0.13505851963374399 -0.18906788910329131 0 -0.09921486728828334 -0.20109800384388701 0 -0.1210853022939376 -0.205467400633562 0 -0.1156293974943295 -0.1822747327150937 0 -0.1210853022939376 -0.205467400633562 0 -0.10755849924533691 -0.2178899443088799 0 -0.11989889803527461 -0.22145143588075511 0 -0.1210853022939376 -0.205467400633562 0 -0.11989889803527461 -0.22145143588075511 0 -0.13086176299679239 -0.21746526838305219 0 -0.089705747521653334 -0.22362271978914661 0 -0.09921486728828334 -0.20109800384388701 0 -0.10755849924533691 -0.2178899443088799 0 -0.09921486728828334 -0.20109800384388701 0 -0.1210853022939376 -0.205467400633562 0 -0.10755849924533691 -0.2178899443088799 0 -0.089705747521653334 -0.22362271978914661 0 -0.11172868854622731 -0.23617094482880149 0 -0.1005617376665941 -0.23997685579502359 0 -0.089705747521653334 -0.22362271978914661 0 -0.11172868854622731 -0.23617094482880149 0 -0.089705747521653334 -0.22362271978914661 0 -0.10755849924533691 -0.2178899443088799 0 -0.11172868854622731 -0.23617094482880149 0 -0.11989889803527461 -0.22145143588075511 0 -0.11172868854622731 -0.23617094482880149 0 -0.127825895831608 -0.22987551408160201 0 -0.10755849924533691 -0.2178899443088799 0 -0.11989889803527461 -0.22145143588075511 0 -0.11172868854622731 -0.23617094482880149 0 -0.13218950310710981 -0.25272660122947088 0 -0.1218823470606431 -0.24640061544388489 0 -0.1098930818979398 -0.24798588601512411 0 -0.11172868854622731 -0.23617094482880149 0 -0.13375162957080131 -0.24871916986845621 0 -0.11172868854622731 -0.23617094482880149 0 -0.1218823470606431 -0.24640061544388489 0 -0.13375162957080131 -0.24871916986845621 0 -0.11172868854622731 -0.23617094482880149 0 -0.13375162957080131 -0.24871916986845621 0 -0.127825895831608 -0.22987551408160201 0 -0.11172868854622731 -0.23617094482880149 0 -0.1218823470606431 -0.24640061544388489 0 -0.1098930818979398 -0.24798588601512411 0 -0.097628444613881649 -0.25834262822693399 0 -0.087470553331264578 -0.24262075389877999 0 -0.1098930818979398 -0.24798588601512411 0 -0.087470553331264578 -0.24262075389877999 0 -0.1098930818979398 -0.24798588601512411 0 -0.1005617376665941 -0.23997685579502359 0 -0.087470553331264578 -0.24262075389877999 0 -0.1098930818979398 -0.24798588601512411 0 -0.11172868854622731 -0.23617094482880149 0 -0.1098930818979398 -0.24798588601512411 0 -0.1005617376665941 -0.23997685579502359 0 -0.087470553331264578 -0.24262075389877999 0 -0.1005617376665941 -0.23997685579502359 0 -0.072389231474787458 -0.1492400490994332 0 -0.089369030920126963 -0.1732707743578942 0 -0.096011965921864201 -0.14265464397282879 0 -0.077516787342341589 -0.1242022911324857 0 -0.093262550211769629 -0.1231040070079162 0 -0.096011965921864201 -0.14265464397282879 0 -0.077516787342341589 -0.1242022911324857 0 -0.072389231474787458 -0.1492400490994332 0 -0.096011965921864201 -0.14265464397282879 0 -0.077516787342341589 -0.1242022911324857 0 -0.059238207921678762 -0.13024384051707169 0 -0.072389231474787458 -0.1492400490994332 0 -0.060187329084152079 -0.17209125852752319 0 -0.072389231474787458 -0.1492400490994332 0 -0.089369030920126963 -0.1732707743578942 0 -0.060187329084152079 -0.17209125852752319 0 -0.079506442726966622 -0.19362577459948219 0 -0.089369030920126963 -0.1732707743578942 0 -0.060187329084152079 -0.17209125852752319 0 -0.062708331551170268 -0.19442045911658551 0 -0.079506442726966622 -0.19362577459948219 0 -0.089369030920126963 -0.1732707743578942 0 -0.1107512355661594 -0.16096683979900789 0 -0.096011965921864201 -0.14265464397282879 0 -0.09921486728828334 -0.20109800384388701 0 -0.089369030920126963 -0.1732707743578942 0 -0.1156293974943295 -0.1822747327150937 0 -0.089369030920126963 -0.1732707743578942 0 -0.1156293974943295 -0.1822747327150937 0 -0.1107512355661594 -0.16096683979900789 0 -0.1156293974943295 -0.1822747327150937 0 -0.13204392770037571 -0.1634514615863005 0 -0.1156293974943295 -0.1822747327150937 0 -0.1107512355661594 -0.16096683979900789 0 -0.13204392770037571 -0.1634514615863005 0 -0.1107512355661594 -0.16096683979900789 0 -0.12070185579410091 -0.1431825863629223 0 -0.13204392770037571 -0.1634514615863005 0 -0.1107512355661594 -0.16096683979900789 0 -0.12070185579410091 -0.1431825863629223 0 -0.096011965921864201 -0.14265464397282879 0 -0.1071147179002416 -0.1244919901550422 0 -0.12070185579410091 -0.1431825863629223 0 -0.096011965921864201 -0.14265464397282879 0 -0.093262550211769629 -0.1231040070079162 0 -0.1071147179002416 -0.1244919901550422 0 -0.096011965921864201 -0.14265464397282879 0 -0.1071147179002416 -0.1244919901550422 0 -0.12070185579410091 -0.1431825863629223 0 -0.1306137014228527 -0.1212095633787966 0 -0.12070185579410091 -0.1431825863629223 0 -0.14845845790642179 -0.14462819045750719 0 -0.1306137014228527 -0.1212095633787966 0 -0.14845845790642179 -0.14462819045750719 0 -0.1306137014228527 -0.1212095633787966 0 -0.15036797716661271 -0.14243845987679379 0 -0.14845845790642179 -0.14462819045750719 0 -0.1306137014228527 -0.1212095633787966 0 -0.15406265534163929 -0.1294064941378926 0 -0.15036797716661271 -0.14243845987679379 0 -0.1306137014228527 -0.1212095633787966 0 -0.15406265534163929 -0.1294064941378926 0 -0.15036797716661271 -0.14243845987679379 0 -0.1564494690737798 -0.13971242061594299 0 -0.1543278084257422 -0.1453912472931165 0 -0.14845845790642179 -0.14462819045750719 0 -0.15894149653025619 -0.15184230729274609 0 -0.15519343748037609 -0.14309809199123349 0 -0.15036797716661271 -0.14243845987679379 0 -0.1564494690737798 -0.13971242061594299 0 -0.1543278084257422 -0.1453912472931165 0 -0.15519343748037609 -0.14309809199123349 0 -0.15036797716661271 -0.14243845987679379 0 -0.1543278084257422 -0.1453912472931165 0 -0.15036797716661271 -0.14243845987679379 0 -0.14845845790642179 -0.14462819045750719 0 -0.15036797716661271 -0.14243845987679379 0 -0.14845845790642179 -0.14462819045750719 0 -0.12070185579410091 -0.1431825863629223 0 -0.14845845790642179 -0.14462819045750719 0 -0.13204392770037571 -0.1634514615863005 0 -0.14845845790642179 -0.14462819045750719 0 -0.13204392770037571 -0.1634514615863005 0 -0.13204392770037571 -0.1634514615863005 0 -0.1475860696211248 -0.17640031700015249 0 -0.13505851963374399 -0.18906788910329131 0 -0.1156293974943295 -0.1822747327150937 0 -0.13204392770037571 -0.1634514615863005 0 -0.13505851963374399 -0.18906788910329131 0 -0.1475860696211248 -0.17640031700015249 0 -0.1655722477793394 -0.1670875310098065 0 -0.15496537504316019 -0.19429807729602311 0 -0.1475860696211248 -0.17640031700015249 0 -0.13505851963374399 -0.18906788910329131 0 -0.15496537504316019 -0.19429807729602311 0 -0.1475860696211248 -0.17640031700015249 0 -0.14862352044039201 -0.16347018067920821 0 -0.1655722477793394 -0.1670875310098065 0 -0.14845845790642179 -0.14462819045750719 0 -0.13204392770037571 -0.1634514615863005 0 -0.14862352044039201 -0.16347018067920821 0 -0.14845845790642179 -0.14462819045750719 0 -0.14862352044039201 -0.16347018067920821 0 -0.1655722477793394 -0.1670875310098065 0 -0.13204392770037571 -0.1634514615863005 0 -0.1475860696211248 -0.17640031700015249 0 -0.14862352044039201 -0.16347018067920821 0 -0.1655722477793394 -0.1670875310098065 0 -0.1716614177265566 -0.15146656102038991 0 -0.1655722477793394 -0.1670875310098065 0 -0.15894149653025619 -0.15184230729274609 0 -0.1716614177265566 -0.15146656102038991 0 -0.1655722477793394 -0.1670875310098065 0 -0.17557921295501691 -0.18022020591375351 0 -0.1689483943248192 -0.19264195369377959 0 -0.1655722477793394 -0.1670875310098065 0 -0.15496537504316019 -0.19429807729602311 0 -0.1689483943248192 -0.19264195369377959 0 -0.1655722477793394 -0.1670875310098065 0 -0.15496537504316019 -0.19429807729602311 0 -0.1655722477793394 -0.1670875310098065 0 -0.17557921295501691 -0.18022020591375351 0 -0.17557921295501691 -0.18022020591375351 0 -0.18239484980351819 -0.16464781923938721 0 -0.1907059301477185 -0.18468107337543721 0 -0.1655722477793394 -0.1670875310098065 0 -0.17557921295501691 -0.18022020591375351 0 -0.18239484980351819 -0.16464781923938721 0 -0.1655722477793394 -0.1670875310098065 0 -0.18239484980351819 -0.16464781923938721 0 -0.1716614177265566 -0.15146656102038991 0 -0.18239484980351819 -0.16464781923938721 0 -0.1716614177265566 -0.15146656102038991 0 -0.1894311146879058 -0.1465309504005988 0 -0.17775058767377289 -0.13584559103097291 0 -0.1716614177265566 -0.15146656102038991 0 -0.1894311146879058 -0.1465309504005988 0 -0.17775058767377289 -0.13584559103097291 0 -0.1716614177265566 -0.15146656102038991 0 -0.17775058767377289 -0.13584559103097291 0 -0.1894311146879058 -0.1465309504005988 0 -0.17775058767377289 -0.13584559103097291 0 -0.19823449762692411 -0.13229999761030051 0 -0.18534812722118199 -0.1163550958908785 0 -0.17775058767377289 -0.13584559103097291 0 -0.18534812722118199 -0.1163550958908785 0 -0.15406265534163929 -0.1294064941378926 0 -0.16394560233522651 -0.1386698702264933 0 -0.15606779039194271 -0.1160101434681408 0 -0.17775058767377289 -0.13584559103097291 0 -0.16394560233522651 -0.1386698702264933 0 -0.15606779039194271 -0.1160101434681408 0 -0.17775058767377289 -0.13584559103097291 0 -0.15606779039194271 -0.1160101434681408 0 -0.15406265534163929 -0.1294064941378926 0 -0.16394560233522651 -0.1386698702264933 0 -0.1564494690737798 -0.13971242061594299 0 -0.16394560233522651 -0.1386698702264933 0 -0.1564494690737798 -0.13971242061594299 0 -0.15962849525536979 -0.1448502401790808 0 -0.14845845790642179 -0.14462819045750719 0 -0.1655722477793394 -0.1670875310098065 0 -0.14845845790642179 -0.14462819045750719 0 -0.1655722477793394 -0.1670875310098065 0 -0.15894149653025619 -0.15184230729274609 0 -0.15519343748037609 -0.14309809199123349 0 -0.1564494690737798 -0.13971242061594299 0 -0.15962849525536979 -0.1448502401790808 0 -0.1543278084257422 -0.1453912472931165 0 -0.15519343748037609 -0.14309809199123349 0 -0.15962849525536979 -0.1448502401790808 0 -0.1543278084257422 -0.1453912472931165 0 -0.15962849525536979 -0.1448502401790808 0 -0.15894149653025619 -0.15184230729274609 0 -0.15962849525536979 -0.1448502401790808 0 -0.15894149653025619 -0.15184230729274609 0 -0.1716614177265566 -0.15146656102038991 0 -0.17775058767377289 -0.13584559103097291 0 -0.16394560233522651 -0.1386698702264933 0 -0.1716614177265566 -0.15146656102038991 0 -0.16394560233522651 -0.1386698702264933 0 -0.15962849525536979 -0.1448502401790808 0 -0.1716614177265566 -0.15146656102038991 0 -0.1534429259631987 -0.25724555178864622 0 -0.15289321433053751 -0.246830478479277 0 -0.1378886282313006 -0.2381062402767252 0 -0.1534429259631987 -0.25724555178864622 0 -0.1378886282313006 -0.2381062402767252 0 -0.15348527020851541 -0.23913552791147211 0 -0.1378886282313006 -0.2381062402767252 0 -0.15430752157141919 -0.22794821467022949 0 -0.15289321433053751 -0.246830478479277 0 -0.15348527020851541 -0.23913552791147211 0 -0.1601832428566283 -0.24550858739866141 0 -0.15289321433053751 -0.246830478479277 0 -0.15348527020851541 -0.23913552791147211 0 -0.1378886282313006 -0.2381062402767252 0 -0.1459019403517107 -0.25564217047089421 0 -0.13375162957080131 -0.24871916986845621 0 -0.1378886282313006 -0.2381062402767252 0 -0.13375162957080131 -0.24871916986845621 0 -0.1378886282313006 -0.2381062402767252 0 -0.127825895831608 -0.22987551408160201 0 -0.13375162957080131 -0.24871916986845621 0 -0.1378886282313006 -0.2381062402767252 0 -0.13218950310710981 -0.25272660122947088 0 -0.1218823470606431 -0.24640061544388489 0 -0.13375162957080131 -0.24871916986845621 0 -0.127825895831608 -0.22987551408160201 0 -0.14435850230698141 -0.22150862358223991 0 -0.13086176299679239 -0.21746526838305219 0 -0.1378886282313006 -0.2381062402767252 0 -0.127825895831608 -0.22987551408160201 0 -0.14435850230698141 -0.22150862358223991 0 -0.11989889803527461 -0.22145143588075511 0 -0.127825895831608 -0.22987551408160201 0 -0.13086176299679239 -0.21746526838305219 0 -0.1378886282313006 -0.2381062402767252 0 -0.14435850230698141 -0.22150862358223991 0 -0.14435850230698141 -0.22150862358223991 0 -0.15430752157141919 -0.22794821467022949 0 -0.16410544360365359 -0.21493654602220469 0 -0.1378886282313006 -0.2381062402767252 0 -0.14435850230698141 -0.22150862358223991 0 -0.15430752157141919 -0.22794821467022949 0 -0.14435850230698141 -0.22150862358223991 0 -0.15496537504316019 -0.19429807729602311 0 -0.14435850230698141 -0.22150862358223991 0 -0.1373527607074172 -0.20563907323320921 0 -0.15496537504316019 -0.19429807729602311 0 -0.14435850230698141 -0.22150862358223991 0 -0.15496537504316019 -0.19429807729602311 0 -0.16410544360365359 -0.21493654602220469 0 -0.14435850230698141 -0.22150862358223991 0 -0.1373527607074172 -0.20563907323320921 0 -0.13086176299679239 -0.21746526838305219 0 -0.1210853022939376 -0.205467400633562 0 -0.1373527607074172 -0.20563907323320921 0 -0.13086176299679239 -0.21746526838305219 0 -0.1210853022939376 -0.205467400633562 0 -0.1373527607074172 -0.20563907323320921 0 -0.13505851963374399 -0.18906788910329131 0 -0.1373527607074172 -0.20563907323320921 0 -0.13505851963374399 -0.18906788910329131 0 -0.15496537504316019 -0.19429807729602311 0 -0.1689483943248192 -0.19264195369377959 0 -0.17994482166635981 -0.2014366202218163 0 -0.16410544360365359 -0.21493654602220469 0 -0.15496537504316019 -0.19429807729602311 0 -0.1689483943248192 -0.19264195369377959 0 -0.16410544360365359 -0.21493654602220469 0 -0.17557921295501691 -0.18022020591375351 0 -0.1689483943248192 -0.19264195369377959 0 -0.17994482166635981 -0.2014366202218163 0 -0.17557921295501691 -0.18022020591375351 0 -0.17994482166635981 -0.2014366202218163 0 -0.1907059301477185 -0.18468107337543721 0 -0.17994482166635981 -0.2014366202218163 0 -0.1784102433228649 -0.21681777692650089 0 -0.16410544360365359 -0.21493654602220469 0 -0.17994482166635981 -0.2014366202218163 0 -0.18904495760185211 -0.20873870471059999 0 -0.19252771524915421 -0.19930647688205899 0 -0.17994482166635981 -0.2014366202218163 0 -0.1784102433228649 -0.21681777692650089 0 -0.18904495760185211 -0.20873870471059999 0 -0.1784102433228649 -0.21681777692650089 0 -0.19175951728552271 -0.21959172261586679 0 -0.18904495760185211 -0.20873870471059999 0 -0.15430752157141919 -0.22794821467022949 0 -0.16410544360365359 -0.21493654602220469 0 -0.16877954452522659 -0.2255120540677526 0 -0.15430752157141919 -0.22794821467022949 0 -0.16877954452522659 -0.2255120540677526 0 -0.16324537569009509 -0.2357306359809743 0 -0.15348527020851541 -0.23913552791147211 0 -0.15430752157141919 -0.22794821467022949 0 -0.16324537569009509 -0.2357306359809743 0 -0.16877954452522659 -0.2255120540677526 0 -0.17781387366555559 -0.23090770197000129 0 -0.16324537569009509 -0.2357306359809743 0 -0.1784102433228649 -0.21681777692650089 0 -0.16410544360365359 -0.21493654602220469 0 -0.16877954452522659 -0.2255120540677526 0 -0.1784102433228649 -0.21681777692650089 0 -0.16877954452522659 -0.2255120540677526 0 -0.17781387366555559 -0.23090770197000129 0 -0.1784102433228649 -0.21681777692650089 0 -0.17781387366555559 -0.23090770197000129 0 -0.19175951728552271 -0.21959172261586679 0 -0.17781387366555559 -0.23090770197000129 0 -0.1805311654956796 -0.2411950136452527 0 -0.19410287643929239 -0.23312434657521411 0 -0.17781387366555559 -0.23090770197000129 0 -0.1805311654956796 -0.2411950136452527 0 -0.16955513552828311 -0.24305067226283769 0 -0.17679077873490559 -0.25046109420941731 0 -0.1805311654956796 -0.2411950136452527 0 -0.18863044441395099 -0.24733650333174401 0 -0.17679077873490559 -0.25046109420941731 0 -0.1805311654956796 -0.2411950136452527 0 -0.16955513552828311 -0.24305067226283769 0 -0.16709258238786229 -0.25188408856254202 0 -0.17679077873490559 -0.25046109420941731 0 -0.16955513552828311 -0.24305067226283769 0 -0.16709258238786229 -0.25188408856254202 0 -0.16955513552828311 -0.24305067226283769 0 -0.1601832428566283 -0.24550858739866141 0 -0.17781387366555559 -0.23090770197000129 0 -0.16955513552828311 -0.24305067226283769 0 -0.16324537569009509 -0.2357306359809743 0 -0.16955513552828311 -0.24305067226283769 0 -0.16324537569009509 -0.2357306359809743 0 -0.1601832428566283 -0.24550858739866141 0 -0.15348527020851541 -0.23913552791147211 0 -0.16324537569009509 -0.2357306359809743 0 -0.1601832428566283 -0.24550858739866141 0 -0.1593809120407062 -0.25278805690175971 0 -0.15289321433053751 -0.246830478479277 0 -0.1601832428566283 -0.24550858739866141 0 -0.20565562739327201 -0.24334207984173631 0 -0.19410287643929239 -0.23312434657521411 0 -0.21201774175915139 -0.2290986139018284 0 -0.21472073189145299 -0.25725591714607071 0 -0.20565562739327201 -0.24334207984173631 0 -0.22837296648480071 -0.23789375384220129 0 -0.20565562739327201 -0.24334207984173631 0 -0.21201774175915139 -0.2290986139018284 0 -0.22837296648480071 -0.23789375384220129 0 -0.20565562739327201 -0.24334207984173631 0 -0.18863044441395099 -0.24733650333174401 0 -0.19410287643929239 -0.23312434657521411 0 -0.1805311654956796 -0.2411950136452527 0 -0.18863044441395099 -0.24733650333174401 0 -0.19410287643929239 -0.23312434657521411 0 -0.17781387366555559 -0.23090770197000129 0 -0.19410287643929239 -0.23312434657521411 0 -0.19175951728552271 -0.21959172261586679 0 -0.19410287643929239 -0.23312434657521411 0 -0.19175951728552271 -0.21959172261586679 0 -0.20443040571370949 -0.21985141578154491 0 -0.21201774175915139 -0.2290986139018284 0 -0.20443040571370949 -0.21985141578154491 0 -0.22630383013383959 -0.21240708539258099 0 -0.19410287643929239 -0.23312434657521411 0 -0.21201774175915139 -0.2290986139018284 0 -0.20443040571370949 -0.21985141578154491 0 -0.20157622681128409 -0.2075672839719423 0 -0.21557055542943429 -0.1904257004922347 0 -0.22630383013383959 -0.21240708539258099 0 -0.20157622681128409 -0.2075672839719423 0 -0.22630383013383959 -0.21240708539258099 0 -0.20443040571370949 -0.21985141578154491 0 -0.20157622681128409 -0.2075672839719423 0 -0.22630383013383959 -0.21240708539258099 0 -0.19175951728552271 -0.21959172261586679 0 -0.20443040571370949 -0.21985141578154491 0 -0.20157622681128409 -0.2075672839719423 0 -0.19175951728552271 -0.21959172261586679 0 -0.20157622681128409 -0.2075672839719423 0 -0.19175951728552271 -0.21959172261586679 0 -0.18904495760185211 -0.20873870471059999 0 -0.20157622681128409 -0.2075672839719423 0 -0.18904495760185211 -0.20873870471059999 0 -0.20157622681128409 -0.2075672839719423 0 -0.19252771524915421 -0.19930647688205899 0 -0.17994482166635981 -0.2014366202218163 0 -0.19252771524915421 -0.19930647688205899 0 -0.1907059301477185 -0.18468107337543721 0 -0.20157622681128409 -0.2075672839719423 0 -0.19252771524915421 -0.19930647688205899 0 -0.20187756758401409 -0.19506767240709361 0 -0.19252771524915421 -0.19930647688205899 0 -0.20187756758401409 -0.19506767240709361 0 -0.1907059301477185 -0.18468107337543721 0 -0.20157622681128409 -0.2075672839719423 0 -0.21557055542943429 -0.1904257004922347 0 -0.20187756758401409 -0.19506767240709361 0 -0.21557055542943429 -0.1904257004922347 0 -0.2038146335316797 -0.1820121315948606 0 -0.20157622681128409 -0.2075672839719423 0 -0.20187756758401409 -0.19506767240709361 0 -0.21557055542943429 -0.1904257004922347 0 -0.21557055542943429 -0.1904257004922347 0 -0.23533053747689989 -0.1962925907305976 0 -0.22630383013383959 -0.21240708539258099 0 -0.23533053747689989 -0.1962925907305976 0 -0.25103143345639523 -0.21724688681321891 0 -0.25418198431724581 -0.18809916394242601 0 -0.22630383013383959 -0.21240708539258099 0 -0.25103143345639523 -0.21724688681321891 0 -0.23533053747689989 -0.1962925907305976 0 -0.22630383013383959 -0.21240708539258099 0 -0.25103143345639523 -0.21724688681321891 0 -0.21201774175915139 -0.2290986139018284 0 -0.22630383013383959 -0.21240708539258099 0 -0.22837296648480071 -0.23789375384220129 0 -0.22630383013383959 -0.21240708539258099 0 -0.22837296648480071 -0.23789375384220129 0 -0.25103143345639523 -0.21724688681321891 0 -0.22837296648480071 -0.23789375384220129 0 -0.25431856302814809 -0.24833495949118861 0 -0.25103143345639523 -0.21724688681321891 0 -0.2335542019388327 -0.26090262277066528 0 -0.22837296648480071 -0.23789375384220129 0 -0.25431856302814809 -0.24833495949118861 0 -0.20708483324238849 -0.15128624944667929 0 -0.22647357207813959 -0.15205360930679629 0 -0.2195633859389316 -0.1340578990397249 0 -0.20708483324238849 -0.15128624944667929 0 -0.19823449762692411 -0.13229999761030051 0 -0.2195633859389316 -0.1340578990397249 0 -0.19823449762692411 -0.13229999761030051 0 -0.2195633859389316 -0.1340578990397249 0 -0.21022893699736381 -0.1097241998529486 0 -0.17775058767377289 -0.13584559103097291 0 -0.19823449762692411 -0.13229999761030051 0 -0.1894311146879058 -0.1465309504005988 0 -0.20708483324238849 -0.15128624944667929 0 -0.1894311146879058 -0.1465309504005988 0 -0.19351686899232889 -0.15854259719770419 0 -0.20708483324238849 -0.15128624944667929 0 -0.19823449762692411 -0.13229999761030051 0 -0.1894311146879058 -0.1465309504005988 0 -0.20708483324238849 -0.15128624944667929 0 -0.19351686899232889 -0.15854259719770419 0 -0.19880271024428661 -0.17007658736909009 0 -0.18239484980351819 -0.16464781923938721 0 -0.1894311146879058 -0.1465309504005988 0 -0.19351686899232889 -0.15854259719770419 0 -0.18239484980351819 -0.16464781923938721 0 -0.19351686899232889 -0.15854259719770419 0 -0.19880271024428661 -0.17007658736909009 0 -0.18239484980351819 -0.16464781923938721 0 -0.19880271024428661 -0.17007658736909009 0 -0.1907059301477185 -0.18468107337543721 0 -0.19880271024428661 -0.17007658736909009 0 -0.1907059301477185 -0.18468107337543721 0 -0.2038146335316797 -0.1820121315948606 0 -0.20187756758401409 -0.19506767240709361 0 -0.1907059301477185 -0.18468107337543721 0 -0.2038146335316797 -0.1820121315948606 0 -0.21557055542943429 -0.1904257004922347 0 -0.2038146335316797 -0.1820121315948606 0 -0.21355186476225221 -0.16985639920369799 0 -0.19880271024428661 -0.17007658736909009 0 -0.2038146335316797 -0.1820121315948606 0 -0.21355186476225221 -0.16985639920369799 0 -0.20708483324238849 -0.15128624944667929 0 -0.21355186476225221 -0.16985639920369799 0 -0.22647357207813959 -0.15205360930679629 0 -0.20708483324238849 -0.15128624944667929 0 -0.19880271024428661 -0.17007658736909009 0 -0.21355186476225221 -0.16985639920369799 0 -0.22956488404758479 -0.1732841170125273 0 -0.2435592126657353 -0.1561425335328199 0 -0.22647357207813959 -0.15205360930679629 0 -0.21355186476225221 -0.16985639920369799 0 -0.22956488404758479 -0.1732841170125273 0 -0.22647357207813959 -0.15205360930679629 0 -0.21557055542943429 -0.1904257004922347 0 -0.21355186476225221 -0.16985639920369799 0 -0.22956488404758479 -0.1732841170125273 0 -0.21557055542943429 -0.1904257004922347 0 -0.22956488404758479 -0.1732841170125273 0 -0.21557055542943429 -0.1904257004922347 0 -0.23533053747689989 -0.1962925907305976 0 -0.22956488404758479 -0.1732841170125273 0 -0.23533053747689989 -0.1962925907305976 0 -0.22956488404758479 -0.1732841170125273 0 -0.25418198431724581 -0.18809916394242601 0 -0.22956488404758479 -0.1732841170125273 0 -0.25418198431724581 -0.18809916394242601 0 -0.2565438833259911 -0.1687602707777138 0 -0.22956488404758479 -0.1732841170125273 0 -0.2435592126657353 -0.1561425335328199 0 -0.22956488404758479 -0.1732841170125273 0 -0.2435592126657353 -0.1561425335328199 0 -0.2565438833259911 -0.1687602707777138 0 -0.2435592126657353 -0.1561425335328199 0 -0.22647357207813959 -0.15205360930679629 0 -0.2432602079730701 -0.13485583854350039 0 -0.22647357207813959 -0.15205360930679629 0 -0.2195633859389316 -0.1340578990397249 0 -0.2432602079730701 -0.13485583854350039 0 -0.2195633859389316 -0.1340578990397249 0 -0.2432602079730701 -0.13485583854350039 0 -0.23065476516460279 -0.11957242830579699 0 -0.2432602079730701 -0.13485583854350039 0 -0.2499653418643101 -0.1102460646797562 0 -0.23065476516460279 -0.11957242830579699 0 -0.2499653418643101 -0.1102460646797562 0 -0.2308399038819596 -0.1034577205422559 0 -0.23065476516460279 -0.11957242830579699 0 -0.2308399038819596 -0.1034577205422559 0 -0.25308440776240432 -0.086371671251396109 0 -0.2499653418643101 -0.1102460646797562 0 -0.2308399038819596 -0.1034577205422559 0 -0.25308440776240432 -0.086371671251396109 0 -0.2308399038819596 -0.1034577205422559 0 -0.21022893699736381 -0.1097241998529486 0 -0.21520721362926831 -0.098298511723915558 0 -0.2308399038819596 -0.1034577205422559 0 -0.22013457808717909 -0.089221868029860679 0 -0.21520721362926831 -0.098298511723915558 0 -0.2308399038819596 -0.1034577205422559 0 -0.23065476516460279 -0.11957242830579699 0 -0.21022893699736381 -0.1097241998529486 0 -0.2195633859389316 -0.1340578990397249 0 -0.23065476516460279 -0.11957242830579699 0 -0.21022893699736381 -0.1097241998529486 0 -0.2335598957907816 -0.079883889973887123 0 -0.24475965461883589 -0.059498385283178377 0 -0.2582325144520296 -0.070050845257802419 0 -0.2335598957907816 -0.079883889973887123 0 -0.2582325144520296 -0.070050845257802419 0 -0.25308440776240432 -0.086371671251396109 0 -0.2308399038819596 -0.1034577205422559 0 -0.2335598957907816 -0.079883889973887123 0 -0.25308440776240432 -0.086371671251396109 0 -0.2308399038819596 -0.1034577205422559 0 -0.22013457808717909 -0.089221868029860679 0 -0.2335598957907816 -0.079883889973887123 0 -0.22013457808717909 -0.089221868029860679 0 -0.2335598957907816 -0.079883889973887123 0 -0.21963876375789801 -0.077814354495200549 0 -0.2335598957907816 -0.079883889973887123 0 -0.21595644614104051 -0.065738508165203102 0 -0.24475965461883589 -0.059498385283178377 0 -0.21595644614104051 -0.065738508165203102 0 -0.24475965461883589 -0.059498385283178377 0 -0.2335598957907816 -0.079883889973887123 0 -0.21963876375789801 -0.077814354495200549 0 -0.21595644614104051 -0.065738508165203102 0 -0.20438945881064449 -0.068244458930106389 0 -0.21100771399754009 -0.086966924160961745 0 -0.21595644614104051 -0.065738508165203102 0 -0.21100771399754009 -0.086966924160961745 0 -0.20438945881064449 -0.068244458930106389 0 -0.21595644614104051 -0.065738508165203102 0 -0.21100771399754009 -0.086966924160961745 0 -0.21963876375789801 -0.077814354495200549 0 -0.21595644614104051 -0.065738508165203102 0 -0.21100771399754009 -0.086966924160961745 0 -0.20438945881064449 -0.068244458930106389 0 -0.21595644614104051 -0.065738508165203102 0 -0.20438945881064449 -0.068244458930106389 0 -0.21595644614104051 -0.065738508165203102 0 -0.20711132549122371 -0.057203435059411119 0 -0.20438945881064449 -0.068244458930106389 0 -0.21100771399754009 -0.086966924160961745 0 -0.19851231957361129 -0.085310821531315487 0 -0.22013457808717909 -0.089221868029860679 0 -0.21963876375789801 -0.077814354495200549 0 -0.21100771399754009 -0.086966924160961745 0 -0.22013457808717909 -0.089221868029860679 0 -0.21100771399754009 -0.086966924160961745 0 -0.21520721362926831 -0.098298511723915558 0 -0.21100771399754009 -0.086966924160961745 0 -0.19851231957361129 -0.085310821531315487 0 -0.20550431009004061 -0.095676697317907802 0 -0.21100771399754009 -0.086966924160961745 0 -0.21520721362926831 -0.098298511723915558 0 -0.20550431009004061 -0.095676697317907802 0 -0.19851231957361129 -0.085310821531315487 0 -0.18118326058104209 -0.08825419183970401 0 -0.18409944718507371 -0.07264022497537044 0 -0.19851231957361129 -0.085310821531315487 0 -0.19294566676858971 -0.096864600750783431 0 -0.18118326058104209 -0.08825419183970401 0 -0.19851231957361129 -0.085310821531315487 0 -0.20550431009004061 -0.095676697317907802 0 -0.19294566676858971 -0.096864600750783431 0 -0.20438945881064449 -0.068244458930106389 0 -0.19851231957361129 -0.085310821531315487 0 -0.18409944718507371 -0.07264022497537044 0 -0.20438945881064449 -0.068244458930106389 0 -0.18409944718507371 -0.07264022497537044 0 -0.18769526278089041 -0.057829612445021099 0 -0.20438945881064449 -0.068244458930106389 0 -0.18409944718507371 -0.07264022497537044 0 -0.21022893699736381 -0.1097241998529486 0 -0.21520721362926831 -0.098298511723915558 0 -0.20550431009004061 -0.095676697317907802 0 -0.21022893699736381 -0.1097241998529486 0 -0.20550431009004061 -0.095676697317907802 0 -0.19294566676858971 -0.096864600750783431 0 -0.19294566676858971 -0.096864600750783431 0 -0.18534812722118199 -0.1163550958908785 0 -0.21022893699736381 -0.1097241998529486 0 -0.19294566676858971 -0.096864600750783431 0 -0.18534812722118199 -0.1163550958908785 0 -0.19823449762692411 -0.13229999761030051 0 -0.21022893699736381 -0.1097241998529486 0 -0.18534812722118199 -0.1163550958908785 0 -0.18534812722118199 -0.1163550958908785 0 -0.17423934197139679 -0.1017815859784342 0 -0.15606779039194271 -0.1160101434681408 0 -0.17775058767377289 -0.13584559103097291 0 -0.18534812722118199 -0.1163550958908785 0 -0.15606779039194271 -0.1160101434681408 0 -0.16057304666404501 -0.10079887419961479 0 -0.17423934197139679 -0.1017815859784342 0 -0.15606779039194271 -0.1160101434681408 0 -0.16057304666404501 -0.10079887419961479 0 -0.16746185343044401 -0.091445336260546128 0 -0.1570966781871318 -0.090327755750333361 0 -0.16057304666404501 -0.10079887419961479 0 -0.17423934197139679 -0.1017815859784342 0 -0.16746185343044401 -0.091445336260546128 0 -0.17423934197139679 -0.1017815859784342 0 -0.18118326058104209 -0.08825419183970401 0 -0.16746185343044401 -0.091445336260546128 0 -0.19294566676858971 -0.096864600750783431 0 -0.18534812722118199 -0.1163550958908785 0 -0.17423934197139679 -0.1017815859784342 0 -0.19294566676858971 -0.096864600750783431 0 -0.17423934197139679 -0.1017815859784342 0 -0.18118326058104209 -0.08825419183970401 0 -0.18118326058104209 -0.08825419183970401 0 -0.18409944718507371 -0.07264022497537044 0 -0.16915717098214109 -0.081397787743409861 0 -0.18118326058104209 -0.08825419183970401 0 -0.16746185343044401 -0.091445336260546128 0 -0.16915717098214109 -0.081397787743409861 0 -0.18409944718507371 -0.07264022497537044 0 -0.1702117591297739 -0.06777753321031553 0 -0.16380943555950259 -0.077035991020633382 0 -0.18409944718507371 -0.07264022497537044 0 -0.16380943555950259 -0.077035991020633382 0 -0.16915717098214109 -0.081397787743409861 0 -0.18409944718507371 -0.07264022497537044 0 -0.17187825396406881 -0.057945450019426657 0 -0.18769526278089041 -0.057829612445021099 0 -0.18409944718507371 -0.07264022497537044 0 -0.16380943555950259 -0.077035991020633382 0 -0.18409944718507371 -0.07264022497537044 0 -0.1702117591297739 -0.06777753321031553 0 -0.17187825396406881 -0.057945450019426657 0 -0.16380943555950259 -0.077035991020633382 0 -0.16105989981045041 -0.063488466825831633 0 -0.14595160177326619 -0.062470528310013429 0 -0.1702117591297739 -0.06777753321031553 0 -0.16105989981045041 -0.063488466825831633 0 -0.17187825396406881 -0.057945450019426657 0 -0.1702117591297739 -0.06777753321031553 0 -0.16380943555950259 -0.077035991020633382 0 -0.16105989981045041 -0.063488466825831633 0 -0.16380943555950259 -0.077035991020633382 0 -0.16109871639751261 -0.084134952385501949 0 -0.14796844382834351 -0.080467891152587012 0 -0.16746185343044401 -0.091445336260546128 0 -0.16915717098214109 -0.081397787743409861 0 -0.16109871639751261 -0.084134952385501949 0 -0.16380943555950259 -0.077035991020633382 0 -0.16915717098214109 -0.081397787743409861 0 -0.16109871639751261 -0.084134952385501949 0 -0.16380943555950259 -0.077035991020633382 0 -0.16915717098214109 -0.081397787743409861 0 -0.16746185343044401 -0.091445336260546128 0 -0.16109871639751261 -0.084134952385501949 0 -0.1570966781871318 -0.090327755750333361 0 -0.16380943555950259 -0.077035991020633382 0 -0.14796844382834351 -0.080467891152587012 0 -0.14796844382834351 -0.080467891152587012 0 -0.13497135686491851 -0.078315161523928284 0 -0.1484932433812913 -0.094043062253026791 0 -0.1570966781871318 -0.090327755750333361 0 -0.14796844382834351 -0.080467891152587012 0 -0.1484932433812913 -0.094043062253026791 0 -0.16109871639751261 -0.084134952385501949 0 -0.1570966781871318 -0.090327755750333361 0 -0.14796844382834351 -0.080467891152587012 0 -0.16380943555950259 -0.077035991020633382 0 -0.14796844382834351 -0.080467891152587012 0 -0.14595160177326619 -0.062470528310013429 0 -0.16380943555950259 -0.077035991020633382 0 -0.14595160177326619 -0.062470528310013429 0 -0.14796844382834351 -0.080467891152587012 0 -0.13497135686491851 -0.078315161523928284 0 -0.14595160177326619 -0.062470528310013429 0 -0.1158705629695205 -0.060236298698018297 0 -0.13497135686491851 -0.078315161523928284 0 -0.1158705629695205 -0.060236298698018297 0 -0.13497135686491851 -0.078315161523928284 0 -0.13122182239868371 -0.062231763532838429 0 -0.13497135686491851 -0.078315161523928284 0 -0.13122182239868371 -0.062231763532838429 0 -0.14595160177326619 -0.062470528310013429 0 -0.112702195828283 -0.076339248342475546 0 -0.13497135686491851 -0.078315161523928284 0 -0.13438499311011279 -0.096174695905308166 0 -0.13497135686491851 -0.078315161523928284 0 -0.13438499311011279 -0.096174695905308166 0 -0.1484932433812913 -0.094043062253026791 0 -0.11276894493928399 -0.097790936300085646 0 -0.13438499311011279 -0.096174695905308166 0 -0.1306137014228527 -0.1212095633787966 0 -0.13438499311011279 -0.096174695905308166 0 -0.1306137014228527 -0.1212095633787966 0 -0.15606779039194271 -0.1160101434681408 0 -0.15406265534163929 -0.1294064941378926 0 -0.1306137014228527 -0.1212095633787966 0 -0.15606779039194271 -0.1160101434681408 0 -0.13438499311011279 -0.096174695905308166 0 -0.15606779039194271 -0.1160101434681408 0 -0.1484932433812913 -0.094043062253026791 0 -0.16057304666404501 -0.10079887419961479 0 -0.15606779039194271 -0.1160101434681408 0 -0.1484932433812913 -0.094043062253026791 0 -0.13438499311011279 -0.096174695905308166 0 -0.15606779039194271 -0.1160101434681408 0 -0.16057304666404501 -0.10079887419961479 0 -0.1570966781871318 -0.090327755750333361 0 -0.1484932433812913 -0.094043062253026791 0 -0.14513665439653431 -0.02122229521611602 0 -0.15148395360685291 -0.031475856168514699 0 -0.16129500549156001 -0.024264335985147129 0 -0.14513665439653431 -0.02122229521611602 0 -0.1346415055917565 -0.031432898451717602 0 -0.15148395360685291 -0.031475856168514699 0 -0.14513665439653431 -0.02122229521611602 0 -0.15327979458335059 -0.01391829646419882 0 -0.16129500549156001 -0.024264335985147129 0 -0.1412848112475209 -0.008091449167619497 0 -0.15773416148281841 -0.0035868741371463562 0 -0.14801408494475049 0.0031182785745780331 0 -0.15327979458335059 -0.01391829646419882 0 -0.1412848112475209 -0.008091449167619497 0 -0.15773416148281841 -0.0035868741371463562 0 -0.14513665439653431 -0.02122229521611602 0 -0.15327979458335059 -0.01391829646419882 0 -0.1412848112475209 -0.008091449167619497 0 -0.1236693299605585 -0.0137973575501921 0 -0.1412848112475209 -0.008091449167619497 0 -0.12735709500343681 0.004015926865657337 0 -0.1412848112475209 -0.008091449167619497 0 -0.12735709500343681 0.004015926865657337 0 -0.14801408494475049 0.0031182785745780331 0 -0.1236693299605585 -0.0137973575501921 0 -0.1412848112475209 -0.008091449167619497 0 -0.13426109495296229 -0.02049569832685658 0 -0.1236693299605585 -0.0137973575501921 0 -0.1221370268088495 -0.025998648103035 0 -0.13426109495296229 -0.02049569832685658 0 -0.14513665439653431 -0.02122229521611602 0 -0.1412848112475209 -0.008091449167619497 0 -0.13426109495296229 -0.02049569832685658 0 -0.14513665439653431 -0.02122229521611602 0 -0.13426109495296229 -0.02049569832685658 0 -0.1346415055917565 -0.031432898451717602 0 -0.1221370268088495 -0.025998648103035 0 -0.12530131535501859 -0.034952786400489197 0 -0.1346415055917565 -0.031432898451717602 0 -0.1221370268088495 -0.025998648103035 0 -0.13426109495296229 -0.02049569832685658 0 -0.1346415055917565 -0.031432898451717602 0 -0.12530131535501859 -0.034952786400489197 0 -0.1346415055917565 -0.031432898451717602 0 -0.12809376798702951 -0.047905065599393698 0 -0.1346415055917565 -0.031432898451717602 0 -0.12809376798702951 -0.047905065599393698 0 -0.14629371500633531 -0.042796653234188263 0 -0.12809376798702951 -0.047905065599393698 0 -0.14595160177326619 -0.062470528310013429 0 -0.12809376798702951 -0.047905065599393698 0 -0.14595160177326619 -0.062470528310013429 0 -0.14629371500633531 -0.042796653234188263 0 -0.13122182239868371 -0.062231763532838429 0 -0.12809376798702951 -0.047905065599393698 0 -0.14595160177326619 -0.062470528310013429 0 -0.1158705629695205 -0.060236298698018297 0 -0.13122182239868371 -0.062231763532838429 0 -0.12809376798702951 -0.047905065599393698 0 -0.14595160177326619 -0.062470528310013429 0 -0.14629371500633531 -0.042796653234188263 0 -0.15696853651444401 -0.052603520026387289 0 -0.16105989981045041 -0.063488466825831633 0 -0.14595160177326619 -0.062470528310013429 0 -0.15696853651444401 -0.052603520026387289 0 -0.15148395360685291 -0.031475856168514699 0 -0.14629371500633531 -0.042796653234188263 0 -0.16402488563849801 -0.041062174760887443 0 -0.1346415055917565 -0.031432898451717602 0 -0.15148395360685291 -0.031475856168514699 0 -0.14629371500633531 -0.042796653234188263 0 -0.14629371500633531 -0.042796653234188263 0 -0.16402488563849801 -0.041062174760887443 0 -0.15696853651444401 -0.052603520026387289 0 -0.15148395360685291 -0.031475856168514699 0 -0.16402488563849801 -0.041062174760887443 0 -0.16129500549156001 -0.024264335985147129 0 -0.16402488563849801 -0.041062174760887443 0 -0.17409393016306191 -0.030370879776367592 0 -0.16129500549156001 -0.024264335985147129 0 -0.16402488563849801 -0.041062174760887443 0 -0.15696853651444401 -0.052603520026387289 0 -0.17187825396406881 -0.057945450019426657 0 -0.16105989981045041 -0.063488466825831633 0 -0.15696853651444401 -0.052603520026387289 0 -0.17187825396406881 -0.057945450019426657 0 -0.16402488563849801 -0.041062174760887443 0 -0.17187825396406881 -0.057945450019426657 0 -0.18133558272394029 -0.043618149437272283 0 -0.17187825396406881 -0.057945450019426657 0 -0.18133558272394029 -0.043618149437272283 0 -0.18769526278089041 -0.057829612445021099 0 -0.18133558272394029 -0.043618149437272283 0 -0.17409393016306191 -0.030370879776367592 0 -0.18915768363079971 -0.025155098795753519 0 -0.16402488563849801 -0.041062174760887443 0 -0.18133558272394029 -0.043618149437272283 0 -0.17409393016306191 -0.030370879776367592 0 -0.17409393016306191 -0.030370879776367592 0 -0.17549551533112251 -0.014893414490097231 0 -0.18915768363079971 -0.025155098795753519 0 -0.16129500549156001 -0.024264335985147129 0 -0.16350931143073591 -0.01273440345064396 0 -0.17549551533112251 -0.014893414490097231 0 -0.17409393016306191 -0.030370879776367592 0 -0.16129500549156001 -0.024264335985147129 0 -0.17549551533112251 -0.014893414490097231 0 -0.15327979458335059 -0.01391829646419882 0 -0.16129500549156001 -0.024264335985147129 0 -0.16350931143073591 -0.01273440345064396 0 -0.15773416148281841 -0.0035868741371463562 0 -0.16716832075785379 -0.0032078365625175 0 -0.1619193683370386 0.0066468078375689294 0 -0.15773416148281841 -0.0035868741371463562 0 -0.16350931143073591 -0.01273440345064396 0 -0.16716832075785379 -0.0032078365625175 0 -0.15327979458335059 -0.01391829646419882 0 -0.15773416148281841 -0.0035868741371463562 0 -0.16350931143073591 -0.01273440345064396 0 -0.16350931143073591 -0.01273440345064396 0 -0.16716832075785379 -0.0032078365625175 0 -0.17549551533112251 -0.014893414490097231 0 -0.17549551533112251 -0.014893414490097231 0 -0.18154179604087481 -0.0036104187285780349 0 -0.18915768363079971 -0.025155098795753519 0 -0.18154179604087481 -0.0036104187285780349 0 -0.18915768363079971 -0.025155098795753519 0 -0.17549551533112251 -0.014893414490097231 0 -0.17584419881677341 0.0071523107965592754 0 -0.17549551533112251 -0.014893414490097231 0 -0.18154179604087481 -0.0036104187285780349 0 -0.17584419881677341 0.0071523107965592754 0 -0.16716832075785379 -0.0032078365625175 0 -0.17549551533112251 -0.014893414490097231 0 -0.17584419881677341 0.0071523107965592754 0 -0.18154179604087481 -0.0036104187285780349 0 -0.19066530249761049 -0.0041303576494283751 0 -0.18915768363079971 -0.025155098795753519 0 -0.18154179604087481 -0.0036104187285780349 0 -0.19066530249761049 -0.0041303576494283751 0 -0.18717715497560061 0.0062623078557712403 0 -0.19066530249761049 -0.0041303576494283751 0 -0.1989264366345522 -0.0080023544535597537 0 -0.18915768363079971 -0.025155098795753519 0 -0.19066530249761049 -0.0041303576494283751 0 -0.1989264366345522 -0.0080023544535597537 0 -0.1965234412062255 0.0098537758749781944 0 -0.1989264366345522 -0.0080023544535597537 0 -0.2007918169376324 -0.0191738513677071 0 -0.20680177871376751 -0.0119671669755851 0 -0.18915768363079971 -0.025155098795753519 0 -0.2007918169376324 -0.0191738513677071 0 -0.21013076049929519 -0.028334228638799381 0 -0.1989264366345522 -0.0080023544535597537 0 -0.18915768363079971 -0.025155098795753519 0 -0.2007918169376324 -0.0191738513677071 0 -0.2007918169376324 -0.0191738513677071 0 -0.21013076049929519 -0.028334228638799381 0 -0.20680177871376751 -0.0119671669755851 0 -0.21013076049929519 -0.028334228638799381 0 -0.21702438745170211 -0.0043907958627755336 0 -0.21921501925093501 -0.017985606360015789 0 -0.21013076049929519 -0.028334228638799381 0 -0.21702438745170211 -0.0043907958627755336 0 -0.21013076049929519 -0.028334228638799381 0 -0.22271521407306469 -0.037269361340154371 0 -0.21921501925093501 -0.017985606360015789 0 -0.21013076049929519 -0.028334228638799381 0 -0.21702438745170211 -0.0043907958627755336 0 -0.20680177871376751 -0.0119671669755851 0 -0.1989264366345522 -0.0080023544535597537 0 -0.20680177871376751 -0.0119671669755851 0 -0.20713549204565579 6.5395444916274768e-05 0 -0.21702438745170211 -0.0043907958627755336 0 -0.20680177871376751 -0.0119671669755851 0 -0.20713549204565579 6.5395444916274768e-05 0 -0.20438945881064449 -0.068244458930106389 0 -0.1967735712207245 -0.046699778862929052 0 -0.20438945881064449 -0.068244458930106389 0 -0.18769526278089041 -0.057829612445021099 0 -0.1967735712207245 -0.046699778862929052 0 -0.20438945881064449 -0.068244458930106389 0 -0.1967735712207245 -0.046699778862929052 0 -0.20711132549122371 -0.057203435059411119 0 -0.18133558272394029 -0.043618149437272283 0 -0.18769526278089041 -0.057829612445021099 0 -0.1967735712207245 -0.046699778862929052 0 -0.18133558272394029 -0.043618149437272283 0 -0.18915768363079971 -0.025155098795753519 0 -0.1967735712207245 -0.046699778862929052 0 -0.18915768363079971 -0.025155098795753519 0 -0.1967735712207245 -0.046699778862929052 0 -0.18915768363079971 -0.025155098795753519 0 -0.21013076049929519 -0.028334228638799381 0 -0.1967735712207245 -0.046699778862929052 0 -0.21013076049929519 -0.028334228638799381 0 -0.21132582579248671 -0.048130994279405613 0 -0.22271521407306469 -0.037269361340154371 0 -0.21013076049929519 -0.028334228638799381 0 -0.1967735712207245 -0.046699778862929052 0 -0.21132582579248671 -0.048130994279405613 0 -0.21595644614104051 -0.065738508165203102 0 -0.21132582579248671 -0.048130994279405613 0 -0.22271521407306469 -0.037269361340154371 0 -0.21595644614104051 -0.065738508165203102 0 -0.21132582579248671 -0.048130994279405613 0 -0.20711132549122371 -0.057203435059411119 0 -0.1967735712207245 -0.046699778862929052 0 -0.21132582579248671 -0.048130994279405613 0 -0.20711132549122371 -0.057203435059411119 0 -0.21595644614104051 -0.065738508165203102 0 -0.2284172135094342 -0.053659916570315727 0 -0.24475965461883589 -0.059498385283178377 0 -0.21595644614104051 -0.065738508165203102 0 -0.2284172135094342 -0.053659916570315727 0 -0.22271521407306469 -0.037269361340154371 0 -0.21595644614104051 -0.065738508165203102 0 -0.22271521407306469 -0.037269361340154371 0 -0.2284172135094342 -0.053659916570315727 0 -0.22271521407306469 -0.037269361340154371 0 -0.23903543051913109 -0.043198085603962481 0 -0.22271521407306469 -0.037269361340154371 0 -0.23903543051913109 -0.043198085603962481 0 -0.24161885061771041 -0.026720350447010301 0 -0.23903543051913109 -0.043198085603962481 0 -0.24161885061771041 -0.026720350447010301 0 -0.25766621977661042 -0.038842414379153638 0 -0.23903543051913109 -0.043198085603962481 0 -0.24475965461883589 -0.059498385283178377 0 -0.25766621977661042 -0.038842414379153638 0 -0.2284172135094342 -0.053659916570315727 0 -0.23903543051913109 -0.043198085603962481 0 -0.24475965461883589 -0.059498385283178377 0 -0.22947398200509031 -0.0088002145151058891 0 -0.22867745033346079 0.0038692188645070222 0 -0.2401015516947359 0.00075261550232862703 0 -0.21702438745170211 -0.0043907958627755336 0 -0.22947398200509031 -0.0088002145151058891 0 -0.22867745033346079 0.0038692188645070222 0 -0.21702438745170211 -0.0043907958627755336 0 -0.22947398200509031 -0.0088002145151058891 0 -0.21921501925093501 -0.017985606360015789 0 -0.22271521407306469 -0.037269361340154371 0 -0.22947398200509031 -0.0088002145151058891 0 -0.21921501925093501 -0.017985606360015789 0 -0.22271521407306469 -0.037269361340154371 0 -0.22947398200509031 -0.0088002145151058891 0 -0.22271521407306469 -0.037269361340154371 0 -0.22947398200509031 -0.0088002145151058891 0 -0.24161885061771041 -0.026720350447010301 0 -0.22947398200509031 -0.0088002145151058891 0 -0.24161885061771041 -0.026720350447010301 0 -0.2437457614006571 -0.011962382738850049 0 -0.24161885061771041 -0.026720350447010301 0 -0.2437457614006571 -0.011962382738850049 0 -0.2598032925822476 -0.0188915667982569 0 -0.22947398200509031 -0.0088002145151058891 0 -0.2437457614006571 -0.011962382738850049 0 -0.2401015516947359 0.00075261550232862703 0 -0.2437457614006571 -0.011962382738850049 0 -0.25267499080189931 -0.0034516002120552492 0 -0.2401015516947359 0.00075261550232862703 0 -0.25267499080189931 -0.0034516002120552492 0 -0.2598032925822476 -0.0188915667982569 0 -0.26909988492935111 -0.0018655285383734981 0 -0.2437457614006571 -0.011962382738850049 0 -0.25267499080189931 -0.0034516002120552492 0 -0.2598032925822476 -0.0188915667982569 0 -0.2598032925822476 -0.0188915667982569 0 -0.27267419604841259 -0.026924212746328481 0 -0.25766621977661042 -0.038842414379153638 0 -0.24161885061771041 -0.026720350447010301 0 -0.2598032925822476 -0.0188915667982569 0 -0.25766621977661042 -0.038842414379153638 0 -0.2598032925822476 -0.0188915667982569 0 -0.27267419604841259 -0.026924212746328481 0 -0.27804425228895369 -0.016131696666228459 0 -0.27267419604841259 -0.026924212746328481 0 -0.27804425228895369 -0.016131696666228459 0 -0.28378415359151371 -0.031280105512012511 0 -0.27804425228895369 -0.016131696666228459 0 -0.26909988492935111 -0.0018655285383734981 0 -0.2917254884257266 -0.0017566381736345419 0 -0.2598032925822476 -0.0188915667982569 0 -0.27804425228895369 -0.016131696666228459 0 -0.26909988492935111 -0.0018655285383734981 0 -0.27804425228895369 -0.016131696666228459 0 -0.2917254884257266 -0.0017566381736345419 0 -0.2928870998243559 -0.020527937726781 0 -0.27804425228895369 -0.016131696666228459 0 -0.2928870998243559 -0.020527937726781 0 -0.28378415359151371 -0.031280105512012511 0 -0.2928870998243559 -0.020527937726781 0 -0.29943422057661201 -0.032203920876667472 0 -0.28378415359151371 -0.031280105512012511 0 -0.2928870998243559 -0.020527937726781 0 -0.31144738423897378 -0.02126732740536201 0 -0.29943422057661201 -0.032203920876667472 0 -0.31144738423897378 -0.02126732740536201 0 -0.31110423911055801 -0.035316851109560482 0 -0.29943422057661201 -0.032203920876667472 0 -0.2917254884257266 -0.0017566381736345419 0 -0.31144738423897378 -0.02126732740536201 0 -0.31177688145040278 0.0050359958776742568 0 -0.2917254884257266 -0.0017566381736345419 0 -0.2928870998243559 -0.020527937726781 0 -0.31144738423897378 -0.02126732740536201 0 -0.2917254884257266 -0.0017566381736345419 0 -0.31144738423897378 -0.02126732740536201 0 -0.30323190850646392 -0.052883144282766713 0 -0.3023660715744253 -0.047018139519123002 0 -0.29757341552329353 -0.05219957266967655 0 -0.29931176789370939 -0.061629941742321552 0 -0.30659897303184058 -0.057135789817405573 0 -0.30728911182784302 -0.064893595009923935 0 -0.30323190850646392 -0.052883144282766713 0 -0.29931176789370939 -0.061629941742321552 0 -0.30659897303184058 -0.057135789817405573 0 -0.30323190850646392 -0.052883144282766713 0 -0.29757341552329353 -0.05219957266967655 0 -0.29931176789370939 -0.061629941742321552 0 -0.30659897303184058 -0.057135789817405573 0 -0.30728911182784302 -0.064893595009923935 0 -0.31405483352543062 -0.056831087900065053 0 -0.30323190850646392 -0.052883144282766713 0 -0.3023660715744253 -0.047018139519123002 0 -0.31025625293594222 -0.050033124508212908 0 -0.30659897303184058 -0.057135789817405573 0 -0.31025625293594222 -0.050033124508212908 0 -0.31405483352543062 -0.056831087900065053 0 -0.30323190850646392 -0.052883144282766713 0 -0.30659897303184058 -0.057135789817405573 0 -0.31025625293594222 -0.050033124508212908 0 -0.3023660715744253 -0.047018139519123002 0 -0.31110423911055801 -0.035316851109560482 0 -0.29943422057661201 -0.032203920876667472 0 -0.3023660715744253 -0.047018139519123002 0 -0.29943422057661201 -0.032203920876667472 0 -0.29166722635019171 -0.038853801873014321 0 -0.29943422057661201 -0.032203920876667472 0 -0.29166722635019171 -0.038853801873014321 0 -0.28378415359151371 -0.031280105512012511 0 -0.3023660715744253 -0.047018139519123002 0 -0.29166722635019171 -0.038853801873014321 0 -0.28390051605192418 -0.042754285685484159 0 -0.29166722635019171 -0.038853801873014321 0 -0.28378415359151371 -0.031280105512012511 0 -0.28390051605192418 -0.042754285685484159 0 -0.3023660715744253 -0.047018139519123002 0 -0.28390051605192418 -0.042754285685484159 0 -0.27356286309663053 -0.053258262401150697 0 -0.3023660715744253 -0.047018139519123002 0 -0.27356286309663053 -0.053258262401150697 0 -0.29757341552329353 -0.05219957266967655 0 -0.27356286309663053 -0.053258262401150697 0 -0.27532891164284878 -0.069285621960536392 0 -0.29757341552329353 -0.05219957266967655 0 -0.27532891164284878 -0.069285621960536392 0 -0.3023660715744253 -0.047018139519123002 0 -0.29757341552329353 -0.05219957266967655 0 -0.27356286309663053 -0.053258262401150697 0 -0.29757341552329353 -0.05219957266967655 0 -0.29931176789370939 -0.061629941742321552 0 -0.27532891164284878 -0.069285621960536392 0 -0.27267419604841259 -0.026924212746328481 0 -0.27375437843427658 -0.039043607324579933 0 -0.25766621977661042 -0.038842414379153638 0 -0.27356286309663053 -0.053258262401150697 0 -0.27375437843427658 -0.039043607324579933 0 -0.25766621977661042 -0.038842414379153638 0 -0.28378415359151371 -0.031280105512012511 0 -0.28390051605192418 -0.042754285685484159 0 -0.27375437843427658 -0.039043607324579933 0 -0.27267419604841259 -0.026924212746328481 0 -0.28378415359151371 -0.031280105512012511 0 -0.27375437843427658 -0.039043607324579933 0 -0.28390051605192418 -0.042754285685484159 0 -0.27356286309663053 -0.053258262401150697 0 -0.27375437843427658 -0.039043607324579933 0 -0.24475965461883589 -0.059498385283178377 0 -0.27356286309663053 -0.053258262401150697 0 -0.2582325144520296 -0.070050845257802419 0 -0.24475965461883589 -0.059498385283178377 0 -0.27356286309663053 -0.053258262401150697 0 -0.24475965461883589 -0.059498385283178377 0 -0.27356286309663053 -0.053258262401150697 0 -0.25766621977661042 -0.038842414379153638 0 -0.2582325144520296 -0.070050845257802419 0 -0.25308440776240432 -0.086371671251396109 0 -0.27532891164284878 -0.069285621960536392 0 -0.25308440776240432 -0.086371671251396109 0 -0.27532891164284878 -0.069285621960536392 0 -0.25308440776240432 -0.086371671251396109 0 -0.27361062541114611 -0.085405998149086934 0 -0.26907394573302829 -0.10103393024372311 0 -0.27361062541114611 -0.085405998149086934 0 -0.26907394573302829 -0.10103393024372311 0 -0.28494676303449051 -0.09097811142482605 0 -0.25308440776240432 -0.086371671251396109 0 -0.27361062541114611 -0.085405998149086934 0 -0.27532891164284878 -0.069285621960536392 0 -0.27356286309663053 -0.053258262401150697 0 -0.2582325144520296 -0.070050845257802419 0 -0.27532891164284878 -0.069285621960536392 0 -0.27361062541114611 -0.085405998149086934 0 -0.27532891164284878 -0.069285621960536392 0 -0.28561909888295839 -0.079360655864953042 0 -0.2432602079730701 -0.13485583854350039 0 -0.2499653418643101 -0.1102460646797562 0 -0.26490928006600228 -0.12397715003998409 0 -0.2499653418643101 -0.1102460646797562 0 -0.26490928006600228 -0.12397715003998409 0 -0.26907394573302829 -0.10103393024372311 0 -0.2499653418643101 -0.1102460646797562 0 -0.25308440776240432 -0.086371671251396109 0 -0.26907394573302829 -0.10103393024372311 0 -0.26907394573302829 -0.10103393024372311 0 -0.28789548083438649 -0.11161882002010511 0 -0.28494676303449051 -0.09097811142482605 0 -0.26490928006600228 -0.12397715003998409 0 -0.28789548083438649 -0.11161882002010511 0 -0.28428672055728371 -0.13281235115180859 0 -0.26490928006600228 -0.12397715003998409 0 -0.26907394573302829 -0.10103393024372311 0 -0.28789548083438649 -0.11161882002010511 0 -0.28789548083438649 -0.11161882002010511 0 -0.28428672055728371 -0.13281235115180859 0 -0.30877835781368662 -0.12931532841693749 0 -0.28789548083438649 -0.11161882002010511 0 -0.29765529442092259 -0.094840601490837839 0 -0.28494676303449051 -0.09097811142482605 0 -0.30761934067920371 -0.1042503242997595 0 -0.29765529442092259 -0.094840601490837839 0 -0.30832877355579341 -0.086934752854072747 0 -0.30761934067920371 -0.1042503242997595 0 -0.30832877355579341 -0.086934752854072747 0 -0.31968159473222052 -0.091584555267719248 0 -0.28789548083438649 -0.11161882002010511 0 -0.30761934067920371 -0.1042503242997595 0 -0.29765529442092259 -0.094840601490837839 0 -0.28789548083438649 -0.11161882002010511 0 -0.30761934067920371 -0.1042503242997595 0 -0.30877835781368662 -0.12931532841693749 0 -0.29931176789370939 -0.061629941742321552 0 -0.27532891164284878 -0.069285621960536392 0 -0.29568251685582603 -0.071589435967753134 0 -0.27532891164284878 -0.069285621960536392 0 -0.29568251685582603 -0.071589435967753134 0 -0.28561909888295839 -0.079360655864953042 0 -0.29568251685582603 -0.071589435967753134 0 -0.28561909888295839 -0.079360655864953042 0 -0.29849490204505058 -0.081938345925378783 0 -0.27361062541114611 -0.085405998149086934 0 -0.28561909888295839 -0.079360655864953042 0 -0.28494676303449051 -0.09097811142482605 0 -0.29765529442092259 -0.094840601490837839 0 -0.28494676303449051 -0.09097811142482605 0 -0.29849490204505058 -0.081938345925378783 0 -0.28561909888295839 -0.079360655864953042 0 -0.28494676303449051 -0.09097811142482605 0 -0.29849490204505058 -0.081938345925378783 0 -0.29849490204505058 -0.081938345925378783 0 -0.30832877355579341 -0.086934752854072747 0 -0.3066986514807607 -0.074546990101646726 0 -0.29765529442092259 -0.094840601490837839 0 -0.29849490204505058 -0.081938345925378783 0 -0.30832877355579341 -0.086934752854072747 0 -0.30832877355579341 -0.086934752854072747 0 -0.3066986514807607 -0.074546990101646726 0 -0.31636087034116728 -0.076704125898778439 0 -0.3066986514807607 -0.074546990101646726 0 -0.31411021802290889 -0.069356746280106005 0 -0.31636087034116728 -0.076704125898778439 0 -0.29568251685582603 -0.071589435967753134 0 -0.29849490204505058 -0.081938345925378783 0 -0.3066986514807607 -0.074546990101646726 0 -0.29568251685582603 -0.071589435967753134 0 -0.3066986514807607 -0.074546990101646726 0 -0.30728911182784302 -0.064893595009923935 0 -0.29931176789370939 -0.061629941742321552 0 -0.29568251685582603 -0.071589435967753134 0 -0.30728911182784302 -0.064893595009923935 0 -0.3066986514807607 -0.074546990101646726 0 -0.30728911182784302 -0.064893595009923935 0 -0.31411021802290889 -0.069356746280106005 0 -0.30728911182784302 -0.064893595009923935 0 -0.31630436981946819 -0.062936971351065629 0 -0.31411021802290889 -0.069356746280106005 0 -0.31630436981946819 -0.062936971351065629 0 -0.31411021802290889 -0.069356746280106005 0 -0.32389808664530562 -0.067702049039115322 0 -0.31630436981946819 -0.062936971351065629 0 -0.32389808664530562 -0.067702049039115322 0 -0.32481687078849097 -0.058022226865728103 0 -0.32389808664530562 -0.067702049039115322 0 -0.3259684841043719 -0.075020057435826168 0 -0.31636087034116728 -0.076704125898778439 0 -0.31411021802290889 -0.069356746280106005 0 -0.32389808664530562 -0.067702049039115322 0 -0.31636087034116728 -0.076704125898778439 0 -0.30832877355579341 -0.086934752854072747 0 -0.32608803180755441 -0.084321365842938284 0 -0.30832877355579341 -0.086934752854072747 0 -0.31968159473222052 -0.091584555267719248 0 -0.32608803180755441 -0.084321365842938284 0 -0.30832877355579341 -0.086934752854072747 0 -0.31636087034116728 -0.076704125898778439 0 -0.32608803180755441 -0.084321365842938284 0 -0.31968159473222052 -0.091584555267719248 0 -0.32608803180755441 -0.084321365842938284 0 -0.3259684841043719 -0.075020057435826168 0 -0.31636087034116728 -0.076704125898778439 0 -0.32608803180755441 -0.084321365842938284 0 -0.31968159473222052 -0.091584555267719248 0 -0.32608803180755441 -0.084321365842938284 0 -0.34030971713070318 -0.087052614945596102 0 -0.32608803180755441 -0.084321365842938284 0 -0.34030971713070318 -0.087052614945596102 0 -0.34745734249292459 -0.081176736816750444 0 -0.32608803180755441 -0.084321365842938284 0 -0.33752694762346008 -0.07135268896247253 0 -0.34745734249292459 -0.081176736816750444 0 -0.32608803180755441 -0.084321365842938284 0 -0.34745734249292459 -0.081176736816750444 0 -0.33752694762346008 -0.07135268896247253 0 -0.3489658634393657 -0.058384012082006782 0 -0.33645864726091979 -0.05858208772264157 0 -0.33752694762346008 -0.07135268896247253 0 -0.3489658634393657 -0.058384012082006782 0 -0.32389808664530562 -0.067702049039115322 0 -0.33752694762346008 -0.07135268896247253 0 -0.33645864726091979 -0.05858208772264157 0 -0.3259684841043719 -0.075020057435826168 0 -0.32608803180755441 -0.084321365842938284 0 -0.33752694762346008 -0.07135268896247253 0 -0.32608803180755441 -0.084321365842938284 0 -0.33752694762346008 -0.07135268896247253 0 -0.32389808664530562 -0.067702049039115322 0 -0.3259684841043719 -0.075020057435826168 0 -0.33752694762346008 -0.07135268896247253 0 -0.32454403747219479 -0.1081839716812668 0 -0.30877835781368662 -0.12931532841693749 0 -0.30761934067920371 -0.1042503242997595 0 -0.32454403747219479 -0.1081839716812668 0 -0.30877835781368662 -0.12931532841693749 0 -0.32454403747219479 -0.1081839716812668 0 -0.33570809008837621 -0.11845594114356341 0 -0.30877835781368662 -0.12931532841693749 0 -0.30761934067920371 -0.1042503242997595 0 -0.31968159473222052 -0.091584555267719248 0 -0.32454403747219479 -0.1081839716812668 0 -0.34030971713070318 -0.087052614945596102 0 -0.32454403747219479 -0.1081839716812668 0 -0.34278855512837281 -0.1049294584887832 0 -0.31968159473222052 -0.091584555267719248 0 -0.34030971713070318 -0.087052614945596102 0 -0.32454403747219479 -0.1081839716812668 0 -0.34030971713070318 -0.087052614945596102 0 -0.32454403747219479 -0.1081839716812668 0 -0.32454403747219479 -0.1081839716812668 0 -0.34278855512837281 -0.1049294584887832 0 -0.33570809008837621 -0.11845594114356341 0 -0.33570809008837621 -0.11845594114356341 0 -0.35404294059136687 -0.1217835462641018 0 -0.33688620478323589 -0.13358080389391511 0 -0.34278855512837281 -0.1049294584887832 0 -0.35404294059136687 -0.1217835462641018 0 -0.35932798989652742 -0.1047455147758234 0 -0.34278855512837281 -0.1049294584887832 0 -0.33570809008837621 -0.11845594114356341 0 -0.35404294059136687 -0.1217835462641018 0 -0.34278855512837281 -0.1049294584887832 0 -0.35932798989652742 -0.1047455147758234 0 -0.35079718399447979 -0.093651592615473511 0 -0.34030971713070318 -0.087052614945596102 0 -0.34278855512837281 -0.1049294584887832 0 -0.35079718399447979 -0.093651592615473511 0 -0.35932798989652742 -0.1047455147758234 0 -0.35079718399447979 -0.093651592615473511 0 -0.36132419909701757 -0.091459041133748031 0 -0.35932798989652742 -0.1047455147758234 0 -0.37367929427193591 -0.1014825750548952 0 -0.37212838853434238 -0.11808059788504249 0 -0.35932798989652742 -0.1047455147758234 0 -0.37367929427193591 -0.1014825750548952 0 -0.36132419909701757 -0.091459041133748031 0 -0.35404294059136687 -0.1217835462641018 0 -0.37212838853434238 -0.11808059788504249 0 -0.37028068739271691 -0.13083580994494901 0 -0.35404294059136687 -0.1217835462641018 0 -0.35932798989652742 -0.1047455147758234 0 -0.37212838853434238 -0.11808059788504249 0 -0.35069420168351129 -0.07223638641294812 0 -0.34745734249292459 -0.081176736816750444 0 -0.36882665317829499 -0.078032107790563188 0 -0.36882665317829499 -0.078032107790563188 0 -0.3489658634393657 -0.058384012082006782 0 -0.35069420168351129 -0.07223638641294812 0 -0.36882665317829499 -0.078032107790563188 0 -0.3489658634393657 -0.058384012082006782 0 -0.33752694762346008 -0.07135268896247253 0 -0.35069420168351129 -0.07223638641294812 0 -0.3489658634393657 -0.058384012082006782 0 -0.33752694762346008 -0.07135268896247253 0 -0.35069420168351129 -0.07223638641294812 0 -0.34745734249292459 -0.081176736816750444 0 -0.34745734249292459 -0.081176736816750444 0 -0.36882665317829499 -0.078032107790563188 0 -0.34745734249292459 -0.081176736816750444 0 -0.36132419909701757 -0.091459041133748031 0 -0.36882665317829499 -0.078032107790563188 0 -0.34030971713070318 -0.087052614945596102 0 -0.34745734249292459 -0.081176736816750444 0 -0.35079718399447979 -0.093651592615473511 0 -0.34745734249292459 -0.081176736816750444 0 -0.35079718399447979 -0.093651592615473511 0 -0.36132419909701757 -0.091459041133748031 0 -0.37367929427193591 -0.1014825750548952 0 -0.36132419909701757 -0.091459041133748031 0 -0.36882665317829499 -0.078032107790563188 0 -0.36882665317829499 -0.078032107790563188 0 -0.36862349457690058 -0.057461967220355487 0 -0.3489658634393657 -0.058384012082006782 0 -0.36882665317829499 -0.078032107790563188 0 -0.36862349457690058 -0.057461967220355487 0 -0.37947166312044489 -0.067272628224985004 0 -0.36862349457690058 -0.057461967220355487 0 -0.3489658634393657 -0.058384012082006782 0 -0.36066681755822472 -0.045118253717945672 0 -0.36862349457690058 -0.057461967220355487 0 -0.37355784227175309 -0.045246792894939887 0 -0.3815482533063424 -0.052412606119804542 0 -0.36862349457690058 -0.057461967220355487 0 -0.36066681755822472 -0.045118253717945672 0 -0.37355784227175309 -0.045246792894939887 0 -0.3489658634393657 -0.058384012082006782 0 -0.36066681755822472 -0.045118253717945672 0 -0.3489658634393657 -0.058384012082006782 0 -0.34511111307690212 -0.046137334811030092 0 -0.36066681755822472 -0.045118253717945672 0 -0.35304062521722218 -0.036039659744318157 0 -0.3553139768507978 -0.023567241021099371 0 -0.33371347875736079 -0.040226824134751989 0 -0.34511111307690212 -0.046137334811030092 0 -0.35304062521722218 -0.036039659744318157 0 -0.33371347875736079 -0.040226824134751989 0 -0.34511111307690212 -0.046137334811030092 0 -0.35304062521722218 -0.036039659744318157 0 -0.36066681755822472 -0.045118253717945672 0 -0.36066681755822472 -0.045118253717945672 0 -0.37236777167708351 -0.031852495353884333 0 -0.35304062521722218 -0.036039659744318157 0 -0.37236777167708351 -0.031852495353884333 0 -0.35304062521722218 -0.036039659744318157 0 -0.36066681755822472 -0.045118253717945672 0 -0.37236777167708351 -0.031852495353884333 0 -0.36066681755822472 -0.045118253717945672 0 -0.37355784227175309 -0.045246792894939887 0 -0.37236777167708351 -0.031852495353884333 0 -0.37236777167708351 -0.031852495353884333 0 -0.3739022591900184 -0.02415390189740213 0 -0.36770044175442279 -0.02036669541201027 0 -0.37236777167708351 -0.031852495353884333 0 -0.36770044175442279 -0.02036669541201027 0 -0.3553139768507978 -0.023567241021099371 0 -0.36770044175442279 -0.02036669541201027 0 -0.35847393927256738 -0.010652033510738681 0 -0.38297625517291389 -0.017448943304264108 0 -0.35304062521722218 -0.036039659744318157 0 -0.37236777167708351 -0.031852495353884333 0 -0.3553139768507978 -0.023567241021099371 0 -0.3739022591900184 -0.02415390189740213 0 -0.36770044175442279 -0.02036669541201027 0 -0.38297625517291389 -0.017448943304264108 0 -0.36770044175442279 -0.02036669541201027 0 -0.35847393927256738 -0.010652033510738681 0 -0.3553139768507978 -0.023567241021099371 0 -0.35847393927256738 -0.010652033510738681 0 -0.38297625517291389 -0.017448943304264108 0 -0.37278444596104371 -0.0079457960458173115 0 -0.35847393927256738 -0.010652033510738681 0 -0.38297625517291389 -0.017448943304264108 0 -0.37474494217865062 -0.0022388935110706832 0 -0.37278444596104371 -0.0079457960458173115 0 -0.36307869926690151 -0.00068504054922277494 0 -0.37278444596104371 -0.0079457960458173115 0 -0.36307869926690151 -0.00068504054922277494 0 -0.35847393927256738 -0.010652033510738681 0 -0.36307869926690151 -0.00068504054922277494 0 -0.34718119132474479 -0.01384164818341615 0 -0.36064890389212972 0.0125435277679194 0 -0.36307869926690151 -0.00068504054922277494 0 -0.35847393927256738 -0.010652033510738681 0 -0.34718119132474479 -0.01384164818341615 0 -0.34718119132474479 -0.01384164818341615 0 -0.36064890389212972 0.0125435277679194 0 -0.34718119132474479 -0.01384164818341615 0 -0.3553139768507978 -0.023567241021099371 0 -0.33371347875736079 -0.040226824134751989 0 -0.35847393927256738 -0.010652033510738681 0 -0.34718119132474479 -0.01384164818341615 0 -0.3553139768507978 -0.023567241021099371 0 -0.34718119132474479 -0.01384164818341615 0 -0.33035884889608558 -0.02420969997450095 0 -0.33371347875736079 -0.040226824134751989 0 -0.34718119132474479 -0.01384164818341615 0 -0.33371347875736079 -0.040226824134751989 0 -0.34718119132474479 -0.01384164818341615 0 -0.32828291010712762 -0.0049346835118845543 0 -0.34055428987364128 0.0059527955302196532 0 -0.34718119132474479 -0.01384164818341615 0 -0.33035884889608558 -0.02420969997450095 0 -0.32828291010712762 -0.0049346835118845543 0 -0.31144738423897378 -0.02126732740536201 0 -0.32828291010712762 -0.0049346835118845543 0 -0.31177688145040278 0.0050359958776742568 0 -0.31144738423897378 -0.02126732740536201 0 -0.33116928005221918 -0.040778016637091109 0 -0.31144738423897378 -0.02126732740536201 0 -0.33035884889608558 -0.02420969997450095 0 -0.32828291010712762 -0.0049346835118845543 0 -0.31144738423897378 -0.02126732740536201 0 -0.33035884889608558 -0.02420969997450095 0 -0.33116928005221918 -0.040778016637091109 0 -0.3023660715744253 -0.047018139519123002 0 -0.31110423911055801 -0.035316851109560482 0 -0.33116928005221918 -0.040778016637091109 0 -0.3023660715744253 -0.047018139519123002 0 -0.31025625293594222 -0.050033124508212908 0 -0.33116928005221918 -0.040778016637091109 0 -0.3023660715744253 -0.047018139519123002 0 -0.33116928005221918 -0.040778016637091109 0 -0.31144738423897378 -0.02126732740536201 0 -0.31110423911055801 -0.035316851109560482 0 -0.33116928005221918 -0.040778016637091109 0 -0.31025625293594222 -0.050033124508212908 0 -0.31770057673851387 -0.05020147555903863 0 -0.33116928005221918 -0.040778016637091109 0 -0.31025625293594222 -0.050033124508212908 0 -0.31770057673851387 -0.05020147555903863 0 -0.31405483352543062 -0.056831087900065053 0 -0.31770057673851387 -0.05020147555903863 0 -0.31405483352543062 -0.056831087900065053 0 -0.31936567051967829 -0.054711673150449433 0 -0.31630436981946819 -0.062936971351065629 0 -0.31936567051967829 -0.054711673150449433 0 -0.32481687078849097 -0.058022226865728103 0 -0.30728911182784302 -0.064893595009923935 0 -0.31630436981946819 -0.062936971351065629 0 -0.31405483352543062 -0.056831087900065053 0 -0.31630436981946819 -0.062936971351065629 0 -0.31405483352543062 -0.056831087900065053 0 -0.31936567051967829 -0.054711673150449433 0 -0.31770057673851387 -0.05020147555903863 0 -0.32448711316898249 -0.050622394842538963 0 -0.33116928005221918 -0.040778016637091109 0 -0.31936567051967829 -0.054711673150449433 0 -0.32481687078849097 -0.058022226865728103 0 -0.32448711316898249 -0.050622394842538963 0 -0.31770057673851387 -0.05020147555903863 0 -0.31936567051967829 -0.054711673150449433 0 -0.32448711316898249 -0.050622394842538963 0 -0.32481687078849097 -0.058022226865728103 0 -0.32770904195502032 -0.053173566283506987 0 -0.32448711316898249 -0.050622394842538963 0 -0.32770904195502032 -0.053173566283506987 0 -0.32448711316898249 -0.050622394842538963 0 -0.32972533979495861 -0.048040159006195682 0 -0.3489658634393657 -0.058384012082006782 0 -0.34511111307690212 -0.046137334811030092 0 -0.3326728772282519 -0.042265511425067279 0 -0.32972533979495861 -0.048040159006195682 0 -0.33645864726091979 -0.05858208772264157 0 -0.3326728772282519 -0.042265511425067279 0 -0.3489658634393657 -0.058384012082006782 0 -0.3326728772282519 -0.042265511425067279 0 -0.32770904195502032 -0.053173566283506987 0 -0.32972533979495861 -0.048040159006195682 0 -0.33645864726091979 -0.05858208772264157 0 -0.3489658634393657 -0.058384012082006782 0 -0.33645864726091979 -0.05858208772264157 0 -0.3326728772282519 -0.042265511425067279 0 -0.32389808664530562 -0.067702049039115322 0 -0.32481687078849097 -0.058022226865728103 0 -0.33645864726091979 -0.05858208772264157 0 -0.32481687078849097 -0.058022226865728103 0 -0.32770904195502032 -0.053173566283506987 0 -0.33645864726091979 -0.05858208772264157 0 -0.34511111307690212 -0.046137334811030092 0 -0.33371347875736079 -0.040226824134751989 0 -0.3326728772282519 -0.042265511425067279 0 -0.33035884889608558 -0.02420969997450095 0 -0.33116928005221918 -0.040778016637091109 0 -0.33371347875736079 -0.040226824134751989 0 -0.35304062521722218 -0.036039659744318157 0 -0.33371347875736079 -0.040226824134751989 0 -0.32448711316898249 -0.050622394842538963 0 -0.32972533979495861 -0.048040159006195682 0 -0.33116928005221918 -0.040778016637091109 0 -0.33116928005221918 -0.040778016637091109 0 -0.3326728772282519 -0.042265511425067279 0 -0.32972533979495861 -0.048040159006195682 0 -0.3326728772282519 -0.042265511425067279 0 -0.32972533979495861 -0.048040159006195682 0 -0.33116928005221918 -0.040778016637091109 0 -0.3326728772282519 -0.042265511425067279 0 -0.33116928005221918 -0.040778016637091109 0 -0.33371347875736079 -0.040226824134751989 0 -0.33116928005221918 -0.040778016637091109 0 -0.33371347875736079 -0.040226824134751989 0 -0.3326728772282519 -0.042265511425067279 0 -0.33371347875736079 -0.040226824134751989 0 -0.3326728772282519 -0.042265511425067279 0 -0.2907170577323625 -0.25177677077710309 0 -0.30853150187083839 -0.25429835417001312 0 -0.30748271917561598 -0.2431056607245809 0 -0.30748271917561598 -0.2431056607245809 0 -0.3004866401015065 -0.2269264896544945 0 -0.32066485276457768 -0.2334308190911655 0 -0.2907170577323625 -0.25177677077710309 0 -0.30748271917561598 -0.2431056607245809 0 -0.3004866401015065 -0.2269264896544945 0 -0.30853150187083839 -0.25429835417001312 0 -0.30748271917561598 -0.2431056607245809 0 -0.32023222063025569 -0.2489608815952247 0 -0.3004866401015065 -0.2269264896544945 0 -0.27575903677895092 -0.22208668823385669 0 -0.3004866401015065 -0.2269264896544945 0 -0.27309361240676189 -0.24179026653703889 0 -0.27575903677895092 -0.22208668823385669 0 -0.3004866401015065 -0.2269264896544945 0 -0.27575903677895092 -0.22208668823385669 0 -0.29482007196541532 -0.2089319155152673 0 -0.2907170577323625 -0.25177677077710309 0 -0.3004866401015065 -0.2269264896544945 0 -0.27309361240676189 -0.24179026653703889 0 -0.27309361240676189 -0.24179026653703889 0 -0.25431856302814809 -0.24833495949118861 0 -0.25103143345639523 -0.21724688681321891 0 -0.27575903677895092 -0.22208668823385669 0 -0.25103143345639523 -0.21724688681321891 0 -0.27309361240676189 -0.24179026653703889 0 -0.27575903677895092 -0.22208668823385669 0 -0.25103143345639523 -0.21724688681321891 0 -0.27575903677895092 -0.22208668823385669 0 -0.25103143345639523 -0.21724688681321891 0 -0.27708552823660842 -0.19790031786117671 0 -0.25103143345639523 -0.21724688681321891 0 -0.25418198431724581 -0.18809916394242601 0 -0.27708552823660842 -0.19790031786117671 0 -0.27708552823660842 -0.19790031786117671 0 -0.29482007196541532 -0.2089319155152673 0 -0.30195969341908391 -0.19078830755985379 0 -0.29482007196541532 -0.2089319155152673 0 -0.30195969341908391 -0.19078830755985379 0 -0.32674672588845421 -0.2120308859258328 0 -0.3004866401015065 -0.2269264896544945 0 -0.29482007196541532 -0.2089319155152673 0 -0.32674672588845421 -0.2120308859258328 0 -0.27575903677895092 -0.22208668823385669 0 -0.27708552823660842 -0.19790031786117671 0 -0.29482007196541532 -0.2089319155152673 0 -0.30195969341908391 -0.19078830755985379 0 -0.30674796742087651 -0.1684647150882764 0 -0.32123008678095788 -0.18729232698745699 0 -0.30674796742087651 -0.1684647150882764 0 -0.2930126781551784 -0.15044668515260809 0 -0.3206808779707625 -0.15110047818677941 0 -0.27724699849667023 -0.17157804188827869 0 -0.2930126781551784 -0.15044668515260809 0 -0.30674796742087651 -0.1684647150882764 0 -0.27724699849667023 -0.17157804188827869 0 -0.2930126781551784 -0.15044668515260809 0 -0.27708552823660842 -0.19790031786117671 0 -0.30195969341908391 -0.19078830755985379 0 -0.27724699849667023 -0.17157804188827869 0 -0.30195969341908391 -0.19078830755985379 0 -0.30674796742087651 -0.1684647150882764 0 -0.27724699849667023 -0.17157804188827869 0 -0.25418198431724581 -0.18809916394242601 0 -0.27708552823660842 -0.19790031786117671 0 -0.27724699849667023 -0.17157804188827869 0 -0.25418198431724581 -0.18809916394242601 0 -0.2565438833259911 -0.1687602707777138 0 -0.27724699849667023 -0.17157804188827869 0 -0.2435592126657353 -0.1561425335328199 0 -0.2565438833259911 -0.1687602707777138 0 -0.26683780591716472 -0.14870377212940841 0 -0.27724699849667023 -0.17157804188827869 0 -0.26683780591716472 -0.14870377212940841 0 -0.2930126781551784 -0.15044668515260809 0 -0.2565438833259911 -0.1687602707777138 0 -0.27724699849667023 -0.17157804188827869 0 -0.26683780591716472 -0.14870377212940841 0 -0.2435592126657353 -0.1561425335328199 0 -0.2432602079730701 -0.13485583854350039 0 -0.26683780591716472 -0.14870377212940841 0 -0.2432602079730701 -0.13485583854350039 0 -0.26490928006600228 -0.12397715003998409 0 -0.26683780591716472 -0.14870377212940841 0 -0.26490928006600228 -0.12397715003998409 0 -0.26683780591716472 -0.14870377212940841 0 -0.28428672055728371 -0.13281235115180859 0 -0.28428672055728371 -0.13281235115180859 0 -0.2930126781551784 -0.15044668515260809 0 -0.30877835781368662 -0.12931532841693749 0 -0.26683780591716472 -0.14870377212940841 0 -0.28428672055728371 -0.13281235115180859 0 -0.2930126781551784 -0.15044668515260809 0 -0.2930126781551784 -0.15044668515260809 0 -0.30877835781368662 -0.12931532841693749 0 -0.3206808779707625 -0.15110047818677941 0 -0.2930126781551784 -0.15044668515260809 0 -0.30877835781368662 -0.12931532841693749 0 -0.33570809008837621 -0.11845594114356341 0 -0.30877835781368662 -0.12931532841693749 0 -0.33688620478323589 -0.13358080389391511 0 -0.30877835781368662 -0.12931532841693749 0 -0.3206808779707625 -0.15110047818677941 0 -0.33688620478323589 -0.13358080389391511 0 -0.3206808779707625 -0.15110047818677941 0 -0.33688620478323589 -0.13358080389391511 0 -0.34399943231138669 -0.15408109000358611 0 -0.33688620478323589 -0.13358080389391511 0 -0.35929992868189681 -0.1386942596847188 0 -0.35404294059136687 -0.1217835462641018 0 -0.33688620478323589 -0.13358080389391511 0 -0.35929992868189681 -0.1386942596847188 0 -0.35404294059136687 -0.1217835462641018 0 -0.35929992868189681 -0.1386942596847188 0 -0.37028068739271691 -0.13083580994494901 0 -0.35929992868189681 -0.1386942596847188 0 -0.37028068739271691 -0.13083580994494901 0 -0.3804539816512269 -0.14482329966991631 0 -0.35929992868189681 -0.1386942596847188 0 -0.3804539816512269 -0.14482329966991631 0 -0.35929992868189681 -0.1386942596847188 0 -0.3655172116091886 -0.15688196674787641 0 -0.3804539816512269 -0.14482329966991631 0 -0.3655172116091886 -0.15688196674787641 0 -0.3804539816512269 -0.14482329966991631 0 -0.3655172116091886 -0.15688196674787641 0 -0.37839901512320262 -0.15996290040625341 0 -0.3804539816512269 -0.14482329966991631 0 -0.33688620478323589 -0.13358080389391511 0 -0.35929992868189681 -0.1386942596847188 0 -0.34399943231138669 -0.15408109000358611 0 -0.35929992868189681 -0.1386942596847188 0 -0.34399943231138669 -0.15408109000358611 0 -0.3655172116091886 -0.15688196674787641 0 -0.34399943231138669 -0.15408109000358611 0 -0.35323542112630057 -0.1671812377988513 0 -0.3655172116091886 -0.15688196674787641 0 -0.3655172116091886 -0.15688196674787641 0 -0.37378547386561772 -0.17392500984250869 0 -0.37839901512320262 -0.15996290040625341 0 -0.35323542112630057 -0.1671812377988513 0 -0.3655172116091886 -0.15688196674787641 0 -0.37378547386561772 -0.17392500984250869 0 -0.37378547386561772 -0.17392500984250869 0 -0.35240556330307887 -0.18479875362473361 0 -0.36895563931783232 -0.19259611207654981 0 -0.35323542112630057 -0.1671812377988513 0 -0.37378547386561772 -0.17392500984250869 0 -0.35240556330307887 -0.18479875362473361 0 -0.35323542112630057 -0.1671812377988513 0 -0.35240556330307887 -0.18479875362473361 0 -0.33400288196205857 -0.17193246321376471 0 -0.35240556330307887 -0.18479875362473361 0 -0.33400288196205857 -0.17193246321376471 0 -0.33669316521431608 -0.19324526314955739 0 -0.33400288196205857 -0.17193246321376471 0 -0.32123008678095788 -0.18729232698745699 0 -0.33669316521431608 -0.19324526314955739 0 -0.3206808779707625 -0.15110047818677941 0 -0.34399943231138669 -0.15408109000358611 0 -0.33400288196205857 -0.17193246321376471 0 -0.34399943231138669 -0.15408109000358611 0 -0.35323542112630057 -0.1671812377988513 0 -0.33400288196205857 -0.17193246321376471 0 -0.30674796742087651 -0.1684647150882764 0 -0.3206808779707625 -0.15110047818677941 0 -0.33400288196205857 -0.17193246321376471 0 -0.30674796742087651 -0.1684647150882764 0 -0.33400288196205857 -0.17193246321376471 0 -0.32123008678095788 -0.18729232698745699 0 -0.30195969341908391 -0.19078830755985379 0 -0.32123008678095788 -0.18729232698745699 0 -0.32674672588845421 -0.2120308859258328 0 -0.32674672588845421 -0.2120308859258328 0 -0.35024140450074381 -0.20994798342056251 0 -0.32674672588845421 -0.2120308859258328 0 -0.33669316521431608 -0.19324526314955739 0 -0.35024140450074381 -0.20994798342056251 0 -0.32674672588845421 -0.2120308859258328 0 -0.35024140450074381 -0.20994798342056251 0 -0.3377174746324717 -0.2284461722996495 0 -0.32123008678095788 -0.18729232698745699 0 -0.32674672588845421 -0.2120308859258328 0 -0.33669316521431608 -0.19324526314955739 0 -0.35240556330307887 -0.18479875362473361 0 -0.36895563931783232 -0.19259611207654981 0 -0.35024140450074381 -0.20994798342056251 0 -0.35240556330307887 -0.18479875362473361 0 -0.33669316521431608 -0.19324526314955739 0 -0.35024140450074381 -0.20994798342056251 0 -0.36895563931783232 -0.19259611207654981 0 -0.37373608311303341 -0.20786508091529229 0 -0.35024140450074381 -0.20994798342056251 0 -0.37373608311303341 -0.20786508091529229 0 -0.35024140450074381 -0.20994798342056251 0 -0.37373608311303341 -0.20786508091529229 0 -0.35024140450074381 -0.20994798342056251 0 -0.36602803805366552 -0.21914337572849349 0 -0.37373608311303341 -0.20786508091529229 0 -0.36602803805366552 -0.21914337572849349 0 -0.37785639846487218 -0.21906994256996459 0 -0.35024140450074381 -0.20994798342056251 0 -0.357966965356528 -0.23170644806675769 0 -0.3377174746324717 -0.2284461722996495 0 -0.35024140450074381 -0.20994798342056251 0 -0.357966965356528 -0.23170644806675769 0 -0.36602803805366552 -0.21914337572849349 0 -0.357966965356528 -0.23170644806675769 0 -0.36602803805366552 -0.21914337572849349 0 -0.36983275924353248 -0.22875232439276311 0 -0.36602803805366552 -0.21914337572849349 0 -0.36983275924353248 -0.22875232439276311 0 -0.37785639846487218 -0.21906994256996459 0 -0.357966965356528 -0.23170644806675769 0 -0.36983275924353248 -0.22875232439276311 0 -0.37747963509906429 -0.24508953120583671 0 -0.35872453044413888 -0.25078889886649508 0 -0.357966965356528 -0.23170644806675769 0 -0.37747963509906429 -0.24508953120583671 0 -0.357966965356528 -0.23170644806675769 0 -0.34395992200845399 -0.24382677409400949 0 -0.3377174746324717 -0.2284461722996495 0 -0.35872453044413888 -0.25078889886649508 0 -0.357966965356528 -0.23170644806675769 0 -0.34395992200845399 -0.24382677409400949 0 -0.33345250408021371 -0.25331871279766999 0 -0.34395992200845399 -0.24382677409400949 0 -0.33132333615916232 -0.2411148243472106 0 -0.33345250408021371 -0.25331871279766999 0 -0.33132333615916232 -0.2411148243472106 0 -0.32023222063025569 -0.2489608815952247 0 -0.34395992200845399 -0.24382677409400949 0 -0.33132333615916232 -0.2411148243472106 0 -0.3377174746324717 -0.2284461722996495 0 -0.32674672588845421 -0.2120308859258328 0 -0.3377174746324717 -0.2284461722996495 0 -0.32066485276457768 -0.2334308190911655 0 -0.33132333615916232 -0.2411148243472106 0 -0.3377174746324717 -0.2284461722996495 0 -0.32066485276457768 -0.2334308190911655 0 -0.3004866401015065 -0.2269264896544945 0 -0.32674672588845421 -0.2120308859258328 0 -0.32066485276457768 -0.2334308190911655 0 -0.30748271917561598 -0.2431056607245809 0 -0.32066485276457768 -0.2334308190911655 0 -0.32023222063025569 -0.2489608815952247 0 -0.33132333615916232 -0.2411148243472106 0 -0.32066485276457768 -0.2334308190911655 0 -0.32023222063025569 -0.2489608815952247 0 -0.43445882011373449 -0.25478651907497341 0 -0.43806130733353449 -0.23541812032183559 0 -0.43445882011373449 -0.25478651907497341 0 -0.4258852610480256 -0.24284815888716721 0 -0.43806130733353449 -0.23541812032183559 0 -0.4258852610480256 -0.24284815888716721 0 -0.42538833238501789 -0.2333934851751748 0 -0.41698539980062188 -0.23875950084572559 0 -0.43445882011373449 -0.25478651907497341 0 -0.4258852610480256 -0.24284815888716721 0 -0.42335340856967768 -0.24893549408922019 0 -0.4258852610480256 -0.24284815888716721 0 -0.42538833238501789 -0.2333934851751748 0 -0.43806130733353449 -0.23541812032183559 0 -0.43091611572645672 -0.22699763907763329 0 -0.42538833238501789 -0.2333934851751748 0 -0.43806130733353449 -0.23541812032183559 0 -0.43091611572645672 -0.22699763907763329 0 -0.44166379455333399 -0.21604972156869759 0 -0.43806130733353449 -0.23541812032183559 0 -0.43091611572645672 -0.22699763907763329 0 -0.43133498143110582 -0.21921018883561361 0 -0.44166379455333399 -0.21604972156869759 0 -0.43133498143110582 -0.21921018883561361 0 -0.4232485836513401 -0.22477446532261011 0 -0.4232102070061276 -0.21869015764887889 0 -0.43091611572645672 -0.22699763907763329 0 -0.43133498143110582 -0.21921018883561361 0 -0.4232485836513401 -0.22477446532261011 0 -0.43091611572645672 -0.22699763907763329 0 -0.4232485836513401 -0.22477446532261011 0 -0.42538833238501789 -0.2333934851751748 0 -0.4232485836513401 -0.22477446532261011 0 -0.42538833238501789 -0.2333934851751748 0 -0.41731365953457839 -0.2310953018814938 0 -0.4232485836513401 -0.22477446532261011 0 -0.41731365953457839 -0.2310953018814938 0 -0.4121948509493269 -0.2247325638453028 0 -0.41731365953457839 -0.2310953018814938 0 -0.4080561583250083 -0.23272886934204159 0 -0.41698539980062188 -0.23875950084572559 0 -0.4232485836513401 -0.22477446532261011 0 -0.4121948509493269 -0.2247325638453028 0 -0.41685681033243982 -0.21746512418924929 0 -0.4232485836513401 -0.22477446532261011 0 -0.41685681033243982 -0.21746512418924929 0 -0.4232102070061276 -0.21869015764887889 0 -0.4121948509493269 -0.2247325638453028 0 -0.4080561583250083 -0.23272886934204159 0 -0.39971520205611372 -0.2221352637332015 0 -0.4121948509493269 -0.2247325638453028 0 -0.40807454407470489 -0.21592977391801271 0 -0.41685681033243982 -0.21746512418924929 0 -0.4121948509493269 -0.2247325638453028 0 -0.39971520205611372 -0.2221352637332015 0 -0.40807454407470489 -0.21592977391801271 0 -0.41731365953457839 -0.2310953018814938 0 -0.4121948509493269 -0.2247325638453028 0 -0.4080561583250083 -0.23272886934204159 0 -0.4080561583250083 -0.23272886934204159 0 -0.40983148527785651 -0.24118391776602099 0 -0.41698539980062188 -0.23875950084572559 0 -0.42538833238501789 -0.2333934851751748 0 -0.41731365953457839 -0.2310953018814938 0 -0.41698539980062188 -0.23875950084572559 0 -0.40983148527785651 -0.24118391776602099 0 -0.41698539980062188 -0.23875950084572559 0 -0.41627810448972868 -0.24641300060905449 0 -0.4258852610480256 -0.24284815888716721 0 -0.42335340856967768 -0.24893549408922019 0 -0.41627810448972868 -0.24641300060905449 0 -0.4258852610480256 -0.24284815888716721 0 -0.41698539980062188 -0.23875950084572559 0 -0.41627810448972868 -0.24641300060905449 0 -0.41679144862722167 -0.25169429778568547 0 -0.42335340856967768 -0.24893549408922019 0 -0.41627810448972868 -0.24641300060905449 0 -0.41385673751816382 -0.25312989710486528 0 -0.41627810448972868 -0.24641300060905449 0 -0.4086566941719203 -0.24778871483445111 0 -0.40983148527785651 -0.24118391776602099 0 -0.41627810448972868 -0.24641300060905449 0 -0.4086566941719203 -0.24778871483445111 0 -0.40282532782868952 -0.25224285689579767 0 -0.4086566941719203 -0.24778871483445111 0 -0.40022281387448849 -0.24084313907701979 0 -0.40983148527785651 -0.24118391776602099 0 -0.4086566941719203 -0.24778871483445111 0 -0.40022281387448849 -0.24084313907701979 0 -0.4080561583250083 -0.23272886934204159 0 -0.40983148527785651 -0.24118391776602099 0 -0.40022281387448849 -0.24084313907701979 0 -0.40022281387448849 -0.24084313907701979 0 -0.3903832871219331 -0.2411545733314838 0 -0.38772777019650018 -0.2315142496456449 0 -0.3938256931015453 -0.25037754026629511 0 -0.40022281387448849 -0.24084313907701979 0 -0.3903832871219331 -0.2411545733314838 0 -0.3938256931015453 -0.25037754026629511 0 -0.3903832871219331 -0.2411545733314838 0 -0.37747963509906429 -0.24508953120583671 0 -0.3903832871219331 -0.2411545733314838 0 -0.37747963509906429 -0.24508953120583671 0 -0.38772777019650018 -0.2315142496456449 0 -0.37747963509906429 -0.24508953120583671 0 -0.37785639846487218 -0.21906994256996459 0 -0.37747963509906429 -0.24508953120583671 0 -0.37785639846487218 -0.21906994256996459 0 -0.38772777019650018 -0.2315142496456449 0 -0.36983275924353248 -0.22875232439276311 0 -0.37747963509906429 -0.24508953120583671 0 -0.37785639846487218 -0.21906994256996459 0 -0.37785639846487218 -0.21906994256996459 0 -0.38772777019650018 -0.2315142496456449 0 -0.38790285805175961 -0.2167146319195192 0 -0.4080561583250083 -0.23272886934204159 0 -0.40022281387448849 -0.24084313907701979 0 -0.39971520205611372 -0.2221352637332015 0 -0.40022281387448849 -0.24084313907701979 0 -0.39971520205611372 -0.2221352637332015 0 -0.38772777019650018 -0.2315142496456449 0 -0.39971520205611372 -0.2221352637332015 0 -0.38790285805175961 -0.2167146319195192 0 -0.40022281387448849 -0.24084313907701979 0 -0.38772777019650018 -0.2315142496456449 0 -0.39971520205611372 -0.2221352637332015 0 -0.39971520205611372 -0.2221352637332015 0 -0.39723076172532301 -0.205782178410022 0 -0.40807454407470489 -0.21592977391801271 0 -0.39971520205611372 -0.2221352637332015 0 -0.39723076172532301 -0.205782178410022 0 -0.38790285805175961 -0.2167146319195192 0 -0.39723076172532301 -0.205782178410022 0 -0.41303892827123678 -0.21093405469715851 0 -0.40807454407470489 -0.21592977391801271 0 -0.37373608311303341 -0.20786508091529229 0 -0.39723076172532301 -0.205782178410022 0 -0.38370630256805799 -0.1971119561512929 0 -0.37373608311303341 -0.20786508091529229 0 -0.39723076172532301 -0.205782178410022 0 -0.38790285805175961 -0.2167146319195192 0 -0.37373608311303341 -0.20786508091529229 0 -0.39723076172532301 -0.205782178410022 0 -0.37373608311303341 -0.20786508091529229 0 -0.37785639846487218 -0.21906994256996459 0 -0.38790285805175961 -0.2167146319195192 0 -0.36895563931783232 -0.19259611207654981 0 -0.38370630256805799 -0.1971119561512929 0 -0.3831693110633177 -0.1873742460103984 0 -0.36895563931783232 -0.19259611207654981 0 -0.37373608311303341 -0.20786508091529229 0 -0.38370630256805799 -0.1971119561512929 0 -0.38370630256805799 -0.1971119561512929 0 -0.39543971762078378 -0.19194216334420211 0 -0.3831693110633177 -0.1873742460103984 0 -0.39723076172532301 -0.205782178410022 0 -0.38370630256805799 -0.1971119561512929 0 -0.39543971762078378 -0.19194216334420211 0 -0.39723076172532301 -0.205782178410022 0 -0.39543971762078378 -0.19194216334420211 0 -0.40534117689708921 -0.19634387975323889 0 -0.39543971762078378 -0.19194216334420211 0 -0.40534117689708921 -0.19634387975323889 0 -0.40730162077548249 -0.18407395049314179 0 -0.39723076172532301 -0.205782178410022 0 -0.40534117689708921 -0.19634387975323889 0 -0.42072544033761272 -0.20369927590475301 0 -0.42032122747045741 -0.1927313373696285 0 -0.42072544033761272 -0.20369927590475301 0 -0.40730162077548249 -0.18407395049314179 0 -0.42072544033761272 -0.20369927590475301 0 -0.40730162077548249 -0.18407395049314179 0 -0.40534117689708921 -0.19634387975323889 0 -0.42072544033761272 -0.20369927590475301 0 -0.40730162077548249 -0.18407395049314179 0 -0.39723076172532301 -0.205782178410022 0 -0.41303892827123678 -0.21093405469715851 0 -0.42072544033761272 -0.20369927590475301 0 -0.39723076172532301 -0.205782178410022 0 -0.42072544033761272 -0.20369927590475301 0 -0.41303892827123678 -0.21093405469715851 0 -0.40807454407470489 -0.21592977391801271 0 -0.41685681033243982 -0.21746512418924929 0 -0.41303892827123678 -0.21093405469715851 0 -0.41685681033243982 -0.21746512418924929 0 -0.42140045260962489 -0.21331085224804261 0 -0.41685681033243982 -0.21746512418924929 0 -0.42140045260962489 -0.21331085224804261 0 -0.4232102070061276 -0.21869015764887889 0 -0.41303892827123678 -0.21093405469715851 0 -0.42140045260962489 -0.21331085224804261 0 -0.42072544033761272 -0.20369927590475301 0 -0.42512182626149492 -0.2033095177213731 0 -0.43378961613155448 -0.20908682079381441 0 -0.44184138868315109 -0.20247798044170351 0 -0.42072544033761272 -0.20369927590475301 0 -0.42512182626149492 -0.2033095177213731 0 -0.43133498143110582 -0.21921018883561361 0 -0.42072544033761272 -0.20369927590475301 0 -0.42512182626149492 -0.2033095177213731 0 -0.43133498143110582 -0.21921018883561361 0 -0.42512182626149492 -0.2033095177213731 0 -0.43378961613155448 -0.20908682079381441 0 -0.43133498143110582 -0.21921018883561361 0 -0.42140045260962489 -0.21331085224804261 0 -0.4232102070061276 -0.21869015764887889 0 -0.43133498143110582 -0.21921018883561361 0 -0.42072544033761272 -0.20369927590475301 0 -0.43133498143110582 -0.21921018883561361 0 -0.42140045260962489 -0.21331085224804261 0 -0.42072544033761272 -0.20369927590475301 0 -0.43133498143110582 -0.21921018883561361 0 -0.43378961613155448 -0.20908682079381441 0 -0.44166379455333399 -0.21604972156869759 0 -0.42032122747045741 -0.1927313373696285 0 -0.44184138868315109 -0.20247798044170351 0 -0.42032122747045741 -0.1927313373696285 0 -0.43099962817645188 -0.18319011649723049 0 -0.43833565968517207 -0.19112957676178299 0 -0.42032122747045741 -0.1927313373696285 0 -0.42512182626149492 -0.2033095177213731 0 -0.44184138868315109 -0.20247798044170351 0 -0.42032122747045741 -0.1927313373696285 0 -0.43833565968517207 -0.19112957676178299 0 -0.44184138868315109 -0.20247798044170351 0 -0.42032122747045741 -0.1927313373696285 0 -0.42072544033761272 -0.20369927590475301 0 -0.42512182626149492 -0.2033095177213731 0 -0.42549584187692119 -0.17333418479170171 0 -0.43099962817645188 -0.18319011649723049 0 -0.41834400919125792 -0.18158621355319651 0 -0.42032122747045741 -0.1927313373696285 0 -0.43099962817645188 -0.18319011649723049 0 -0.41834400919125792 -0.18158621355319651 0 -0.43099962817645188 -0.18319011649723049 0 -0.43495901877196291 -0.17485617288990979 0 -0.44455133712372419 -0.18300714728765441 0 -0.42549584187692119 -0.17333418479170171 0 -0.43099962817645188 -0.18319011649723049 0 -0.43495901877196291 -0.17485617288990979 0 -0.42549584187692119 -0.17333418479170171 0 -0.43495901877196291 -0.17485617288990979 0 -0.43155613508544272 -0.1669321437644439 0 -0.43495901877196291 -0.17485617288990979 0 -0.43155613508544272 -0.1669321437644439 0 -0.44219215159727421 -0.16781727210851849 0 -0.43155613508544272 -0.1669321437644439 0 -0.43166640735559808 -0.1552039120346444 0 -0.44219215159727421 -0.16781727210851849 0 -0.43155613508544272 -0.1669321437644439 0 -0.4214232379976206 -0.16216052115063159 0 -0.43166640735559808 -0.1552039120346444 0 -0.42549584187692119 -0.17333418479170171 0 -0.43155613508544272 -0.1669321437644439 0 -0.4214232379976206 -0.16216052115063159 0 -0.42549584187692119 -0.17333418479170171 0 -0.4214232379976206 -0.16216052115063159 0 -0.41110577652129249 -0.1670682470007229 0 -0.4214232379976206 -0.16216052115063159 0 -0.41110577652129249 -0.1670682470007229 0 -0.40669002996807779 -0.1495058137550834 0 -0.41110577652129249 -0.1670682470007229 0 -0.41834400919125792 -0.18158621355319651 0 -0.40730162077548249 -0.18407395049314179 0 -0.42549584187692119 -0.17333418479170171 0 -0.41110577652129249 -0.1670682470007229 0 -0.41834400919125792 -0.18158621355319651 0 -0.42032122747045741 -0.1927313373696285 0 -0.41834400919125792 -0.18158621355319651 0 -0.40730162077548249 -0.18407395049314179 0 -0.39543971762078378 -0.19194216334420211 0 -0.40730162077548249 -0.18407395049314179 0 -0.39267839793348491 -0.17927693187167279 0 -0.40730162077548249 -0.18407395049314179 0 -0.39267839793348491 -0.17927693187167279 0 -0.39387780121335469 -0.16444862508152899 0 -0.40730162077548249 -0.18407395049314179 0 -0.39387780121335469 -0.16444862508152899 0 -0.37378547386561772 -0.17392500984250869 0 -0.36895563931783232 -0.19259611207654981 0 -0.3831693110633177 -0.1873742460103984 0 -0.37378547386561772 -0.17392500984250869 0 -0.39267839793348491 -0.17927693187167279 0 -0.3831693110633177 -0.1873742460103984 0 -0.37378547386561772 -0.17392500984250869 0 -0.39267839793348491 -0.17927693187167279 0 -0.39387780121335469 -0.16444862508152899 0 -0.39543971762078378 -0.19194216334420211 0 -0.39267839793348491 -0.17927693187167279 0 -0.3831693110633177 -0.1873742460103984 0 -0.37378547386561772 -0.17392500984250869 0 -0.37839901512320262 -0.15996290040625341 0 -0.39387780121335469 -0.16444862508152899 0 -0.37839901512320262 -0.15996290040625341 0 -0.39387780121335469 -0.16444862508152899 0 -0.3804539816512269 -0.14482329966991631 0 -0.41110577652129249 -0.1670682470007229 0 -0.39387780121335469 -0.16444862508152899 0 -0.40669002996807779 -0.1495058137550834 0 -0.41110577652129249 -0.1670682470007229 0 -0.40730162077548249 -0.18407395049314179 0 -0.39387780121335469 -0.16444862508152899 0 -0.39387780121335469 -0.16444862508152899 0 -0.3804539816512269 -0.14482329966991631 0 -0.40669002996807779 -0.1495058137550834 0 -0.3804539816512269 -0.14482329966991631 0 -0.39647179587780151 -0.13189450107720049 0 -0.40669002996807779 -0.1495058137550834 0 -0.3804539816512269 -0.14482329966991631 0 -0.40669002996807779 -0.1495058137550834 0 -0.39387780121335469 -0.16444862508152899 0 -0.3804539816512269 -0.14482329966991631 0 -0.3804539816512269 -0.14482329966991631 0 -0.38278168804071749 -0.12940228238898679 0 -0.39647179587780151 -0.13189450107720049 0 -0.3804539816512269 -0.14482329966991631 0 -0.39647179587780151 -0.13189450107720049 0 -0.37212838853434238 -0.11808059788504249 0 -0.37028068739271691 -0.13083580994494901 0 -0.38278168804071749 -0.12940228238898679 0 -0.37028068739271691 -0.13083580994494901 0 -0.3804539816512269 -0.14482329966991631 0 -0.38278168804071749 -0.12940228238898679 0 -0.38278168804071749 -0.12940228238898679 0 -0.39647179587780151 -0.13189450107720049 0 -0.39044023874876249 -0.11757149150947201 0 -0.39647179587780151 -0.13189450107720049 0 -0.40828286160401828 -0.1310364195873514 0 -0.40669002996807779 -0.1495058137550834 0 -0.39647179587780151 -0.13189450107720049 0 -0.40828286160401828 -0.1310364195873514 0 -0.41122993917504558 -0.1199812866788818 0 -0.39647179587780151 -0.13189450107720049 0 -0.41122993917504558 -0.1199812866788818 0 -0.40828286160401828 -0.1310364195873514 0 -0.41930562378398423 -0.12797048681614909 0 -0.41122993917504558 -0.1199812866788818 0 -0.41930562378398423 -0.12797048681614909 0 -0.41533589961201212 -0.13938201891822019 0 -0.4273858072007774 -0.14414008567558009 0 -0.40828286160401828 -0.1310364195873514 0 -0.41533589961201212 -0.13938201891822019 0 -0.40669002996807779 -0.1495058137550834 0 -0.40828286160401828 -0.1310364195873514 0 -0.41930562378398423 -0.12797048681614909 0 -0.41533589961201212 -0.13938201891822019 0 -0.40669002996807779 -0.1495058137550834 0 -0.43166640735559808 -0.1552039120346444 0 -0.4214232379976206 -0.16216052115063159 0 -0.40669002996807779 -0.1495058137550834 0 -0.43166640735559808 -0.1552039120346444 0 -0.41533589961201212 -0.13938201891822019 0 -0.40669002996807779 -0.1495058137550834 0 -0.4273858072007774 -0.14414008567558009 0 -0.40669002996807779 -0.1495058137550834 0 -0.4273858072007774 -0.14414008567558009 0 -0.43166640735559808 -0.1552039120346444 0 -0.43166640735559808 -0.1552039120346444 0 -0.43525592456887258 -0.14374997194848471 0 -0.44410307239699631 -0.15282998285397989 0 -0.4273858072007774 -0.14414008567558009 0 -0.43166640735559808 -0.1552039120346444 0 -0.43525592456887258 -0.14374997194848471 0 -0.41930562378398423 -0.12797048681614909 0 -0.43525592456887258 -0.14374997194848471 0 -0.41930562378398423 -0.12797048681614909 0 -0.4273858072007774 -0.14414008567558009 0 -0.43525592456887258 -0.14374997194848471 0 -0.41930562378398423 -0.12797048681614909 0 -0.4273858072007774 -0.14414008567558009 0 -0.41930562378398423 -0.12797048681614909 0 -0.43525592456887258 -0.14374997194848471 0 -0.43389101300267191 -0.13422730327376839 0 -0.41930562378398423 -0.12797048681614909 0 -0.43389101300267191 -0.13422730327376839 0 -0.4149348530849476 -0.1169905694289516 0 -0.43389101300267191 -0.13422730327376839 0 -0.4149348530849476 -0.1169905694289516 0 -0.43389101300267191 -0.13422730327376839 0 -0.43160182387889101 -0.1187955019330571 0 -0.44085253015216358 -0.1237950587173612 0 -0.43389101300267191 -0.13422730327376839 0 -0.44872577578551592 -0.13320174295465559 0 -0.452847172920396 -0.1514640371185853 0 -0.44872577578551592 -0.13320174295465559 0 -0.45896755277767909 -0.12575633132281341 0 -0.45000974795797011 -0.119430952696417 0 -0.44872577578551592 -0.13320174295465559 0 -0.45000974795797011 -0.119430952696417 0 -0.44085253015216358 -0.1237950587173612 0 -0.43389101300267191 -0.13422730327376839 0 -0.44872577578551592 -0.13320174295465559 0 -0.44085253015216358 -0.1237950587173612 0 -0.43525592456887258 -0.14374997194848471 0 -0.43389101300267191 -0.13422730327376839 0 -0.452847172920396 -0.1514640371185853 0 -0.43525592456887258 -0.14374997194848471 0 -0.44410307239699631 -0.15282998285397989 0 -0.452847172920396 -0.1514640371185853 0 -0.44872577578551592 -0.13320174295465559 0 -0.452847172920396 -0.1514640371185853 0 -0.456386085566235 -0.14096643446963419 0 -0.43389101300267191 -0.13422730327376839 0 -0.452847172920396 -0.1514640371185853 0 -0.44410307239699631 -0.15282998285397989 0 -0.452847172920396 -0.1514640371185853 0 -0.45664278474311831 -0.16090201031420531 0 -0.452847172920396 -0.1514640371185853 0 -0.456386085566235 -0.14096643446963419 0 -0.46738274896045578 -0.15003021006820461 0 -0.452847172920396 -0.1514640371185853 0 -0.46738274896045578 -0.15003021006820461 0 -0.45664278474311831 -0.16090201031420531 0 -0.456386085566235 -0.14096643446963419 0 -0.46738274896045578 -0.15003021006820461 0 -0.47200539146090159 -0.13839174763128981 0 -0.456386085566235 -0.14096643446963419 0 -0.47200539146090159 -0.13839174763128981 0 -0.47750202174635031 -0.1215216316744509 0 -0.456386085566235 -0.14096643446963419 0 -0.45896755277767909 -0.12575633132281341 0 -0.47750202174635031 -0.1215216316744509 0 -0.456386085566235 -0.14096643446963419 0 -0.47750202174635031 -0.1215216316744509 0 -0.44872577578551592 -0.13320174295465559 0 -0.456386085566235 -0.14096643446963419 0 -0.45896755277767909 -0.12575633132281341 0 -0.47200539146090159 -0.13839174763128981 0 -0.48675070957056549 -0.14104871431286931 0 -0.47750202174635031 -0.1215216316744509 0 -0.50000000000000011 -0.12648838757554831 0 -0.48675070957056549 -0.14104871431286931 0 -0.5 -0.15043640832747529 0 -0.50000000000000011 -0.12648838757554831 0 -0.48675070957056549 -0.14104871431286931 0 -0.47750202174635031 -0.1215216316744509 0 -0.48675070957056549 -0.14104871431286931 0 -0.5 -0.15043640832747529 0 -0.48062174440056549 -0.15969986187448909 0 -0.46738274896045578 -0.15003021006820461 0 -0.47200539146090159 -0.13839174763128981 0 -0.48675070957056549 -0.14104871431286931 0 -0.48675070957056549 -0.14104871431286931 0 -0.48062174440056549 -0.15969986187448909 0 -0.46738274896045578 -0.15003021006820461 0 -0.48675070957056549 -0.14104871431286931 0 -0.48062174440056549 -0.15969986187448909 0 -0.48062174440056549 -0.15969986187448909 0 -0.46548313673471758 -0.16971310035941381 0 -0.46753260370971428 -0.1600862956540782 0 -0.46738274896045578 -0.15003021006820461 0 -0.48062174440056549 -0.15969986187448909 0 -0.46753260370971428 -0.1600862956540782 0 -0.48062174440056549 -0.15969986187448909 0 -0.47449277923056221 -0.17835100943610771 0 -0.46548313673471758 -0.16971310035941381 0 -0.48062174440056549 -0.15969986187448909 0 -0.47449277923056221 -0.17835100943610771 0 -0.5 -0.15043640832747529 0 -0.48062174440056549 -0.15969986187448909 0 -0.49999999999999828 -0.17438442907940241 0 -0.48062174440056549 -0.15969986187448909 0 -0.49999999999999828 -0.17438442907940241 0 -0.47449277923056221 -0.17835100943610771 0 -0.49999999999999828 -0.17438442907940241 0 -0.47449277923056221 -0.17835100943610771 0 -0.49999999999999828 -0.17438442907940241 0 -0.47449277923056221 -0.17835100943610771 0 -0.48549376880548989 -0.19132810400505559 0 -0.47449277923056221 -0.17835100943610771 0 -0.46892716456320649 -0.19528781647494389 0 -0.47449277923056221 -0.17835100943610771 0 -0.45952205817714309 -0.18067907836188021 0 -0.46892716456320649 -0.19528781647494389 0 -0.45952205817714309 -0.18067907836188021 0 -0.46548313673471758 -0.16971310035941381 0 -0.45289664290439807 -0.17180374819378549 0 -0.47449277923056221 -0.17835100943610771 0 -0.45952205817714309 -0.18067907836188021 0 -0.47449277923056221 -0.17835100943610771 0 -0.45952205817714309 -0.18067907836188021 0 -0.46548313673471758 -0.16971310035941381 0 -0.46548313673471758 -0.16971310035941381 0 -0.46753260370971428 -0.1600862956540782 0 -0.45664278474311831 -0.16090201031420531 0 -0.46738274896045578 -0.15003021006820461 0 -0.46753260370971428 -0.1600862956540782 0 -0.45664278474311831 -0.16090201031420531 0 -0.46548313673471758 -0.16971310035941381 0 -0.45664278474311831 -0.16090201031420531 0 -0.45289664290439807 -0.17180374819378549 0 -0.45664278474311831 -0.16090201031420531 0 -0.45289664290439807 -0.17180374819378549 0 -0.44219215159727421 -0.16781727210851849 0 -0.43166640735559808 -0.1552039120346444 0 -0.45664278474311831 -0.16090201031420531 0 -0.44219215159727421 -0.16781727210851849 0 -0.43166640735559808 -0.1552039120346444 0 -0.45664278474311831 -0.16090201031420531 0 -0.43166640735559808 -0.1552039120346444 0 -0.44410307239699631 -0.15282998285397989 0 -0.45664278474311831 -0.16090201031420531 0 -0.43495901877196291 -0.17485617288990979 0 -0.44219215159727421 -0.16781727210851849 0 -0.44455133712372419 -0.18300714728765441 0 -0.43099962817645188 -0.18319011649723049 0 -0.44455133712372419 -0.18300714728765441 0 -0.43833565968517207 -0.19112957676178299 0 -0.45952205817714309 -0.18067907836188021 0 -0.44455133712372419 -0.18300714728765441 0 -0.45396471697207569 -0.194241302212698 0 -0.45952205817714309 -0.18067907836188021 0 -0.44455133712372419 -0.18300714728765441 0 -0.45952205817714309 -0.18067907836188021 0 -0.45289664290439807 -0.17180374819378549 0 -0.44455133712372419 -0.18300714728765441 0 -0.45289664290439807 -0.17180374819378549 0 -0.44219215159727421 -0.16781727210851849 0 -0.44455133712372419 -0.18300714728765441 0 -0.44455133712372419 -0.18300714728765441 0 -0.43833565968517207 -0.19112957676178299 0 -0.45396471697207569 -0.194241302212698 0 -0.43833565968517207 -0.19112957676178299 0 -0.44184138868315109 -0.20247798044170351 0 -0.45396471697207569 -0.194241302212698 0 -0.44184138868315109 -0.20247798044170351 0 -0.46336154989584488 -0.2122246235137781 0 -0.45396471697207569 -0.194241302212698 0 -0.44184138868315109 -0.20247798044170351 0 -0.46336154989584488 -0.2122246235137781 0 -0.45338394269579491 -0.2190794284651259 0 -0.43378961613155448 -0.20908682079381441 0 -0.44184138868315109 -0.20247798044170351 0 -0.44166379455333399 -0.21604972156869759 0 -0.44184138868315109 -0.20247798044170351 0 -0.44166379455333399 -0.21604972156869759 0 -0.45338394269579491 -0.2190794284651259 0 -0.44184138868315109 -0.20247798044170351 0 -0.46336154989584488 -0.2122246235137781 0 -0.46336154989584488 -0.2122246235137781 0 -0.46892716456320649 -0.19528781647494389 0 -0.46336154989584488 -0.2122246235137781 0 -0.45396471697207569 -0.194241302212698 0 -0.46892716456320649 -0.19528781647494389 0 -0.45952205817714309 -0.18067907836188021 0 -0.45396471697207569 -0.194241302212698 0 -0.46892716456320649 -0.19528781647494389 0 -0.47449277923056221 -0.17835100943610771 0 -0.46892716456320649 -0.19528781647494389 0 -0.48549376880548989 -0.19132810400505559 0 -0.46892716456320649 -0.19528781647494389 0 -0.48549376880548989 -0.19132810400505559 0 -0.47978640147694102 -0.20418872613165631 0 -0.5 -0.20182215567114031 0 -0.48549376880548989 -0.19132810400505559 0 -0.47978640147694102 -0.20418872613165631 0 -0.49999999999999828 -0.17438442907940241 0 -0.5 -0.20182215567114031 0 -0.48549376880548989 -0.19132810400505559 0 -0.5 -0.20182215567114031 0 -0.48114952412016337 -0.22028093099336349 0 -0.49893749834448198 -0.22833723847294871 0 -0.5 -0.20182215567114031 0 -0.47978640147694102 -0.20418872613165631 0 -0.48114952412016337 -0.22028093099336349 0 -0.46336154989584488 -0.2122246235137781 0 -0.48114952412016337 -0.22028093099336349 0 -0.46336154989584488 -0.2122246235137781 0 -0.47978640147694102 -0.20418872613165631 0 -0.48114952412016337 -0.22028093099336349 0 -0.46336154989584488 -0.2122246235137781 0 -0.46892716456320649 -0.19528781647494389 0 -0.47978640147694102 -0.20418872613165631 0 -0.46336154989584488 -0.2122246235137781 0 -0.48114952412016337 -0.22028093099336349 0 -0.46857810181099829 -0.22486784275082261 0 -0.48114952412016337 -0.22028093099336349 0 -0.48798868478634799 -0.231470988200419 0 -0.47142395938804471 -0.23802335247430181 0 -0.48114952412016337 -0.22028093099336349 0 -0.47142395938804471 -0.23802335247430181 0 -0.46857810181099829 -0.22486784275082261 0 -0.48114952412016337 -0.22028093099336349 0 -0.48798868478634799 -0.231470988200419 0 -0.49893749834448198 -0.22833723847294871 0 -0.48114952412016337 -0.22028093099336349 0 -0.49893749834448198 -0.22833723847294871 0 -0.48798868478634799 -0.231470988200419 0 -0.49893749834448198 -0.22833723847294871 0 -0.4875835208682564 -0.24248539692068891 0 -0.5 -0.25669760885461612 0 -0.49893749834448198 -0.22833723847294871 0 -0.4875835208682564 -0.24248539692068891 0 -0.48798868478634799 -0.231470988200419 0 -0.4875835208682564 -0.24248539692068891 0 -0.47142395938804471 -0.23802335247430181 0 -0.47878778985378329 -0.25835102983948688 0 -0.4875835208682564 -0.24248539692068891 0 -0.47142395938804471 -0.23802335247430181 0 -0.45662330498375908 -0.25656877445722759 0 -0.47142395938804471 -0.23802335247430181 0 -0.45034617445999431 -0.24335722649563979 0 -0.47142395938804471 -0.23802335247430181 0 -0.45735065046854989 -0.23051648340969341 0 -0.45034617445999431 -0.24335722649563979 0 -0.46336154989584488 -0.2122246235137781 0 -0.46857810181099829 -0.22486784275082261 0 -0.45735065046854989 -0.23051648340969341 0 -0.46336154989584488 -0.2122246235137781 0 -0.45735065046854989 -0.23051648340969341 0 -0.47142395938804471 -0.23802335247430181 0 -0.46857810181099829 -0.22486784275082261 0 -0.45735065046854989 -0.23051648340969341 0 -0.46336154989584488 -0.2122246235137781 0 -0.45338394269579491 -0.2190794284651259 0 -0.45735065046854989 -0.23051648340969341 0 -0.45338394269579491 -0.2190794284651259 0 -0.45735065046854989 -0.23051648340969341 0 -0.43806130733353449 -0.23541812032183559 0 -0.44166379455333399 -0.21604972156869759 0 -0.43806130733353449 -0.23541812032183559 0 -0.44166379455333399 -0.21604972156869759 0 -0.45338394269579491 -0.2190794284651259 0 -0.43806130733353449 -0.23541812032183559 0 -0.45735065046854989 -0.23051648340969341 0 -0.45034617445999431 -0.24335722649563979 0 -0.43806130733353449 -0.23541812032183559 0 -0.43445882011373449 -0.25478651907497341 0 -0.45034617445999431 -0.24335722649563979 0 -0.43806130733353449 -0.23541812032183559 0 -0.41324955929443102 -0.038374170610562031 0 -0.41005136228565903 -0.05540387285823338 0 -0.42435348212729052 -0.04457483879584373 0 -0.41324955929443102 -0.038374170610562031 0 -0.41005136228565903 -0.05540387285823338 0 -0.39900851660089293 -0.046429079601448257 0 -0.41324955929443102 -0.038374170610562031 0 -0.40747857107326091 -0.02424585309778798 0 -0.40045416304880688 -0.034240371911693122 0 -0.41005136228565903 -0.05540387285823338 0 -0.4246600563061857 -0.059067830999859447 0 -0.41422906440869389 -0.068128229862373102 0 -0.41005136228565903 -0.05540387285823338 0 -0.4246600563061857 -0.059067830999859447 0 -0.42435348212729052 -0.04457483879584373 0 -0.4246600563061857 -0.059067830999859447 0 -0.42435348212729052 -0.04457483879584373 0 -0.43957367317472601 -0.045089571971719818 0 -0.4246600563061857 -0.059067830999859447 0 -0.43957367317472601 -0.045089571971719818 0 -0.44544580640037118 -0.056213229689383748 0 -0.41324955929443102 -0.038374170610562031 0 -0.42435348212729052 -0.04457483879584373 0 -0.42981912379901888 -0.030443092666165631 0 -0.42435348212729052 -0.04457483879584373 0 -0.42981912379901888 -0.030443092666165631 0 -0.43957367317472601 -0.045089571971719818 0 -0.41302196833726168 -0.01226972299954816 0 -0.4392085005598273 -0.024676348383282701 0 -0.42659341977192161 -0.010103830507352861 0 -0.41302196833726168 -0.01226972299954816 0 -0.4392085005598273 -0.024676348383282701 0 -0.42981912379901888 -0.030443092666165631 0 -0.41673372021425997 -0.022240754673565791 0 -0.4392085005598273 -0.024676348383282701 0 -0.41302196833726168 -0.01226972299954816 0 -0.41673372021425997 -0.022240754673565791 0 -0.4392085005598273 -0.024676348383282701 0 -0.43741768347029059 -0.01288367903972009 0 -0.42659341977192161 -0.010103830507352861 0 -0.4392085005598273 -0.024676348383282701 0 -0.4441818909265971 -0.00998157505946092 0 -0.42578104856505677 0.0031949168855625672 0 -0.43741768347029059 -0.01288367903972009 0 -0.4441818909265971 -0.00998157505946092 0 -0.42578104856505677 0.0031949168855625672 0 -0.43741768347029059 -0.01288367903972009 0 -0.42659341977192161 -0.010103830507352861 0 -0.42578104856505677 0.0031949168855625672 0 -0.43741768347029059 -0.01288367903972009 0 -0.42578104856505677 0.0031949168855625672 0 -0.42659341977192161 -0.010103830507352861 0 -0.41753789792717189 -0.0038843189997757009 0 -0.42578104856505677 0.0031949168855625672 0 -0.42659341977192161 -0.010103830507352861 0 -0.41753789792717189 -0.0038843189997757009 0 -0.41302196833726168 -0.01226972299954816 0 -0.41753789792717189 -0.0038843189997757009 0 -0.41302196833726168 -0.01226972299954816 0 -0.40771050441737638 -0.0035262849216432719 0 -0.41753789792717189 -0.0038843189997757009 0 -0.40771050441737638 -0.0035262849216432719 0 -0.41105156913745711 0.0034129409419674369 0 -0.42981912379901888 -0.030443092666165631 0 -0.40747857107326091 -0.02424585309778798 0 -0.41324955929443102 -0.038374170610562031 0 -0.42981912379901888 -0.030443092666165631 0 -0.40747857107326091 -0.02424585309778798 0 -0.42981912379901888 -0.030443092666165631 0 -0.41673372021425997 -0.022240754673565791 0 -0.40747857107326091 -0.02424585309778798 0 -0.41302196833726168 -0.01226972299954816 0 -0.41673372021425997 -0.022240754673565791 0 -0.40747857107326091 -0.02424585309778798 0 -0.41673372021425997 -0.022240754673565791 0 -0.40747857107326091 -0.02424585309778798 0 -0.40747857107326091 -0.02424585309778798 0 -0.38992317137517202 -0.02804917422583518 0 -0.40747857107326091 -0.02424585309778798 0 -0.38992317137517202 -0.02804917422583518 0 -0.38297625517291389 -0.017448943304264108 0 -0.40747857107326091 -0.02424585309778798 0 -0.38992317137517202 -0.02804917422583518 0 -0.40045416304880688 -0.034240371911693122 0 -0.40747857107326091 -0.02424585309778798 0 -0.39567459441968961 -0.012635194689989219 0 -0.38297625517291389 -0.017448943304264108 0 -0.40747857107326091 -0.02424585309778798 0 -0.38297625517291389 -0.017448943304264108 0 -0.41302196833726168 -0.01226972299954816 0 -0.40747857107326091 -0.02424585309778798 0 -0.39567459441968961 -0.012635194689989219 0 -0.41302196833726168 -0.01226972299954816 0 -0.40771050441737638 -0.0035262849216432719 0 -0.38683543611469601 0.0001369023841863784 0 -0.41302196833726168 -0.01226972299954816 0 -0.39567459441968961 -0.012635194689989219 0 -0.38683543611469601 0.0001369023841863784 0 -0.41302196833726168 -0.01226972299954816 0 -0.38683543611469601 0.0001369023841863784 0 -0.40771050441737638 -0.0035262849216432719 0 -0.38683543611469601 0.0001369023841863784 0 -0.40226596945639398 0.0014711925349297271 0 -0.39567459441968961 -0.012635194689989219 0 -0.38502252263107412 -0.0084426060797158468 0 -0.38683543611469601 0.0001369023841863784 0 -0.39567459441968961 -0.012635194689989219 0 -0.38502252263107412 -0.0084426060797158468 0 -0.38297625517291389 -0.017448943304264108 0 -0.38502252263107412 -0.0084426060797158468 0 -0.38009964520605882 -0.0090403485437739461 0 -0.38297625517291389 -0.017448943304264108 0 -0.37278444596104371 -0.0079457960458173115 0 -0.38009964520605882 -0.0090403485437739461 0 -0.38297625517291389 -0.017448943304264108 0 -0.37474494217865062 -0.0022388935110706832 0 -0.38502252263107412 -0.0084426060797158468 0 -0.38683543611469601 0.0001369023841863784 0 -0.37474494217865062 -0.0022388935110706832 0 -0.38502252263107412 -0.0084426060797158468 0 -0.38009964520605882 -0.0090403485437739461 0 -0.37474494217865062 -0.0022388935110706832 0 -0.37278444596104371 -0.0079457960458173115 0 -0.38009964520605882 -0.0090403485437739461 0 -0.37236777167708351 -0.031852495353884333 0 -0.38992317137517202 -0.02804917422583518 0 -0.37990921189048049 -0.023302515363219579 0 -0.37236777167708351 -0.031852495353884333 0 -0.38992317137517202 -0.02804917422583518 0 -0.38992317137517202 -0.02804917422583518 0 -0.38297625517291389 -0.017448943304264108 0 -0.37990921189048049 -0.023302515363219579 0 -0.3739022591900184 -0.02415390189740213 0 -0.38297625517291389 -0.017448943304264108 0 -0.37990921189048049 -0.023302515363219579 0 -0.37236777167708351 -0.031852495353884333 0 -0.3739022591900184 -0.02415390189740213 0 -0.37990921189048049 -0.023302515363219579 0 -0.37236777167708351 -0.031852495353884333 0 -0.37990921189048049 -0.023302515363219579 0 -0.38458287424021398 -0.039388642062709187 0 -0.39900851660089293 -0.046429079601448257 0 -0.3815482533063424 -0.052412606119804542 0 -0.37355784227175309 -0.045246792894939887 0 -0.37236777167708351 -0.031852495353884333 0 -0.38458287424021398 -0.039388642062709187 0 -0.37236777167708351 -0.031852495353884333 0 -0.38992317137517202 -0.02804917422583518 0 -0.38458287424021398 -0.039388642062709187 0 -0.37355784227175309 -0.045246792894939887 0 -0.38458287424021398 -0.039388642062709187 0 -0.3815482533063424 -0.052412606119804542 0 -0.38458287424021398 -0.039388642062709187 0 -0.39900851660089293 -0.046429079601448257 0 -0.40045416304880688 -0.034240371911693122 0 -0.38992317137517202 -0.02804917422583518 0 -0.38458287424021398 -0.039388642062709187 0 -0.40045416304880688 -0.034240371911693122 0 -0.41324955929443102 -0.038374170610562031 0 -0.39900851660089293 -0.046429079601448257 0 -0.40045416304880688 -0.034240371911693122 0 -0.39900851660089293 -0.046429079601448257 0 -0.39626447370361728 -0.06091275685647668 0 -0.3815482533063424 -0.052412606119804542 0 -0.41005136228565903 -0.05540387285823338 0 -0.39626447370361728 -0.06091275685647668 0 -0.40517181862379281 -0.066558370858305557 0 -0.41005136228565903 -0.05540387285823338 0 -0.39900851660089293 -0.046429079601448257 0 -0.39626447370361728 -0.06091275685647668 0 -0.36862349457690058 -0.057461967220355487 0 -0.3815482533063424 -0.052412606119804542 0 -0.37947166312044489 -0.067272628224985004 0 -0.3815482533063424 -0.052412606119804542 0 -0.37947166312044489 -0.067272628224985004 0 -0.39260231949431601 -0.074533368335879327 0 -0.36882665317829499 -0.078032107790563188 0 -0.39260231949431601 -0.074533368335879327 0 -0.39626447370361728 -0.06091275685647668 0 -0.3815482533063424 -0.052412606119804542 0 -0.39260231949431601 -0.074533368335879327 0 -0.3815482533063424 -0.052412606119804542 0 -0.39260231949431601 -0.074533368335879327 0 -0.36882665317829499 -0.078032107790563188 0 -0.37947166312044489 -0.067272628224985004 0 -0.39260231949431601 -0.074533368335879327 0 -0.36882665317829499 -0.078032107790563188 0 -0.39260231949431601 -0.074533368335879327 0 -0.39002829617667018 -0.099006697234722524 0 -0.36882665317829499 -0.078032107790563188 0 -0.39002829617667018 -0.099006697234722524 0 -0.37367929427193591 -0.1014825750548952 0 -0.36882665317829499 -0.078032107790563188 0 -0.39002829617667018 -0.099006697234722524 0 -0.39260231949431601 -0.074533368335879327 0 -0.39002829617667018 -0.099006697234722524 0 -0.39510370691593599 -0.098958215311000047 0 -0.39260231949431601 -0.074533368335879327 0 -0.40274583300482147 -0.094831984843681591 0 -0.39260231949431601 -0.074533368335879327 0 -0.39510370691593599 -0.098958215311000047 0 -0.40274583300482147 -0.094831984843681591 0 -0.40361170428446441 -0.083317353290434007 0 -0.39260231949431601 -0.074533368335879327 0 -0.40274583300482147 -0.094831984843681591 0 -0.40361170428446441 -0.083317353290434007 0 -0.39867569396630093 -0.073639632925658519 0 -0.40696916935602839 -0.074517235882718885 0 -0.39867569396630093 -0.073639632925658519 0 -0.40517181862379281 -0.066558370858305557 0 -0.40696916935602839 -0.074517235882718885 0 -0.39626447370361728 -0.06091275685647668 0 -0.39867569396630093 -0.073639632925658519 0 -0.40517181862379281 -0.066558370858305557 0 -0.39626447370361728 -0.06091275685647668 0 -0.39867569396630093 -0.073639632925658519 0 -0.39260231949431601 -0.074533368335879327 0 -0.40361170428446441 -0.083317353290434007 0 -0.39867569396630093 -0.073639632925658519 0 -0.39260231949431601 -0.074533368335879327 0 -0.39867569396630093 -0.073639632925658519 0 -0.39260231949431601 -0.074533368335879327 0 -0.37212838853434238 -0.11808059788504249 0 -0.38278168804071749 -0.12940228238898679 0 -0.39044023874876249 -0.11757149150947201 0 -0.37367929427193591 -0.1014825750548952 0 -0.37212838853434238 -0.11808059788504249 0 -0.39044023874876249 -0.11757149150947201 0 -0.37367929427193591 -0.1014825750548952 0 -0.39044023874876249 -0.11757149150947201 0 -0.39002829617667018 -0.099006697234722524 0 -0.39510370691593599 -0.098958215311000047 0 -0.40274583300482147 -0.094831984843681591 0 -0.41288934651532883 -0.11513060135148299 0 -0.39002829617667018 -0.099006697234722524 0 -0.39510370691593599 -0.098958215311000047 0 -0.41122993917504558 -0.1199812866788818 0 -0.39510370691593599 -0.098958215311000047 0 -0.41288934651532883 -0.11513060135148299 0 -0.39647179587780151 -0.13189450107720049 0 -0.39044023874876249 -0.11757149150947201 0 -0.41122993917504558 -0.1199812866788818 0 -0.39002829617667018 -0.099006697234722524 0 -0.41122993917504558 -0.1199812866788818 0 -0.39044023874876249 -0.11757149150947201 0 -0.39002829617667018 -0.099006697234722524 0 -0.41122993917504558 -0.1199812866788818 0 -0.39510370691593599 -0.098958215311000047 0 -0.41122993917504558 -0.1199812866788818 0 -0.41288934651532883 -0.11513060135148299 0 -0.41930562378398423 -0.12797048681614909 0 -0.41122993917504558 -0.1199812866788818 0 -0.4149348530849476 -0.1169905694289516 0 -0.41930562378398423 -0.12797048681614909 0 -0.41122993917504558 -0.1199812866788818 0 -0.41930562378398423 -0.12797048681614909 0 -0.4149348530849476 -0.1169905694289516 0 -0.41122993917504558 -0.1199812866788818 0 -0.41288934651532883 -0.11513060135148299 0 -0.4149348530849476 -0.1169905694289516 0 -0.41122993917504558 -0.1199812866788818 0 -0.4149348530849476 -0.1169905694289516 0 -0.41288934651532883 -0.11513060135148299 0 -0.4149348530849476 -0.1169905694289516 0 -0.41288934651532883 -0.11513060135148299 0 -0.4149348530849476 -0.1169905694289516 0 -0.41458672172207622 -0.10427776634057311 0 -0.40274583300482147 -0.094831984843681591 0 -0.41288934651532883 -0.11513060135148299 0 -0.4149348530849476 -0.1169905694289516 0 -0.41458672172207622 -0.10427776634057311 0 -0.43059848591229039 -0.1043464168163742 0 -0.40274583300482147 -0.094831984843681591 0 -0.41288934651532883 -0.11513060135148299 0 -0.41458672172207622 -0.10427776634057311 0 -0.41458672172207622 -0.10427776634057311 0 -0.41348552386521947 -0.090840815536544176 0 -0.43025813067654672 -0.08737754853092726 0 -0.40274583300482147 -0.094831984843681591 0 -0.41458672172207622 -0.10427776634057311 0 -0.41348552386521947 -0.090840815536544176 0 -0.43059848591229039 -0.1043464168163742 0 -0.43025813067654672 -0.08737754853092726 0 -0.44626211873963212 -0.091702264203795431 0 -0.41458672172207622 -0.10427776634057311 0 -0.43059848591229039 -0.1043464168163742 0 -0.43025813067654672 -0.08737754853092726 0 -0.41458672172207622 -0.10427776634057311 0 -0.43025813067654672 -0.08737754853092726 0 -0.4149348530849476 -0.1169905694289516 0 -0.43059848591229039 -0.1043464168163742 0 -0.43160182387889101 -0.1187955019330571 0 -0.4149348530849476 -0.1169905694289516 0 -0.43059848591229039 -0.1043464168163742 0 -0.43389101300267191 -0.13422730327376839 0 -0.4149348530849476 -0.1169905694289516 0 -0.43160182387889101 -0.1187955019330571 0 -0.43059848591229039 -0.1043464168163742 0 -0.43160182387889101 -0.1187955019330571 0 -0.44003429013576911 -0.11331979272890801 0 -0.43160182387889101 -0.1187955019330571 0 -0.44085253015216358 -0.1237950587173612 0 -0.44003429013576911 -0.11331979272890801 0 -0.41422906440869389 -0.068128229862373102 0 -0.41539885585273961 -0.080089681603359497 0 -0.42594434486026628 -0.073522222089585226 0 -0.4246600563061857 -0.059067830999859447 0 -0.41422906440869389 -0.068128229862373102 0 -0.42594434486026628 -0.073522222089585226 0 -0.41005136228565903 -0.05540387285823338 0 -0.40517181862379281 -0.066558370858305557 0 -0.41422906440869389 -0.068128229862373102 0 -0.40517181862379281 -0.066558370858305557 0 -0.41422906440869389 -0.068128229862373102 0 -0.40696916935602839 -0.074517235882718885 0 -0.41422906440869389 -0.068128229862373102 0 -0.40696916935602839 -0.074517235882718885 0 -0.41539885585273961 -0.080089681603359497 0 -0.41348552386521947 -0.090840815536544176 0 -0.41539885585273961 -0.080089681603359497 0 -0.43025813067654672 -0.08737754853092726 0 -0.40361170428446441 -0.083317353290434007 0 -0.41348552386521947 -0.090840815536544176 0 -0.41539885585273961 -0.080089681603359497 0 -0.40361170428446441 -0.083317353290434007 0 -0.40696916935602839 -0.074517235882718885 0 -0.41539885585273961 -0.080089681603359497 0 -0.40361170428446441 -0.083317353290434007 0 -0.40274583300482147 -0.094831984843681591 0 -0.41348552386521947 -0.090840815536544176 0 -0.41539885585273961 -0.080089681603359497 0 -0.43025813067654672 -0.08737754853092726 0 -0.42594434486026628 -0.073522222089585226 0 -0.4246600563061857 -0.059067830999859447 0 -0.44592953963101739 -0.07047733072128165 0 -0.43025813067654672 -0.08737754853092726 0 -0.42594434486026628 -0.073522222089585226 0 -0.44592953963101739 -0.07047733072128165 0 -0.4246600563061857 -0.059067830999859447 0 -0.42594434486026628 -0.073522222089585226 0 -0.44592953963101739 -0.07047733072128165 0 -0.44592953963101739 -0.07047733072128165 0 -0.45893666683642192 -0.056450303318209168 0 -0.44592953963101739 -0.07047733072128165 0 -0.44626211873963212 -0.091702264203795431 0 -0.46192575156697407 -0.079058111591217034 0 -0.43025813067654672 -0.08737754853092726 0 -0.44592953963101739 -0.07047733072128165 0 -0.43025813067654672 -0.08737754853092726 0 -0.44592953963101739 -0.07047733072128165 0 -0.44626211873963212 -0.091702264203795431 0 -0.44626211873963212 -0.091702264203795431 0 -0.46631049206888459 -0.091444160656324658 0 -0.46192575156697407 -0.079058111591217034 0 -0.44626211873963212 -0.091702264203795431 0 -0.46192575156697407 -0.079058111591217034 0 -0.46631049206888459 -0.091444160656324658 0 -0.46192575156697407 -0.079058111591217034 0 -0.47702460168979111 -0.087157524427869615 0 -0.44592953963101739 -0.07047733072128165 0 -0.46192575156697407 -0.079058111591217034 0 -0.45893666683642192 -0.056450303318209168 0 -0.46192575156697407 -0.079058111591217034 0 -0.47491389520024407 -0.068573693827893439 0 -0.45893666683642192 -0.056450303318209168 0 -0.46192575156697407 -0.079058111591217034 0 -0.47491389520024407 -0.068573693827893439 0 -0.44592953963101739 -0.07047733072128165 0 -0.46192575156697407 -0.079058111591217034 0 -0.45000974795797011 -0.119430952696417 0 -0.44085253015216358 -0.1237950587173612 0 -0.44003429013576911 -0.11331979272890801 0 -0.45000974795797011 -0.119430952696417 0 -0.44003429013576911 -0.11331979272890801 0 -0.44926481423485548 -0.10476542824413421 0 -0.43059848591229039 -0.1043464168163742 0 -0.44626211873963212 -0.091702264203795431 0 -0.43059848591229039 -0.1043464168163742 0 -0.44626211873963212 -0.091702264203795431 0 -0.44926481423485548 -0.10476542824413421 0 -0.43059848591229039 -0.1043464168163742 0 -0.44003429013576911 -0.11331979272890801 0 -0.44926481423485548 -0.10476542824413421 0 -0.44626211873963212 -0.091702264203795431 0 -0.44926481423485548 -0.10476542824413421 0 -0.46153012095291662 -0.1019472767233552 0 -0.44626211873963212 -0.091702264203795431 0 -0.46631049206888459 -0.091444160656324658 0 -0.46153012095291662 -0.1019472767233552 0 -0.46631049206888459 -0.091444160656324658 0 -0.46153012095291662 -0.1019472767233552 0 -0.4710589232177344 -0.098453604121520433 0 -0.46153012095291662 -0.1019472767233552 0 -0.46221413283232399 -0.11366089481890911 0 -0.47430793409480421 -0.10627177682285049 0 -0.44926481423485548 -0.10476542824413421 0 -0.46153012095291662 -0.1019472767233552 0 -0.46221413283232399 -0.11366089481890911 0 -0.45896755277767909 -0.12575633132281341 0 -0.46221413283232399 -0.11366089481890911 0 -0.47750202174635031 -0.1215216316744509 0 -0.45000974795797011 -0.119430952696417 0 -0.44926481423485548 -0.10476542824413421 0 -0.46221413283232399 -0.11366089481890911 0 -0.45896755277767909 -0.12575633132281341 0 -0.45000974795797011 -0.119430952696417 0 -0.46221413283232399 -0.11366089481890911 0 -0.47750202174635031 -0.1215216316744509 0 -0.47430793409480421 -0.10627177682285049 0 -0.48673501487359588 -0.1010237797652184 0 -0.46221413283232399 -0.11366089481890911 0 -0.47750202174635031 -0.1215216316744509 0 -0.47430793409480421 -0.10627177682285049 0 -0.47430793409480421 -0.10627177682285049 0 -0.47745372589702628 -0.099742000537211661 0 -0.48673501487359588 -0.1010237797652184 0 -0.46153012095291662 -0.1019472767233552 0 -0.47430793409480421 -0.10627177682285049 0 -0.4710589232177344 -0.098453604121520433 0 -0.46631049206888459 -0.091444160656324658 0 -0.4710589232177344 -0.098453604121520433 0 -0.47771303140197108 -0.093218841439257433 0 -0.47430793409480421 -0.10627177682285049 0 -0.4710589232177344 -0.098453604121520433 0 -0.47745372589702628 -0.099742000537211661 0 -0.4710589232177344 -0.098453604121520433 0 -0.47745372589702628 -0.099742000537211661 0 -0.47771303140197108 -0.093218841439257433 0 -0.47745372589702628 -0.099742000537211661 0 -0.48673501487359588 -0.1010237797652184 0 -0.47771303140197108 -0.093218841439257433 0 -0.48673501487359588 -0.1010237797652184 0 -0.47771303140197108 -0.093218841439257433 0 -0.47702460168979111 -0.087157524427869615 0 -0.47750202174635031 -0.1215216316744509 0 -0.48673501487359588 -0.1010237797652184 0 -0.4986179579264654 -0.1020768288792674 0 -0.48673501487359588 -0.1010237797652184 0 -0.49842317329231273 -0.098636270432611556 0 -0.47702460168979111 -0.087157524427869615 0 -0.48673501487359588 -0.1010237797652184 0 -0.49842317329231273 -0.098636270432611556 0 -0.4986179579264654 -0.1020768288792674 0 -0.49999999999999939 -0.099482120969144883 0 -0.49842317329231273 -0.098636270432611556 0 -0.4986179579264654 -0.1020768288792674 0 -0.49842317329231273 -0.098636270432611556 0 -0.4986179579264654 -0.1020768288792674 0 -0.49999999999999939 -0.099482120969144883 0 -0.49842317329231273 -0.098636270432611556 0 -0.50000000000000011 -0.12648838757554831 0 -0.47750202174635031 -0.1215216316744509 0 -0.4986179579264654 -0.1020768288792674 0 -0.47750202174635031 -0.1215216316744509 0 -0.4986179579264654 -0.1020768288792674 0 -0.47491389520024407 -0.068573693827893439 0 -0.47702460168979111 -0.087157524427869615 0 -0.4847984782487687 -0.075944598732494498 0 -0.47491389520024407 -0.068573693827893439 0 -0.47702460168979111 -0.087157524427869615 0 -0.47967839073812912 -0.064727650616396362 0 -0.4847984782487687 -0.075944598732494498 0 -0.48794163871831331 -0.064119883023254248 0 -0.47967839073812912 -0.064727650616396362 0 -0.47491389520024407 -0.068573693827893439 0 -0.4847984782487687 -0.075944598732494498 0 -0.47967839073812912 -0.064727650616396362 0 -0.47491389520024407 -0.068573693827893439 0 -0.46192575156697407 -0.079058111591217034 0 -0.47702460168979111 -0.087157524427869615 0 -0.46192575156697407 -0.079058111591217034 0 -0.47491389520024407 -0.068573693827893439 0 -0.47702460168979111 -0.087157524427869615 0 -0.46631049206888459 -0.091444160656324658 0 -0.47771303140197108 -0.093218841439257433 0 -0.47702460168979111 -0.087157524427869615 0 -0.47771303140197108 -0.093218841439257433 0 -0.47702460168979111 -0.087157524427869615 0 -0.49842317329231273 -0.098636270432611556 0 -0.49712708577170861 -0.075742961183477536 0 -0.4847984782487687 -0.075944598732494498 0 -0.49999999999999939 -0.099482120969144883 0 -0.49842317329231273 -0.098636270432611556 0 -0.5 -0.078030389970551228 0 -0.49842317329231273 -0.098636270432611556 0 -0.49712708577170861 -0.075742961183477536 0 -0.49842317329231273 -0.098636270432611556 0 -0.5 -0.078030389970551228 0 -0.49712708577170861 -0.075742961183477536 0 -0.49842317329231273 -0.098636270432611556 0 -0.47702460168979111 -0.087157524427869615 0 -0.4847984782487687 -0.075944598732494498 0 -0.49842317329231273 -0.098636270432611556 0 -0.47702460168979111 -0.087157524427869615 0 -0.5 -0.078030389970551228 0 -0.49712708577170861 -0.075742961183477536 0 -0.49999999999999928 -0.056578658971957581 0 -0.49712708577170861 -0.075742961183477536 0 -0.49583099825110311 -0.052849651934343489 0 -0.49712708577170861 -0.075742961183477536 0 -0.48794163871831331 -0.064119883023254248 0 -0.49583099825110311 -0.052849651934343489 0 -0.49712708577170861 -0.075742961183477536 0 -0.4847984782487687 -0.075944598732494498 0 -0.48794163871831331 -0.064119883023254248 0 -0.49712708577170861 -0.075742961183477536 0 -0.49999999999999928 -0.056578658971957581 0 -0.49583099825110311 -0.052849651934343489 0 -0.49583099825110311 -0.052849651934343489 0 -0.47748890114140963 -0.036443372127734748 0 -0.48227324058185622 -0.051334552649559453 0 -0.49999999999999928 -0.056578658971957581 0 -0.49583099825110311 -0.052849651934343489 0 -0.49999999999999928 -0.056578658971957581 0 -0.50000000000000144 -0.053559852644015388 0 -0.49583099825110311 -0.052849651934343489 0 -0.48794163871831331 -0.064119883023254248 0 -0.49583099825110311 -0.052849651934343489 0 -0.48227324058185622 -0.051334552649559453 0 -0.50000000000000144 -0.053559852644015388 0 -0.49583099825110311 -0.052849651934343489 0 -0.48598145264485831 -0.02728491224803695 0 -0.49583099825110311 -0.052849651934343489 0 -0.47748890114140963 -0.036443372127734748 0 -0.48598145264485831 -0.02728491224803695 0 -0.50000000000000144 -0.053559852644015388 0 -0.48598145264485831 -0.02728491224803695 0 -0.50000000000000144 -0.053559852644015388 0 -0.48598145264485831 -0.02728491224803695 0 -0.5 -0.025161366008633609 0 -0.49583099825110311 -0.052849651934343489 0 -0.47748890114140963 -0.036443372127734748 0 -0.47748890114140963 -0.036443372127734748 0 -0.48598145264485831 -0.02728491224803695 0 -0.47748890114140963 -0.036443372127734748 0 -0.47194379404182718 -0.042423275915137587 0 -0.48227324058185622 -0.051334552649559453 0 -0.47748890114140963 -0.036443372127734748 0 -0.47194379404182718 -0.042423275915137587 0 -0.47748890114140963 -0.036443372127734748 0 -0.47194379404182718 -0.042423275915137587 0 -0.47056077858213702 -0.03024644074295027 0 -0.47194379404182718 -0.042423275915137587 0 -0.46539503278239303 -0.037082973767017267 0 -0.47056077858213702 -0.03024644074295027 0 -0.47194379404182718 -0.042423275915137587 0 -0.47056077858213702 -0.03024644074295027 0 -0.47748890114140963 -0.036443372127734748 0 -0.47056077858213702 -0.03024644074295027 0 -0.47748890114140963 -0.036443372127734748 0 -0.47056077858213702 -0.03024644074295027 0 -0.47745882259212458 -0.028728106929589409 0 -0.47967839073812912 -0.064727650616396362 0 -0.47491389520024407 -0.068573693827893439 0 -0.47194379404182718 -0.042423275915137587 0 -0.47967839073812912 -0.064727650616396362 0 -0.47194379404182718 -0.042423275915137587 0 -0.48227324058185622 -0.051334552649559453 0 -0.47491389520024407 -0.068573693827893439 0 -0.47194379404182718 -0.042423275915137587 0 -0.47967839073812912 -0.064727650616396362 0 -0.48794163871831331 -0.064119883023254248 0 -0.48227324058185622 -0.051334552649559453 0 -0.47491389520024407 -0.068573693827893439 0 -0.47194379404182718 -0.042423275915137587 0 -0.45893666683642192 -0.056450303318209168 0 -0.45893666683642192 -0.056450303318209168 0 -0.45743491846808387 -0.04563500224908737 0 -0.44544580640037118 -0.056213229689383748 0 -0.47194379404182718 -0.042423275915137587 0 -0.45893666683642192 -0.056450303318209168 0 -0.45743491846808387 -0.04563500224908737 0 -0.47194379404182718 -0.042423275915137587 0 -0.45893666683642192 -0.056450303318209168 0 -0.46539503278239303 -0.037082973767017267 0 -0.44890774518284438 -0.02927164544362729 0 -0.46539503278239303 -0.037082973767017267 0 -0.45215967652477718 -0.036640332234541717 0 -0.44890774518284438 -0.02927164544362729 0 -0.46539503278239303 -0.037082973767017267 0 -0.44890774518284438 -0.02927164544362729 0 -0.46189821575704781 -0.02986243911986371 0 -0.47194379404182718 -0.042423275915137587 0 -0.46539503278239303 -0.037082973767017267 0 -0.45743491846808387 -0.04563500224908737 0 -0.46539503278239303 -0.037082973767017267 0 -0.46189821575704781 -0.02986243911986371 0 -0.47056077858213702 -0.03024644074295027 0 -0.46539503278239303 -0.037082973767017267 0 -0.45743491846808387 -0.04563500224908737 0 -0.45215967652477718 -0.036640332234541717 0 -0.42981912379901888 -0.030443092666165631 0 -0.45215967652477718 -0.036640332234541717 0 -0.45743491846808387 -0.04563500224908737 0 -0.45215967652477718 -0.036640332234541717 0 -0.43957367317472601 -0.045089571971719818 0 -0.42981912379901888 -0.030443092666165631 0 -0.45215967652477718 -0.036640332234541717 0 -0.43957367317472601 -0.045089571971719818 0 -0.45743491846808387 -0.04563500224908737 0 -0.43957367317472601 -0.045089571971719818 0 -0.44544580640037118 -0.056213229689383748 0 -0.4246600563061857 -0.059067830999859447 0 -0.44592953963101739 -0.07047733072128165 0 -0.44544580640037118 -0.056213229689383748 0 -0.44592953963101739 -0.07047733072128165 0 -0.45893666683642192 -0.056450303318209168 0 -0.44544580640037118 -0.056213229689383748 0 -0.4441818909265971 -0.00998157505946092 0 -0.45588653083934588 0.00041698580085632909 0 -0.44737850259376799 0.0077656591989471307 0 -0.4441818909265971 -0.00998157505946092 0 -0.4570262928383732 -0.018140378997512391 0 -0.45633913854906122 -0.0094275687658610888 0 -0.4441818909265971 -0.00998157505946092 0 -0.45633913854906122 -0.0094275687658610888 0 -0.45588653083934588 0.00041698580085632909 0 -0.43741768347029059 -0.01288367903972009 0 -0.4441818909265971 -0.00998157505946092 0 -0.44890774518284438 -0.02927164544362729 0 -0.42981912379901888 -0.030443092666165631 0 -0.45215967652477718 -0.036640332234541717 0 -0.4392085005598273 -0.024676348383282701 0 -0.4441818909265971 -0.00998157505946092 0 -0.44890774518284438 -0.02927164544362729 0 -0.46258273328813732 -0.023158067004484729 0 -0.43741768347029059 -0.01288367903972009 0 -0.44890774518284438 -0.02927164544362729 0 -0.43741768347029059 -0.01288367903972009 0 -0.4392085005598273 -0.024676348383282701 0 -0.44890774518284438 -0.02927164544362729 0 -0.4392085005598273 -0.024676348383282701 0 -0.44890774518284438 -0.02927164544362729 0 -0.45215967652477718 -0.036640332234541717 0 -0.4392085005598273 -0.024676348383282701 0 -0.44890774518284438 -0.02927164544362729 0 -0.4441818909265971 -0.00998157505946092 0 -0.46258273328813732 -0.023158067004484729 0 -0.46258273328813732 -0.023158067004484729 0 -0.46826183959192841 -0.01000530680732737 0 -0.47056077858213702 -0.03024644074295027 0 -0.4441818909265971 -0.00998157505946092 0 -0.4570262928383732 -0.018140378997512391 0 -0.46258273328813732 -0.023158067004484729 0 -0.4570262928383732 -0.018140378997512391 0 -0.46258273328813732 -0.023158067004484729 0 -0.44890774518284438 -0.02927164544362729 0 -0.46189821575704781 -0.02986243911986371 0 -0.46258273328813732 -0.023158067004484729 0 -0.46258273328813732 -0.023158067004484729 0 -0.47056077858213702 -0.03024644074295027 0 -0.46189821575704781 -0.02986243911986371 0 -0.46258273328813732 -0.023158067004484729 0 -0.47056077858213702 -0.03024644074295027 0 -0.4570262928383732 -0.018140378997512391 0 -0.46258273328813732 -0.023158067004484729 0 -0.46826183959192841 -0.01000530680732737 0 -0.4570262928383732 -0.018140378997512391 0 -0.46826183959192841 -0.01000530680732737 0 -0.45633913854906122 -0.0094275687658610888 0 -0.46826183959192841 -0.01000530680732737 0 -0.45633913854906122 -0.0094275687658610888 0 -0.45588653083934588 0.00041698580085632909 0 -0.46826183959192841 -0.01000530680732737 0 -0.47597217662329228 -0.0085245425598697612 0 -0.4659629006017233 0.010235827128295859 0 -0.46826183959192841 -0.01000530680732737 0 -0.47597217662329228 -0.0085245425598697612 0 -0.47580415800009379 -0.02093770259963601 0 -0.47597217662329228 -0.0085245425598697612 0 -0.48922725890134677 -0.010453537226696331 0 -0.48082517856277007 0.001845263919603602 0 -0.47597217662329228 -0.0085245425598697612 0 -0.47580415800009379 -0.02093770259963601 0 -0.48598145264485831 -0.02728491224803695 0 -0.47597217662329228 -0.0085245425598697612 0 -0.48598145264485831 -0.02728491224803695 0 -0.46826183959192841 -0.01000530680732737 0 -0.47056077858213702 -0.03024644074295027 0 -0.47580415800009379 -0.02093770259963601 0 -0.47597217662329228 -0.0085245425598697612 0 -0.48598145264485831 -0.02728491224803695 0 -0.4893389393206713 -0.02366416211133009 0 -0.46826183959192841 -0.01000530680732737 0 -0.47056077858213702 -0.03024644074295027 0 -0.47056077858213702 -0.03024644074295027 0 -0.47580415800009379 -0.02093770259963601 0 -0.47745882259212458 -0.028728106929589409 0 -0.47580415800009379 -0.02093770259963601 0 -0.47745882259212458 -0.028728106929589409 0 -0.48598145264485831 -0.02728491224803695 0 -0.47748890114140963 -0.036443372127734748 0 -0.47745882259212458 -0.028728106929589409 0 -0.48598145264485831 -0.02728491224803695 0 -0.48598145264485831 -0.02728491224803695 0 -0.4893389393206713 -0.02366416211133009 0 -0.5 -0.025161366008633609 0 -0.48598145264485831 -0.02728491224803695 0 -0.4893389393206713 -0.02366416211133009 0 -0.4893389393206713 -0.02366416211133009 0 -0.5 -0.025161366008633609 0 -0.48922725890134677 -0.010453537226696331 0 -0.48922725890134677 -0.010453537226696331 0 -0.5 0.0032371206267481911 0 -0.48082517856277007 0.001845263919603602 0 -0.5 -0.025161366008633609 0 -0.48922725890134677 -0.010453537226696331 0 -0.5 0.0032371206267481911 0 -0.47597217662329228 -0.0085245425598697612 0 -0.4893389393206713 -0.02366416211133009 0 -0.48922725890134677 -0.010453537226696331 0 -0.5 0.0032371206267481911 0 -0.48596576445654982 0.01457961489688041 0 -0.48082517856277007 0.001845263919603602 0 -0.48596576445654982 0.01457961489688041 0 -0.47541999506787802 0.025418180444172121 0 -0.5 0.031635607262129987 0 -0.5 0.0032371206267481911 0 -0.48596576445654982 0.01457961489688041 0 -0.5 0.031635607262129987 0 -0.48596576445654982 0.01457961489688041 0 -0.47541999506787802 0.025418180444172121 0 -0.47401658579892991 0.013489912392399149 0 -0.47541999506787802 0.025418180444172121 0 -0.46963945276383978 0.01793989872667965 0 -0.47401658579892991 0.013489912392399149 0 -0.47597217662329228 -0.0085245425598697612 0 -0.48082517856277007 0.001845263919603602 0 -0.4659629006017233 0.010235827128295859 0 -0.47401658579892991 0.013489912392399149 0 -0.48082517856277007 0.001845263919603602 0 -0.4659629006017233 0.010235827128295859 0 -0.46963945276383978 0.01793989872667965 0 -0.47401658579892991 0.013489912392399149 0 -0.4659629006017233 0.010235827128295859 0 -0.47597217662329228 -0.0085245425598697612 0 -0.4659629006017233 0.010235827128295859 0 -0.48596576445654982 0.01457961489688041 0 -0.47401658579892991 0.013489912392399149 0 -0.48082517856277007 0.001845263919603602 0 -0.5 0.060034093897511798 0 -0.47816362815030861 0.043832779932641487 0 -0.48068047186290208 0.063626500276227002 0 -0.47541999506787802 0.025418180444172121 0 -0.5 0.031635607262129987 0 -0.47816362815030861 0.043832779932641487 0 -0.5 0.060034093897511798 0 -0.5 0.031635607262129987 0 -0.47816362815030861 0.043832779932641487 0 -0.47541999506787802 0.025418180444172121 0 -0.47816362815030861 0.043832779932641487 0 -0.46442391639916691 0.036471327701905212 0 -0.47816362815030861 0.043832779932641487 0 -0.46119618507356652 0.049359273152949731 0 -0.48068047186290208 0.063626500276227002 0 -0.46119618507356652 0.049359273152949731 0 -0.46103932749027238 0.064238871702306077 0 -0.48068047186290208 0.063626500276227002 0 -0.46119618507356652 0.049359273152949731 0 -0.44286953411296898 0.045255716157198693 0 -0.46103932749027238 0.064238871702306077 0 -0.47816362815030861 0.043832779932641487 0 -0.46119618507356652 0.049359273152949731 0 -0.46442391639916691 0.036471327701905212 0 -0.46119618507356652 0.049359273152949731 0 -0.46442391639916691 0.036471327701905212 0 -0.45082509298125129 0.038608595210277222 0 -0.46442391639916691 0.036471327701905212 0 -0.45082509298125129 0.038608595210277222 0 -0.4583939967914884 0.024422211169287101 0 -0.45082509298125129 0.038608595210277222 0 -0.4583939967914884 0.024422211169287101 0 -0.46119618507356652 0.049359273152949731 0 -0.45082509298125129 0.038608595210277222 0 -0.44286953411296898 0.045255716157198693 0 -0.45082509298125129 0.038608595210277222 0 -0.4405409619944019 0.035432846457562263 0 -0.4458839614772655 0.023387518650519249 0 -0.45082509298125129 0.038608595210277222 0 -0.4405409619944019 0.035432846457562263 0 -0.44286953411296898 0.045255716157198693 0 -0.4405409619944019 0.035432846457562263 0 -0.44286953411296898 0.045255716157198693 0 -0.43229092530358848 0.04451632412921195 0 -0.44286953411296898 0.045255716157198693 0 -0.44282721760043869 0.062046251170956107 0 -0.46103932749027238 0.064238871702306077 0 -0.44286953411296898 0.045255716157198693 0 -0.44282721760043869 0.062046251170956107 0 -0.43188097302969042 0.056955122555226501 0 -0.44286953411296898 0.045255716157198693 0 -0.46103932749027238 0.064238871702306077 0 -0.46826183959192841 -0.01000530680732737 0 -0.45588653083934588 0.00041698580085632909 0 -0.4659629006017233 0.010235827128295859 0 -0.46826183959192841 -0.01000530680732737 0 -0.4659629006017233 0.010235827128295859 0 -0.45609316173783881 0.014082317838893479 0 -0.45588653083934588 0.00041698580085632909 0 -0.4659629006017233 0.010235827128295859 0 -0.46963945276383978 0.01793989872667965 0 -0.4659629006017233 0.010235827128295859 0 -0.4583939967914884 0.024422211169287101 0 -0.4659629006017233 0.010235827128295859 0 -0.4583939967914884 0.024422211169287101 0 -0.47541999506787802 0.025418180444172121 0 -0.46963945276383978 0.01793989872667965 0 -0.4583939967914884 0.024422211169287101 0 -0.47541999506787802 0.025418180444172121 0 -0.46442391639916691 0.036471327701905212 0 -0.4583939967914884 0.024422211169287101 0 -0.45609316173783881 0.014082317838893479 0 -0.4659629006017233 0.010235827128295859 0 -0.4583939967914884 0.024422211169287101 0 -0.45609316173783881 0.014082317838893479 0 -0.4583939967914884 0.024422211169287101 0 -0.4458839614772655 0.023387518650519249 0 -0.45082509298125129 0.038608595210277222 0 -0.4583939967914884 0.024422211169287101 0 -0.4458839614772655 0.023387518650519249 0 -0.4405409619944019 0.035432846457562263 0 -0.4458839614772655 0.023387518650519249 0 -0.43566193494816191 0.02574822372494872 0 -0.4458839614772655 0.023387518650519249 0 -0.4359559447540089 0.01018896392150693 0 -0.43566193494816191 0.02574822372494872 0 -0.4441818909265971 -0.00998157505946092 0 -0.44737850259376799 0.0077656591989471307 0 -0.4359559447540089 0.01018896392150693 0 -0.4458839614772655 0.023387518650519249 0 -0.44737850259376799 0.0077656591989471307 0 -0.4359559447540089 0.01018896392150693 0 -0.45609316173783881 0.014082317838893479 0 -0.4458839614772655 0.023387518650519249 0 -0.44737850259376799 0.0077656591989471307 0 -0.45609316173783881 0.014082317838893479 0 -0.45588653083934588 0.00041698580085632909 0 -0.44737850259376799 0.0077656591989471307 0 -0.4441818909265971 -0.00998157505946092 0 -0.4359559447540089 0.01018896392150693 0 -0.42578104856505677 0.0031949168855625672 0 -0.42578104856505677 0.0031949168855625672 0 -0.41622595309658328 0.016397403714119251 0 -0.42870406893849561 0.019163111370922251 0 -0.4359559447540089 0.01018896392150693 0 -0.42578104856505677 0.0031949168855625672 0 -0.42870406893849561 0.019163111370922251 0 -0.41753789792717189 -0.0038843189997757009 0 -0.42578104856505677 0.0031949168855625672 0 -0.41105156913745711 0.0034129409419674369 0 -0.42578104856505677 0.0031949168855625672 0 -0.40852807671777941 0.0155494406680463 0 -0.41622595309658328 0.016397403714119251 0 -0.42578104856505677 0.0031949168855625672 0 -0.40852807671777941 0.0155494406680463 0 -0.41105156913745711 0.0034129409419674369 0 -0.42578104856505677 0.0031949168855625672 0 -0.40852807671777941 0.0155494406680463 0 -0.42578104856505677 0.0031949168855625672 0 -0.41622595309658328 0.016397403714119251 0 -0.40852807671777941 0.0155494406680463 0 -0.41105156913745711 0.0034129409419674369 0 -0.40262572535869262 0.0089097845909437267 0 -0.40771050441737638 -0.0035262849216432719 0 -0.41105156913745711 0.0034129409419674369 0 -0.40226596945639398 0.0014711925349297271 0 -0.40667085762811028 0.029599890542676258 0 -0.41622595309658328 0.016397403714119251 0 -0.42870406893849561 0.019163111370922251 0 -0.40667085762811028 0.029599890542676258 0 -0.42870406893849561 0.019163111370922251 0 -0.40667085762811028 0.029599890542676258 0 -0.41990433555607742 0.03061685230769556 0 -0.42870406893849561 0.019163111370922251 0 -0.40852807671777941 0.0155494406680463 0 -0.40667085762811028 0.029599890542676258 0 -0.41622595309658328 0.016397403714119251 0 -0.40667085762811028 0.029599890542676258 0 -0.41622595309658328 0.016397403714119251 0 -0.41990433555607742 0.03061685230769556 0 -0.4284463216954002 0.029357354603554459 0 -0.42870406893849561 0.019163111370922251 0 -0.4359559447540089 0.01018896392150693 0 -0.42870406893849561 0.019163111370922251 0 -0.43566193494816191 0.02574822372494872 0 -0.4284463216954002 0.029357354603554459 0 -0.42870406893849561 0.019163111370922251 0 -0.43566193494816191 0.02574822372494872 0 -0.4284463216954002 0.029357354603554459 0 -0.43566193494816191 0.02574822372494872 0 -0.43264023121812112 0.033917661463996759 0 -0.4405409619944019 0.035432846457562263 0 -0.43264023121812112 0.033917661463996759 0 -0.43229092530358848 0.04451632412921195 0 -0.43264023121812112 0.033917661463996759 0 -0.43229092530358848 0.04451632412921195 0 -0.42532103781614489 0.037340924150209003 0 -0.4405409619944019 0.035432846457562263 0 -0.43566193494816191 0.02574822372494872 0 -0.43264023121812112 0.033917661463996759 0 -0.43229092530358848 0.04451632412921195 0 -0.42532103781614489 0.037340924150209003 0 -0.42042490988599091 0.046091327469671317 0 -0.4284463216954002 0.029357354603554459 0 -0.43264023121812112 0.033917661463996759 0 -0.42532103781614489 0.037340924150209003 0 -0.41990433555607742 0.03061685230769556 0 -0.4284463216954002 0.029357354603554459 0 -0.42532103781614489 0.037340924150209003 0 -0.43229092530358848 0.04451632412921195 0 -0.43188097302969042 0.056955122555226501 0 -0.42585725303016408 0.051510102087770737 0 -0.44286953411296898 0.045255716157198693 0 -0.43229092530358848 0.04451632412921195 0 -0.43188097302969042 0.056955122555226501 0 -0.43229092530358848 0.04451632412921195 0 -0.42585725303016408 0.051510102087770737 0 -0.42042490988599091 0.046091327469671317 0 -0.43188097302969042 0.056955122555226501 0 -0.41883220390138681 0.058477634196973202 0 -0.43131469147834472 0.070632617455275076 0 -0.43188097302969042 0.056955122555226501 0 -0.42585725303016408 0.051510102087770737 0 -0.41883220390138681 0.058477634196973202 0 -0.41883220390138681 0.058477634196973202 0 -0.40840220717331749 0.048304634434869917 0 -0.39985653820026013 0.060860810446949978 0 -0.42585725303016408 0.051510102087770737 0 -0.41883220390138681 0.058477634196973202 0 -0.42042490988599091 0.046091327469671317 0 -0.41883220390138681 0.058477634196973202 0 -0.40840220717331749 0.048304634434869917 0 -0.42042490988599091 0.046091327469671317 0 -0.41990433555607742 0.03061685230769556 0 -0.42532103781614489 0.037340924150209003 0 -0.4122967326089878 0.037821593301397609 0 -0.42532103781614489 0.037340924150209003 0 -0.42042490988599091 0.046091327469671317 0 -0.4122967326089878 0.037821593301397609 0 -0.40840220717331749 0.048304634434869917 0 -0.4122967326089878 0.037821593301397609 0 -0.40579981868685489 0.041495006097714962 0 -0.40840220717331749 0.048304634434869917 0 -0.42042490988599091 0.046091327469671317 0 -0.4122967326089878 0.037821593301397609 0 -0.4122967326089878 0.037821593301397609 0 -0.40278544391907911 0.034968452634622761 0 -0.40579981868685489 0.041495006097714962 0 -0.40667085762811028 0.029599890542676258 0 -0.4122967326089878 0.037821593301397609 0 -0.40278544391907911 0.034968452634622761 0 -0.40667085762811028 0.029599890542676258 0 -0.41990433555607742 0.03061685230769556 0 -0.4122967326089878 0.037821593301397609 0 -0.40667085762811028 0.029599890542676258 0 -0.40278544391907911 0.034968452634622761 0 -0.40667085762811028 0.029599890542676258 0 -0.38856614517843069 0.038175802748282091 0 -0.40667085762811028 0.029599890542676258 0 -0.38856614517843069 0.038175802748282091 0 -0.39127510487050182 0.027903964450529759 0 -0.40667085762811028 0.029599890542676258 0 -0.40278544391907911 0.034968452634622761 0 -0.38856614517843069 0.038175802748282091 0 -0.40278544391907911 0.034968452634622761 0 -0.40579981868685489 0.041495006097714962 0 -0.3977250587697031 0.045015474274426849 0 -0.40840220717331749 0.048304634434869917 0 -0.40579981868685489 0.041495006097714962 0 -0.3977250587697031 0.045015474274426849 0 -0.40278544391907911 0.034968452634622761 0 -0.3977250587697031 0.045015474274426849 0 -0.38856614517843069 0.038175802748282091 0 -0.40840220717331749 0.048304634434869917 0 -0.3977250587697031 0.045015474274426849 0 -0.39985653820026013 0.060860810446949978 0 -0.3977250587697031 0.045015474274426849 0 -0.39985653820026013 0.060860810446949978 0 -0.38472691017257071 0.052921849058569698 0 -0.39985653820026013 0.060860810446949978 0 -0.38472691017257071 0.052921849058569698 0 -0.38510762700538009 0.066428587654483159 0 -0.38472691017257071 0.052921849058569698 0 -0.37046143272875132 0.04675171495388801 0 -0.37000681959492809 0.05831264468359916 0 -0.38472691017257071 0.052921849058569698 0 -0.38510762700538009 0.066428587654483159 0 -0.37000681959492809 0.05831264468359916 0 -0.38856614517843069 0.038175802748282091 0 -0.37871402691879819 0.03757115751491092 0 -0.37046143272875132 0.04675171495388801 0 -0.38856614517843069 0.038175802748282091 0 -0.37046143272875132 0.04675171495388801 0 -0.38472691017257071 0.052921849058569698 0 -0.38856614517843069 0.038175802748282091 0 -0.37046143272875132 0.04675171495388801 0 -0.38856614517843069 0.038175802748282091 0 -0.38315308642314733 0.033917821982192238 0 -0.39127510487050182 0.027903964450529759 0 -0.38856614517843069 0.038175802748282091 0 -0.38315308642314733 0.033917821982192238 0 -0.37871402691879819 0.03757115751491092 0 -0.3977250587697031 0.045015474274426849 0 -0.38472691017257071 0.052921849058569698 0 -0.38856614517843069 0.038175802748282091 0 -0.37871402691879819 0.03757115751491092 0 -0.3764786745208083 0.032098692741998169 0 -0.37046143272875132 0.04675171495388801 0 -0.38315308642314733 0.033917821982192238 0 -0.3764786745208083 0.032098692741998169 0 -0.38155727091044611 0.028316364585127811 0 -0.38315308642314733 0.033917821982192238 0 -0.37871402691879819 0.03757115751491092 0 -0.3764786745208083 0.032098692741998169 0 -0.3764786745208083 0.032098692741998169 0 -0.38155727091044611 0.028316364585127811 0 -0.37960108001976323 0.022263106047543741 0 -0.37960108001976323 0.022263106047543741 0 -0.37998819155715241 0.0057865511937031933 0 -0.37123175334181557 0.027162262264614271 0 -0.3764786745208083 0.032098692741998169 0 -0.37960108001976323 0.022263106047543741 0 -0.37123175334181557 0.027162262264614271 0 -0.38155727091044611 0.028316364585127811 0 -0.38533699425949169 0.022674384769296389 0 -0.37960108001976323 0.022263106047543741 0 -0.38155727091044611 0.028316364585127811 0 -0.38533699425949169 0.022674384769296389 0 -0.39127510487050182 0.027903964450529759 0 -0.38315308642314733 0.033917821982192238 0 -0.38155727091044611 0.028316364585127811 0 -0.39127510487050182 0.027903964450529759 0 -0.39054146691731162 0.018060194648231769 0 -0.38533699425949169 0.022674384769296389 0 -0.39127510487050182 0.027903964450529759 0 -0.38533699425949169 0.022674384769296389 0 -0.3837100485794358 0.01682829411504885 0 -0.37960108001976323 0.022263106047543741 0 -0.39054146691731162 0.018060194648231769 0 -0.38533699425949169 0.022674384769296389 0 -0.3837100485794358 0.01682829411504885 0 -0.3837100485794358 0.01682829411504885 0 -0.37960108001976323 0.022263106047543741 0 -0.37998819155715241 0.0057865511937031933 0 -0.37998819155715241 0.0057865511937031933 0 -0.38683543611469601 0.0001369023841863784 0 -0.36064890389212972 0.0125435277679194 0 -0.37998819155715241 0.0057865511937031933 0 -0.38683543611469601 0.0001369023841863784 0 -0.38901012294298121 0.0062908016400105649 0 -0.38683543611469601 0.0001369023841863784 0 -0.38901012294298121 0.0062908016400105649 0 -0.39501457079486157 0.0055715078560810288 0 -0.37998819155715241 0.0057865511937031933 0 -0.38901012294298121 0.0062908016400105649 0 -0.38744744785130802 0.01185902438546781 0 -0.3837100485794358 0.01682829411504885 0 -0.37998819155715241 0.0057865511937031933 0 -0.38744744785130802 0.01185902438546781 0 -0.38901012294298121 0.0062908016400105649 0 -0.38744744785130802 0.01185902438546781 0 -0.39422738021243581 0.01127211946813913 0 -0.39054146691731162 0.018060194648231769 0 -0.3837100485794358 0.01682829411504885 0 -0.38744744785130802 0.01185902438546781 0 -0.39054146691731162 0.018060194648231769 0 -0.39422738021243581 0.01127211946813913 0 -0.39743955081534421 0.016339100765178138 0 -0.39054146691731162 0.018060194648231769 0 -0.38744744785130802 0.01185902438546781 0 -0.39422738021243581 0.01127211946813913 0 -0.39422738021243581 0.01127211946813913 0 -0.39501457079486157 0.0055715078560810288 0 -0.40262572535869262 0.0089097845909437267 0 -0.39422738021243581 0.01127211946813913 0 -0.40262572535869262 0.0089097845909437267 0 -0.39743955081534421 0.016339100765178138 0 -0.38683543611469601 0.0001369023841863784 0 -0.39501457079486157 0.0055715078560810288 0 -0.40226596945639398 0.0014711925349297271 0 -0.38901012294298121 0.0062908016400105649 0 -0.39422738021243581 0.01127211946813913 0 -0.39501457079486157 0.0055715078560810288 0 -0.41105156913745711 0.0034129409419674369 0 -0.40226596945639398 0.0014711925349297271 0 -0.40262572535869262 0.0089097845909437267 0 -0.39501457079486157 0.0055715078560810288 0 -0.40226596945639398 0.0014711925349297271 0 -0.40262572535869262 0.0089097845909437267 0 -0.40852807671777941 0.0155494406680463 0 -0.40262572535869262 0.0089097845909437267 0 -0.39743955081534421 0.016339100765178138 0 -0.40852807671777941 0.0155494406680463 0 -0.39127510487050182 0.027903964450529759 0 -0.40852807671777941 0.0155494406680463 0 -0.40667085762811028 0.029599890542676258 0 -0.39127510487050182 0.027903964450529759 0 -0.40852807671777941 0.0155494406680463 0 -0.39127510487050182 0.027903964450529759 0 -0.39743955081534421 0.016339100765178138 0 -0.39054146691731162 0.018060194648231769 0 -0.39127510487050182 0.027903964450529759 0 -0.39743955081534421 0.016339100765178138 0 -0.39792088922733271 0.1160922105611595 0 -0.40104213778508202 0.092866093853817611 0 -0.41467909406405851 0.1139188519362445 0 -0.39792088922733271 0.1160922105611595 0 -0.3782625711058698 0.101617738696854 0 -0.40104213778508202 0.092866093853817611 0 -0.3782625711058698 0.101617738696854 0 -0.38372255811484618 0.13025780258704611 0 -0.3782625711058698 0.101617738696854 0 -0.38372255811484618 0.13025780258704611 0 -0.36747352968705388 0.12273486311700831 0 -0.39792088922733271 0.1160922105611595 0 -0.3782625711058698 0.101617738696854 0 -0.38372255811484618 0.13025780258704611 0 -0.39792088922733271 0.1160922105611595 0 -0.3782625711058698 0.101617738696854 0 -0.3782625711058698 0.101617738696854 0 -0.40104213778508202 0.092866093853817611 0 -0.37470600383380392 0.082961959162170973 0 -0.39520328107527708 0.075997639864115257 0 -0.40104213778508202 0.092866093853817611 0 -0.37470600383380392 0.082961959162170973 0 -0.3782625711058698 0.101617738696854 0 -0.37470600383380392 0.082961959162170973 0 -0.40104213778508202 0.092866093853817611 0 -0.37470600383380392 0.082961959162170973 0 -0.38510762700538009 0.066428587654483159 0 -0.37000681959492809 0.05831264468359916 0 -0.37470600383380392 0.082961959162170973 0 -0.38510762700538009 0.066428587654483159 0 -0.39520328107527708 0.075997639864115257 0 -0.37470600383380392 0.082961959162170973 0 -0.39985653820026013 0.060860810446949978 0 -0.39520328107527708 0.075997639864115257 0 -0.41322693425173768 0.074694678089132868 0 -0.39985653820026013 0.060860810446949978 0 -0.38510762700538009 0.066428587654483159 0 -0.39520328107527708 0.075997639864115257 0 -0.39520328107527708 0.075997639864115257 0 -0.40104213778508202 0.092866093853817611 0 -0.41322693425173768 0.074694678089132868 0 -0.40104213778508202 0.092866093853817611 0 -0.41322693425173768 0.074694678089132868 0 -0.42957324029363853 0.085693113452461764 0 -0.41883220390138681 0.058477634196973202 0 -0.41322693425173768 0.074694678089132868 0 -0.43131469147834472 0.070632617455275076 0 -0.41883220390138681 0.058477634196973202 0 -0.39985653820026013 0.060860810446949978 0 -0.41322693425173768 0.074694678089132868 0 -0.43131469147834472 0.070632617455275076 0 -0.42957324029363853 0.085693113452461764 0 -0.4470315618909167 0.073148927984774167 0 -0.41322693425173768 0.074694678089132868 0 -0.43131469147834472 0.070632617455275076 0 -0.42957324029363853 0.085693113452461764 0 -0.44282721760043869 0.062046251170956107 0 -0.43188097302969042 0.056955122555226501 0 -0.43131469147834472 0.070632617455275076 0 -0.42957324029363853 0.085693113452461764 0 -0.42737827173636012 0.1027702285454639 0 -0.44343173260412461 0.097571970950778963 0 -0.40104213778508202 0.092866093853817611 0 -0.42737827173636012 0.1027702285454639 0 -0.41467909406405851 0.1139188519362445 0 -0.40104213778508202 0.092866093853817611 0 -0.42737827173636012 0.1027702285454639 0 -0.40104213778508202 0.092866093853817611 0 -0.42957324029363853 0.085693113452461764 0 -0.42737827173636012 0.1027702285454639 0 -0.39792088922733271 0.1160922105611595 0 -0.41467909406405851 0.1139188519362445 0 -0.417579207348795 0.13056668242546571 0 -0.39792088922733271 0.1160922105611595 0 -0.417579207348795 0.13056668242546571 0 -0.41467909406405851 0.1139188519362445 0 -0.42608096723388439 0.1205091241492761 0 -0.417579207348795 0.13056668242546571 0 -0.42737827173636012 0.1027702285454639 0 -0.41467909406405851 0.1139188519362445 0 -0.42608096723388439 0.1205091241492761 0 -0.42737827173636012 0.1027702285454639 0 -0.42608096723388439 0.1205091241492761 0 -0.43826405507869293 0.1195835460605416 0 -0.42608096723388439 0.1205091241492761 0 -0.43826405507869293 0.1195835460605416 0 -0.43293323699752101 0.1317554923945817 0 -0.43826405507869293 0.1195835460605416 0 -0.45371440568763749 0.1126743632371118 0 -0.44901593584904892 0.12912088192892021 0 -0.42737827173636012 0.1027702285454639 0 -0.43826405507869293 0.1195835460605416 0 -0.45371440568763749 0.1126743632371118 0 -0.4523882543875366 0.10983005993361 0 -0.45371440568763749 0.1126743632371118 0 -0.42737827173636012 0.1027702285454639 0 -0.4523882543875366 0.10983005993361 0 -0.44343173260412461 0.097571970950778963 0 -0.42737827173636012 0.1027702285454639 0 -0.4523882543875366 0.10983005993361 0 -0.45371440568763749 0.1126743632371118 0 -0.42737827173636012 0.1027702285454639 0 -0.45371440568763749 0.1126743632371118 0 -0.44343173260412461 0.097571970950778963 0 -0.45084974973894648 0.096020795281878568 0 -0.45306155814551219 0.1028275296158008 0 -0.44343173260412461 0.097571970950778963 0 -0.45084974973894648 0.096020795281878568 0 -0.44733932132275389 0.088290098875458828 0 -0.4523882543875366 0.10983005993361 0 -0.44343173260412461 0.097571970950778963 0 -0.45306155814551219 0.1028275296158008 0 -0.4523882543875366 0.10983005993361 0 -0.45306155814551219 0.1028275296158008 0 -0.45661100561120399 0.109540819014999 0 -0.45306155814551219 0.1028275296158008 0 -0.46084618436187341 0.10490351706993729 0 -0.45661100561120399 0.109540819014999 0 -0.45306155814551219 0.1028275296158008 0 -0.46084618436187341 0.10490351706993729 0 -0.45799439118323759 0.099220837031069903 0 -0.46084618436187341 0.10490351706993729 0 -0.4635407771028337 0.1124237257980706 0 -0.45661100561120399 0.109540819014999 0 -0.45799439118323759 0.099220837031069903 0 -0.46723244863383712 0.097971273043108306 0 -0.45594156200913483 0.091684632610025046 0 -0.45084974973894648 0.096020795281878568 0 -0.45799439118323759 0.099220837031069903 0 -0.45594156200913483 0.091684632610025046 0 -0.45084974973894648 0.096020795281878568 0 -0.45306155814551219 0.1028275296158008 0 -0.45799439118323759 0.099220837031069903 0 -0.46084618436187341 0.10490351706993729 0 -0.45799439118323759 0.099220837031069903 0 -0.46723244863383712 0.097971273043108306 0 -0.46084618436187341 0.10490351706993729 0 -0.46723244863383712 0.097971273043108306 0 -0.46686982756835349 0.1074114054382402 0 -0.46084618436187341 0.10490351706993729 0 -0.46686982756835349 0.1074114054382402 0 -0.4635407771028337 0.1124237257980706 0 -0.45371440568763749 0.1126743632371118 0 -0.46425598871103851 0.13528374379222011 0 -0.4635407771028337 0.1124237257980706 0 -0.45674497769142258 0.1138140594952527 0 -0.46958882025875243 0.12035793204680111 0 -0.46686982756835349 0.1074114054382402 0 -0.4635407771028337 0.1124237257980706 0 -0.47044075898603932 0.11380610730348489 0 -0.4635407771028337 0.1124237257980706 0 -0.46958882025875243 0.12035793204680111 0 -0.47044075898603932 0.11380610730348489 0 -0.45674497769142258 0.1138140594952527 0 -0.45371440568763749 0.1126743632371118 0 -0.46425598871103851 0.13528374379222011 0 -0.45674497769142258 0.1138140594952527 0 -0.46958882025875243 0.12035793204680111 0 -0.46425598871103851 0.13528374379222011 0 -0.4523882543875366 0.10983005993361 0 -0.45661100561120399 0.109540819014999 0 -0.45371440568763749 0.1126743632371118 0 -0.45674497769142258 0.1138140594952527 0 -0.45661100561120399 0.109540819014999 0 -0.45371440568763749 0.1126743632371118 0 -0.45674497769142258 0.1138140594952527 0 -0.45371440568763749 0.1126743632371118 0 -0.4635407771028337 0.1124237257980706 0 -0.45674497769142258 0.1138140594952527 0 -0.45661100561120399 0.109540819014999 0 -0.44282721760043869 0.062046251170956107 0 -0.4470315618909167 0.073148927984774167 0 -0.46103932749027238 0.064238871702306077 0 -0.44282721760043869 0.062046251170956107 0 -0.43131469147834472 0.070632617455275076 0 -0.4470315618909167 0.073148927984774167 0 -0.42957324029363853 0.085693113452461764 0 -0.44343173260412461 0.097571970950778963 0 -0.44733932132275389 0.088290098875458828 0 -0.42957324029363853 0.085693113452461764 0 -0.4470315618909167 0.073148927984774167 0 -0.44733932132275389 0.088290098875458828 0 -0.4470315618909167 0.073148927984774167 0 -0.44733932132275389 0.088290098875458828 0 -0.46047789149500767 0.082617330138573752 0 -0.45084974973894648 0.096020795281878568 0 -0.44733932132275389 0.088290098875458828 0 -0.45594156200913483 0.091684632610025046 0 -0.44733932132275389 0.088290098875458828 0 -0.45594156200913483 0.091684632610025046 0 -0.46047789149500767 0.082617330138573752 0 -0.46723244863383712 0.097971273043108306 0 -0.45594156200913483 0.091684632610025046 0 -0.46047789149500767 0.082617330138573752 0 -0.46047789149500767 0.082617330138573752 0 -0.46103932749027238 0.064238871702306077 0 -0.47920912086757578 0.083222027247413538 0 -0.4470315618909167 0.073148927984774167 0 -0.46047789149500767 0.082617330138573752 0 -0.46103932749027238 0.064238871702306077 0 -0.46103932749027238 0.064238871702306077 0 -0.48068047186290208 0.063626500276227002 0 -0.47920912086757578 0.083222027247413538 0 -0.46103932749027238 0.064238871702306077 0 -0.47920912086757578 0.083222027247413538 0 -0.46723244863383712 0.097971273043108306 0 -0.46047789149500767 0.082617330138573752 0 -0.47920912086757578 0.083222027247413538 0 -0.48068047186290208 0.063626500276227002 0 -0.47920912086757578 0.083222027247413538 0 -0.5 0.088432580532893601 0 -0.47920912086757578 0.083222027247413538 0 -0.49737891424487929 0.102205182792521 0 -0.47920912086757578 0.083222027247413538 0 -0.5 0.088432580532893601 0 -0.49737891424487929 0.102205182792521 0 -0.5 0.060034093897511798 0 -0.48068047186290208 0.063626500276227002 0 -0.5 0.088432580532893601 0 -0.47827810320487629 0.116675775998883 0 -0.48837893466537508 0.1117690854599766 0 -0.4842723158563047 0.1301441798928954 0 -0.47827810320487629 0.116675775998883 0 -0.47512549980118862 0.10796659812409699 0 -0.48837893466537508 0.1117690854599766 0 -0.47827810320487629 0.116675775998883 0 -0.46958882025875243 0.12035793204680111 0 -0.4842723158563047 0.1301441798928954 0 -0.47827810320487629 0.116675775998883 0 -0.47044075898603932 0.11380610730348489 0 -0.47512549980118862 0.10796659812409699 0 -0.46686982756835349 0.1074114054382402 0 -0.47044075898603932 0.11380610730348489 0 -0.47512549980118862 0.10796659812409699 0 -0.47827810320487629 0.116675775998883 0 -0.46958882025875243 0.12035793204680111 0 -0.47044075898603932 0.11380610730348489 0 -0.46723244863383712 0.097971273043108306 0 -0.47512549980118862 0.10796659812409699 0 -0.48162445158666772 0.1005823670901454 0 -0.46723244863383712 0.097971273043108306 0 -0.47920912086757578 0.083222027247413538 0 -0.48162445158666772 0.1005823670901454 0 -0.46723244863383712 0.097971273043108306 0 -0.46686982756835349 0.1074114054382402 0 -0.47512549980118862 0.10796659812409699 0 -0.47512549980118862 0.10796659812409699 0 -0.48162445158666772 0.1005823670901454 0 -0.48837893466537508 0.1117690854599766 0 -0.48162445158666772 0.1005823670901454 0 -0.49737891424487929 0.102205182792521 0 -0.48837893466537508 0.1117690854599766 0 -0.47920912086757578 0.083222027247413538 0 -0.48162445158666772 0.1005823670901454 0 -0.49737891424487929 0.102205182792521 0 -0.5 0.088432580532893601 0 -0.49737891424487929 0.102205182792521 0 -0.5 0.1168310671682755 0 -0.49737891424487929 0.102205182792521 0 -0.5 0.1168310671682755 0 -0.48837893466537508 0.1117690854599766 0 -0.5 0.1168310671682755 0 -0.48837893466537508 0.1117690854599766 0 -0.4842723158563047 0.1301441798928954 0 -0.5 0.1168310671682755 0 -0.4842723158563047 0.1301441798928954 0 -0.5 0.14522955380365729 0 -0.46958882025875243 0.12035793204680111 0 -0.4842723158563047 0.1301441798928954 0 -0.46425598871103851 0.13528374379222011 0 -0.4842723158563047 0.1301441798928954 0 -0.47479757173443998 0.15789312434732811 0 -0.46425598871103851 0.13528374379222011 0 -0.47479757173443998 0.15789312434732811 0 -0.46425598871103851 0.13528374379222011 0 -0.4842723158563047 0.1301441798928954 0 -0.5 0.14522955380365729 0 -0.47479757173443998 0.15789312434732811 0 -0.5 0.14522955380365729 0 -0.49999999999999972 0.17362804043903909 0 -0.47479757173443998 0.15789312434732811 0 -0.49999999999999972 0.17362804043903909 0 -0.47479757173443998 0.15789312434732811 0 -0.49999999999999972 0.17362804043903909 0 -0.49200992699072321 0.1743962810239672 0 -0.47479757173443998 0.15789312434732811 0 -0.48341269367675271 0.17637066895233999 0 -0.49170634683837577 0.1941587336203292 0 -0.49368671912131301 0.1828531969182482 0 -0.49999999999999972 0.17362804043903909 0 -0.5 0.19278741936367841 0 -0.49368671912131301 0.1828531969182482 0 -0.48341269367675271 0.17637066895233999 0 -0.49170634683837577 0.1941587336203292 0 -0.49368671912131301 0.1828531969182482 0 -0.49999999999999972 0.17362804043903909 0 -0.49200992699072321 0.1743962810239672 0 -0.49200992699072321 0.1743962810239672 0 -0.48341269367675271 0.17637066895233999 0 -0.49368671912131301 0.1828531969182482 0 -0.49200992699072321 0.1743962810239672 0 -0.48341269367675271 0.17637066895233999 0 -0.48341269367675271 0.17637066895233999 0 -0.45591042926964898 0.18268667049205081 0 -0.47274380268756999 0.19288508587190861 0 -0.48341269367675271 0.17637066895233999 0 -0.45591042926964898 0.18268667049205081 0 -0.49200992699072321 0.1743962810239672 0 -0.48341269367675271 0.17637066895233999 0 -0.47479757173443998 0.15789312434732811 0 -0.48341269367675271 0.17637066895233999 0 -0.47479757173443998 0.15789312434732811 0 -0.48341269367675271 0.17637066895233999 0 -0.47479757173443998 0.15789312434732811 0 -0.45723956394668003 0.16387676974864759 0 -0.48341269367675271 0.17637066895233999 0 -0.45723956394668003 0.16387676974864759 0 -0.45591042926964898 0.18268667049205081 0 -0.45591042926964898 0.18268667049205081 0 -0.43992511097516529 0.17411109905454999 0 -0.4284081648625454 0.1890026720317621 0 -0.45591042926964898 0.18268667049205081 0 -0.4284081648625454 0.1890026720317621 0 -0.45723956394668003 0.16387676974864759 0 -0.45591042926964898 0.18268667049205081 0 -0.43992511097516529 0.17411109905454999 0 -0.45723956394668003 0.16387676974864759 0 -0.43992511097516529 0.17411109905454999 0 -0.43892522612619872 0.15930650560997939 0 -0.43892522612619872 0.15930650560997939 0 -0.43796764784210812 0.14528805014891141 0 -0.45386540436598038 0.14482430837095511 0 -0.45723956394668003 0.16387676974864759 0 -0.43892522612619872 0.15930650560997939 0 -0.45386540436598038 0.14482430837095511 0 -0.45386540436598038 0.14482430837095511 0 -0.43293323699752101 0.1317554923945817 0 -0.43826405507869293 0.1195835460605416 0 -0.44901593584904892 0.12912088192892021 0 -0.43293323699752101 0.1317554923945817 0 -0.43796764784210812 0.14528805014891141 0 -0.45386540436598038 0.14482430837095511 0 -0.43293323699752101 0.1317554923945817 0 -0.44901593584904892 0.12912088192892021 0 -0.45386540436598038 0.14482430837095511 0 -0.43293323699752101 0.1317554923945817 0 -0.45371440568763749 0.1126743632371118 0 -0.44901593584904892 0.12912088192892021 0 -0.46425598871103851 0.13528374379222011 0 -0.44901593584904892 0.12912088192892021 0 -0.46425598871103851 0.13528374379222011 0 -0.45386540436598038 0.14482430837095511 0 -0.47479757173443998 0.15789312434732811 0 -0.45723956394668003 0.16387676974864759 0 -0.45386540436598038 0.14482430837095511 0 -0.47479757173443998 0.15789312434732811 0 -0.46425598871103851 0.13528374379222011 0 -0.45386540436598038 0.14482430837095511 0 -0.47479757173443998 0.15789312434732811 0 -0.45386540436598038 0.14482430837095511 0 -0.48226153920099157 0.23766317590200001 0 -0.47864167104372218 0.246590621409366 0 -0.48932095354102823 0.25454658797793611 0 -0.47315400564016008 0.2364435414805684 0 -0.47864167104372218 0.246590621409366 0 -0.46938038244821267 0.25133041049185839 0 -0.47315400564016008 0.2364435414805684 0 -0.48226153920099157 0.23766317590200001 0 -0.47864167104372218 0.246590621409366 0 -0.49106398183666961 0.22759324404760359 0 -0.48932095354102823 0.25454658797793611 0 -0.5 0.23810140997737081 0 -0.49106398183666961 0.22759324404760359 0 -0.48932095354102823 0.25454658797793611 0 -0.48226153920099157 0.23766317590200001 0 -0.49106398183666961 0.22759324404760359 0 -0.48932095354102823 0.25454658797793611 0 -0.5 0.23810140997737081 0 -0.49106398183666961 0.22759324404760359 0 -0.50000000000000022 0.21194679828831781 0 -0.49106398183666961 0.22759324404760359 0 -0.47912708394337772 0.2231418845945258 0 -0.48726644121087642 0.21298690825741631 0 -0.48226153920099157 0.23766317590200001 0 -0.49106398183666961 0.22759324404760359 0 -0.47912708394337772 0.2231418845945258 0 -0.47315400564016008 0.2364435414805684 0 -0.48226153920099157 0.23766317590200001 0 -0.47912708394337772 0.2231418845945258 0 -0.47315400564016008 0.2364435414805684 0 -0.47912708394337772 0.2231418845945258 0 -0.46764368341616458 0.22415830119077751 0 -0.47912708394337772 0.2231418845945258 0 -0.47360767850491831 0.20951316246361981 0 -0.46764368341616458 0.22415830119077751 0 -0.47360767850491831 0.20951316246361981 0 -0.48726644121087642 0.21298690825741631 0 -0.49170634683837577 0.1941587336203292 0 -0.47912708394337772 0.2231418845945258 0 -0.47360767850491831 0.20951316246361981 0 -0.48726644121087642 0.21298690825741631 0 -0.49106398183666961 0.22759324404760359 0 -0.50000000000000022 0.21194679828831781 0 -0.48726644121087642 0.21298690825741631 0 -0.50000000000000022 0.21194679828831781 0 -0.48726644121087642 0.21298690825741631 0 -0.49170634683837577 0.1941587336203292 0 -0.50000000000000022 0.21194679828831781 0 -0.49170634683837577 0.1941587336203292 0 -0.50000000000000022 0.21194679828831781 0 -0.5 0.19278741936367841 0 -0.49170634683837577 0.1941587336203292 0 -0.49368671912131301 0.1828531969182482 0 -0.5 0.19278741936367841 0 -0.49170634683837577 0.1941587336203292 0 -0.48341269367675271 0.17637066895233999 0 -0.49170634683837577 0.1941587336203292 0 -0.47274380268756999 0.19288508587190861 0 -0.47360767850491831 0.20951316246361981 0 -0.49170634683837577 0.1941587336203292 0 -0.47274380268756999 0.19288508587190861 0 -0.47360767850491831 0.20951316246361981 0 -0.47274380268756999 0.19288508587190861 0 -0.45820261548712909 0.20353130823034371 0 -0.45591042926964898 0.18268667049205081 0 -0.47274380268756999 0.19288508587190861 0 -0.45820261548712909 0.20353130823034371 0 -0.45591042926964898 0.18268667049205081 0 -0.43516662619925378 0.20614333559983469 0 -0.4284081648625454 0.1890026720317621 0 -0.45591042926964898 0.18268667049205081 0 -0.45820261548712909 0.20353130823034371 0 -0.43516662619925378 0.20614333559983469 0 -0.44192508753596349 0.22328399916790689 0 -0.43516662619925378 0.20614333559983469 0 -0.45032248765871591 0.2151961798839368 0 -0.44192508753596349 0.22328399916790689 0 -0.43516662619925378 0.20614333559983469 0 -0.45032248765871591 0.2151961798839368 0 -0.45820261548712909 0.20353130823034371 0 -0.43516662619925378 0.20614333559983469 0 -0.45032248765871591 0.2151961798839368 0 -0.46109406183397039 0.21551848415653921 0 -0.45620465585954723 0.2251951411450015 0 -0.45032248765871591 0.2151961798839368 0 -0.45820261548712909 0.20353130823034371 0 -0.46109406183397039 0.21551848415653921 0 -0.47360767850491831 0.20951316246361981 0 -0.45820261548712909 0.20353130823034371 0 -0.46109406183397039 0.21551848415653921 0 -0.47360767850491831 0.20951316246361981 0 -0.46109406183397039 0.21551848415653921 0 -0.46764368341616458 0.22415830119077751 0 -0.47315400564016008 0.2364435414805684 0 -0.46764368341616458 0.22415830119077751 0 -0.45925329591452863 0.2407771106774913 0 -0.46764368341616458 0.22415830119077751 0 -0.45620465585954723 0.2251951411450015 0 -0.45925329591452863 0.2407771106774913 0 -0.46109406183397039 0.21551848415653921 0 -0.46764368341616458 0.22415830119077751 0 -0.45620465585954723 0.2251951411450015 0 -0.45032248765871591 0.2151961798839368 0 -0.45620465585954723 0.2251951411450015 0 -0.44192508753596349 0.22328399916790689 0 -0.44192508753596349 0.22328399916790689 0 -0.44062222049055039 0.24203477259657111 0 -0.43146145522804691 0.2313120115293863 0 -0.45620465585954723 0.2251951411450015 0 -0.44062222049055039 0.24203477259657111 0 -0.45620465585954723 0.2251951411450015 0 -0.44192508753596349 0.22328399916790689 0 -0.44062222049055039 0.24203477259657111 0 -0.44062222049055039 0.24203477259657111 0 -0.45046339488490522 0.249057113070103 0 -0.44442574262614493 0.25832327296872359 0 -0.44062222049055039 0.24203477259657111 0 -0.45046339488490522 0.249057113070103 0 -0.45925329591452863 0.2407771106774913 0 -0.45620465585954723 0.2251951411450015 0 -0.44062222049055039 0.24203477259657111 0 -0.45925329591452863 0.2407771106774913 0 -0.45046339488490522 0.249057113070103 0 -0.45925329591452863 0.2407771106774913 0 -0.45807104112411212 0.25534721177055669 0 -0.45925329591452863 0.2407771106774913 0 -0.46938038244821267 0.25133041049185839 0 -0.45807104112411212 0.25534721177055669 0 -0.47315400564016008 0.2364435414805684 0 -0.45925329591452863 0.2407771106774913 0 -0.46938038244821267 0.25133041049185839 0 -0.4198454647722451 0.23985190764030939 0 -0.40081965837488509 0.24074316727492401 0 -0.40585136056822319 0.25674789398696107 0 -0.4198454647722451 0.23985190764030939 0 -0.405480724964072 0.22581663549259839 0 -0.40081965837488509 0.24074316727492401 0 -0.44062222049055039 0.24203477259657111 0 -0.4198454647722451 0.23985190764030939 0 -0.42503978512155383 0.25887440404814072 0 -0.44062222049055039 0.24203477259657111 0 -0.4198454647722451 0.23985190764030939 0 -0.43146145522804691 0.2313120115293863 0 -0.4198454647722451 0.23985190764030939 0 -0.43146145522804691 0.2313120115293863 0 -0.42370673975344808 0.22056464269113771 0 -0.44192508753596349 0.22328399916790689 0 -0.43146145522804691 0.2313120115293863 0 -0.42370673975344808 0.22056464269113771 0 -0.4198454647722451 0.23985190764030939 0 -0.42370673975344808 0.22056464269113771 0 -0.405480724964072 0.22581663549259839 0 -0.42370673975344808 0.22056464269113771 0 -0.40708390191205951 0.20882890034131879 0 -0.405480724964072 0.22581663549259839 0 -0.42370673975344808 0.22056464269113771 0 -0.40708390191205951 0.20882890034131879 0 -0.42107335870595469 0.2022269477122331 0 -0.44192508753596349 0.22328399916790689 0 -0.42370673975344808 0.22056464269113771 0 -0.43516662619925378 0.20614333559983469 0 -0.42370673975344808 0.22056464269113771 0 -0.43516662619925378 0.20614333559983469 0 -0.42107335870595469 0.2022269477122331 0 -0.43516662619925378 0.20614333559983469 0 -0.4284081648625454 0.1890026720317621 0 -0.42107335870595469 0.2022269477122331 0 -0.43516662619925378 0.20614333559983469 0 -0.4284081648625454 0.1890026720317621 0 -0.4284081648625454 0.1890026720317621 0 -0.40915969581062839 0.19342315750049971 0 -0.4284081648625454 0.1890026720317621 0 -0.42107335870595469 0.2022269477122331 0 -0.40915969581062839 0.19342315750049971 0 -0.40708390191205951 0.20882890034131879 0 -0.42107335870595469 0.2022269477122331 0 -0.40915969581062839 0.19342315750049971 0 -0.40708390191205951 0.20882890034131879 0 -0.40915969581062839 0.19342315750049971 0 -0.38991122675871148 0.19784364296923759 0 -0.40915969581062839 0.19342315750049971 0 -0.38991122675871148 0.19784364296923759 0 -0.40915969581062839 0.19342315750049971 0 -0.38991122675871148 0.19784364296923759 0 -0.39569501158598158 0.17813944679546001 0 -0.39158905321283283 0.2136173787495643 0 -0.38435338999826391 0.22831720607051781 0 -0.36414166766971379 0.2074649771098355 0 -0.38991122675871148 0.19784364296923759 0 -0.39158905321283283 0.2136173787495643 0 -0.36414166766971379 0.2074649771098355 0 -0.40708390191205951 0.20882890034131879 0 -0.39158905321283283 0.2136173787495643 0 -0.405480724964072 0.22581663549259839 0 -0.40708390191205951 0.20882890034131879 0 -0.38991122675871148 0.19784364296923759 0 -0.39158905321283283 0.2136173787495643 0 -0.405480724964072 0.22581663549259839 0 -0.38435338999826391 0.22831720607051781 0 -0.40081965837488509 0.24074316727492401 0 -0.39158905321283283 0.2136173787495643 0 -0.405480724964072 0.22581663549259839 0 -0.38435338999826391 0.22831720607051781 0 -0.37619177155740557 0.24036243622333081 0 -0.38790582398472923 0.24962922847932231 0 -0.36318679658289171 0.25196182354824148 0 -0.38435338999826391 0.22831720607051781 0 -0.37619177155740557 0.24036243622333081 0 -0.38790582398472923 0.24962922847932231 0 -0.38435338999826391 0.22831720607051781 0 -0.38790582398472923 0.24962922847932231 0 -0.40081965837488509 0.24074316727492401 0 -0.38790582398472923 0.24962922847932231 0 -0.40081965837488509 0.24074316727492401 0 -0.40585136056822319 0.25674789398696107 0 -0.40926453963391513 0.14045102348790381 0 -0.42614672387873248 0.14526589422012931 0 -0.41883635224822963 0.16472684775983329 0 -0.40926453963391513 0.14045102348790381 0 -0.41883635224822963 0.16472684775983329 0 -0.40926453963391513 0.14045102348790381 0 -0.41883635224822963 0.16472684775983329 0 -0.40029434983296169 0.15790366282291429 0 -0.40926453963391513 0.14045102348790381 0 -0.417579207348795 0.13056668242546571 0 -0.40026410281127539 0.13237877311027449 0 -0.40926453963391513 0.14045102348790381 0 -0.417579207348795 0.13056668242546571 0 -0.42614672387873248 0.14526589422012931 0 -0.417579207348795 0.13056668242546571 0 -0.43293323699752101 0.1317554923945817 0 -0.42614672387873248 0.14526589422012931 0 -0.42608096723388439 0.1205091241492761 0 -0.417579207348795 0.13056668242546571 0 -0.43293323699752101 0.1317554923945817 0 -0.43796764784210812 0.14528805014891141 0 -0.43293323699752101 0.1317554923945817 0 -0.42614672387873248 0.14526589422012931 0 -0.43892522612619872 0.15930650560997939 0 -0.43796764784210812 0.14528805014891141 0 -0.42614672387873248 0.14526589422012931 0 -0.43892522612619872 0.15930650560997939 0 -0.42614672387873248 0.14526589422012931 0 -0.41883635224822963 0.16472684775983329 0 -0.43992511097516529 0.17411109905454999 0 -0.43892522612619872 0.15930650560997939 0 -0.41883635224822963 0.16472684775983329 0 -0.4284081648625454 0.1890026720317621 0 -0.41883635224822963 0.16472684775983329 0 -0.43992511097516529 0.17411109905454999 0 -0.4284081648625454 0.1890026720317621 0 -0.41883635224822963 0.16472684775983329 0 -0.40915969581062839 0.19342315750049971 0 -0.41883635224822963 0.16472684775983329 0 -0.39569501158598158 0.17813944679546001 0 -0.4284081648625454 0.1890026720317621 0 -0.40915969581062839 0.19342315750049971 0 -0.41883635224822963 0.16472684775983329 0 -0.40029434983296169 0.15790366282291429 0 -0.39569501158598158 0.17813944679546001 0 -0.38484252596519369 0.16167484958157691 0 -0.41883635224822963 0.16472684775983329 0 -0.40029434983296169 0.15790366282291429 0 -0.39569501158598158 0.17813944679546001 0 -0.39569501158598158 0.17813944679546001 0 -0.38484252596519369 0.16167484958157691 0 -0.36525228834216061 0.17922160577889321 0 -0.38991122675871148 0.19784364296923759 0 -0.39569501158598158 0.17813944679546001 0 -0.36525228834216061 0.17922160577889321 0 -0.39283331973148827 0.14452614648979731 0 -0.38372255811484618 0.13025780258704611 0 -0.36636290901460722 0.1509782344479508 0 -0.38484252596519369 0.16167484958157691 0 -0.39283331973148827 0.14452614648979731 0 -0.36636290901460722 0.1509782344479508 0 -0.40029434983296169 0.15790366282291429 0 -0.38484252596519369 0.16167484958157691 0 -0.39283331973148827 0.14452614648979731 0 -0.40926453963391513 0.14045102348790381 0 -0.40029434983296169 0.15790366282291429 0 -0.39283331973148827 0.14452614648979731 0 -0.39283331973148827 0.14452614648979731 0 -0.40026410281127539 0.13237877311027449 0 -0.38372255811484618 0.13025780258704611 0 -0.39792088922733271 0.1160922105611595 0 -0.417579207348795 0.13056668242546571 0 -0.40026410281127539 0.13237877311027449 0 -0.39792088922733271 0.1160922105611595 0 -0.40026410281127539 0.13237877311027449 0 -0.38372255811484618 0.13025780258704611 0 -0.40926453963391513 0.14045102348790381 0 -0.39283331973148827 0.14452614648979731 0 -0.40026410281127539 0.13237877311027449 0 -0.38372255811484618 0.13025780258704611 0 -0.36636290901460722 0.1509782344479508 0 -0.36747352968705388 0.12273486311700831 0 -0.36636290901460722 0.1509782344479508 0 -0.36747352968705388 0.12273486311700831 0 -0.35528769071996391 0.12689780186549679 0 -0.36636290901460722 0.1509782344479508 0 -0.36747352968705388 0.12273486311700831 0 -0.35528769071996391 0.12689780186549679 0 -0.33512599087492562 0.1447950320020088 0 -0.35528769071996391 0.12689780186549679 0 -0.35168351666373848 0.14314256241625531 0 -0.33512599087492562 0.1447950320020088 0 -0.35528769071996391 0.12689780186549679 0 -0.33512599087492562 0.1447950320020088 0 -0.34115039425197219 0.12498493974687711 0 -0.35528769071996391 0.12689780186549679 0 -0.35168351666373848 0.14314256241625531 0 -0.36636290901460722 0.1509782344479508 0 -0.35168351666373848 0.14314256241625531 0 -0.36636290901460722 0.1509782344479508 0 -0.34333519974196419 0.16612441953572921 0 -0.38484252596519369 0.16167484958157691 0 -0.36636290901460722 0.1509782344479508 0 -0.36525228834216061 0.17922160577889321 0 -0.36636290901460722 0.1509782344479508 0 -0.36525228834216061 0.17922160577889321 0 -0.36525228834216061 0.17922160577889321 0 -0.34333519974196419 0.16612441953572921 0 -0.34654591437965571 0.19533490523866279 0 -0.36636290901460722 0.1509782344479508 0 -0.36525228834216061 0.17922160577889321 0 -0.34333519974196419 0.16612441953572921 0 -0.34333519974196419 0.16612441953572921 0 -0.31496429102988749 0.16269226213852109 0 -0.33512599087492562 0.1447950320020088 0 -0.34333519974196419 0.16612441953572921 0 -0.34654591437965571 0.19533490523866279 0 -0.32412519241006588 0.1878495682783011 0 -0.31496429102988749 0.16269226213852109 0 -0.32412519241006588 0.1878495682783011 0 -0.34333519974196419 0.16612441953572921 0 -0.31496429102988749 0.16269226213852109 0 -0.32412519241006588 0.1878495682783011 0 -0.31303823693556859 0.17707572181323081 0 -0.31496429102988749 0.16269226213852109 0 -0.32412519241006588 0.1878495682783011 0 -0.31303823693556859 0.17707572181323081 0 -0.32412519241006588 0.1878495682783011 0 -0.3108046026399135 0.18379038091696129 0 -0.31496429102988749 0.16269226213852109 0 -0.31353256245119709 0.1587605055712967 0 -0.31354631638020197 0.13395604467094269 0 -0.33512599087492562 0.1447950320020088 0 -0.3122891553291075 0.14635758184588041 0 -0.31353256245119709 0.1587605055712967 0 -0.33512599087492562 0.1447950320020088 0 -0.3122891553291075 0.14635758184588041 0 -0.31496429102988749 0.16269226213852109 0 -0.31353256245119709 0.1587605055712967 0 -0.33512599087492562 0.1447950320020088 0 -0.31496429102988749 0.16269226213852109 0 -0.33512599087492562 0.1447950320020088 0 -0.31354631638020197 0.13395604467094269 0 -0.32917568526667751 0.12578156900391591 0 -0.33512599087492562 0.1447950320020088 0 -0.31354631638020197 0.13395604467094269 0 -0.32917568526667751 0.12578156900391591 0 -0.32114709127587232 0.11611322513389059 0 -0.32917568526667751 0.12578156900391591 0 -0.33512599087492562 0.1447950320020088 0 -0.34115039425197219 0.12498493974687711 0 -0.35168351666373848 0.14314256241625531 0 -0.34333519974196419 0.16612441953572921 0 -0.33512599087492562 0.1447950320020088 0 -0.36303104699726713 0.23570834844077809 0 -0.34244699517042121 0.23816418055786151 0 -0.36318679658289171 0.25196182354824148 0 -0.34244699517042121 0.23816418055786151 0 -0.36318679658289171 0.25196182354824148 0 -0.33952374355129727 0.25899057541505788 0 -0.37619177155740557 0.24036243622333081 0 -0.36303104699726713 0.23570834844077809 0 -0.36318679658289171 0.25196182354824148 0 -0.38435338999826391 0.22831720607051781 0 -0.37619177155740557 0.24036243622333081 0 -0.36303104699726713 0.23570834844077809 0 -0.38435338999826391 0.22831720607051781 0 -0.36303104699726713 0.23570834844077809 0 -0.36414166766971379 0.2074649771098355 0 -0.36303104699726713 0.23570834844077809 0 -0.36414166766971379 0.2074649771098355 0 -0.36303104699726713 0.23570834844077809 0 -0.35084793517488477 0.2210857468323085 0 -0.34244699517042121 0.23816418055786151 0 -0.36303104699726713 0.23570834844077809 0 -0.35084793517488477 0.2210857468323085 0 -0.36414166766971379 0.2074649771098355 0 -0.35084793517488477 0.2210857468323085 0 -0.36414166766971379 0.2074649771098355 0 -0.34654591437965571 0.19533490523866279 0 -0.36525228834216061 0.17922160577889321 0 -0.36414166766971379 0.2074649771098355 0 -0.38991122675871148 0.19784364296923759 0 -0.36525228834216061 0.17922160577889321 0 -0.36414166766971379 0.2074649771098355 0 -0.36525228834216061 0.17922160577889321 0 -0.36414166766971379 0.2074649771098355 0 -0.34654591437965571 0.19533490523866279 0 -0.32412519241006588 0.1878495682783011 0 -0.33328609379024349 0.2130068744180813 0 -0.34654591437965571 0.19533490523866279 0 -0.32412519241006588 0.1878495682783011 0 -0.33328609379024349 0.2130068744180813 0 -0.32412519241006588 0.1878495682783011 0 -0.33328609379024349 0.2130068744180813 0 -0.31080006153106382 0.20197173666100501 0 -0.32412519241006588 0.1878495682783011 0 -0.31080006153106382 0.20197173666100501 0 -0.3108046026399135 0.18379038091696129 0 -0.33328609379024349 0.2130068744180813 0 -0.31873218963182409 0.22654972870499029 0 -0.31080006153106382 0.20197173666100501 0 -0.35084793517488477 0.2210857468323085 0 -0.34654591437965571 0.19533490523866279 0 -0.33328609379024349 0.2130068744180813 0 -0.35084793517488477 0.2210857468323085 0 -0.33328609379024349 0.2130068744180813 0 -0.34244699517042121 0.23816418055786151 0 -0.33328609379024349 0.2130068744180813 0 -0.34244699517042121 0.23816418055786151 0 -0.33328609379024349 0.2130068744180813 0 -0.31873218963182409 0.22654972870499029 0 -0.34244699517042121 0.23816418055786151 0 -0.31873218963182409 0.22654972870499029 0 -0.32200613725511351 0.24850726385495631 0 -0.34244699517042121 0.23816418055786151 0 -0.31873218963182409 0.22654972870499029 0 -0.32200613725511351 0.24850726385495631 0 -0.30672251365844311 0.23743048015470111 0 -0.32200613725511351 0.24850726385495631 0 -0.34244699517042121 0.23816418055786151 0 -0.33952374355129727 0.25899057541505788 0 -0.29125564533142001 0.24067530578368901 0 -0.30672251365844311 0.23743048015470111 0 -0.30640548876467488 0.25787073169030861 0 -0.32200613725511351 0.24850726385495631 0 -0.30672251365844311 0.23743048015470111 0 -0.30640548876467488 0.25787073169030861 0 -0.29125564533142001 0.24067530578368901 0 -0.30672251365844311 0.23743048015470111 0 -0.29521310730918271 0.21354937073956171 0 -0.31873218963182409 0.22654972870499029 0 -0.30672251365844311 0.23743048015470111 0 -0.29521310730918271 0.21354937073956171 0 -0.29125564533142001 0.24067530578368901 0 -0.29521310730918271 0.21354937073956171 0 -0.29125564533142001 0.24067530578368901 0 -0.29521310730918271 0.21354937073956171 0 -0.27258595833473342 0.22149207507906341 0 -0.29521310730918271 0.21354937073956171 0 -0.28878760701375322 0.1984352968903606 0 -0.27490594785389072 0.20112241201531189 0 -0.31873218963182409 0.22654972870499029 0 -0.29521310730918271 0.21354937073956171 0 -0.31080006153106382 0.20197173666100501 0 -0.29521310730918271 0.21354937073956171 0 -0.29917056928694541 0.1864234356954344 0 -0.29521310730918271 0.21354937073956171 0 -0.31080006153106382 0.20197173666100501 0 -0.29917056928694541 0.1864234356954344 0 -0.31080006153106382 0.20197173666100501 0 -0.3108046026399135 0.18379038091696129 0 -0.29917056928694541 0.1864234356954344 0 -0.28878760701375322 0.1984352968903606 0 -0.29917056928694541 0.1864234356954344 0 -0.28955343229492791 0.1852490896997587 0 -0.29521310730918271 0.21354937073956171 0 -0.28878760701375322 0.1984352968903606 0 -0.29917056928694541 0.1864234356954344 0 -0.28878760701375322 0.1984352968903606 0 -0.27938784373491388 0.18917199981814359 0 -0.28955343229492791 0.1852490896997587 0 -0.27938784373491388 0.18917199981814359 0 -0.27490594785389072 0.20112241201531189 0 -0.26439180367967152 0.18225540552070321 0 -0.28878760701375322 0.1984352968903606 0 -0.27938784373491388 0.18917199981814359 0 -0.27490594785389072 0.20112241201531189 0 -0.27490594785389072 0.20112241201531189 0 -0.25370102580463139 0.2052288024824625 0 -0.26439180367967152 0.18225540552070321 0 -0.25370102580463139 0.2052288024824625 0 -0.26439180367967152 0.18225540552070321 0 -0.23359887481107691 0.1809086922627815 0 -0.27490594785389072 0.20112241201531189 0 -0.25370102580463139 0.2052288024824625 0 -0.27258595833473342 0.22149207507906341 0 -0.29521310730918271 0.21354937073956171 0 -0.27490594785389072 0.20112241201531189 0 -0.27258595833473342 0.22149207507906341 0 -0.29125564533142001 0.24067530578368901 0 -0.27258595833473342 0.22149207507906341 0 -0.26834113505385238 0.23837358332174549 0 -0.27258595833473342 0.22149207507906341 0 -0.25272375818517617 0.22994970808158929 0 -0.26834113505385238 0.23837358332174549 0 -0.25370102580463139 0.2052288024824625 0 -0.27258595833473342 0.22149207507906341 0 -0.25272375818517617 0.22994970808158929 0 -0.25272375818517617 0.22994970808158929 0 -0.25621817608628389 0.2460965770837312 0 -0.26834113505385238 0.23837358332174549 0 -0.25621817608628389 0.2460965770837312 0 -0.26834113505385238 0.23837358332174549 0 -0.26892213733164849 0.25365425058065472 0 -0.29125564533142001 0.24067530578368901 0 -0.26834113505385238 0.23837358332174549 0 -0.26892213733164849 0.25365425058065472 0 -0.29370567785695612 0.15770531643225719 0 -0.28412418886142132 0.16518528890623771 0 -0.28065913062351988 0.14575155473079041 0 -0.30159211447790629 0.14759241864651959 0 -0.29370567785695612 0.15770531643225719 0 -0.28065913062351988 0.14575155473079041 0 -0.29682817834931757 0.13068013418198679 0 -0.30159211447790629 0.14759241864651959 0 -0.28065913062351988 0.14575155473079041 0 -0.29682817834931757 0.13068013418198679 0 -0.28065913062351988 0.14575155473079041 0 -0.28285123447775751 0.1183560919224374 0 -0.31354631638020197 0.13395604467094269 0 -0.29682817834931757 0.13068013418198679 0 -0.30159211447790629 0.14759241864651959 0 -0.31354631638020197 0.13395604467094269 0 -0.3122891553291075 0.14635758184588041 0 -0.30159211447790629 0.14759241864651959 0 -0.31353256245119709 0.1587605055712967 0 -0.3122891553291075 0.14635758184588041 0 -0.30159211447790629 0.14759241864651959 0 -0.31496429102988749 0.16269226213852109 0 -0.31353256245119709 0.1587605055712967 0 -0.30488677357152572 0.1641353808659653 0 -0.30159211447790629 0.14759241864651959 0 -0.30488677357152572 0.1641353808659653 0 -0.29370567785695612 0.15770531643225719 0 -0.31353256245119709 0.1587605055712967 0 -0.30159211447790629 0.14759241864651959 0 -0.30488677357152572 0.1641353808659653 0 -0.31496429102988749 0.16269226213852109 0 -0.30225886166240762 0.17397067591913981 0 -0.31303823693556859 0.17707572181323081 0 -0.31496429102988749 0.16269226213852109 0 -0.30225886166240762 0.17397067591913981 0 -0.31496429102988749 0.16269226213852109 0 -0.30488677357152572 0.1641353808659653 0 -0.30225886166240762 0.17397067591913981 0 -0.30488677357152572 0.1641353808659653 0 -0.30225886166240762 0.17397067591913981 0 -0.29597535979189887 0.1670989905046398 0 -0.30488677357152572 0.1641353808659653 0 -0.29370567785695612 0.15770531643225719 0 -0.29597535979189887 0.1670989905046398 0 -0.31303823693556859 0.17707572181323081 0 -0.3108046026399135 0.18379038091696129 0 -0.30225886166240762 0.17397067591913981 0 -0.30225886166240762 0.17397067591913981 0 -0.29917056928694541 0.1864234356954344 0 -0.28955343229492791 0.1852490896997587 0 -0.3108046026399135 0.18379038091696129 0 -0.30225886166240762 0.17397067591913981 0 -0.29917056928694541 0.1864234356954344 0 -0.30225886166240762 0.17397067591913981 0 -0.28955343229492791 0.1852490896997587 0 -0.30225886166240762 0.17397067591913981 0 -0.28955343229492791 0.1852490896997587 0 -0.29024545837739651 0.173916500811098 0 -0.28955343229492791 0.1852490896997587 0 -0.29024545837739651 0.173916500811098 0 -0.27889874324695868 0.17762520371433099 0 -0.29024545837739651 0.173916500811098 0 -0.28412418886142132 0.16518528890623771 0 -0.27889874324695868 0.17762520371433099 0 -0.27938784373491388 0.18917199981814359 0 -0.28955343229492791 0.1852490896997587 0 -0.27889874324695868 0.17762520371433099 0 -0.29370567785695612 0.15770531643225719 0 -0.29597535979189887 0.1670989905046398 0 -0.28412418886142132 0.16518528890623771 0 -0.30225886166240762 0.17397067591913981 0 -0.29024545837739651 0.173916500811098 0 -0.29597535979189887 0.1670989905046398 0 -0.29024545837739651 0.173916500811098 0 -0.29597535979189887 0.1670989905046398 0 -0.28412418886142132 0.16518528890623771 0 -0.28412418886142132 0.16518528890623771 0 -0.26844272787379447 0.16268744982768751 0 -0.27889874324695868 0.17762520371433099 0 -0.28412418886142132 0.16518528890623771 0 -0.26844272787379447 0.16268744982768751 0 -0.28065913062351988 0.14575155473079041 0 -0.26844272787379447 0.16268744982768751 0 -0.27889874324695868 0.17762520371433099 0 -0.26439180367967152 0.18225540552070321 0 -0.27938784373491388 0.18917199981814359 0 -0.27889874324695868 0.17762520371433099 0 -0.26439180367967152 0.18225540552070321 0 -0.26844272787379447 0.16268744982768751 0 -0.26439180367967152 0.18225540552070321 0 -0.247018622616726 0.15992587597476091 0 -0.26844272787379447 0.16268744982768751 0 -0.25846103874104392 0.14702121199507179 0 -0.247018622616726 0.15992587597476091 0 -0.26844272787379447 0.16268744982768751 0 -0.25846103874104392 0.14702121199507179 0 -0.28065913062351988 0.14575155473079041 0 -0.25846103874104392 0.14702121199507179 0 -0.28065913062351988 0.14575155473079041 0 -0.25922316449870308 0.12628093809151891 0 -0.28065913062351988 0.14575155473079041 0 -0.25922316449870308 0.12628093809151891 0 -0.28285123447775751 0.1183560919224374 0 -0.25846103874104392 0.14702121199507179 0 -0.25922316449870308 0.12628093809151891 0 -0.2369615480924761 0.1404602413506009 0 -0.25922316449870308 0.12628093809151891 0 -0.25136603029008331 0.1103208693098497 0 -0.26687835675477128 0.1014348965859585 0 -0.25136603029008331 0.1103208693098497 0 -0.26687835675477128 0.1014348965859585 0 -0.24377998071086901 0.096378574065869249 0 -0.26687835675477128 0.1014348965859585 0 -0.28737892951993471 0.098967158637655914 0 -0.27569457229827071 0.081243623470509244 0 -0.26687835675477128 0.1014348965859585 0 -0.28285123447775751 0.1183560919224374 0 -0.28737892951993471 0.098967158637655914 0 -0.25922316449870308 0.12628093809151891 0 -0.26687835675477128 0.1014348965859585 0 -0.28285123447775751 0.1183560919224374 0 -0.29682817834931757 0.13068013418198679 0 -0.28285123447775751 0.1183560919224374 0 -0.30549209578720232 0.10774456093924389 0 -0.28285123447775751 0.1183560919224374 0 -0.28737892951993471 0.098967158637655914 0 -0.30549209578720232 0.10774456093924389 0 -0.28737892951993471 0.098967158637655914 0 -0.30549209578720232 0.10774456093924389 0 -0.29743787519420251 0.08153307720754506 0 -0.30549209578720232 0.10774456093924389 0 -0.29743787519420251 0.08153307720754506 0 -0.31354631638020197 0.13395604467094269 0 -0.29682817834931757 0.13068013418198679 0 -0.30549209578720232 0.10774456093924389 0 -0.31354631638020197 0.13395604467094269 0 -0.30549209578720232 0.10774456093924389 0 -0.29926204670725021 0.066629363318123747 0 -0.30931237829482389 0.073252958087475881 0 -0.31697319293959142 0.061410437985649477 0 -0.29926204670725021 0.066629363318123747 0 -0.30931237829482389 0.073252958087475881 0 -0.29743787519420251 0.08153307720754506 0 -0.30549209578720232 0.10774456093924389 0 -0.29743787519420251 0.08153307720754506 0 -0.31312795334666071 0.083579729522452809 0 -0.30931237829482389 0.073252958087475881 0 -0.29743787519420251 0.08153307720754506 0 -0.31312795334666071 0.083579729522452809 0 -0.28737892951993471 0.098967158637655914 0 -0.29743787519420251 0.08153307720754506 0 -0.27569457229827071 0.081243623470509244 0 -0.29743787519420251 0.08153307720754506 0 -0.28743776060402371 0.060458689408765323 0 -0.28938365460120269 0.05532159347584624 0 -0.29743787519420251 0.08153307720754506 0 -0.28938365460120269 0.05532159347584624 0 -0.29926204670725021 0.066629363318123747 0 -0.29743787519420251 0.08153307720754506 0 -0.28938365460120269 0.05532159347584624 0 -0.29743787519420251 0.08153307720754506 0 -0.27569457229827071 0.081243623470509244 0 -0.28743776060402371 0.060458689408765323 0 -0.27569457229827071 0.081243623470509244 0 -0.26257114212692878 0.06573449919026883 0 -0.28743776060402371 0.060458689408765323 0 -0.26257114212692878 0.06573449919026883 0 -0.28743776060402371 0.060458689408765323 0 -0.26687835675477128 0.1014348965859585 0 -0.25261226255175379 0.080423606239198905 0 -0.24377998071086901 0.096378574065869249 0 -0.26687835675477128 0.1014348965859585 0 -0.27569457229827071 0.081243623470509244 0 -0.25261226255175379 0.080423606239198905 0 -0.26257114212692878 0.06573449919026883 0 -0.23770452364983391 0.071010308971772351 0 -0.25261226255175379 0.080423606239198905 0 -0.26257114212692878 0.06573449919026883 0 -0.23770452364983391 0.071010308971772351 0 -0.27569457229827071 0.081243623470509244 0 -0.25261226255175379 0.080423606239198905 0 -0.26257114212692878 0.06573449919026883 0 -0.2522816967992324 0.037264740289820159 0 -0.27263172987273521 0.051913181220590639 0 -0.24906194248509719 0.058488871325365822 0 -0.26257114212692878 0.06573449919026883 0 -0.27263172987273521 0.051913181220590639 0 -0.24906194248509719 0.058488871325365822 0 -0.2522816967992324 0.037264740289820159 0 -0.2684979789729644 0.03593820420606865 0 -0.27263172987273521 0.051913181220590639 0 -0.2684979789729644 0.03593820420606865 0 -0.27263172987273521 0.051913181220590639 0 -0.28132943400820298 0.02911010974414751 0 -0.27263172987273521 0.051913181220590639 0 -0.28132943400820298 0.02911010974414751 0 -0.28938365460120269 0.05532159347584624 0 -0.26257114212692878 0.06573449919026883 0 -0.27263172987273521 0.051913181220590639 0 -0.28743776060402371 0.060458689408765323 0 -0.25267499080189931 -0.0034516002120552492 0 -0.26909988492935111 -0.0018655285383734981 0 -0.25157722050270093 0.012682655753942951 0 -0.26909988492935111 -0.0018655285383734981 0 -0.25157722050270093 0.012682655753942951 0 -0.27200359261247947 0.017754051058092819 0 -0.2522816967992324 0.037264740289820159 0 -0.25157722050270093 0.012682655753942951 0 -0.27200359261247947 0.017754051058092819 0 -0.2522816967992324 0.037264740289820159 0 -0.2684979789729644 0.03593820420606865 0 -0.27200359261247947 0.017754051058092819 0 -0.2522816967992324 0.037264740289820159 0 -0.27200359261247947 0.017754051058092819 0 -0.27200359261247947 0.017754051058092819 0 -0.28831373269731447 0.017122983851404761 0 -0.28132943400820298 0.02911010974414751 0 -0.2684979789729644 0.03593820420606865 0 -0.27200359261247947 0.017754051058092819 0 -0.28132943400820298 0.02911010974414751 0 -0.26909988492935111 -0.0018655285383734981 0 -0.2917254884257266 -0.0017566381736345419 0 -0.27200359261247947 0.017754051058092819 0 -0.2917254884257266 -0.0017566381736345419 0 -0.27200359261247947 0.017754051058092819 0 -0.28831373269731447 0.017122983851404761 0 -0.2917254884257266 -0.0017566381736345419 0 -0.28831373269731447 0.017122983851404761 0 -0.29997880334656019 0.01439552450637107 0 -0.2917254884257266 -0.0017566381736345419 0 -0.27200359261247947 0.017754051058092819 0 -0.28831373269731447 0.017122983851404761 0 -0.29656482898857922 0.02610767777843559 0 -0.29997880334656019 0.01439552450637107 0 -0.28831373269731447 0.017122983851404761 0 -0.28132943400820298 0.02911010974414751 0 -0.29656482898857922 0.02610767777843559 0 -0.28132943400820298 0.02911010974414751 0 -0.29656482898857922 0.02610767777843559 0 -0.29344050585463782 0.03493273697686209 0 -0.29656482898857922 0.02610767777843559 0 -0.31039051656375261 0.022327184027059441 0 -0.30541723396373921 0.038711125382435783 0 -0.31039051656375261 0.022327184027059441 0 -0.30541723396373921 0.038711125382435783 0 -0.32038394146944787 0.031620215762440292 0 -0.29656482898857922 0.02610767777843559 0 -0.31039051656375261 0.022327184027059441 0 -0.29997880334656019 0.01439552450637107 0 -0.31039051656375261 0.022327184027059441 0 -0.31177688145040278 0.0050359958776742568 0 -0.29997880334656019 0.01439552450637107 0 -0.2917254884257266 -0.0017566381736345419 0 -0.31177688145040278 0.0050359958776742568 0 -0.29997880334656019 0.01439552450637107 0 -0.27263172987273521 0.051913181220590639 0 -0.28743776060402371 0.060458689408765323 0 -0.28938365460120269 0.05532159347584624 0 -0.28938365460120269 0.05532159347584624 0 -0.29045052645802971 0.045802035002429492 0 -0.29738278035354182 0.050541329601553678 0 -0.28938365460120269 0.05532159347584624 0 -0.29738278035354182 0.050541329601553678 0 -0.29780899910201009 0.056562827273038227 0 -0.29926204670725021 0.066629363318123747 0 -0.28938365460120269 0.05532159347584624 0 -0.29780899910201009 0.056562827273038227 0 -0.28132943400820298 0.02911010974414751 0 -0.28938365460120269 0.05532159347584624 0 -0.29045052645802971 0.045802035002429492 0 -0.28132943400820298 0.02911010974414751 0 -0.28938365460120269 0.05532159347584624 0 -0.28132943400820298 0.02911010974414751 0 -0.29344050585463782 0.03493273697686209 0 -0.29045052645802971 0.045802035002429492 0 -0.29344050585463782 0.03493273697686209 0 -0.29045052645802971 0.045802035002429492 0 -0.30541723396373921 0.038711125382435783 0 -0.29045052645802971 0.045802035002429492 0 -0.30541723396373921 0.038711125382435783 0 -0.29738278035354182 0.050541329601553678 0 -0.29045052645802971 0.045802035002429492 0 -0.30541723396373921 0.038711125382435783 0 -0.29656482898857922 0.02610767777843559 0 -0.29344050585463782 0.03493273697686209 0 -0.30541723396373921 0.038711125382435783 0 -0.30541723396373921 0.038711125382435783 0 -0.30520751474604563 0.05375902269662923 0 -0.31780711793698518 0.045521831715634557 0 -0.29926204670725021 0.066629363318123747 0 -0.30520751474604563 0.05375902269662923 0 -0.31697319293959142 0.061410437985649477 0 -0.30541723396373921 0.038711125382435783 0 -0.30520751474604563 0.05375902269662923 0 -0.29738278035354182 0.050541329601553678 0 -0.30520751474604563 0.05375902269662923 0 -0.29738278035354182 0.050541329601553678 0 -0.29780899910201009 0.056562827273038227 0 -0.29926204670725021 0.066629363318123747 0 -0.30520751474604563 0.05375902269662923 0 -0.29780899910201009 0.056562827273038227 0 -0.32553678940662539 0.052415823907368687 0 -0.31780711793698518 0.045521831715634557 0 -0.33422422494732851 0.04449049745268327 0 -0.31697319293959142 0.061410437985649477 0 -0.32553678940662539 0.052415823907368687 0 -0.31780711793698518 0.045521831715634557 0 -0.30520751474604563 0.05375902269662923 0 -0.31697319293959142 0.061410437985649477 0 -0.31780711793698518 0.045521831715634557 0 -0.31697319293959142 0.061410437985649477 0 -0.32808937753058609 0.059947696530402161 0 -0.32553678940662539 0.052415823907368687 0 -0.31780711793698518 0.045521831715634557 0 -0.32038394146944787 0.031620215762440292 0 -0.33422422494732851 0.04449049745268327 0 -0.30541723396373921 0.038711125382435783 0 -0.31780711793698518 0.045521831715634557 0 -0.32038394146944787 0.031620215762440292 0 -0.30541723396373921 0.038711125382435783 0 -0.32038394146944787 0.031620215762440292 0 -0.32038394146944787 0.031620215762440292 0 -0.33422422494732851 0.04449049745268327 0 -0.33422422494732851 0.04449049745268327 0 -0.34051642268078958 0.02208187176518148 0 -0.34924074101412461 0.03711639968071382 0 -0.32038394146944787 0.031620215762440292 0 -0.33422422494732851 0.04449049745268327 0 -0.34051642268078958 0.02208187176518148 0 -0.33422422494732851 0.04449049745268327 0 -0.34715076893326918 0.04673829876922056 0 -0.34924074101412461 0.03711639968071382 0 -0.33422422494732851 0.04449049745268327 0 -0.34806450842520742 0.057360779142928031 0 -0.34715076893326918 0.04673829876922056 0 -0.33422422494732851 0.04449049745268327 0 -0.34806450842520742 0.057360779142928031 0 -0.33422422494732851 0.04449049745268327 0 -0.33482930480244999 0.055095026294593591 0 -0.34806450842520742 0.057360779142928031 0 -0.3407399656121517 0.06083029771636933 0 -0.33482930480244999 0.055095026294593591 0 -0.33440717105718593 0.063083878638897639 0 -0.3407399656121517 0.06083029771636933 0 -0.33482930480244999 0.055095026294593591 0 -0.34806450842520742 0.057360779142928031 0 -0.32808937753058609 0.059947696530402161 0 -0.33482930480244999 0.055095026294593591 0 -0.33440717105718593 0.063083878638897639 0 -0.32808937753058609 0.059947696530402161 0 -0.32553678940662539 0.052415823907368687 0 -0.33482930480244999 0.055095026294593591 0 -0.32553678940662539 0.052415823907368687 0 -0.33422422494732851 0.04449049745268327 0 -0.33482930480244999 0.055095026294593591 0 -0.31039051656375261 0.022327184027059441 0 -0.31177688145040278 0.0050359958776742568 0 -0.3261420213634148 0.01391490981329808 0 -0.32828291010712762 -0.0049346835118845543 0 -0.31177688145040278 0.0050359958776742568 0 -0.3261420213634148 0.01391490981329808 0 -0.31039051656375261 0.022327184027059441 0 -0.32038394146944787 0.031620215762440292 0 -0.3261420213634148 0.01391490981329808 0 -0.31039051656375261 0.022327184027059441 0 -0.32038394146944787 0.031620215762440292 0 -0.32038394146944787 0.031620215762440292 0 -0.34051642268078958 0.02208187176518148 0 -0.32038394146944787 0.031620215762440292 0 -0.3261420213634148 0.01391490981329808 0 -0.34051642268078958 0.02208187176518148 0 -0.3261420213634148 0.01391490981329808 0 -0.34051642268078958 0.02208187176518148 0 -0.34055428987364128 0.0059527955302196532 0 -0.32828291010712762 -0.0049346835118845543 0 -0.3261420213634148 0.01391490981329808 0 -0.34055428987364128 0.0059527955302196532 0 -0.34051642268078958 0.02208187176518148 0 -0.34055428987364128 0.0059527955302196532 0 -0.36064890389212972 0.0125435277679194 0 -0.34718119132474479 -0.01384164818341615 0 -0.34055428987364128 0.0059527955302196532 0 -0.36064890389212972 0.0125435277679194 0 -0.34051642268078958 0.02208187176518148 0 -0.36064890389212972 0.0125435277679194 0 -0.34051642268078958 0.02208187176518148 0 -0.35699945364537122 0.027147445145089769 0 -0.34924074101412461 0.03711639968071382 0 -0.34051642268078958 0.02208187176518148 0 -0.35699945364537122 0.027147445145089769 0 -0.36064890389212972 0.0125435277679194 0 -0.35699945364537122 0.027147445145089769 0 -0.36163302121541668 0.029781402687577421 0 -0.35940737946489582 0.035374977024224222 0 -0.37998819155715241 0.0057865511937031933 0 -0.36738966121720701 0.029980518529024301 0 -0.37123175334181557 0.027162262264614271 0 -0.37998819155715241 0.0057865511937031933 0 -0.36738966121720701 0.029980518529024301 0 -0.3645477689834325 0.020181962352102071 0 -0.37998819155715241 0.0057865511937031933 0 -0.36738966121720701 0.029980518529024301 0 -0.36273559053419291 0.026622670051971411 0 -0.36738966121720701 0.029980518529024301 0 -0.3645477689834325 0.020181962352102071 0 -0.35699945364537122 0.027147445145089769 0 -0.36163302121541668 0.029781402687577421 0 -0.36273559053419291 0.026622670051971411 0 -0.35699945364537122 0.027147445145089769 0 -0.36273559053419291 0.026622670051971411 0 -0.3645477689834325 0.020181962352102071 0 -0.36163302121541668 0.029781402687577421 0 -0.36273559053419291 0.026622670051971411 0 -0.36738966121720701 0.029980518529024301 0 -0.35699945364537122 0.027147445145089769 0 -0.3645477689834325 0.020181962352102071 0 -0.36064890389212972 0.0125435277679194 0 -0.3645477689834325 0.020181962352102071 0 -0.36064890389212972 0.0125435277679194 0 -0.37998819155715241 0.0057865511937031933 0 -0.3645477689834325 0.020181962352102071 0 -0.36064890389212972 0.0125435277679194 0 -0.38683543611469601 0.0001369023841863784 0 -0.36064890389212972 0.0125435277679194 0 -0.37474494217865062 -0.0022388935110706832 0 -0.38683543611469601 0.0001369023841863784 0 -0.36064890389212972 0.0125435277679194 0 -0.37474494217865062 -0.0022388935110706832 0 -0.36307869926690151 -0.00068504054922277494 0 -0.36064890389212972 0.0125435277679194 0 -0.35479113087726238 0.05417448586434577 0 -0.34715076893326918 0.04673829876922056 0 -0.35593663516940488 0.04278932274017315 0 -0.35479113087726238 0.05417448586434577 0 -0.35147867423579721 0.06053566178096708 0 -0.3622197730044176 0.060127746183944272 0 -0.35479113087726238 0.05417448586434577 0 -0.35147867423579721 0.06053566178096708 0 -0.35479113087726238 0.05417448586434577 0 -0.34806450842520742 0.057360779142928031 0 -0.35147867423579721 0.06053566178096708 0 -0.35479113087726238 0.05417448586434577 0 -0.34806450842520742 0.057360779142928031 0 -0.34806450842520742 0.057360779142928031 0 -0.35147867423579721 0.06053566178096708 0 -0.3447014191436914 0.063951910484466787 0 -0.34806450842520742 0.057360779142928031 0 -0.35147867423579721 0.06053566178096708 0 -0.3407399656121517 0.06083029771636933 0 -0.34806450842520742 0.057360779142928031 0 -0.3407399656121517 0.06083029771636933 0 -0.34806450842520742 0.057360779142928031 0 -0.3447014191436914 0.063951910484466787 0 -0.35479113087726238 0.05417448586434577 0 -0.34806450842520742 0.057360779142928031 0 -0.34715076893326918 0.04673829876922056 0 -0.34715076893326918 0.04673829876922056 0 -0.34924074101412461 0.03711639968071382 0 -0.35593663516940488 0.04278932274017315 0 -0.36738966121720701 0.029980518529024301 0 -0.35479113087726238 0.05417448586434577 0 -0.35593663516940488 0.04278932274017315 0 -0.35699945364537122 0.027147445145089769 0 -0.34924074101412461 0.03711639968071382 0 -0.35940737946489582 0.035374977024224222 0 -0.34924074101412461 0.03711639968071382 0 -0.35593663516940488 0.04278932274017315 0 -0.35940737946489582 0.035374977024224222 0 -0.36738966121720701 0.029980518529024301 0 -0.35479113087726238 0.05417448586434577 0 -0.36677646394688163 0.041367990420506082 0 -0.37123175334181557 0.027162262264614271 0 -0.37046143272875132 0.04675171495388801 0 -0.36738966121720701 0.029980518529024301 0 -0.35479113087726238 0.05417448586434577 0 -0.37123175334181557 0.027162262264614271 0 -0.36677646394688163 0.041367990420506082 0 -0.37046143272875132 0.04675171495388801 0 -0.3764786745208083 0.032098692741998169 0 -0.37123175334181557 0.027162262264614271 0 -0.37046143272875132 0.04675171495388801 0 -0.36163302121541668 0.029781402687577421 0 -0.36738966121720701 0.029980518529024301 0 -0.35940737946489582 0.035374977024224222 0 -0.36738966121720701 0.029980518529024301 0 -0.35593663516940488 0.04278932274017315 0 -0.35940737946489582 0.035374977024224222 0 -0.36738966121720701 0.029980518529024301 0 -0.37123175334181557 0.027162262264614271 0 -0.36677646394688163 0.041367990420506082 0 -0.36677646394688163 0.041367990420506082 0 -0.37046143272875132 0.04675171495388801 0 -0.36802302346639398 0.047906750352184523 0 -0.36677646394688163 0.041367990420506082 0 -0.36802302346639398 0.047906750352184523 0 -0.37046143272875132 0.04675171495388801 0 -0.37000681959492809 0.05831264468359916 0 -0.36802302346639398 0.047906750352184523 0 -0.37000681959492809 0.05831264468359916 0 -0.37046143272875132 0.04675171495388801 0 -0.36802302346639398 0.047906750352184523 0 -0.37000681959492809 0.05831264468359916 0 -0.37046143272875132 0.04675171495388801 0 -0.36802302346639398 0.047906750352184523 0 -0.35479113087726238 0.05417448586434577 0 -0.36802302346639398 0.047906750352184523 0 -0.35479113087726238 0.05417448586434577 0 -0.36802302346639398 0.047906750352184523 0 -0.3622197730044176 0.060127746183944272 0 -0.35479113087726238 0.05417448586434577 0 -0.36677646394688163 0.041367990420506082 0 -0.36802302346639398 0.047906750352184523 0 -0.36802302346639398 0.047906750352184523 0 -0.3622197730044176 0.060127746183944272 0 -0.37000681959492809 0.05831264468359916 0 -0.35147867423579721 0.06053566178096708 0 -0.36926886504626422 0.077079019973005369 0 -0.3622197730044176 0.060127746183944272 0 -0.37000681959492809 0.05831264468359916 0 -0.36926886504626422 0.077079019973005369 0 -0.37000681959492809 0.05831264468359916 0 -0.36926886504626422 0.077079019973005369 0 -0.37079498002478778 0.078498176574577722 0 -0.36926886504626422 0.077079019973005369 0 -0.34551673285671652 0.071984855543133663 0 -0.36912013352382872 0.080861301107253064 0 -0.37000681959492809 0.05831264468359916 0 -0.37079498002478778 0.078498176574577722 0 -0.37470600383380392 0.082961959162170973 0 -0.35147867423579721 0.06053566178096708 0 -0.3622197730044176 0.060127746183944272 0 -0.36926886504626422 0.077079019973005369 0 -0.37000681959492809 0.05831264468359916 0 -0.37470600383380392 0.082961959162170973 0 -0.37000681959492809 0.05831264468359916 0 -0.36926886504626422 0.077079019973005369 0 -0.36926886504626422 0.077079019973005369 0 -0.37079498002478778 0.078498176574577722 0 -0.34551673285671652 0.071984855543133663 0 -0.34763839367566191 0.079069075487607554 0 -0.36912013352382872 0.080861301107253064 0 -0.34551673285671652 0.071984855543133663 0 -0.36912013352382872 0.080861301107253064 0 -0.35147867423579721 0.06053566178096708 0 -0.36926886504626422 0.077079019973005369 0 -0.34551673285671652 0.071984855543133663 0 -0.34408269824063842 0.074738747125954852 0 -0.34763839367566191 0.079069075487607554 0 -0.34179116264722731 0.080399472229040897 0 -0.34408269824063842 0.074738747125954852 0 -0.34551673285671652 0.071984855543133663 0 -0.34763839367566191 0.079069075487607554 0 -0.34408269824063842 0.074738747125954852 0 -0.34551673285671652 0.071984855543133663 0 -0.35147867423579721 0.06053566178096708 0 -0.34551673285671652 0.071984855543133663 0 -0.3447014191436914 0.063951910484466787 0 -0.35147867423579721 0.06053566178096708 0 -0.34551673285671652 0.071984855543133663 0 -0.34763839367566191 0.079069075487607554 0 -0.36858415035949882 0.094491491786065696 0 -0.34763839367566191 0.079069075487607554 0 -0.36858415035949882 0.094491491786065696 0 -0.35198293914272999 0.094145145766245733 0 -0.34456144318064219 0.08667329674911145 0 -0.34763839367566191 0.079069075487607554 0 -0.35198293914272999 0.094145145766245733 0 -0.34456144318064219 0.08667329674911145 0 -0.35198293914272999 0.094145145766245733 0 -0.34431035454597703 0.093789606507308373 0 -0.34456144318064219 0.08667329674911145 0 -0.34763839367566191 0.079069075487607554 0 -0.34179116264722731 0.080399472229040897 0 -0.3782625711058698 0.101617738696854 0 -0.37470600383380392 0.082961959162170973 0 -0.36858415035949882 0.094491491786065696 0 -0.34763839367566191 0.079069075487607554 0 -0.36912013352382872 0.080861301107253064 0 -0.36858415035949882 0.094491491786065696 0 -0.36926886504626422 0.077079019973005369 0 -0.37079498002478778 0.078498176574577722 0 -0.36912013352382872 0.080861301107253064 0 -0.36926886504626422 0.077079019973005369 0 -0.36912013352382872 0.080861301107253064 0 -0.36912013352382872 0.080861301107253064 0 -0.37470600383380392 0.082961959162170973 0 -0.37079498002478778 0.078498176574577722 0 -0.36912013352382872 0.080861301107253064 0 -0.37470600383380392 0.082961959162170973 0 -0.36912013352382872 0.080861301107253064 0 -0.37470600383380392 0.082961959162170973 0 -0.36858415035949882 0.094491491786065696 0 -0.36912013352382872 0.080861301107253064 0 -0.36858415035949882 0.094491491786065696 0 -0.36858415035949882 0.094491491786065696 0 -0.36747352968705388 0.12273486311700831 0 -0.3782625711058698 0.101617738696854 0 -0.36858415035949882 0.094491491786065696 0 -0.36858415035949882 0.094491491786065696 0 -0.36006702585218792 0.10838608290929221 0 -0.35198293914272999 0.094145145766245733 0 -0.36858415035949882 0.094491491786065696 0 -0.36006702585218792 0.10838608290929221 0 -0.36747352968705388 0.12273486311700831 0 -0.3782625711058698 0.101617738696854 0 -0.36858415035949882 0.094491491786065696 0 -0.36747352968705388 0.12273486311700831 0 -0.36006702585218792 0.10838608290929221 0 -0.36747352968705388 0.12273486311700831 0 -0.35832203275528268 0.1183511860346923 0 -0.35528769071996391 0.12689780186549679 0 -0.36747352968705388 0.12273486311700831 0 -0.35832203275528268 0.1183511860346923 0 -0.35528769071996391 0.12689780186549679 0 -0.35832203275528268 0.1183511860346923 0 -0.35045988476192508 0.115385996246972 0 -0.36006702585218792 0.10838608290929221 0 -0.35832203275528268 0.1183511860346923 0 -0.35045988476192508 0.115385996246972 0 -0.35045988476192508 0.115385996246972 0 -0.34547580274860562 0.10394098399483009 0 -0.33570271963636877 0.11206429961599181 0 -0.35528769071996391 0.12689780186549679 0 -0.35045988476192508 0.115385996246972 0 -0.34115039425197219 0.12498493974687711 0 -0.36006702585218792 0.10838608290929221 0 -0.35198293914272999 0.094145145766245733 0 -0.34547580274860562 0.10394098399483009 0 -0.36006702585218792 0.10838608290929221 0 -0.35045988476192508 0.115385996246972 0 -0.34547580274860562 0.10394098399483009 0 -0.35198293914272999 0.094145145766245733 0 -0.34547580274860562 0.10394098399483009 0 -0.34431035454597703 0.093789606507308373 0 -0.34547580274860562 0.10394098399483009 0 -0.34431035454597703 0.093789606507308373 0 -0.335413749579693 0.097286071719103154 0 -0.34547580274860562 0.10394098399483009 0 -0.335413749579693 0.097286071719103154 0 -0.33570271963636877 0.11206429961599181 0 -0.335413749579693 0.097286071719103154 0 -0.33570271963636877 0.11206429961599181 0 -0.32444247844199348 0.1047035033472971 0 -0.35045988476192508 0.115385996246972 0 -0.34115039425197219 0.12498493974687711 0 -0.33570271963636877 0.11206429961599181 0 -0.32917568526667751 0.12578156900391591 0 -0.33570271963636877 0.11206429961599181 0 -0.32114709127587232 0.11611322513389059 0 -0.32917568526667751 0.12578156900391591 0 -0.34115039425197219 0.12498493974687711 0 -0.33570271963636877 0.11206429961599181 0 -0.31354631638020197 0.13395604467094269 0 -0.30549209578720232 0.10774456093924389 0 -0.32114709127587232 0.11611322513389059 0 -0.30549209578720232 0.10774456093924389 0 -0.32114709127587232 0.11611322513389059 0 -0.32444247844199348 0.1047035033472971 0 -0.33570271963636877 0.11206429961599181 0 -0.32114709127587232 0.11611322513389059 0 -0.32444247844199348 0.1047035033472971 0 -0.30549209578720232 0.10774456093924389 0 -0.32444247844199348 0.1047035033472971 0 -0.32445673593083119 0.090309359328255762 0 -0.30549209578720232 0.10774456093924389 0 -0.32445673593083119 0.090309359328255762 0 -0.31312795334666071 0.083579729522452809 0 -0.335413749579693 0.097286071719103154 0 -0.32444247844199348 0.1047035033472971 0 -0.32445673593083119 0.090309359328255762 0 -0.32445673593083119 0.090309359328255762 0 -0.3275606083710243 0.080211281293741998 0 -0.31312795334666071 0.083579729522452809 0 -0.3275606083710243 0.080211281293741998 0 -0.31312795334666071 0.083579729522452809 0 -0.31976082328641481 0.073112182403608325 0 -0.30931237829482389 0.073252958087475881 0 -0.31312795334666071 0.083579729522452809 0 -0.31976082328641481 0.073112182403608325 0 -0.30931237829482389 0.073252958087475881 0 -0.31697319293959142 0.061410437985649477 0 -0.31976082328641481 0.073112182403608325 0 -0.31697319293959142 0.061410437985649477 0 -0.31976082328641481 0.073112182403608325 0 -0.32886731949388731 0.069155273298144179 0 -0.31697319293959142 0.061410437985649477 0 -0.32808937753058609 0.059947696530402161 0 -0.32886731949388731 0.069155273298144179 0 -0.3275606083710243 0.080211281293741998 0 -0.31976082328641481 0.073112182403608325 0 -0.32886731949388731 0.069155273298144179 0 -0.32886731949388731 0.069155273298144179 0 -0.33770721458858299 0.069047958238937293 0 -0.336378655355973 0.076693290193422539 0 -0.3275606083710243 0.080211281293741998 0 -0.32886731949388731 0.069155273298144179 0 -0.336378655355973 0.076693290193422539 0 -0.33440717105718593 0.063083878638897639 0 -0.32886731949388731 0.069155273298144179 0 -0.33770721458858299 0.069047958238937293 0 -0.32808937753058609 0.059947696530402161 0 -0.33440717105718593 0.063083878638897639 0 -0.32886731949388731 0.069155273298144179 0 -0.3407399656121517 0.06083029771636933 0 -0.33440717105718593 0.063083878638897639 0 -0.33770721458858299 0.069047958238937293 0 -0.3407399656121517 0.06083029771636933 0 -0.3447014191436914 0.063951910484466787 0 -0.33770721458858299 0.069047958238937293 0 -0.34551673285671652 0.071984855543133663 0 -0.3447014191436914 0.063951910484466787 0 -0.33770721458858299 0.069047958238937293 0 -0.34408269824063842 0.074738747125954852 0 -0.33770721458858299 0.069047958238937293 0 -0.336378655355973 0.076693290193422539 0 -0.34408269824063842 0.074738747125954852 0 -0.34551673285671652 0.071984855543133663 0 -0.33770721458858299 0.069047958238937293 0 -0.34551673285671652 0.071984855543133663 0 -0.33770721458858299 0.069047958238937293 0 -0.34408269824063842 0.074738747125954852 0 -0.336378655355973 0.076693290193422539 0 -0.34179116264722731 0.080399472229040897 0 -0.336378655355973 0.076693290193422539 0 -0.34179116264722731 0.080399472229040897 0 -0.33708436589161489 0.085963183755354639 0 -0.34456144318064219 0.08667329674911145 0 -0.34179116264722731 0.080399472229040897 0 -0.33708436589161489 0.085963183755354639 0 -0.34456144318064219 0.08667329674911145 0 -0.34431035454597703 0.093789606507308373 0 -0.33708436589161489 0.085963183755354639 0 -0.34431035454597703 0.093789606507308373 0 -0.335413749579693 0.097286071719103154 0 -0.33708436589161489 0.085963183755354639 0 -0.335413749579693 0.097286071719103154 0 -0.32445673593083119 0.090309359328255762 0 -0.33708436589161489 0.085963183755354639 0 -0.32445673593083119 0.090309359328255762 0 -0.3275606083710243 0.080211281293741998 0 -0.33708436589161489 0.085963183755354639 0 -0.3275606083710243 0.080211281293741998 0 -0.336378655355973 0.076693290193422539 0 -0.33708436589161489 0.085963183755354639 0 -0.38891458820749281 0.47713565504117422 0 -0.42172655890518862 0.5 0 -0.3640375775585698 0.5 0 -0.38891458820749281 0.47713565504117422 0 -0.37103467036260362 0.45695891695805302 0 -0.36943712044780219 0.47475959506207249 0 -0.39694697642853649 0.45370639251272787 0 -0.37103467036260362 0.45695891695805302 0 -0.38891458820749281 0.47713565504117422 0 -0.39694697642853649 0.45370639251272787 0 -0.37103467036260362 0.45695891695805302 0 -0.38249991962136642 0.44345487931465249 0 -0.39694697642853649 0.45370639251272787 0 -0.37103467036260362 0.45695891695805302 0 -0.38249991962136642 0.44345487931465249 0 -0.39694697642853649 0.45370639251272787 0 -0.40464661760035381 0.43350824459614162 0 -0.38891458820749281 0.47713565504117422 0 -0.39694697642853649 0.45370639251272787 0 -0.41631826774707797 0.4711213942969617 0 -0.39694697642853649 0.45370639251272787 0 -0.42285928249446952 0.45045386806740279 0 -0.41631826774707797 0.4711213942969617 0 -0.42285928249446952 0.45045386806740279 0 -0.42501824733507809 0.43459816807542118 0 -0.40464661760035381 0.43350824459614162 0 -0.39694697642853649 0.45370639251272787 0 -0.42285928249446952 0.45045386806740279 0 -0.39694697642853649 0.45370639251272787 0 -0.42285928249446952 0.45045386806740279 0 -0.40464661760035381 0.43350824459614162 0 -0.42285928249446952 0.45045386806740279 0 -0.43521244088076849 0.46107148678855758 0 -0.44877158856040261 0.44720134362207808 0 -0.42285928249446952 0.45045386806740279 0 -0.44877158856040261 0.44720134362207808 0 -0.42285928249446952 0.45045386806740279 0 -0.43592409671607729 0.44045812782560079 0 -0.44877158856040261 0.44720134362207808 0 -0.42285928249446952 0.45045386806740279 0 -0.43592409671607729 0.44045812782560079 0 -0.42501824733507809 0.43459816807542118 0 -0.42285928249446952 0.45045386806740279 0 -0.43521244088076849 0.46107148678855758 0 -0.41631826774707797 0.4711213942969617 0 -0.41631826774707797 0.4711213942969617 0 -0.42172655890518862 0.5 0 -0.43935827984199688 0.47473889959161758 0 -0.43521244088076849 0.46107148678855758 0 -0.41631826774707797 0.4711213942969617 0 -0.43935827984199688 0.47473889959161758 0 -0.38891458820749281 0.47713565504117422 0 -0.41631826774707797 0.4711213942969617 0 -0.42172655890518862 0.5 0 -0.42172655890518862 0.5 0 -0.43935827984199688 0.47473889959161758 0 -0.47784082473980471 0.47626967285504462 0 -0.42172655890518862 0.5 0 -0.5 0.5 0 -0.47784082473980471 0.47626967285504462 0 -0.43935827984199688 0.47473889959161758 0 -0.47784082473980471 0.47626967285504462 0 -0.4487547857598953 0.46184192836472759 0 -0.5 0.5 0 -0.47784082473980471 0.47626967285504462 0 -0.49999999999999589 0.44077113011354369 0 -0.47784082473980471 0.47626967285504462 0 -0.47438579428019922 0.44398623686781052 0 -0.4627013265822788 0.4545376326069438 0 -0.47784082473980471 0.47626967285504462 0 -0.49999999999999589 0.44077113011354369 0 -0.47438579428019922 0.44398623686781052 0 -0.49999999999999589 0.44077113011354369 0 -0.47438579428019922 0.44398623686781052 0 -0.48180565015534738 0.42787197640755792 0 -0.49999999999999589 0.44077113011354369 0 -0.47438579428019922 0.44398623686781052 0 -0.47438579428019922 0.44398623686781052 0 -0.4627013265822788 0.4545376326069438 0 -0.44877158856040261 0.44720134362207808 0 -0.47438579428019922 0.44398623686781052 0 -0.44877158856040261 0.44720134362207808 0 -0.47438579428019922 0.44398623686781052 0 -0.44877158856040261 0.44720134362207808 0 -0.46289485375526918 0.43579199928955081 0 -0.44877158856040261 0.44720134362207808 0 -0.44878504691792248 0.43547483269414872 0 -0.46289485375526918 0.43579199928955081 0 -0.47784082473980471 0.47626967285504462 0 -0.4627013265822788 0.4545376326069438 0 -0.4487547857598953 0.46184192836472759 0 -0.4627013265822788 0.4545376326069438 0 -0.4487547857598953 0.46184192836472759 0 -0.44877158856040261 0.44720134362207808 0 -0.4487547857598953 0.46184192836472759 0 -0.44877158856040261 0.44720134362207808 0 -0.43521244088076849 0.46107148678855758 0 -0.4487547857598953 0.46184192836472759 0 -0.44877158856040261 0.44720134362207808 0 -0.43521244088076849 0.46107148678855758 0 -0.43935827984199688 0.47473889959161758 0 -0.4487547857598953 0.46184192836472759 0 -0.44877158856040261 0.44720134362207808 0 -0.44508566455651338 0.43839632914573512 0 -0.44878504691792248 0.43547483269414872 0 -0.44877158856040261 0.44720134362207808 0 -0.44878504691792248 0.43547483269414872 0 -0.43592409671607729 0.44045812782560079 0 -0.44877158856040261 0.44720134362207808 0 -0.44508566455651338 0.43839632914573512 0 -0.44531233658805403 0.42513554986162888 0 -0.44878504691792248 0.43547483269414872 0 -0.44880957839306629 0.41410011360809668 0 -0.44878504691792248 0.43547483269414872 0 -0.44880957839306629 0.41410011360809668 0 -0.43788570063392329 0.43164093021736671 0 -0.44531233658805403 0.42513554986162888 0 -0.44878504691792248 0.43547483269414872 0 -0.43592409671607729 0.44045812782560079 0 -0.44508566455651338 0.43839632914573512 0 -0.43788570063392329 0.43164093021736671 0 -0.44508566455651338 0.43839632914573512 0 -0.43788570063392329 0.43164093021736671 0 -0.44878504691792248 0.43547483269414872 0 -0.44508566455651338 0.43839632914573512 0 -0.44878504691792248 0.43547483269414872 0 -0.44531233658805403 0.42513554986162888 0 -0.44880957839306629 0.41410011360809668 0 -0.42391867717568832 0.41711337076656618 0 -0.44880957839306629 0.41410011360809668 0 -0.46585669794528167 0.42199291516666237 0 -0.4641229039382897 0.40091036417177778 0 -0.44878504691792248 0.43547483269414872 0 -0.46585669794528167 0.42199291516666237 0 -0.44878504691792248 0.43547483269414872 0 -0.44880957839306629 0.41410011360809668 0 -0.46585669794528167 0.42199291516666237 0 -0.44878504691792248 0.43547483269414872 0 -0.46585669794528167 0.42199291516666237 0 -0.46289485375526918 0.43579199928955081 0 -0.47438579428019922 0.44398623686781052 0 -0.46289485375526918 0.43579199928955081 0 -0.48180565015534738 0.42787197640755792 0 -0.46585669794528167 0.42199291516666237 0 -0.46289485375526918 0.43579199928955081 0 -0.48180565015534738 0.42787197640755792 0 -0.46585669794528167 0.42199291516666237 0 -0.48292834897264081 0.4085109976391762 0 -0.4641229039382897 0.40091036417177778 0 -0.46585669794528167 0.42199291516666237 0 -0.48292834897264081 0.4085109976391762 0 -0.46585669794528167 0.42199291516666237 0 -0.48180565015534738 0.42787197640755792 0 -0.48292834897264081 0.4085109976391762 0 -0.48292834897264081 0.4085109976391762 0 -0.5 0.41790010511261683 0 -0.5 0.39502908011169002 0 -0.48180565015534738 0.42787197640755792 0 -0.48292834897264081 0.4085109976391762 0 -0.5 0.41790010511261683 0 -0.49999999999999589 0.44077113011354369 0 -0.48180565015534738 0.42787197640755792 0 -0.5 0.41790010511261683 0 -0.48850556386005051 0.3766603246979251 0 -0.5 0.39502908011169002 0 -0.47832653283541199 0.38608194873200979 0 -0.48850556386005051 0.3766603246979251 0 -0.5 0.39502908011169002 0 -0.5 0.36887446842263683 0 -0.48292834897264081 0.4085109976391762 0 -0.5 0.39502908011169002 0 -0.47832653283541199 0.38608194873200979 0 -0.48292834897264081 0.4085109976391762 0 -0.5 0.39502908011169002 0 -0.48292834897264081 0.4085109976391762 0 -0.47832653283541199 0.38608194873200979 0 -0.4641229039382897 0.40091036417177778 0 -0.48850556386005051 0.3766603246979251 0 -0.47832653283541199 0.38608194873200979 0 -0.48259334700195489 0.36409898273387958 0 -0.47832653283541199 0.38608194873200979 0 -0.46059005399087027 0.38292215568240928 0 -0.4641229039382897 0.40091036417177778 0 -0.47832653283541199 0.38608194873200979 0 -0.46059005399087027 0.38292215568240928 0 -0.46572599417265398 0.36772482908493609 0 -0.44880957839306629 0.41410011360809668 0 -0.4641229039382897 0.40091036417177778 0 -0.44883410986820999 0.3927253945220448 0 -0.46059005399087027 0.38292215568240928 0 -0.4641229039382897 0.40091036417177778 0 -0.44883410986820999 0.3927253945220448 0 -0.44880957839306629 0.41410011360809668 0 -0.44883410986820999 0.3927253945220448 0 -0.43699833754743561 0.40294499431243458 0 -0.44880957839306629 0.41410011360809668 0 -0.44883410986820999 0.3927253945220448 0 -0.44883410986820999 0.3927253945220448 0 -0.43978391516082421 0.3912231797547942 0 -0.43699833754743561 0.40294499431243458 0 -0.44883410986820999 0.3927253945220448 0 -0.43978391516082421 0.3912231797547942 0 -0.44802713623065987 0.37645115623263098 0 -0.44883410986820999 0.3927253945220448 0 -0.44885864134335329 0.37135067543599282 0 -0.44883410986820999 0.3927253945220448 0 -0.44802713623065987 0.37645115623263098 0 -0.44885864134335329 0.37135067543599282 0 -0.43978391516082421 0.3912231797547942 0 -0.44802713623065987 0.37645115623263098 0 -0.42527607699699133 0.39277117395206662 0 -0.46059005399087027 0.38292215568240928 0 -0.44883410986820999 0.3927253945220448 0 -0.44885864134335329 0.37135067543599282 0 -0.44802713623065987 0.37645115623263098 0 -0.4250431626101242 0.37647010748543319 0 -0.42527607699699133 0.39277117395206662 0 -0.44802713623065987 0.37645115623263098 0 -0.42527607699699133 0.39277117395206662 0 -0.4250431626101242 0.37647010748543319 0 -0.4134887672477453 0.38574914578498593 0 -0.40122768387689522 0.38158953953487368 0 -0.4250431626101242 0.37647010748543319 0 -0.40122768387689522 0.38158953953487368 0 -0.4250431626101242 0.37647010748543319 0 -0.4134887672477453 0.38574914578498593 0 -0.42527607699699133 0.39277117395206662 0 -0.4250431626101242 0.37647010748543319 0 -0.40122768387689522 0.38158953953487368 0 -0.40086489287733429 0.37467411733839928 0 -0.4134887672477453 0.38574914578498593 0 -0.40798835104355652 0.39359067917546098 0 -0.40557429982823212 0.38794008425198068 0 -0.4134887672477453 0.38574914578498593 0 -0.40122768387689522 0.38158953953487368 0 -0.40557429982823212 0.38794008425198068 0 -0.40798835104355652 0.39359067917546098 0 -0.42527607699699133 0.39277117395206662 0 -0.40252501776332311 0.40909119167150271 0 -0.42527607699699133 0.39277117395206662 0 -0.40252501776332311 0.40909119167150271 0 -0.4134887672477453 0.38574914578498593 0 -0.40798835104355652 0.39359067917546098 0 -0.42527607699699133 0.39277117395206662 0 -0.42527607699699133 0.39277117395206662 0 -0.43699833754743561 0.40294499431243458 0 -0.42391867717568832 0.41711337076656618 0 -0.43978391516082421 0.3912231797547942 0 -0.42527607699699133 0.39277117395206662 0 -0.43699833754743561 0.40294499431243458 0 -0.44880957839306629 0.41410011360809668 0 -0.43699833754743561 0.40294499431243458 0 -0.42391867717568832 0.41711337076656618 0 -0.44531233658805403 0.42513554986162888 0 -0.42391867717568832 0.41711337076656618 0 -0.43788570063392329 0.43164093021736671 0 -0.44531233658805403 0.42513554986162888 0 -0.42391867717568832 0.41711337076656618 0 -0.43788570063392329 0.43164093021736671 0 -0.42391867717568832 0.41711337076656618 0 -0.42501824733507809 0.43459816807542118 0 -0.43592409671607729 0.44045812782560079 0 -0.43788570063392329 0.43164093021736671 0 -0.42501824733507809 0.43459816807542118 0 -0.42391867717568832 0.41711337076656618 0 -0.42501824733507809 0.43459816807542118 0 -0.40464661760035381 0.43350824459614162 0 -0.42527607699699133 0.39277117395206662 0 -0.42391867717568832 0.41711337076656618 0 -0.40252501776332311 0.40909119167150271 0 -0.42391867717568832 0.41711337076656618 0 -0.40252501776332311 0.40909119167150271 0 -0.40464661760035381 0.43350824459614162 0 -0.42391867717568832 0.41711337076656618 0 -0.40252501776332311 0.40909119167150271 0 -0.40252501776332311 0.40909119167150271 0 -0.37875820238401509 0.42613984176471847 0 -0.40252501776332311 0.40909119167150271 0 -0.40464661760035381 0.43350824459614162 0 -0.37875820238401509 0.42613984176471847 0 -0.38249991962136642 0.44345487931465249 0 -0.40464661760035381 0.43350824459614162 0 -0.37875820238401509 0.42613984176471847 0 -0.40252501776332311 0.40909119167150271 0 -0.37875820238401509 0.42613984176471847 0 -0.37769092578324193 0.39977892163450779 0 -0.37769092578324193 0.39977892163450779 0 -0.38963770449155072 0.39285491215608792 0 -0.37686086334024771 0.38257038446795849 0 -0.40252501776332311 0.40909119167150271 0 -0.37769092578324193 0.39977892163450779 0 -0.38963770449155072 0.39285491215608792 0 -0.40252501776332311 0.40909119167150271 0 -0.37769092578324193 0.39977892163450779 0 -0.37686086334024771 0.38257038446795849 0 -0.39363670834615189 0.38450398520198442 0 -0.40086489287733429 0.37467411733839928 0 -0.38963770449155072 0.39285491215608792 0 -0.37686086334024771 0.38257038446795849 0 -0.39363670834615189 0.38450398520198442 0 -0.37686086334024771 0.38257038446795849 0 -0.40086489287733429 0.37467411733839928 0 -0.37686086334024771 0.38257038446795849 0 -0.40086489287733429 0.37467411733839928 0 -0.39033592763893787 0.37070590072739279 0 -0.39363670834615189 0.38450398520198442 0 -0.40122768387689522 0.38158953953487368 0 -0.39959239714473138 0.39083097251260251 0 -0.38963770449155072 0.39285491215608792 0 -0.39363670834615189 0.38450398520198442 0 -0.39959239714473138 0.39083097251260251 0 -0.39363670834615189 0.38450398520198442 0 -0.40122768387689522 0.38158953953487368 0 -0.40086489287733429 0.37467411733839928 0 -0.40122768387689522 0.38158953953487368 0 -0.40557429982823212 0.38794008425198068 0 -0.39959239714473138 0.39083097251260251 0 -0.40798835104355652 0.39359067917546098 0 -0.40557429982823212 0.38794008425198068 0 -0.39959239714473138 0.39083097251260251 0 -0.40252501776332311 0.40909119167150271 0 -0.38963770449155072 0.39285491215608792 0 -0.39959239714473138 0.39083097251260251 0 -0.40798835104355652 0.39359067917546098 0 -0.40252501776332311 0.40909119167150271 0 -0.39959239714473138 0.39083097251260251 0 -0.3926828114571661 0.35541775914535301 0 -0.40105078960399698 0.34662517948293931 0 -0.40586906590548888 0.3393029225754271 0 -0.3926828114571661 0.35541775914535301 0 -0.39400561065841477 0.34382680172727831 0 -0.40586906590548888 0.3393029225754271 0 -0.3926828114571661 0.35541775914535301 0 -0.40586906590548888 0.3393029225754271 0 -0.3926828114571661 0.35541775914535301 0 -0.39969836615416421 0.35756427730283669 0 -0.39341808057325789 0.36431669671432632 0 -0.3926828114571661 0.35541775914535301 0 -0.40105078960399698 0.34662517948293931 0 -0.39969836615416421 0.35756427730283669 0 -0.3926828114571661 0.35541775914535301 0 -0.39400561065841477 0.34382680172727831 0 -0.38539473684528258 0.34837828204789067 0 -0.40105078960399698 0.34662517948293931 0 -0.40525205349158999 0.35429039595711992 0 -0.40888688292129022 0.34941903462410451 0 -0.40105078960399698 0.34662517948293931 0 -0.4080564418273247 0.34368885170405422 0 -0.40888688292129022 0.34941903462410451 0 -0.40105078960399698 0.34662517948293931 0 -0.40525205349158999 0.35429039595711992 0 -0.39969836615416421 0.35756427730283669 0 -0.40525205349158999 0.35429039595711992 0 -0.39969836615416421 0.35756427730283669 0 -0.40553625032349627 0.36037170931698131 0 -0.40553625032349627 0.36037170931698131 0 -0.40544017780568847 0.3661562974108753 0 -0.40025021147547779 0.36436392320030081 0 -0.40544017780568847 0.3661562974108753 0 -0.40025021147547779 0.36436392320030081 0 -0.397742957241214 0.36844985128713797 0 -0.39969836615416421 0.35756427730283669 0 -0.40553625032349627 0.36037170931698131 0 -0.40025021147547779 0.36436392320030081 0 -0.40544017780568847 0.3661562974108753 0 -0.40086489287733429 0.37467411733839928 0 -0.397742957241214 0.36844985128713797 0 -0.40086489287733429 0.37467411733839928 0 -0.397742957241214 0.36844985128713797 0 -0.39033592763893787 0.37070590072739279 0 -0.397742957241214 0.36844985128713797 0 -0.39341808057325789 0.36431669671432632 0 -0.39033592763893787 0.37070590072739279 0 -0.39969836615416421 0.35756427730283669 0 -0.40025021147547779 0.36436392320030081 0 -0.39341808057325789 0.36431669671432632 0 -0.40025021147547779 0.36436392320030081 0 -0.397742957241214 0.36844985128713797 0 -0.39341808057325789 0.36431669671432632 0 -0.3926828114571661 0.35541775914535301 0 -0.39341808057325789 0.36431669671432632 0 -0.37949655700884349 0.37153259571527891 0 -0.37949655700884349 0.37153259571527891 0 -0.37823932191431281 0.35548757599615399 0 -0.37024808467873749 0.36543132639488701 0 -0.3926828114571661 0.35541775914535301 0 -0.37949655700884349 0.37153259571527891 0 -0.37823932191431281 0.35548757599615399 0 -0.3926828114571661 0.35541775914535301 0 -0.37949655700884349 0.37153259571527891 0 -0.39341808057325789 0.36431669671432632 0 -0.39033592763893787 0.37070590072739279 0 -0.37949655700884349 0.37153259571527891 0 -0.37686086334024771 0.38257038446795849 0 -0.39033592763893787 0.37070590072739279 0 -0.37949655700884349 0.37153259571527891 0 -0.37823932191431281 0.35548757599615399 0 -0.38539473684528258 0.34837828204789067 0 -0.3787015959315434 0.33902802614693439 0 -0.3926828114571661 0.35541775914535301 0 -0.37823932191431281 0.35548757599615399 0 -0.38539473684528258 0.34837828204789067 0 -0.3787015959315434 0.33902802614693439 0 -0.37816355277066899 0.32985684687273281 0 -0.39158393304450312 0.32769252248945308 0 -0.39400561065841477 0.34382680172727831 0 -0.38539473684528258 0.34837828204789067 0 -0.3787015959315434 0.33902802614693439 0 -0.39158393304450312 0.32769252248945308 0 -0.37442838800096029 0.32044424157556423 0 -0.37816355277066899 0.32985684687273281 0 -0.39158393304450312 0.32769252248945308 0 -0.37442838800096029 0.32044424157556423 0 -0.38613629988198012 0.31665983269396758 0 -0.39158393304450312 0.32769252248945308 0 -0.37442838800096029 0.32044424157556423 0 -0.38613629988198012 0.31665983269396758 0 -0.37442838800096029 0.32044424157556423 0 -0.37415321332832258 0.31386652142517069 0 -0.39158393304450312 0.32769252248945308 0 -0.4039094095666334 0.320812311378052 0 -0.40925887999808552 0.33516025262174892 0 -0.38613629988198012 0.31665983269396758 0 -0.39830358576524327 0.31266849694114901 0 -0.39158393304450312 0.32769252248945308 0 -0.39830358576524327 0.31266849694114901 0 -0.39158393304450312 0.32769252248945308 0 -0.4039094095666334 0.320812311378052 0 -0.39830358576524327 0.31266849694114901 0 -0.4039094095666334 0.320812311378052 0 -0.40826549608127172 0.31275764886218971 0 -0.3787015959315434 0.33902802614693439 0 -0.40777024278950652 0.33697950655941222 0 -0.39158393304450312 0.32769252248945308 0 -0.40925887999808552 0.33516025262174892 0 -0.39158393304450312 0.32769252248945308 0 -0.40777024278950652 0.33697950655941222 0 -0.40925887999808552 0.33516025262174892 0 -0.3787015959315434 0.33902802614693439 0 -0.39158393304450312 0.32769252248945308 0 -0.40777024278950652 0.33697950655941222 0 -0.39400561065841477 0.34382680172727831 0 -0.3787015959315434 0.33902802614693439 0 -0.40777024278950652 0.33697950655941222 0 -0.39400561065841477 0.34382680172727831 0 -0.40586906590548888 0.3393029225754271 0 -0.40777024278950652 0.33697950655941222 0 -0.40105078960399698 0.34662517948293931 0 -0.40586906590548888 0.3393029225754271 0 -0.40105078960399698 0.34662517948293931 0 -0.40586906590548888 0.3393029225754271 0 -0.4080564418273247 0.34368885170405422 0 -0.4080564418273247 0.34368885170405422 0 -0.41125860555200922 0.34134685969384471 0 -0.40895905381070002 0.33957121871677393 0 -0.40586906590548888 0.3393029225754271 0 -0.4080564418273247 0.34368885170405422 0 -0.40895905381070002 0.33957121871677393 0 -0.4080564418273247 0.34368885170405422 0 -0.41125860555200922 0.34134685969384471 0 -0.41366919887348358 0.34576378073699821 0 -0.41125860555200922 0.34134685969384471 0 -0.41273643032526569 0.33662953043248711 0 -0.41433336845197538 0.3415594658204692 0 -0.41125860555200922 0.34134685969384471 0 -0.41433336845197538 0.3415594658204692 0 -0.41366919887348358 0.34576378073699821 0 -0.41125860555200922 0.34134685969384471 0 -0.41273643032526569 0.33662953043248711 0 -0.40895905381070002 0.33957121871677393 0 -0.41273643032526569 0.33662953043248711 0 -0.40777024278950652 0.33697950655941222 0 -0.41273643032526569 0.33662953043248711 0 -0.40895905381070002 0.33957121871677393 0 -0.40777024278950652 0.33697950655941222 0 -0.41273643032526569 0.33662953043248711 0 -0.40777024278950652 0.33697950655941222 0 -0.40925887999808552 0.33516025262174892 0 -0.40777024278950652 0.33697950655941222 0 -0.40925887999808552 0.33516025262174892 0 -0.40586906590548888 0.3393029225754271 0 -0.40895905381070002 0.33957121871677393 0 -0.40777024278950652 0.33697950655941222 0 -0.40586906590548888 0.3393029225754271 0 -0.40777024278950652 0.33697950655941222 0 -0.41273643032526569 0.33662953043248711 0 -0.40925887999808552 0.33516025262174892 0 -0.40925887999808552 0.33516025262174892 0 -0.42024067891477529 0.32173946694831868 0 -0.40925887999808552 0.33516025262174892 0 -0.42071708592719742 0.33131558094746122 0 -0.42024067891477529 0.32173946694831868 0 -0.41273643032526569 0.33662953043248711 0 -0.40925887999808552 0.33516025262174892 0 -0.42071708592719742 0.33131558094746122 0 -0.41273643032526569 0.33662953043248711 0 -0.4199209072431685 0.34318781838679219 0 -0.41433336845197538 0.3415594658204692 0 -0.4199209072431685 0.34318781838679219 0 -0.41433336845197538 0.3415594658204692 0 -0.41366919887348358 0.34576378073699821 0 -0.40925887999808552 0.33516025262174892 0 -0.41892768793075841 0.31754462100172592 0 -0.42141481873501418 0.31567829233095179 0 -0.40925887999808552 0.33516025262174892 0 -0.411263050936583 0.31954773430139438 0 -0.41892768793075841 0.31754462100172592 0 -0.40925887999808552 0.33516025262174892 0 -0.42141481873501418 0.31567829233095179 0 -0.40925887999808552 0.33516025262174892 0 -0.42024067891477529 0.32173946694831868 0 -0.42141481873501418 0.31567829233095179 0 -0.411263050936583 0.31954773430139438 0 -0.40826549608127172 0.31275764886218971 0 -0.41647318301620623 0.31168328686166002 0 -0.4039094095666334 0.320812311378052 0 -0.411263050936583 0.31954773430139438 0 -0.40826549608127172 0.31275764886218971 0 -0.4039094095666334 0.320812311378052 0 -0.40925887999808552 0.33516025262174892 0 -0.411263050936583 0.31954773430139438 0 -0.411263050936583 0.31954773430139438 0 -0.41892768793075841 0.31754462100172592 0 -0.41647318301620623 0.31168328686166002 0 -0.41892768793075841 0.31754462100172592 0 -0.42141481873501418 0.31567829233095179 0 -0.41892768793075841 0.31754462100172592 0 -0.42141481873501418 0.31567829233095179 0 -0.41647318301620623 0.31168328686166002 0 -0.42024067891477529 0.32173946694831868 0 -0.43790895006943947 0.32081412042189511 0 -0.43122247783146522 0.30831868127488848 0 -0.42024067891477529 0.32173946694831868 0 -0.42938605365092247 0.3272194948190838 0 -0.43790895006943947 0.32081412042189511 0 -0.42024067891477529 0.32173946694831868 0 -0.42141481873501418 0.31567829233095179 0 -0.43122247783146522 0.30831868127488848 0 -0.42024067891477529 0.32173946694831868 0 -0.43122247783146522 0.30831868127488848 0 -0.42071708592719742 0.33131558094746122 0 -0.42024067891477529 0.32173946694831868 0 -0.42938605365092247 0.3272194948190838 0 -0.42938605365092247 0.3272194948190838 0 -0.43674098495811231 0.33493788649063261 0 -0.43790895006943947 0.32081412042189511 0 -0.43790895006943947 0.32081412042189511 0 -0.4401847358662575 0.3127477530096977 0 -0.43122247783146522 0.30831868127488848 0 -0.41273643032526569 0.33662953043248711 0 -0.43674098495811231 0.33493788649063261 0 -0.42071708592719742 0.33131558094746122 0 -0.42938605365092247 0.3272194948190838 0 -0.43674098495811231 0.33493788649063261 0 -0.41273643032526569 0.33662953043248711 0 -0.4199209072431685 0.34318781838679219 0 -0.43385085243219867 0.34555045147446217 0 -0.41273643032526569 0.33662953043248711 0 -0.42071708592719742 0.33131558094746122 0 -0.43674098495811231 0.33493788649063261 0 -0.41273643032526569 0.33662953043248711 0 -0.43385085243219867 0.34555045147446217 0 -0.41273643032526569 0.33662953043248711 0 -0.43674098495811231 0.33493788649063261 0 -0.43385085243219867 0.34555045147446217 0 -0.43385085243219867 0.34555045147446217 0 -0.4302486007270056 0.35272204188882378 0 -0.42573384958437638 0.34916959158482058 0 -0.43385085243219867 0.34555045147446217 0 -0.43539550265875948 0.35741731211322858 0 -0.44110397924445488 0.35756373905142852 0 -0.43539550265875948 0.35741731211322858 0 -0.4302486007270056 0.35272204188882378 0 -0.42757171946388478 0.35850981688022993 0 -0.43385085243219867 0.34555045147446217 0 -0.43539550265875948 0.35741731211322858 0 -0.4302486007270056 0.35272204188882378 0 -0.4302486007270056 0.35272204188882378 0 -0.42480748600639012 0.35482075793933809 0 -0.42573384958437638 0.34916959158482058 0 -0.4302486007270056 0.35272204188882378 0 -0.42757171946388478 0.35850981688022993 0 -0.42480748600639012 0.35482075793933809 0 -0.42757171946388478 0.35850981688022993 0 -0.42480748600639012 0.35482075793933809 0 -0.42195212413097077 0.36043988011418487 0 -0.4199209072431685 0.34318781838679219 0 -0.43385085243219867 0.34555045147446217 0 -0.42573384958437638 0.34916959158482058 0 -0.42480748600639012 0.35482075793933809 0 -0.42573384958437638 0.34916959158482058 0 -0.41984140151311927 0.3495668882346864 0 -0.4199209072431685 0.34318781838679219 0 -0.42573384958437638 0.34916959158482058 0 -0.41984140151311927 0.3495668882346864 0 -0.4199209072431685 0.34318781838679219 0 -0.41984140151311927 0.3495668882346864 0 -0.41366919887348358 0.34576378073699821 0 -0.41984140151311927 0.3495668882346864 0 -0.41366919887348358 0.34576378073699821 0 -0.41404230344944593 0.35073751764187411 0 -0.42480748600639012 0.35482075793933809 0 -0.41984140151311927 0.3495668882346864 0 -0.41755863725870102 0.35684421707679032 0 -0.42480748600639012 0.35482075793933809 0 -0.41755863725870102 0.35684421707679032 0 -0.42195212413097077 0.36043988011418487 0 -0.41984140151311927 0.3495668882346864 0 -0.41755863725870102 0.35684421707679032 0 -0.41404230344944593 0.35073751764187411 0 -0.41755863725870102 0.35684421707679032 0 -0.41125051028190041 0.35540848222164118 0 -0.41404230344944593 0.35073751764187411 0 -0.41125051028190041 0.35540848222164118 0 -0.40888688292129022 0.34941903462410451 0 -0.41404230344944593 0.35073751764187411 0 -0.41755863725870102 0.35684421707679032 0 -0.41125051028190041 0.35540848222164118 0 -0.41142088061722581 0.36176204086772412 0 -0.40553625032349627 0.36037170931698131 0 -0.41125051028190041 0.35540848222164118 0 -0.41142088061722581 0.36176204086772412 0 -0.40525205349158999 0.35429039595711992 0 -0.40553625032349627 0.36037170931698131 0 -0.41125051028190041 0.35540848222164118 0 -0.40525205349158999 0.35429039595711992 0 -0.41125051028190041 0.35540848222164118 0 -0.40888688292129022 0.34941903462410451 0 -0.4080564418273247 0.34368885170405422 0 -0.40888688292129022 0.34941903462410451 0 -0.41366919887348358 0.34576378073699821 0 -0.40888688292129022 0.34941903462410451 0 -0.41366919887348358 0.34576378073699821 0 -0.41404230344944593 0.35073751764187411 0 -0.4250431626101242 0.37647010748543319 0 -0.40086489287733429 0.37467411733839928 0 -0.42486892241442098 0.36677785020884007 0 -0.40086489287733429 0.37467411733839928 0 -0.42486892241442098 0.36677785020884007 0 -0.40086489287733429 0.37467411733839928 0 -0.41378193274770297 0.36450427419225789 0 -0.42486892241442098 0.36677785020884007 0 -0.40544017780568847 0.3661562974108753 0 -0.40086489287733429 0.37467411733839928 0 -0.41378193274770297 0.36450427419225789 0 -0.40544017780568847 0.3661562974108753 0 -0.41142088061722581 0.36176204086772412 0 -0.41378193274770297 0.36450427419225789 0 -0.40553625032349627 0.36037170931698131 0 -0.40544017780568847 0.3661562974108753 0 -0.41142088061722581 0.36176204086772412 0 -0.41755863725870102 0.35684421707679032 0 -0.41378193274770297 0.36450427419225789 0 -0.42195212413097077 0.36043988011418487 0 -0.41378193274770297 0.36450427419225789 0 -0.42486892241442098 0.36677785020884007 0 -0.42195212413097077 0.36043988011418487 0 -0.41755863725870102 0.35684421707679032 0 -0.41142088061722581 0.36176204086772412 0 -0.41378193274770297 0.36450427419225789 0 -0.4250431626101242 0.37647010748543319 0 -0.44885864134335329 0.37135067543599282 0 -0.4250431626101242 0.37647010748543319 0 -0.42486892241442098 0.36677785020884007 0 -0.44885864134335329 0.37135067543599282 0 -0.42486892241442098 0.36677785020884007 0 -0.448872951951507 0.35888158307927881 0 -0.43539550265875948 0.35741731211322858 0 -0.42486892241442098 0.36677785020884007 0 -0.44110397924445488 0.35756373905142852 0 -0.43539550265875948 0.35741731211322858 0 -0.42757171946388478 0.35850981688022993 0 -0.42486892241442098 0.36677785020884007 0 -0.42757171946388478 0.35850981688022993 0 -0.42486892241442098 0.36677785020884007 0 -0.42195212413097077 0.36043988011418487 0 -0.42486892241442098 0.36677785020884007 0 -0.44885864134335329 0.37135067543599282 0 -0.448872951951507 0.35888158307927881 0 -0.44802713623065987 0.37645115623263098 0 -0.4250431626101242 0.37647010748543319 0 -0.44885864134335329 0.37135067543599282 0 -0.42486892241442098 0.36677785020884007 0 -0.44110397924445488 0.35756373905142852 0 -0.448872951951507 0.35888158307927881 0 -0.44885864134335329 0.37135067543599282 0 -0.448872951951507 0.35888158307927881 0 -0.44885864134335329 0.37135067543599282 0 -0.448872951951507 0.35888158307927881 0 -0.45634368000688869 0.36512471152292858 0 -0.43385085243219867 0.34555045147446217 0 -0.45496527453913199 0.35447137251643651 0 -0.44889299330712729 0.34242966823447613 0 -0.43385085243219867 0.34555045147446217 0 -0.45496527453913199 0.35447137251643651 0 -0.43385085243219867 0.34555045147446217 0 -0.44887533288597797 0.35680703170406669 0 -0.45496527453913199 0.35447137251643651 0 -0.43385085243219867 0.34555045147446217 0 -0.44110397924445488 0.35756373905142852 0 -0.44887533288597797 0.35680703170406669 0 -0.44110397924445488 0.35756373905142852 0 -0.44887533288597797 0.35680703170406669 0 -0.448872951951507 0.35888158307927881 0 -0.44887533288597797 0.35680703170406669 0 -0.448872951951507 0.35888158307927881 0 -0.44887533288597797 0.35680703170406669 0 -0.448872951951507 0.35888158307927881 0 -0.45496527453913199 0.35447137251643651 0 -0.448872951951507 0.35888158307927881 0 -0.45496527453913199 0.35447137251643651 0 -0.47186707529616939 0.3513175305497272 0 -0.448872951951507 0.35888158307927881 0 -0.47186707529616939 0.3513175305497272 0 -0.448872951951507 0.35888158307927881 0 -0.45634368000688869 0.36512471152292858 0 -0.47186707529616939 0.3513175305497272 0 -0.45911772068334677 0.34536620346235469 0 -0.45496527453913199 0.35447137251643651 0 -0.47186707529616939 0.3513175305497272 0 -0.45911772068334677 0.34536620346235469 0 -0.45496527453913199 0.35447137251643651 0 -0.44889299330712729 0.34242966823447613 0 -0.46572599417265398 0.36772482908493609 0 -0.45634368000688869 0.36512471152292858 0 -0.47186707529616939 0.3513175305497272 0 -0.46059005399087027 0.38292215568240928 0 -0.44885864134335329 0.37135067543599282 0 -0.46572599417265398 0.36772482908493609 0 -0.44885864134335329 0.37135067543599282 0 -0.46572599417265398 0.36772482908493609 0 -0.44885864134335329 0.37135067543599282 0 -0.46572599417265398 0.36772482908493609 0 -0.45634368000688869 0.36512471152292858 0 -0.47832653283541199 0.38608194873200979 0 -0.46572599417265398 0.36772482908493609 0 -0.48259334700195489 0.36409898273387958 0 -0.46572599417265398 0.36772482908493609 0 -0.48259334700195489 0.36409898273387958 0 -0.47186707529616939 0.3513175305497272 0 -0.46572599417265398 0.36772482908493609 0 -0.48259334700195489 0.36409898273387958 0 -0.47186707529616939 0.3513175305497272 0 -0.494861198640831 0.34375347802017348 0 -0.47186707529616939 0.3513175305497272 0 -0.48536711719674469 0.35339641184703091 0 -0.494861198640831 0.34375347802017348 0 -0.48259334700195489 0.36409898273387958 0 -0.47186707529616939 0.3513175305497272 0 -0.48536711719674469 0.35339641184703091 0 -0.48259334700195489 0.36409898273387958 0 -0.49214684784802371 0.35441565608434311 0 -0.48536711719674469 0.35339641184703091 0 -0.49214684784802371 0.35441565608434311 0 -0.5 0.36887446842263683 0 -0.5 0.34271985673358363 0 -0.49214684784802371 0.35441565608434311 0 -0.48536711719674469 0.35339641184703091 0 -0.494861198640831 0.34375347802017348 0 -0.49214684784802371 0.35441565608434311 0 -0.494861198640831 0.34375347802017348 0 -0.5 0.34271985673358363 0 -0.48850556386005051 0.3766603246979251 0 -0.48259334700195489 0.36409898273387958 0 -0.5 0.36887446842263683 0 -0.48259334700195489 0.36409898273387958 0 -0.49214684784802371 0.35441565608434311 0 -0.5 0.36887446842263683 0 -0.485708092488497 0.3189911195031831 0 -0.5 0.31656524504453032 0 -0.48475009422380527 0.3315545986069256 0 -0.485708092488497 0.3189911195031831 0 -0.5 0.31656524504453032 0 -0.48583489694974541 0.30845327583860088 0 -0.5 0.31656524504453032 0 -0.5 0.34271985673358363 0 -0.48475009422380527 0.3315545986069256 0 -0.494861198640831 0.34375347802017348 0 -0.5 0.34271985673358363 0 -0.48475009422380527 0.3315545986069256 0 -0.48475009422380527 0.3315545986069256 0 -0.46074553959095882 0.3332462425487791 0 -0.47186707529616939 0.3513175305497272 0 -0.494861198640831 0.34375347802017348 0 -0.48475009422380527 0.3315545986069256 0 -0.47186707529616939 0.3513175305497272 0 -0.48475009422380527 0.3315545986069256 0 -0.46074553959095882 0.3332462425487791 0 -0.48475009422380527 0.3315545986069256 0 -0.47224737878043732 0.31939135852267558 0 -0.46074553959095882 0.3332462425487791 0 -0.485708092488497 0.3189911195031831 0 -0.48475009422380527 0.3315545986069256 0 -0.47224737878043732 0.31939135852267558 0 -0.485708092488497 0.3189911195031831 0 -0.47224737878043732 0.31939135852267558 0 -0.48583489694974541 0.30845327583860088 0 -0.47224737878043732 0.31939135852267558 0 -0.46258830912673421 0.31343425170936878 0 -0.46074553959095882 0.3332462425487791 0 -0.46258830912673421 0.31343425170936878 0 -0.46074553959095882 0.3332462425487791 0 -0.45107709460752138 0.31557533431346357 0 -0.45911772068334677 0.34536620346235469 0 -0.47186707529616939 0.3513175305497272 0 -0.46074553959095882 0.3332462425487791 0 -0.45911772068334677 0.34536620346235469 0 -0.46074553959095882 0.3332462425487791 0 -0.44889299330712729 0.34242966823447613 0 -0.43674098495811231 0.33493788649063261 0 -0.46074553959095882 0.3332462425487791 0 -0.43674098495811231 0.33493788649063261 0 -0.46074553959095882 0.3332462425487791 0 -0.44889299330712729 0.34242966823447613 0 -0.43674098495811231 0.33493788649063261 0 -0.46074553959095882 0.3332462425487791 0 -0.43790895006943947 0.32081412042189511 0 -0.43674098495811231 0.33493788649063261 0 -0.43385085243219867 0.34555045147446217 0 -0.44889299330712729 0.34242966823447613 0 -0.46074553959095882 0.3332462425487791 0 -0.45107709460752138 0.31557533431346357 0 -0.43790895006943947 0.32081412042189511 0 -0.45107709460752138 0.31557533431346357 0 -0.43790895006943947 0.32081412042189511 0 -0.4401847358662575 0.3127477530096977 0 -0.44444415583193408 0.29216055381020578 0 -0.43122247783146522 0.30831868127488848 0 -0.44810052680614793 0.29565349026271098 0 -0.43122247783146522 0.30831868127488848 0 -0.44368336155109173 0.30649675881006838 0 -0.44810052680614793 0.29565349026271098 0 -0.43122247783146522 0.30831868127488848 0 -0.4401847358662575 0.3127477530096977 0 -0.44368336155109173 0.30649675881006838 0 -0.43122247783146522 0.30831868127488848 0 -0.44444415583193408 0.29216055381020578 0 -0.44810052680614793 0.29565349026271098 0 -0.43122247783146522 0.30831868127488848 0 -0.45107709460752138 0.31557533431346357 0 -0.4401847358662575 0.3127477530096977 0 -0.44368336155109173 0.30649675881006838 0 -0.44368336155109173 0.30649675881006838 0 -0.44996115485610377 0.3015940899144034 0 -0.4551770389262465 0.30483297142504889 0 -0.44368336155109173 0.30649675881006838 0 -0.44996115485610377 0.3015940899144034 0 -0.44810052680614793 0.29565349026271098 0 -0.45288369214092922 0.29939313915978533 0 -0.44996115485610377 0.3015940899144034 0 -0.44810052680614793 0.29565349026271098 0 -0.45288369214092922 0.29939313915978533 0 -0.44996115485610377 0.3015940899144034 0 -0.4551770389262465 0.30483297142504889 0 -0.45107709460752138 0.31557533431346357 0 -0.44368336155109173 0.30649675881006838 0 -0.4551770389262465 0.30483297142504889 0 -0.44702735364695217 0.27675533545947301 0 -0.43422108619098299 0.29621681389521232 0 -0.44444415583193408 0.29216055381020578 0 -0.44702735364695217 0.27675533545947301 0 -0.43422108619098299 0.29621681389521232 0 -0.44702735364695217 0.27675533545947301 0 -0.43274811138672559 0.28469846643612018 0 -0.43422108619098299 0.29621681389521232 0 -0.44810052680614793 0.29565349026271098 0 -0.4493542421043164 0.28919027156790111 0 -0.45395006383388498 0.28587005882998617 0 -0.44444415583193408 0.29216055381020578 0 -0.44810052680614793 0.29565349026271098 0 -0.4493542421043164 0.28919027156790111 0 -0.44444415583193408 0.29216055381020578 0 -0.4493542421043164 0.28919027156790111 0 -0.44702735364695217 0.27675533545947301 0 -0.4493542421043164 0.28919027156790111 0 -0.45395006383388498 0.28587005882998617 0 -0.44702735364695217 0.27675533545947301 0 -0.44810052680614793 0.29565349026271098 0 -0.45395006383388498 0.28587005882998617 0 -0.46497857578083068 0.28298829925053381 0 -0.44810052680614793 0.29565349026271098 0 -0.4593999708052337 0.29480301670676529 0 -0.46497857578083068 0.28298829925053381 0 -0.44810052680614793 0.29565349026271098 0 -0.46497857578083068 0.28298829925053381 0 -0.45288369214092922 0.29939313915978533 0 -0.44810052680614793 0.29565349026271098 0 -0.4593999708052337 0.29480301670676529 0 -0.4593999708052337 0.29480301670676529 0 -0.46827174088950307 0.29409138505043392 0 -0.46497857578083068 0.28298829925053381 0 -0.46258830912673421 0.31343425170936878 0 -0.45107709460752138 0.31557533431346357 0 -0.4551770389262465 0.30483297142504889 0 -0.45288369214092922 0.29939313915978533 0 -0.4593999708052337 0.29480301670676529 0 -0.4551770389262465 0.30483297142504889 0 -0.4593999708052337 0.29480301670676529 0 -0.4551770389262465 0.30483297142504889 0 -0.46625021185001803 0.30380681263807602 0 -0.4593999708052337 0.29480301670676529 0 -0.46827174088950307 0.29409138505043392 0 -0.46625021185001803 0.30380681263807602 0 -0.47224737878043732 0.31939135852267558 0 -0.46258830912673421 0.31343425170936878 0 -0.46625021185001803 0.30380681263807602 0 -0.46258830912673421 0.31343425170936878 0 -0.4551770389262465 0.30483297142504889 0 -0.46625021185001803 0.30380681263807602 0 -0.47551717359816043 0.30301602212345602 0 -0.4769183937012712 0.29196404103452073 0 -0.48583489694974541 0.30845327583860088 0 -0.47224737878043732 0.31939135852267558 0 -0.46625021185001803 0.30380681263807602 0 -0.47551717359816043 0.30301602212345602 0 -0.47224737878043732 0.31939135852267558 0 -0.47551717359816043 0.30301602212345602 0 -0.48583489694974541 0.30845327583860088 0 -0.46827174088950307 0.29409138505043392 0 -0.46625021185001803 0.30380681263807602 0 -0.47551717359816043 0.30301602212345602 0 -0.46827174088950307 0.29409138505043392 0 -0.46497857578083068 0.28298829925053381 0 -0.4769183937012712 0.29196404103452073 0 -0.4769183937012712 0.29196404103452073 0 -0.48757792524538679 0.2814999319082685 0 -0.48583489694974541 0.30845327583860088 0 -0.46827174088950307 0.29409138505043392 0 -0.47551717359816043 0.30301602212345602 0 -0.4769183937012712 0.29196404103452073 0 -0.46497857578083068 0.28298829925053381 0 -0.47783287987075052 0.28169384510791978 0 -0.4769183937012712 0.29196404103452073 0 -0.47783287987075052 0.28169384510791978 0 -0.4769183937012712 0.29196404103452073 0 -0.48757792524538679 0.2814999319082685 0 -0.5 0.29041063335547701 0 -0.48757792524538679 0.2814999319082685 0 -0.48583489694974541 0.30845327583860088 0 -0.48757792524538679 0.2814999319082685 0 -0.48583489694974541 0.30845327583860088 0 -0.5 0.31656524504453032 0 -0.5 0.29041063335547701 0 -0.48583489694974541 0.30845327583860088 0 -0.5 0.23810140997737081 0 -0.5 0.26425602166642381 0 -0.48932095354102823 0.25454658797793611 0 -0.48757792524538679 0.2814999319082685 0 -0.48932095354102823 0.25454658797793611 0 -0.48366697684514259 0.26703881783025729 0 -0.48757792524538679 0.2814999319082685 0 -0.5 0.26425602166642381 0 -0.48932095354102823 0.25454658797793611 0 -0.48757792524538679 0.2814999319082685 0 -0.48932095354102823 0.25454658797793611 0 -0.5 0.29041063335547701 0 -0.48757792524538679 0.2814999319082685 0 -0.5 0.26425602166642381 0 -0.46497857578083068 0.28298829925053381 0 -0.48185662475551339 0.27032310823835648 0 -0.46497857578083068 0.28298829925053381 0 -0.47783287987075052 0.28169384510791978 0 -0.48185662475551339 0.27032310823835648 0 -0.48366697684514259 0.26703881783025729 0 -0.45893043448094739 0.2699305570534084 0 -0.48757792524538679 0.2814999319082685 0 -0.48366697684514259 0.26703881783025729 0 -0.48185662475551339 0.27032310823835648 0 -0.48366697684514259 0.26703881783025729 0 -0.48185662475551339 0.27032310823835648 0 -0.47235815296560851 0.27257019559313889 0 -0.46497857578083068 0.28298829925053381 0 -0.48185662475551339 0.27032310823835648 0 -0.47235815296560851 0.27257019559313889 0 -0.48366697684514259 0.26703881783025729 0 -0.46959483388743167 0.25994315597580908 0 -0.45893043448094739 0.2699305570534084 0 -0.48366697684514259 0.26703881783025729 0 -0.47235815296560851 0.27257019559313889 0 -0.45893043448094739 0.2699305570534084 0 -0.47783287987075052 0.28169384510791978 0 -0.48757792524538679 0.2814999319082685 0 -0.48185662475551339 0.27032310823835648 0 -0.48932095354102823 0.25454658797793611 0 -0.48366697684514259 0.26703881783025729 0 -0.47792533453874358 0.25606878273296479 0 -0.48366697684514259 0.26703881783025729 0 -0.46959483388743167 0.25994315597580908 0 -0.47792533453874358 0.25606878273296479 0 -0.47864167104372218 0.246590621409366 0 -0.48932095354102823 0.25454658797793611 0 -0.47792533453874358 0.25606878273296479 0 -0.47864167104372218 0.246590621409366 0 -0.47792533453874358 0.25606878273296479 0 -0.46938038244821267 0.25133041049185839 0 -0.46959483388743167 0.25994315597580908 0 -0.47792533453874358 0.25606878273296479 0 -0.46938038244821267 0.25133041049185839 0 -0.46959483388743167 0.25994315597580908 0 -0.46938038244821267 0.25133041049185839 0 -0.45807104112411212 0.25534721177055669 0 -0.46959483388743167 0.25994315597580908 0 -0.45807104112411212 0.25534721177055669 0 -0.45893043448094739 0.2699305570534084 0 -0.45807104112411212 0.25534721177055669 0 -0.45893043448094739 0.2699305570534084 0 -0.44442574262614493 0.25832327296872359 0 -0.45395006383388498 0.28587005882998617 0 -0.46497857578083068 0.28298829925053381 0 -0.45893043448094739 0.2699305570534084 0 -0.45395006383388498 0.28587005882998617 0 -0.45893043448094739 0.2699305570534084 0 -0.44702735364695217 0.27675533545947301 0 -0.46497857578083068 0.28298829925053381 0 -0.47235815296560851 0.27257019559313889 0 -0.45893043448094739 0.2699305570534084 0 -0.45893043448094739 0.2699305570534084 0 -0.43419389211675241 0.27282229627655952 0 -0.45893043448094739 0.2699305570534084 0 -0.44442574262614493 0.25832327296872359 0 -0.43419389211675241 0.27282229627655952 0 -0.45893043448094739 0.2699305570534084 0 -0.44702735364695217 0.27675533545947301 0 -0.43419389211675241 0.27282229627655952 0 -0.44702735364695217 0.27675533545947301 0 -0.43419389211675241 0.27282229627655952 0 -0.43274811138672559 0.28469846643612018 0 -0.45046339488490522 0.249057113070103 0 -0.45807104112411212 0.25534721177055669 0 -0.44442574262614493 0.25832327296872359 0 -0.44062222049055039 0.24203477259657111 0 -0.44442574262614493 0.25832327296872359 0 -0.42503978512155383 0.25887440404814072 0 -0.44062222049055039 0.24203477259657111 0 -0.42503978512155383 0.25887440404814072 0 -0.44442574262614493 0.25832327296872359 0 -0.42503978512155383 0.25887440404814072 0 -0.43419389211675241 0.27282229627655952 0 -0.42503978512155383 0.25887440404814072 0 -0.40945734975255721 0.27571403549971041 0 -0.40585136056822319 0.25674789398696107 0 -0.4198454647722451 0.23985190764030939 0 -0.42503978512155383 0.25887440404814072 0 -0.40585136056822319 0.25674789398696107 0 -0.40945734975255721 0.27571403549971041 0 -0.43419389211675241 0.27282229627655952 0 -0.42503978512155383 0.25887440404814072 0 -0.40945734975255721 0.27571403549971041 0 -0.42503978512155383 0.25887440404814072 0 -0.40945734975255721 0.27571403549971041 0 -0.43419389211675241 0.27282229627655952 0 -0.40945734975255721 0.27571403549971041 0 -0.43419389211675241 0.27282229627655952 0 -0.4229835889384117 0.28415291652507912 0 -0.43419389211675241 0.27282229627655952 0 -0.43274811138672559 0.28469846643612018 0 -0.4229835889384117 0.28415291652507912 0 -0.43274811138672559 0.28469846643612018 0 -0.43422108619098299 0.29621681389521232 0 -0.42519236151645012 0.29288975242762622 0 -0.43274811138672559 0.28469846643612018 0 -0.42519236151645012 0.29288975242762622 0 -0.4229835889384117 0.28415291652507912 0 -0.42141481873501418 0.31567829233095179 0 -0.43422108619098299 0.29621681389521232 0 -0.42141481873501418 0.31567829233095179 0 -0.43422108619098299 0.29621681389521232 0 -0.42237726971740519 0.30236741203524931 0 -0.44444415583193408 0.29216055381020578 0 -0.43422108619098299 0.29621681389521232 0 -0.43122247783146522 0.30831868127488848 0 -0.42141481873501418 0.31567829233095179 0 -0.43422108619098299 0.29621681389521232 0 -0.43122247783146522 0.30831868127488848 0 -0.43422108619098299 0.29621681389521232 0 -0.42519236151645012 0.29288975242762622 0 -0.42237726971740519 0.30236741203524931 0 -0.42141481873501418 0.31567829233095179 0 -0.43122247783146522 0.30831868127488848 0 -0.42237726971740519 0.30236741203524931 0 -0.41647318301620623 0.31168328686166002 0 -0.40812109447663159 0.30329838776079099 0 -0.42141481873501418 0.31567829233095179 0 -0.42237726971740519 0.30236741203524931 0 -0.41647318301620623 0.31168328686166002 0 -0.42237726971740519 0.30236741203524931 0 -0.40812109447663159 0.30329838776079099 0 -0.41256551749876041 0.29129965580367562 0 -0.40826549608127172 0.31275764886218971 0 -0.41647318301620623 0.31168328686166002 0 -0.40812109447663159 0.30329838776079099 0 -0.40945734975255721 0.27571403549971041 0 -0.4229835889384117 0.28415291652507912 0 -0.41256551749876041 0.29129965580367562 0 -0.42519236151645012 0.29288975242762622 0 -0.4229835889384117 0.28415291652507912 0 -0.41256551749876041 0.29129965580367562 0 -0.42519236151645012 0.29288975242762622 0 -0.42237726971740519 0.30236741203524931 0 -0.41256551749876041 0.29129965580367562 0 -0.40945734975255721 0.27571403549971041 0 -0.39180528154043992 0.29479027846244049 0 -0.39350738277932218 0.27757861076756318 0 -0.40945734975255721 0.27571403549971041 0 -0.39180528154043992 0.29479027846244049 0 -0.40812109447663159 0.30329838776079099 0 -0.41256551749876041 0.29129965580367562 0 -0.39180528154043992 0.29479027846244049 0 -0.40945734975255721 0.27571403549971041 0 -0.41256551749876041 0.29129965580367562 0 -0.39180528154043992 0.29479027846244049 0 -0.38613629988198012 0.31665983269396758 0 -0.39830358576524327 0.31266849694114901 0 -0.39180528154043992 0.29479027846244049 0 -0.39830358576524327 0.31266849694114901 0 -0.40812109447663159 0.30329838776079099 0 -0.39180528154043992 0.29479027846244049 0 -0.39830358576524327 0.31266849694114901 0 -0.40826549608127172 0.31275764886218971 0 -0.40812109447663159 0.30329838776079099 0 -0.39180528154043992 0.29479027846244049 0 -0.37819889022761238 0.29924868842846319 0 -0.37415321332832258 0.31386652142517069 0 -0.38613629988198012 0.31665983269396758 0 -0.39180528154043992 0.29479027846244049 0 -0.37415321332832258 0.31386652142517069 0 -0.39180528154043992 0.29479027846244049 0 -0.37415321332832258 0.31386652142517069 0 -0.39180528154043992 0.29479027846244049 0 -0.37819889022761238 0.29924868842846319 0 -0.37870614451813112 0.28175948497688769 0 -0.39180528154043992 0.29479027846244049 0 -0.37870614451813112 0.28175948497688769 0 -0.39350738277932218 0.27757861076756318 0 -0.37870614451813112 0.28175948497688769 0 -0.37647038179830861 0.26645711442365799 0 -0.39350738277932218 0.27757861076756318 0 -0.37647038179830861 0.26645711442365799 0 -0.39336972403141229 0.26369738761855421 0 -0.39350738277932218 0.27757861076756318 0 -0.38790582398472923 0.24962922847932231 0 -0.37647038179830861 0.26645711442365799 0 -0.39336972403141229 0.26369738761855421 0 -0.38790582398472923 0.24962922847932231 0 -0.37647038179830861 0.26645711442365799 0 -0.36318679658289171 0.25196182354824148 0 -0.40945734975255721 0.27571403549971041 0 -0.40585136056822319 0.25674789398696107 0 -0.39336972403141229 0.26369738761855421 0 -0.38790582398472923 0.24962922847932231 0 -0.40585136056822319 0.25674789398696107 0 -0.39336972403141229 0.26369738761855421 0 -0.40945734975255721 0.27571403549971041 0 -0.39336972403141229 0.26369738761855421 0 -0.39350738277932218 0.27757861076756318 0 -0.40945734975255721 0.27571403549971041 0 -0.39350738277932218 0.27757861076756318 0 -0.35583614606747688 0.27501819518035592 0 -0.36318679658289171 0.25196182354824148 0 -0.33952374355129727 0.25899057541505788 0 -0.37647038179830861 0.26645711442365799 0 -0.35583614606747688 0.27501819518035592 0 -0.36318679658289171 0.25196182354824148 0 -0.37870614451813112 0.28175948497688769 0 -0.37647038179830861 0.26645711442365799 0 -0.35583614606747688 0.27501819518035592 0 -0.37819889022761238 0.29924868842846319 0 -0.37870614451813112 0.28175948497688769 0 -0.36775571630023218 0.2927315942663431 0 -0.37870614451813112 0.28175948497688769 0 -0.35583614606747688 0.27501819518035592 0 -0.36775571630023218 0.2927315942663431 0 -0.37819889022761238 0.29924868842846319 0 -0.36899777432263853 0.30469822459034263 0 -0.37415321332832258 0.31386652142517069 0 -0.36899777432263853 0.30469822459034263 0 -0.36272901898995358 0.31473918551029578 0 -0.37415321332832258 0.31386652142517069 0 -0.37819889022761238 0.29924868842846319 0 -0.36775571630023218 0.2927315942663431 0 -0.36899777432263853 0.30469822459034263 0 -0.36775571630023218 0.2927315942663431 0 -0.36899777432263853 0.30469822459034263 0 -0.35931620367806588 0.30475084950198522 0 -0.36775571630023218 0.2927315942663431 0 -0.35931620367806588 0.30475084950198522 0 -0.35261706249820868 0.29381533636168528 0 -0.36899777432263853 0.30469822459034263 0 -0.35931620367806588 0.30475084950198522 0 -0.36272901898995358 0.31473918551029578 0 -0.35931620367806588 0.30475084950198522 0 -0.35261706249820868 0.29381533636168528 0 -0.34344143829887858 0.30736403781452232 0 -0.35931620367806588 0.30475084950198522 0 -0.34344143829887858 0.30736403781452232 0 -0.35467675850453528 0.31743756764607989 0 -0.35931620367806588 0.30475084950198522 0 -0.35467675850453528 0.31743756764607989 0 -0.36272901898995358 0.31473918551029578 0 -0.35583614606747688 0.27501819518035592 0 -0.36775571630023218 0.2927315942663431 0 -0.35261706249820868 0.29381533636168528 0 -0.35583614606747688 0.27501819518035592 0 -0.35261706249820868 0.29381533636168528 0 -0.33673580814638959 0.28921200504521999 0 -0.35261706249820868 0.29381533636168528 0 -0.33673580814638959 0.28921200504521999 0 -0.34344143829887858 0.30736403781452232 0 -0.33673580814638959 0.28921200504521999 0 -0.32075162894010661 0.28280614760534989 0 -0.33379142081270979 0.2734424933293601 0 -0.34344143829887858 0.30736403781452232 0 -0.31699951866320542 0.30755322334125379 0 -0.34344143829887858 0.30736403781452232 0 -0.31699951866320542 0.30755322334125379 0 -0.33459812393413729 0.32207732583041709 0 -0.33673580814638959 0.28921200504521999 0 -0.34344143829887858 0.30736403781452232 0 -0.31699951866320542 0.30755322334125379 0 -0.33673580814638959 0.28921200504521999 0 -0.31699951866320542 0.30755322334125379 0 -0.32075162894010661 0.28280614760534989 0 -0.31699951866320542 0.30755322334125379 0 -0.32075162894010661 0.28280614760534989 0 -0.30493521127791462 0.28695781074044469 0 -0.32075162894010661 0.28280614760534989 0 -0.31931282352829687 0.26617321261290411 0 -0.33379142081270979 0.2734424933293601 0 -0.32075162894010661 0.28280614760534989 0 -0.31931282352829687 0.26617321261290411 0 -0.30493521127791462 0.28695781074044469 0 -0.35583614606747688 0.27501819518035592 0 -0.33673580814638959 0.28921200504521999 0 -0.33379142081270979 0.2734424933293601 0 -0.35583614606747688 0.27501819518035592 0 -0.33379142081270979 0.2734424933293601 0 -0.33952374355129727 0.25899057541505788 0 -0.31931282352829687 0.26617321261290411 0 -0.33379142081270979 0.2734424933293601 0 -0.33952374355129727 0.25899057541505788 0 -0.32200613725511351 0.24850726385495631 0 -0.31931282352829687 0.26617321261290411 0 -0.33952374355129727 0.25899057541505788 0 -0.32200613725511351 0.24850726385495631 0 -0.31931282352829687 0.26617321261290411 0 -0.30640548876467488 0.25787073169030861 0 -0.31931282352829687 0.26617321261290411 0 -0.30640548876467488 0.25787073169030861 0 -0.3010630097917536 0.27273037638764702 0 -0.31931282352829687 0.26617321261290411 0 -0.3010630097917536 0.27273037638764702 0 -0.30493521127791462 0.28695781074044469 0 -0.31931282352829687 0.26617321261290411 0 -0.30493521127791462 0.28695781074044469 0 -0.3010630097917536 0.27273037638764702 0 -0.29309283898050847 0.28048055459605348 0 -0.30493521127791462 0.28695781074044469 0 -0.3010630097917536 0.27273037638764702 0 -0.29309283898050847 0.28048055459605348 0 -0.28156868640737281 0.27216957229852412 0 -0.30640548876467488 0.25787073169030861 0 -0.3010630097917536 0.27273037638764702 0 -0.28156868640737281 0.27216957229852412 0 -0.30640548876467488 0.25787073169030861 0 -0.28156868640737281 0.27216957229852412 0 -0.28729818335365731 0.26780124082781631 0 -0.28156868640737281 0.27216957229852412 0 -0.28729818335365731 0.26780124082781631 0 -0.27880962639343299 0.26078065685839158 0 -0.29309283898050847 0.28048055459605348 0 -0.28156868640737281 0.27216957229852412 0 -0.28401529333418091 0.28255904946725641 0 -0.30640548876467488 0.25787073169030861 0 -0.28156868640737281 0.27216957229852412 0 -0.29125564533142001 0.24067530578368901 0 -0.30640548876467488 0.25787073169030861 0 -0.28729818335365731 0.26780124082781631 0 -0.29125564533142001 0.24067530578368901 0 -0.28729818335365731 0.26780124082781631 0 -0.27880962639343299 0.26078065685839158 0 -0.29125564533142001 0.24067530578368901 0 -0.28729818335365731 0.26780124082781631 0 -0.29125564533142001 0.24067530578368901 0 -0.26892213733164849 0.25365425058065472 0 -0.27880962639343299 0.26078065685839158 0 -0.26892213733164849 0.25365425058065472 0 -0.27880962639343299 0.26078065685839158 0 -0.26500347954306669 0.26960291480127369 0 -0.28156868640737281 0.27216957229852412 0 -0.25673188405007052 0.28646841290673969 0 -0.28156868640737281 0.27216957229852412 0 -0.26500347954306669 0.26960291480127369 0 -0.25673188405007052 0.28646841290673969 0 -0.28156868640737281 0.27216957229852412 0 -0.27880962639343299 0.26078065685839158 0 -0.26500347954306669 0.26960291480127369 0 -0.28156868640737281 0.27216957229852412 0 -0.27479408276187339 0.28687287199942368 0 -0.28401529333418091 0.28255904946725641 0 -0.26500347954306669 0.26960291480127369 0 -0.25265925142613249 0.26128234508680298 0 -0.25673188405007052 0.28646841290673969 0 -0.26892213733164849 0.25365425058065472 0 -0.26500347954306669 0.26960291480127369 0 -0.25265925142613249 0.26128234508680298 0 -0.25621817608628389 0.2460965770837312 0 -0.26892213733164849 0.25365425058065472 0 -0.25265925142613249 0.26128234508680298 0 -0.25505401324638421 0.30366623925853881 0 -0.26661761067819428 0.2958317928062858 0 -0.26721257633701828 0.30790943684761429 0 -0.25505401324638421 0.30366623925853881 0 -0.26721257633701828 0.30790943684761429 0 -0.25901197930261888 0.31383205914145501 0 -0.26721257633701828 0.30790943684761429 0 -0.25901197930261888 0.31383205914145501 0 -0.26528599585519008 0.31471464054907522 0 -0.25505401324638421 0.30366623925853881 0 -0.25901197930261888 0.31383205914145501 0 -0.24885494741763489 0.31718848033418301 0 -0.25505401324638421 0.30366623925853881 0 -0.25673188405007052 0.28646841290673969 0 -0.26661761067819428 0.2958317928062858 0 -0.26661761067819428 0.2958317928062858 0 -0.27573637841232751 0.29432500902679382 0 -0.27326763327687947 0.30016750757533939 0 -0.28156868640737281 0.27216957229852412 0 -0.25673188405007052 0.28646841290673969 0 -0.27479408276187339 0.28687287199942368 0 -0.26661761067819428 0.2958317928062858 0 -0.27479408276187339 0.28687287199942368 0 -0.27573637841232751 0.29432500902679382 0 -0.25673188405007052 0.28646841290673969 0 -0.26661761067819428 0.2958317928062858 0 -0.27479408276187339 0.28687287199942368 0 -0.27479408276187339 0.28687287199942368 0 -0.28401529333418091 0.28255904946725641 0 -0.28313816676434478 0.29069510378855717 0 -0.27479408276187339 0.28687287199942368 0 -0.27573637841232751 0.29432500902679382 0 -0.28313816676434478 0.29069510378855717 0 -0.27573637841232751 0.29432500902679382 0 -0.28086439858034518 0.29805776896436298 0 -0.28313816676434478 0.29069510378855717 0 -0.28086439858034518 0.29805776896436298 0 -0.27753065875984329 0.30327410754998058 0 -0.28274061889410179 0.30278083970340541 0 -0.27753065875984329 0.30327410754998058 0 -0.27514776209796898 0.30785266251660498 0 -0.28274061889410179 0.30278083970340541 0 -0.27753065875984329 0.30327410754998058 0 -0.27326763327687947 0.30016750757533939 0 -0.27348155140824082 0.30658246875079598 0 -0.28086439858034518 0.29805776896436298 0 -0.27753065875984329 0.30327410754998058 0 -0.27326763327687947 0.30016750757533939 0 -0.27573637841232751 0.29432500902679382 0 -0.28086439858034518 0.29805776896436298 0 -0.27326763327687947 0.30016750757533939 0 -0.26661761067819428 0.2958317928062858 0 -0.27326763327687947 0.30016750757533939 0 -0.26721257633701828 0.30790943684761429 0 -0.26721257633701828 0.30790943684761429 0 -0.27514776209796898 0.30785266251660498 0 -0.27123720609067609 0.3158529302113221 0 -0.26721257633701828 0.30790943684761429 0 -0.27348155140824082 0.30658246875079598 0 -0.27514776209796898 0.30785266251660498 0 -0.26721257633701828 0.30790943684761429 0 -0.27514776209796898 0.30785266251660498 0 -0.27326763327687947 0.30016750757533939 0 -0.26721257633701828 0.30790943684761429 0 -0.27348155140824082 0.30658246875079598 0 -0.27514776209796898 0.30785266251660498 0 -0.2851872012256097 0.31550597615259851 0 -0.27753065875984329 0.30327410754998058 0 -0.27348155140824082 0.30658246875079598 0 -0.27514776209796898 0.30785266251660498 0 -0.27348155140824082 0.30658246875079598 0 -0.27514776209796898 0.30785266251660498 0 -0.27514776209796898 0.30785266251660498 0 -0.2905575990275322 0.30774240886798532 0 -0.27514776209796898 0.30785266251660498 0 -0.2905575990275322 0.30774240886798532 0 -0.2851872012256097 0.31550597615259851 0 -0.2896026760048197 0.2969772506180926 0 -0.2905575990275322 0.30774240886798532 0 -0.30493521127791462 0.28695781074044469 0 -0.27514776209796898 0.30785266251660498 0 -0.28274061889410179 0.30278083970340541 0 -0.2905575990275322 0.30774240886798532 0 -0.2905575990275322 0.30774240886798532 0 -0.2851872012256097 0.31550597615259851 0 -0.28274061889410179 0.30278083970340541 0 -0.2896026760048197 0.2969772506180926 0 -0.2905575990275322 0.30774240886798532 0 -0.28086439858034518 0.29805776896436298 0 -0.28274061889410179 0.30278083970340541 0 -0.2896026760048197 0.2969772506180926 0 -0.28401529333418091 0.28255904946725641 0 -0.28313816676434478 0.29069510378855717 0 -0.29095683727235372 0.28753395384208091 0 -0.28086439858034518 0.29805776896436298 0 -0.2896026760048197 0.2969772506180926 0 -0.28313816676434478 0.29069510378855717 0 -0.2896026760048197 0.2969772506180926 0 -0.28313816676434478 0.29069510378855717 0 -0.29095683727235372 0.28753395384208091 0 -0.2896026760048197 0.2969772506180926 0 -0.29095683727235372 0.28753395384208091 0 -0.30493521127791462 0.28695781074044469 0 -0.29309283898050847 0.28048055459605348 0 -0.29095683727235372 0.28753395384208091 0 -0.30493521127791462 0.28695781074044469 0 -0.29309283898050847 0.28048055459605348 0 -0.28401529333418091 0.28255904946725641 0 -0.29095683727235372 0.28753395384208091 0 -0.31699951866320542 0.30755322334125379 0 -0.2905575990275322 0.30774240886798532 0 -0.30563014257680821 0.31779627416788381 0 -0.31699951866320542 0.30755322334125379 0 -0.2905575990275322 0.30774240886798532 0 -0.2905575990275322 0.30774240886798532 0 -0.30493521127791462 0.28695781074044469 0 -0.31699951866320542 0.30755322334125379 0 -0.2905575990275322 0.30774240886798532 0 -0.30493521127791462 0.28695781074044469 0 -0.30538608464820588 0.33090408634228141 0 -0.28942706780696309 0.31873813168532672 0 -0.30563014257680821 0.31779627416788381 0 -0.30538608464820588 0.33090408634228141 0 -0.31811651498789978 0.32488887006413791 0 -0.30563014257680821 0.31779627416788381 0 -0.30538608464820588 0.33090408634228141 0 -0.2937791937433501 0.31637108240395312 0 -0.30538608464820588 0.33090408634228141 0 -0.3017933608705089 0.344447887165377 0 -0.32134510148944728 0.34307004099923799 0 -0.30538608464820588 0.33090408634228141 0 -0.29093013722955491 0.33661105704622479 0 -0.3017933608705089 0.344447887165377 0 -0.30538608464820588 0.33090408634228141 0 -0.29093013722955491 0.33661105704622479 0 -0.2885751077852815 0.32830696870384862 0 -0.29093013722955491 0.33661105704622479 0 -0.28224162025157051 0.34582573333151501 0 -0.3017933608705089 0.344447887165377 0 -0.2885751077852815 0.32830696870384862 0 -0.28146834572906437 0.33465123959114113 0 -0.2790455690922089 0.3243844570517187 0 -0.29093013722955491 0.33661105704622479 0 -0.2885751077852815 0.32830696870384862 0 -0.28146834572906437 0.33465123959114113 0 -0.29093013722955491 0.33661105704622479 0 -0.28146834572906437 0.33465123959114113 0 -0.28224162025157051 0.34582573333151501 0 -0.30538608464820588 0.33090408634228141 0 -0.2885751077852815 0.32830696870384862 0 -0.28942706780696309 0.31873813168532672 0 -0.30538608464820588 0.33090408634228141 0 -0.28942706780696309 0.31873813168532672 0 -0.2937791937433501 0.31637108240395312 0 -0.28942706780696309 0.31873813168532672 0 -0.2937791937433501 0.31637108240395312 0 -0.2851872012256097 0.31550597615259851 0 -0.2905575990275322 0.30774240886798532 0 -0.30563014257680821 0.31779627416788381 0 -0.2937791937433501 0.31637108240395312 0 -0.2905575990275322 0.30774240886798532 0 -0.2937791937433501 0.31637108240395312 0 -0.2851872012256097 0.31550597615259851 0 -0.28942706780696309 0.31873813168532672 0 -0.2937791937433501 0.31637108240395312 0 -0.2885751077852815 0.32830696870384862 0 -0.28942706780696309 0.31873813168532672 0 -0.2790455690922089 0.3243844570517187 0 -0.28942706780696309 0.31873813168532672 0 -0.2790455690922089 0.3243844570517187 0 -0.2851872012256097 0.31550597615259851 0 -0.2790455690922089 0.3243844570517187 0 -0.28942706780696309 0.31873813168532672 0 -0.2851872012256097 0.31550597615259851 0 -0.2790455690922089 0.3243844570517187 0 -0.28942706780696309 0.31873813168532672 0 -0.2851872012256097 0.31550597615259851 0 -0.27514776209796898 0.30785266251660498 0 -0.2851872012256097 0.31550597615259851 0 -0.27699557949655113 0.31645322234696882 0 -0.2851872012256097 0.31550597615259851 0 -0.27699557949655113 0.31645322234696882 0 -0.2790455690922089 0.3243844570517187 0 -0.27514776209796898 0.30785266251660498 0 -0.27699557949655113 0.31645322234696882 0 -0.27123720609067609 0.3158529302113221 0 -0.27001263578126711 0.32263717043347712 0 -0.2790455690922089 0.3243844570517187 0 -0.25910260253645218 0.33523110656146687 0 -0.26721257633701828 0.30790943684761429 0 -0.27123720609067609 0.3158529302113221 0 -0.26528599585519008 0.31471464054907522 0 -0.27699557949655113 0.31645322234696882 0 -0.27123720609067609 0.3158529302113221 0 -0.27001263578126711 0.32263717043347712 0 -0.27123720609067609 0.3158529302113221 0 -0.26528599585519008 0.31471464054907522 0 -0.26368222169044719 0.32126413599590953 0 -0.27123720609067609 0.3158529302113221 0 -0.27001263578126711 0.32263717043347712 0 -0.26368222169044719 0.32126413599590953 0 -0.27699557949655113 0.31645322234696882 0 -0.27001263578126711 0.32263717043347712 0 -0.2790455690922089 0.3243844570517187 0 -0.2790455690922089 0.3243844570517187 0 -0.25910260253645218 0.33523110656146687 0 -0.2790455690922089 0.3243844570517187 0 -0.26824012707650141 0.34000504592112352 0 -0.28146834572906437 0.33465123959114113 0 -0.2790455690922089 0.3243844570517187 0 -0.26824012707650141 0.34000504592112352 0 -0.2790455690922089 0.3243844570517187 0 -0.26824012707650141 0.34000504592112352 0 -0.25910260253645218 0.33523110656146687 0 -0.28146834572906437 0.33465123959114113 0 -0.26824012707650141 0.34000504592112352 0 -0.28224162025157051 0.34582573333151501 0 -0.25910260253645218 0.33523110656146687 0 -0.25407523553642281 0.3497448278934856 0 -0.23915963598069589 0.34607775607121571 0 -0.25910260253645218 0.33523110656146687 0 -0.25407523553642281 0.3497448278934856 0 -0.26309588156361569 0.34576168367824162 0 -0.26824012707650141 0.34000504592112352 0 -0.25910260253645218 0.33523110656146687 0 -0.26309588156361569 0.34576168367824162 0 -0.25910260253645218 0.33523110656146687 0 -0.25451497659773847 0.32559442806853028 0 -0.24843663428782739 0.33758714710907461 0 -0.25451497659773847 0.32559442806853028 0 -0.25901197930261888 0.31383205914145501 0 -0.24885494741763489 0.31718848033418301 0 -0.25451497659773847 0.32559442806853028 0 -0.25901197930261888 0.31383205914145501 0 -0.26368222169044719 0.32126413599590953 0 -0.25901197930261888 0.31383205914145501 0 -0.26528599585519008 0.31471464054907522 0 -0.26368222169044719 0.32126413599590953 0 -0.27001263578126711 0.32263717043347712 0 -0.25910260253645218 0.33523110656146687 0 -0.26368222169044719 0.32126413599590953 0 -0.25910260253645218 0.33523110656146687 0 -0.25451497659773847 0.32559442806853028 0 -0.26368222169044719 0.32126413599590953 0 -0.26470209097228098 0.37140351159401941 0 -0.25562758441007077 0.36194187249828802 0 -0.266880351992417 0.3582272519812631 0 -0.26470209097228098 0.37140351159401941 0 -0.25213085833087667 0.37355178257669552 0 -0.25562758441007077 0.36194187249828802 0 -0.25213085833087667 0.37355178257669552 0 -0.25562758441007077 0.36194187249828802 0 -0.24329038266145239 0.36134909741814653 0 -0.25562758441007077 0.36194187249828802 0 -0.25407523553642281 0.3497448278934856 0 -0.24329038266145239 0.36134909741814653 0 -0.25407523553642281 0.3497448278934856 0 -0.26309588156361569 0.34576168367824162 0 -0.266880351992417 0.3582272519812631 0 -0.25562758441007077 0.36194187249828802 0 -0.25407523553642281 0.3497448278934856 0 -0.266880351992417 0.3582272519812631 0 -0.266880351992417 0.3582272519812631 0 -0.27640009279511962 0.35155878343443242 0 -0.28837447244510311 0.36628710188532532 0 -0.26309588156361569 0.34576168367824162 0 -0.266880351992417 0.3582272519812631 0 -0.27640009279511962 0.35155878343443242 0 -0.26824012707650141 0.34000504592112352 0 -0.26309588156361569 0.34576168367824162 0 -0.27640009279511962 0.35155878343443242 0 -0.26824012707650141 0.34000504592112352 0 -0.27640009279511962 0.35155878343443242 0 -0.28224162025157051 0.34582573333151501 0 -0.266880351992417 0.3582272519812631 0 -0.28837447244510311 0.36628710188532532 0 -0.266880351992417 0.3582272519812631 0 -0.28837447244510311 0.36628710188532532 0 -0.27747916353329311 0.37529003384729942 0 -0.26470209097228098 0.37140351159401941 0 -0.266880351992417 0.3582272519812631 0 -0.27747916353329311 0.37529003384729942 0 -0.28837447244510311 0.36628710188532532 0 -0.28714059247178902 0.37543321948423419 0 -0.27747916353329311 0.37529003384729942 0 -0.28837447244510311 0.36628710188532532 0 -0.28956810344150979 0.35324588380912608 0 -0.30292150033679799 0.36018321991941088 0 -0.28837447244510311 0.36628710188532532 0 -0.29874239202075642 0.37528196759933868 0 -0.28714059247178902 0.37543321948423419 0 -0.28224162025157051 0.34582573333151501 0 -0.3017933608705089 0.344447887165377 0 -0.28224162025157051 0.34582573333151501 0 -0.28956810344150979 0.35324588380912608 0 -0.3017933608705089 0.344447887165377 0 -0.27640009279511962 0.35155878343443242 0 -0.28224162025157051 0.34582573333151501 0 -0.28956810344150979 0.35324588380912608 0 -0.27640009279511962 0.35155878343443242 0 -0.28837447244510311 0.36628710188532532 0 -0.28956810344150979 0.35324588380912608 0 -0.3017933608705089 0.344447887165377 0 -0.31193410579265052 0.3536039280541286 0 -0.30292150033679799 0.36018321991941088 0 -0.28956810344150979 0.35324588380912608 0 -0.3017933608705089 0.344447887165377 0 -0.30292150033679799 0.36018321991941088 0 -0.3017933608705089 0.344447887165377 0 -0.32134510148944728 0.34307004099923799 0 -0.3017933608705089 0.344447887165377 0 -0.31193410579265052 0.3536039280541286 0 -0.32134510148944728 0.34307004099923799 0 -0.31193410579265052 0.3536039280541286 0 -0.30292150033679799 0.36018321991941088 0 -0.31340485972314069 0.36375751913665871 0 -0.28837447244510311 0.36628710188532532 0 -0.30292150033679799 0.36018321991941088 0 -0.30986859289778912 0.37434695178938759 0 -0.28837447244510311 0.36628710188532532 0 -0.30986859289778912 0.37434695178938759 0 -0.28837447244510311 0.36628710188532532 0 -0.30986859289778912 0.37434695178938759 0 -0.29874239202075642 0.37528196759933868 0 -0.30292150033679799 0.36018321991941088 0 -0.30986859289778912 0.37434695178938759 0 -0.31340485972314069 0.36375751913665871 0 -0.30986859289778912 0.37434695178938759 0 -0.31340485972314069 0.36375751913665871 0 -0.32167824364597858 0.36970754211250728 0 -0.31340485972314069 0.36375751913665871 0 -0.32243327870136801 0.35950699838777223 0 -0.32167824364597858 0.36970754211250728 0 -0.32243327870136801 0.35950699838777223 0 -0.32167824364597858 0.36970754211250728 0 -0.33132177355711989 0.36851943955526861 0 -0.32167824364597858 0.36970754211250728 0 -0.33132177355711989 0.36851943955526861 0 -0.33136271335047512 0.38240680169344993 0 -0.32243327870136801 0.35950699838777223 0 -0.33132177355711989 0.36851943955526861 0 -0.33989838930305449 0.35721367281084643 0 -0.33132177355711989 0.36851943955526861 0 -0.34304766554360439 0.37232322735168022 0 -0.33136271335047512 0.38240680169344993 0 -0.33132177355711989 0.36851943955526861 0 -0.34304766554360439 0.37232322735168022 0 -0.33989838930305449 0.35721367281084643 0 -0.33989838930305449 0.35721367281084643 0 -0.32134510148944728 0.34307004099923799 0 -0.33989838930305449 0.35721367281084643 0 -0.32134510148944728 0.34307004099923799 0 -0.3500233487104954 0.34104903357308669 0 -0.32243327870136801 0.35950699838777223 0 -0.33989838930305449 0.35721367281084643 0 -0.32134510148944728 0.34307004099923799 0 -0.31193410579265052 0.3536039280541286 0 -0.32243327870136801 0.35950699838777223 0 -0.32134510148944728 0.34307004099923799 0 -0.31193410579265052 0.3536039280541286 0 -0.31340485972314069 0.36375751913665871 0 -0.32243327870136801 0.35950699838777223 0 -0.30538608464820588 0.33090408634228141 0 -0.32134510148944728 0.34307004099923799 0 -0.30538608464820588 0.33090408634228141 0 -0.32134510148944728 0.34307004099923799 0 -0.31811651498789978 0.32488887006413791 0 -0.32134510148944728 0.34307004099923799 0 -0.31811651498789978 0.32488887006413791 0 -0.33459812393413729 0.32207732583041709 0 -0.31699951866320542 0.30755322334125379 0 -0.30563014257680821 0.31779627416788381 0 -0.31811651498789978 0.32488887006413791 0 -0.31699951866320542 0.30755322334125379 0 -0.31811651498789978 0.32488887006413791 0 -0.33459812393413729 0.32207732583041709 0 -0.32134510148944728 0.34307004099923799 0 -0.34342889555096417 0.33131534648734451 0 -0.3500233487104954 0.34104903357308669 0 -0.32134510148944728 0.34307004099923799 0 -0.33459812393413729 0.32207732583041709 0 -0.34342889555096417 0.33131534648734451 0 -0.32134510148944728 0.34307004099923799 0 -0.3500233487104954 0.34104903357308669 0 -0.3500233487104954 0.34104903357308669 0 -0.35650114511620551 0.33294276438790088 0 -0.36794029410566942 0.33226259727897972 0 -0.34342889555096417 0.33131534648734451 0 -0.3500233487104954 0.34104903357308669 0 -0.35650114511620551 0.33294276438790088 0 -0.33459812393413729 0.32207732583041709 0 -0.34342889555096417 0.33131534648734451 0 -0.35467675850453528 0.31743756764607989 0 -0.34344143829887858 0.30736403781452232 0 -0.33459812393413729 0.32207732583041709 0 -0.35467675850453528 0.31743756764607989 0 -0.35650114511620551 0.33294276438790088 0 -0.35467675850453528 0.31743756764607989 0 -0.36272901898995358 0.31473918551029578 0 -0.34342889555096417 0.33131534648734451 0 -0.35650114511620551 0.33294276438790088 0 -0.35467675850453528 0.31743756764607989 0 -0.35650114511620551 0.33294276438790088 0 -0.36272901898995358 0.31473918551029578 0 -0.37415321332832258 0.31386652142517069 0 -0.35650114511620551 0.33294276438790088 0 -0.37415321332832258 0.31386652142517069 0 -0.35650114511620551 0.33294276438790088 0 -0.37442838800096029 0.32044424157556423 0 -0.37415321332832258 0.31386652142517069 0 -0.37816355277066899 0.32985684687273281 0 -0.37442838800096029 0.32044424157556423 0 -0.36794029410566942 0.33226259727897972 0 -0.3787015959315434 0.33902802614693439 0 -0.3500233487104954 0.34104903357308669 0 -0.36794029410566942 0.33226259727897972 0 -0.35650114511620551 0.33294276438790088 0 -0.37442838800096029 0.32044424157556423 0 -0.36794029410566942 0.33226259727897972 0 -0.3787015959315434 0.33902802614693439 0 -0.3500233487104954 0.34104903357308669 0 -0.3787015959315434 0.33902802614693439 0 -0.37816355277066899 0.32985684687273281 0 -0.36794029410566942 0.33226259727897972 0 -0.3787015959315434 0.33902802614693439 0 -0.3500233487104954 0.34104903357308669 0 -0.36501658974902518 0.35367198233662939 0 -0.37823932191431281 0.35548757599615399 0 -0.3787015959315434 0.33902802614693439 0 -0.36501658974902518 0.35367198233662939 0 -0.37823932191431281 0.35548757599615399 0 -0.36501658974902518 0.35367198233662939 0 -0.37024808467873749 0.36543132639488701 0 -0.36501658974902518 0.35367198233662939 0 -0.37024808467873749 0.36543132639488701 0 -0.35845167711666143 0.37135730462245548 0 -0.37949655700884349 0.37153259571527891 0 -0.37024808467873749 0.36543132639488701 0 -0.36758280318953013 0.37627165255961892 0 -0.37024808467873749 0.36543132639488701 0 -0.35845167711666143 0.37135730462245548 0 -0.36758280318953013 0.37627165255961892 0 -0.36501658974902518 0.35367198233662939 0 -0.35845167711666143 0.37135730462245548 0 -0.35334750121980912 0.35582299833575448 0 -0.34304766554360439 0.37232322735168022 0 -0.33989838930305449 0.35721367281084643 0 -0.35845167711666143 0.37135730462245548 0 -0.33989838930305449 0.35721367281084643 0 -0.35845167711666143 0.37135730462245548 0 -0.35334750121980912 0.35582299833575448 0 -0.33989838930305449 0.35721367281084643 0 -0.35845167711666143 0.37135730462245548 0 -0.33989838930305449 0.35721367281084643 0 -0.3500233487104954 0.34104903357308669 0 -0.35334750121980912 0.35582299833575448 0 -0.3500233487104954 0.34104903357308669 0 -0.36501658974902518 0.35367198233662939 0 -0.35334750121980912 0.35582299833575448 0 -0.35285683380316007 0.39046665159751448 0 -0.36027192889352422 0.40897543894708011 0 -0.34270265381785459 0.40768080501023862 0 -0.34304766554360439 0.37232322735168022 0 -0.35845167711666143 0.37135730462245548 0 -0.35285683380316007 0.39046665159751448 0 -0.37686086334024771 0.38257038446795849 0 -0.35285683380316007 0.39046665159751448 0 -0.37686086334024771 0.38257038446795849 0 -0.35285683380316007 0.39046665159751448 0 -0.36758280318953013 0.37627165255961892 0 -0.35845167711666143 0.37135730462245548 0 -0.35285683380316007 0.39046665159751448 0 -0.36758280318953013 0.37627165255961892 0 -0.37686086334024771 0.38257038446795849 0 -0.37949655700884349 0.37153259571527891 0 -0.36758280318953013 0.37627165255961892 0 -0.37769092578324193 0.39977892163450779 0 -0.35285683380316007 0.39046665159751448 0 -0.37769092578324193 0.39977892163450779 0 -0.37686086334024771 0.38257038446795849 0 -0.35285683380316007 0.39046665159751448 0 -0.37769092578324193 0.39977892163450779 0 -0.35285683380316007 0.39046665159751448 0 -0.36027192889352422 0.40897543894708011 0 -0.37875820238401509 0.42613984176471847 0 -0.37769092578324193 0.39977892163450779 0 -0.36027192889352422 0.40897543894708011 0 -0.37875820238401509 0.42613984176471847 0 -0.36027192889352422 0.40897543894708011 0 -0.36048507512927641 0.42545129427310208 0 -0.37875820238401509 0.42613984176471847 0 -0.36048507512927641 0.42545129427310208 0 -0.35499138700470761 0.44318849185793469 0 -0.37875820238401509 0.42613984176471847 0 -0.35499138700470761 0.44318849185793469 0 -0.34691622899781399 0.42161541908905831 0 -0.33223168701086447 0.43660936806356893 0 -0.35499138700470761 0.44318849185793469 0 -0.36048507512927641 0.42545129427310208 0 -0.34691622899781399 0.42161541908905831 0 -0.35499138700470761 0.44318849185793469 0 -0.36027192889352422 0.40897543894708011 0 -0.34691622899781399 0.42161541908905831 0 -0.34270265381785459 0.40768080501023862 0 -0.36027192889352422 0.40897543894708011 0 -0.36048507512927641 0.42545129427310208 0 -0.34691622899781399 0.42161541908905831 0 -0.34270265381785459 0.40768080501023862 0 -0.32841174735063311 0.41773478988879181 0 -0.32505653004414181 0.39961172552874852 0 -0.34691622899781399 0.42161541908905831 0 -0.34270265381785459 0.40768080501023862 0 -0.32841174735063311 0.41773478988879181 0 -0.34691622899781399 0.42161541908905831 0 -0.32841174735063311 0.41773478988879181 0 -0.33223168701086447 0.43660936806356893 0 -0.32841174735063311 0.41773478988879181 0 -0.33223168701086447 0.43660936806356893 0 -0.31148998866141242 0.43181261152586448 0 -0.32841174735063311 0.41773478988879181 0 -0.31441363705571701 0.41408607272300291 0 -0.32505653004414181 0.39961172552874852 0 -0.32841174735063311 0.41773478988879181 0 -0.31441363705571701 0.41408607272300291 0 -0.31148998866141242 0.43181261152586448 0 -0.32505653004414181 0.39961172552874852 0 -0.31219235154091651 0.39185403334122892 0 -0.30619500853749271 0.39725637532293351 0 -0.32505653004414181 0.39961172552874852 0 -0.31778050989885959 0.38527433798844479 0 -0.31219235154091651 0.39185403334122892 0 -0.35285683380316007 0.39046665159751448 0 -0.32505653004414181 0.39961172552874852 0 -0.33136271335047512 0.38240680169344993 0 -0.35285683380316007 0.39046665159751448 0 -0.34270265381785459 0.40768080501023862 0 -0.32505653004414181 0.39961172552874852 0 -0.35285683380316007 0.39046665159751448 0 -0.32505653004414181 0.39961172552874852 0 -0.35285683380316007 0.39046665159751448 0 -0.33136271335047512 0.38240680169344993 0 -0.34304766554360439 0.37232322735168022 0 -0.35285683380316007 0.39046665159751448 0 -0.33136271335047512 0.38240680169344993 0 -0.30986859289778912 0.37434695178938759 0 -0.32167824364597858 0.36970754211250728 0 -0.33136271335047512 0.38240680169344993 0 -0.30986859289778912 0.37434695178938759 0 -0.33136271335047512 0.38240680169344993 0 -0.32505653004414181 0.39961172552874852 0 -0.33136271335047512 0.38240680169344993 0 -0.31778050989885959 0.38527433798844479 0 -0.30986859289778912 0.37434695178938759 0 -0.33136271335047512 0.38240680169344993 0 -0.31778050989885959 0.38527433798844479 0 -0.30986859289778912 0.37434695178938759 0 -0.31778050989885959 0.38527433798844479 0 -0.30574515252343709 0.38648905476423068 0 -0.30986859289778912 0.37434695178938759 0 -0.30574515252343709 0.38648905476423068 0 -0.29874239202075642 0.37528196759933868 0 -0.30574515252343709 0.38648905476423068 0 -0.29874239202075642 0.37528196759933868 0 -0.29146244090030071 0.40289140707507309 0 -0.31778050989885959 0.38527433798844479 0 -0.30574515252343709 0.38648905476423068 0 -0.31219235154091651 0.39185403334122892 0 -0.32505653004414181 0.39961172552874852 0 -0.30619500853749271 0.39725637532293351 0 -0.29725622628512233 0.40875679945997928 0 -0.32505653004414181 0.39961172552874852 0 -0.29725622628512233 0.40875679945997928 0 -0.30574515252343709 0.38648905476423068 0 -0.30619500853749271 0.39725637532293351 0 -0.29146244090030071 0.40289140707507309 0 -0.30574515252343709 0.38648905476423068 0 -0.31219235154091651 0.39185403334122892 0 -0.30619500853749271 0.39725637532293351 0 -0.30619500853749271 0.39725637532293351 0 -0.29146244090030071 0.40289140707507309 0 -0.29725622628512233 0.40875679945997928 0 -0.29146244090030071 0.40289140707507309 0 -0.2882496590958894 0.39023794275143442 0 -0.278827461574497 0.39790462172635238 0 -0.28396634188800352 0.38487377460497352 0 -0.2882496590958894 0.39023794275143442 0 -0.278827461574497 0.39790462172635238 0 -0.29146244090030071 0.40289140707507309 0 -0.278827461574497 0.39790462172635238 0 -0.27940045790464241 0.41220012044695847 0 -0.29874239202075642 0.37528196759933868 0 -0.29146244090030071 0.40289140707507309 0 -0.29874239202075642 0.37528196759933868 0 -0.29146244090030071 0.40289140707507309 0 -0.2882496590958894 0.39023794275143442 0 -0.29874239202075642 0.37528196759933868 0 -0.28396634188800352 0.38487377460497352 0 -0.28714059247178902 0.37543321948423419 0 -0.29874239202075642 0.37528196759933868 0 -0.28396634188800352 0.38487377460497352 0 -0.2882496590958894 0.39023794275143442 0 -0.28396634188800352 0.38487377460497352 0 -0.28714059247178902 0.37543321948423419 0 -0.27747916353329311 0.37529003384729942 0 -0.28396634188800352 0.38487377460497352 0 -0.27747916353329311 0.37529003384729942 0 -0.26775424033426293 0.38456849691175748 0 -0.28396634188800352 0.38487377460497352 0 -0.26775424033426293 0.38456849691175748 0 -0.278827461574497 0.39790462172635238 0 -0.26470209097228098 0.37140351159401941 0 -0.27747916353329311 0.37529003384729942 0 -0.26775424033426293 0.38456849691175748 0 -0.278827461574497 0.39790462172635238 0 -0.26298604578065232 0.3973558675440883 0 -0.2677584473194361 0.40899541659639099 0 -0.26775424033426293 0.38456849691175748 0 -0.278827461574497 0.39790462172635238 0 -0.26298604578065232 0.3973558675440883 0 -0.26298604578065232 0.3973558675440883 0 -0.25152819264859128 0.38883491631829081 0 -0.2490618870264745 0.40647588616764979 0 -0.26298604578065232 0.3973558675440883 0 -0.2677584473194361 0.40899541659639099 0 -0.2490618870264745 0.40647588616764979 0 -0.25213085833087667 0.37355178257669552 0 -0.26775424033426293 0.38456849691175748 0 -0.25152819264859128 0.38883491631829081 0 -0.26775424033426293 0.38456849691175748 0 -0.26298604578065232 0.3973558675440883 0 -0.25152819264859128 0.38883491631829081 0 -0.26470209097228098 0.37140351159401941 0 -0.25213085833087667 0.37355178257669552 0 -0.26775424033426293 0.38456849691175748 0 -0.2572482915111563 0.42152384209731297 0 -0.26330490497154813 0.43976041958731371 0 -0.24092688658692171 0.43286849171069308 0 -0.2572482915111563 0.42152384209731297 0 -0.27163392734069919 0.42205675226444578 0 -0.26330490497154813 0.43976041958731371 0 -0.2572482915111563 0.42152384209731297 0 -0.2677584473194361 0.40899541659639099 0 -0.2490618870264745 0.40647588616764979 0 -0.2572482915111563 0.42152384209731297 0 -0.2677584473194361 0.40899541659639099 0 -0.27163392734069919 0.42205675226444578 0 -0.27940045790464241 0.41220012044695847 0 -0.27163392734069919 0.42205675226444578 0 -0.28418248977984512 0.43050084655080739 0 -0.2677584473194361 0.40899541659639099 0 -0.27940045790464241 0.41220012044695847 0 -0.27163392734069919 0.42205675226444578 0 -0.278827461574497 0.39790462172635238 0 -0.2677584473194361 0.40899541659639099 0 -0.27940045790464241 0.41220012044695847 0 -0.27163392734069919 0.42205675226444578 0 -0.28418248977984512 0.43050084655080739 0 -0.26330490497154813 0.43976041958731371 0 -0.28418248977984512 0.43050084655080739 0 -0.29943060469912958 0.42576946359573847 0 -0.28981068171355151 0.44369098771903792 0 -0.29146244090030071 0.40289140707507309 0 -0.28418248977984512 0.43050084655080739 0 -0.29146244090030071 0.40289140707507309 0 -0.27940045790464241 0.41220012044695847 0 -0.28418248977984512 0.43050084655080739 0 -0.28418248977984512 0.43050084655080739 0 -0.29725622628512233 0.40875679945997928 0 -0.29943060469912958 0.42576946359573847 0 -0.29146244090030071 0.40289140707507309 0 -0.28418248977984512 0.43050084655080739 0 -0.29725622628512233 0.40875679945997928 0 -0.31441363705571701 0.41408607272300291 0 -0.32505653004414181 0.39961172552874852 0 -0.29725622628512233 0.40875679945997928 0 -0.31441363705571701 0.41408607272300291 0 -0.29725622628512233 0.40875679945997928 0 -0.29943060469912958 0.42576946359573847 0 -0.31441363705571701 0.41408607272300291 0 -0.29943060469912958 0.42576946359573847 0 -0.31148998866141242 0.43181261152586448 0 -0.29943060469912958 0.42576946359573847 0 -0.31148998866141242 0.43181261152586448 0 -0.28981068171355151 0.44369098771903792 0 -0.31148998866141242 0.43181261152586448 0 -0.30120616623050861 0.45239726712555162 0 -0.31718999816658727 0.45065056632578487 0 -0.31148998866141242 0.43181261152586448 0 -0.30120616623050861 0.45239726712555162 0 -0.31148998866141242 0.43181261152586448 0 -0.30120616623050861 0.45239726712555162 0 -0.28981068171355151 0.44369098771903792 0 -0.30120616623050861 0.45239726712555162 0 -0.29092234379960469 0.47298192272523881 0 -0.30745775624609217 0.47728579204436761 0 -0.30120616623050861 0.45239726712555162 0 -0.30745775624609217 0.47728579204436761 0 -0.31718999816658727 0.45065056632578487 0 -0.2852957606144535 0.45730244818253718 0 -0.28186649269177161 0.46567885888970018 0 -0.29092234379960469 0.47298192272523881 0 -0.30120616623050861 0.45239726712555162 0 -0.29092234379960469 0.47298192272523881 0 -0.30120616623050861 0.45239726712555162 0 -0.2852957606144535 0.45730244818253718 0 -0.29092234379960469 0.47298192272523881 0 -0.2852957606144535 0.45730244818253718 0 -0.28186649269177161 0.46567885888970018 0 -0.27690253865938408 0.45811028602654041 0 -0.28418248977984512 0.43050084655080739 0 -0.28981068171355151 0.44369098771903792 0 -0.27690253865938408 0.45811028602654041 0 -0.30120616623050861 0.45239726712555162 0 -0.2852957606144535 0.45730244818253718 0 -0.28981068171355151 0.44369098771903792 0 -0.2852957606144535 0.45730244818253718 0 -0.28981068171355151 0.44369098771903792 0 -0.27690253865938408 0.45811028602654041 0 -0.28418248977984512 0.43050084655080739 0 -0.27690253865938408 0.45811028602654041 0 -0.28418248977984512 0.43050084655080739 0 -0.27690253865938408 0.45811028602654041 0 -0.26330490497154813 0.43976041958731371 0 -0.2852957606144535 0.45730244818253718 0 -0.27690253865938408 0.45811028602654041 0 -0.28186649269177161 0.46567885888970018 0 -0.27690253865938408 0.45811028602654041 0 -0.27835780074514338 0.47366975871288508 0 -0.27690253865938408 0.45811028602654041 0 -0.25345677561811758 0.46036691342989022 0 -0.27690253865938408 0.45811028602654041 0 -0.25345677561811758 0.46036691342989022 0 -0.26590293397843329 0.47057525233348851 0 -0.25345677561811758 0.46036691342989022 0 -0.25315469521642581 0.4750486889203015 0 -0.26590293397843329 0.47057525233348851 0 -0.25345677561811758 0.46036691342989022 0 -0.26330490497154813 0.43976041958731371 0 -0.24129970279445639 0.44943490890582899 0 -0.27690253865938408 0.45811028602654041 0 -0.25345677561811758 0.46036691342989022 0 -0.26330490497154813 0.43976041958731371 0 -0.26169037092037989 0.4910190989046625 0 -0.25397816739109252 0.5 0 -0.27113802145370669 0.49283981386083792 0 -0.26169037092037989 0.4910190989046625 0 -0.25474868654415728 0.48692894813519849 0 -0.26689660829256312 0.48430763362261348 0 -0.26169037092037989 0.4910190989046625 0 -0.25397816739109252 0.5 0 -0.25474868654415728 0.48692894813519849 0 -0.25315469521642581 0.4750486889203015 0 -0.26689660829256312 0.48430763362261348 0 -0.25315469521642581 0.4750486889203015 0 -0.26689660829256312 0.48430763362261348 0 -0.26590293397843329 0.47057525233348851 0 -0.25474868654415728 0.48692894813519849 0 -0.25315469521642581 0.4750486889203015 0 -0.26689660829256312 0.48430763362261348 0 -0.27690253865938408 0.45811028602654041 0 -0.26590293397843329 0.47057525233348851 0 -0.26946370716205509 0.4860372782758946 0 -0.27690253865938408 0.45811028602654041 0 -0.26946370716205509 0.4860372782758946 0 -0.27690253865938408 0.45811028602654041 0 -0.27835780074514338 0.47366975871288508 0 -0.26946370716205509 0.4860372782758946 0 -0.26689660829256312 0.48430763362261348 0 -0.26590293397843329 0.47057525233348851 0 -0.26946370716205509 0.4860372782758946 0 -0.28186649269177161 0.46567885888970018 0 -0.27835780074514338 0.47366975871288508 0 -0.28298297564177088 0.4743823417855309 0 -0.27835780074514338 0.47366975871288508 0 -0.2798907507987049 0.48286402398659151 0 -0.28298297564177088 0.4743823417855309 0 -0.27835780074514338 0.47366975871288508 0 -0.2798907507987049 0.48286402398659151 0 -0.26946370716205509 0.4860372782758946 0 -0.26946370716205509 0.4860372782758946 0 -0.28063852136870049 0.49356657832492562 0 -0.26946370716205509 0.4860372782758946 0 -0.27113802145370669 0.49283981386083792 0 -0.28063852136870049 0.49356657832492562 0 -0.2798907507987049 0.48286402398659151 0 -0.26946370716205509 0.4860372782758946 0 -0.28063852136870049 0.49356657832492562 0 -0.25397816739109252 0.5 0 -0.27113802145370669 0.49283981386083792 0 -0.27742446875513049 0.50000000000000155 0 -0.26689660829256312 0.48430763362261348 0 -0.26946370716205509 0.4860372782758946 0 -0.27113802145370669 0.49283981386083792 0 -0.26169037092037989 0.4910190989046625 0 -0.26689660829256312 0.48430763362261348 0 -0.27113802145370669 0.49283981386083792 0 -0.26689660829256312 0.48430763362261348 0 -0.26946370716205509 0.4860372782758946 0 -0.27113802145370669 0.49283981386083792 0 -0.28063852136870049 0.49356657832492562 0 -0.27742446875513049 0.50000000000000155 0 -0.28063852136870049 0.49356657832492562 0 -0.27742446875513049 0.50000000000000155 0 -0.28063852136870049 0.49356657832492562 0 -0.27742446875513049 0.50000000000000155 0 -0.29018685806186229 0.50000000000000122 0 -0.28063852136870049 0.49356657832492562 0 -0.29018685806186229 0.50000000000000122 0 -0.29092234379960469 0.47298192272523881 0 -0.28063852136870049 0.49356657832492562 0 -0.29018685806186229 0.50000000000000122 0 -0.29018685806186229 0.50000000000000122 0 -0.29092234379960469 0.47298192272523881 0 -0.30745775624609217 0.47728579204436761 0 -0.28063852136870049 0.49356657832492562 0 -0.29092234379960469 0.47298192272523881 0 -0.2798907507987049 0.48286402398659151 0 -0.28063852136870049 0.49356657832492562 0 -0.29092234379960469 0.47298192272523881 0 -0.28186649269177161 0.46567885888970018 0 -0.28298297564177088 0.4743823417855309 0 -0.29092234379960469 0.47298192272523881 0 -0.2798907507987049 0.48286402398659151 0 -0.28298297564177088 0.4743823417855309 0 -0.29092234379960469 0.47298192272523881 0 -0.29018685806186229 0.50000000000000122 0 -0.30745775624609217 0.47728579204436761 0 -0.3640375775585698 0.5 0 -0.30745775624609217 0.47728579204436761 0 -0.33122457162539992 0.46023714195115112 0 -0.3640375775585698 0.5 0 -0.30745775624609217 0.47728579204436761 0 -0.33122457162539992 0.46023714195115112 0 -0.30745775624609217 0.47728579204436761 0 -0.31718999816658727 0.45065056632578487 0 -0.33122457162539992 0.46023714195115112 0 -0.33223168701086447 0.43660936806356893 0 -0.31148998866141242 0.43181261152586448 0 -0.31718999816658727 0.45065056632578487 0 -0.33223168701086447 0.43660936806356893 0 -0.31718999816658727 0.45065056632578487 0 -0.33122457162539992 0.46023714195115112 0 -0.33122457162539992 0.46023714195115112 0 -0.35499138700470761 0.44318849185793469 0 -0.33223168701086447 0.43660936806356893 0 -0.33122457162539992 0.46023714195115112 0 -0.35499138700470761 0.44318849185793469 0 -0.33122457162539992 0.46023714195115112 0 -0.35376164566254242 0.46494380824906301 0 -0.35499138700470761 0.44318849185793469 0 -0.38249991962136642 0.44345487931465249 0 -0.35499138700470761 0.44318849185793469 0 -0.37103467036260362 0.45695891695805302 0 -0.38249991962136642 0.44345487931465249 0 -0.37875820238401509 0.42613984176471847 0 -0.35499138700470761 0.44318849185793469 0 -0.35376164566254242 0.46494380824906301 0 -0.35499138700470761 0.44318849185793469 0 -0.37103467036260362 0.45695891695805302 0 -0.35376164566254242 0.46494380824906301 0 -0.37103467036260362 0.45695891695805302 0 -0.36943712044780219 0.47475959506207249 0 -0.33122457162539992 0.46023714195115112 0 -0.35376164566254242 0.46494380824906301 0 -0.3640375775585698 0.5 0 -0.38891458820749281 0.47713565504117422 0 -0.36943712044780219 0.47475959506207249 0 -0.3640375775585698 0.5 0 -0.35376164566254242 0.46494380824906301 0 -0.36943712044780219 0.47475959506207249 0 -0.3640375775585698 0.5 0 -0.1410608215807003 0.47118489318428192 0 -0.1506389915883973 0.47451242435581331 0 -0.15779819732271971 0.4695739402503486 0 -0.1410608215807003 0.47118489318428192 0 -0.15779819732271971 0.4695739402503486 0 -0.1455325599989582 0.47665965757352818 0 -0.14983465253105441 0.48099067897208148 0 -0.1405957742956809 0.47995063378193648 0 -0.14983465253105441 0.48099067897208148 0 -0.14427471349546869 0.48965289008050411 0 -0.1405957742956809 0.47995063378193648 0 -0.1455325599989582 0.47665965757352818 0 -0.1410608215807003 0.47118489318428192 0 -0.1506389915883973 0.47451242435581331 0 -0.1455325599989582 0.47665965757352818 0 -0.1410608215807003 0.47118489318428192 0 -0.1405957742956809 0.47995063378193648 0 -0.1506389915883973 0.47451242435581331 0 -0.15682389603308189 0.47748605108520858 0 -0.15779819732271971 0.4695739402503486 0 -0.1506389915883973 0.47451242435581331 0 -0.14983465253105441 0.48099067897208148 0 -0.15682389603308189 0.47748605108520858 0 -0.1455325599989582 0.47665965757352818 0 -0.1506389915883973 0.47451242435581331 0 -0.14983465253105441 0.48099067897208148 0 -0.14983465253105441 0.48099067897208148 0 -0.1558122254133027 0.48316327461493752 0 -0.15682389603308189 0.47748605108520858 0 -0.14983465253105441 0.48099067897208148 0 -0.1558122254133027 0.48316327461493752 0 -0.15140604362779489 0.486968875654338 0 -0.1558122254133027 0.48316327461493752 0 -0.15140604362779489 0.486968875654338 0 -0.15545271364459581 0.49281799385228547 0 -0.14983465253105441 0.48099067897208148 0 -0.15140604362779489 0.486968875654338 0 -0.14427471349546869 0.48965289008050411 0 -0.15140604362779489 0.486968875654338 0 -0.15545271364459581 0.49281799385228547 0 -0.14427471349546869 0.48965289008050411 0 -0.15453849507163009 0.5 0 -0.14427471349546869 0.48965289008050411 0 -0.12543772684428189 0.5 0 -0.15453849507163009 0.5 0 -0.15545271364459581 0.49281799385228547 0 -0.14427471349546869 0.48965289008050411 0 -0.14427471349546869 0.48965289008050411 0 -0.12543772684428189 0.5 0 -0.13178312884530541 0.48627570230508688 0 -0.14427471349546869 0.48965289008050411 0 -0.13178312884530541 0.48627570230508688 0 -0.1405957742956809 0.47995063378193648 0 -0.13178312884530541 0.48627570230508688 0 -0.1317912103042716 0.47600940211286807 0 -0.11642361318749669 0.48420448820259387 0 -0.1317912103042716 0.47600940211286807 0 -0.14083201439797821 0.46516349611765162 0 -0.12052644250191399 0.4682622397032008 0 -0.13178312884530541 0.48627570230508688 0 -0.1405957742956809 0.47995063378193648 0 -0.1317912103042716 0.47600940211286807 0 -0.1410608215807003 0.47118489318428192 0 -0.1405957742956809 0.47995063378193648 0 -0.1317912103042716 0.47600940211286807 0 -0.1410608215807003 0.47118489318428192 0 -0.1317912103042716 0.47600940211286807 0 -0.14083201439797821 0.46516349611765162 0 -0.12618187852634369 0.45882241462805679 0 -0.14083201439797821 0.46516349611765162 0 -0.12052644250191399 0.4682622397032008 0 -0.14083201439797821 0.46516349611765162 0 -0.12052644250191399 0.4682622397032008 0 -0.12618187852634369 0.45882241462805679 0 -0.13621980461969219 0.45775649261309698 0 -0.13482926781972801 0.45201676164804122 0 -0.13621980461969219 0.45775649261309698 0 -0.13482926781972801 0.45201676164804122 0 -0.1430360577347192 0.45502329805863873 0 -0.13621980461969219 0.45775649261309698 0 -0.14083201439797821 0.46516349611765162 0 -0.1430360577347192 0.45502329805863873 0 -0.12618187852634369 0.45882241462805679 0 -0.13621980461969219 0.45775649261309698 0 -0.14083201439797821 0.46516349611765162 0 -0.12618187852634369 0.45882241462805679 0 -0.13482926781972801 0.45201676164804122 0 -0.1248743097581413 0.44162978393037222 0 -0.13482926781972801 0.45201676164804122 0 -0.13973201497409549 0.44099892737807922 0 -0.1415241139788854 0.4488412036993919 0 -0.13482926781972801 0.45201676164804122 0 -0.1415241139788854 0.4488412036993919 0 -0.1430360577347192 0.45502329805863873 0 -0.13973201497409549 0.44099892737807922 0 -0.13491063247587859 0.43073185275000708 0 -0.1248743097581413 0.44162978393037222 0 -0.13482926781972801 0.45201676164804122 0 -0.13973201497409549 0.44099892737807922 0 -0.1248743097581413 0.44162978393037222 0 -0.13973201497409549 0.44099892737807922 0 -0.14849911538699881 0.44732582771280882 0 -0.14949031039727409 0.43903968606904947 0 -0.14849911538699881 0.44732582771280882 0 -0.1430360577347192 0.45502329805863873 0 -0.15230793746503779 0.45507497120342549 0 -0.13973201497409549 0.44099892737807922 0 -0.1415241139788854 0.4488412036993919 0 -0.14849911538699881 0.44732582771280882 0 -0.1415241139788854 0.4488412036993919 0 -0.14849911538699881 0.44732582771280882 0 -0.1430360577347192 0.45502329805863873 0 -0.14849911538699881 0.44732582771280882 0 -0.15230793746503779 0.45507497120342549 0 -0.15767924869329919 0.44641741059368378 0 -0.14949031039727409 0.43903968606904947 0 -0.15767924869329919 0.44641741059368378 0 -0.15912083936695831 0.4347249498771325 0 -0.14849911538699881 0.44732582771280882 0 -0.14949031039727409 0.43903968606904947 0 -0.15767924869329919 0.44641741059368378 0 -0.14083201439797821 0.46516349611765162 0 -0.16113758629404229 0.46206475253210239 0 -0.15779819732271971 0.4695739402503486 0 -0.1410608215807003 0.47118489318428192 0 -0.14083201439797821 0.46516349611765162 0 -0.15779819732271971 0.4695739402503486 0 -0.14083201439797821 0.46516349611765162 0 -0.16113758629404229 0.46206475253210239 0 -0.14083201439797821 0.46516349611765162 0 -0.15230793746503779 0.45507497120342549 0 -0.16113758629404229 0.46206475253210239 0 -0.14083201439797821 0.46516349611765162 0 -0.1430360577347192 0.45502329805863873 0 -0.15230793746503779 0.45507497120342549 0 -0.16113758629404229 0.46206475253210239 0 -0.16940388650370539 0.44815354093755089 0 -0.18144315819010631 0.45896600894655282 0 -0.16113758629404229 0.46206475253210239 0 -0.18144315819010631 0.45896600894655282 0 -0.16113758629404229 0.46206475253210239 0 -0.17453557306473899 0.46796298731641428 0 -0.15779819732271971 0.4695739402503486 0 -0.15230793746503779 0.45507497120342549 0 -0.16113758629404229 0.46206475253210239 0 -0.16013216473902109 0.45292766881669072 0 -0.16113758629404229 0.46206475253210239 0 -0.16013216473902109 0.45292766881669072 0 -0.16940388650370539 0.44815354093755089 0 -0.15767924869329919 0.44641741059368378 0 -0.16940388650370539 0.44815354093755089 0 -0.15912083936695831 0.4347249498771325 0 -0.15230793746503779 0.45507497120342549 0 -0.16013216473902109 0.45292766881669072 0 -0.15767924869329919 0.44641741059368378 0 -0.16013216473902109 0.45292766881669072 0 -0.15767924869329919 0.44641741059368378 0 -0.16940388650370539 0.44815354093755089 0 -0.1829590266345629 0.45699162349075462 0 -0.18255950863604661 0.43173185523385532 0 -0.1829590266345629 0.45699162349075462 0 -0.19557533522393281 0.44055915781337712 0 -0.18255950863604661 0.43173185523385532 0 -0.16940388650370539 0.44815354093755089 0 -0.1829590266345629 0.45699162349075462 0 -0.18255950863604661 0.43173185523385532 0 -0.16113758629404229 0.46206475253210239 0 -0.17453557306473899 0.46796298731641428 0 -0.18144315819010631 0.45896600894655282 0 -0.17453557306473899 0.46796298731641428 0 -0.18144315819010631 0.45896600894655282 0 -0.17453557306473899 0.46796298731641428 0 -0.18311948649431831 0.46713679563994498 0 -0.16940388650370539 0.44815354093755089 0 -0.18144315819010631 0.45896600894655282 0 -0.1829590266345629 0.45699162349075462 0 -0.18144315819010631 0.45896600894655282 0 -0.1829590266345629 0.45699162349075462 0 -0.18144315819010631 0.45896600894655282 0 -0.1829865290739871 0.45873048193697258 0 -0.1829590266345629 0.45699162349075462 0 -0.18144315819010631 0.45896600894655282 0 -0.1829865290739871 0.45873048193697258 0 -0.1829865290739871 0.45873048193697258 0 -0.1829590266345629 0.45699162349075462 0 -0.17453557306473899 0.46796298731641428 0 -0.18144315819010631 0.45896600894655282 0 -0.18311948649431831 0.46713679563994498 0 -0.1829865290739871 0.45873048193697258 0 -0.18311948649431831 0.46713679563994498 0 -0.18144315819010631 0.45896600894655282 0 -0.1829865290739871 0.45873048193697258 0 -0.18311948649431831 0.46713679563994498 0 -0.18311948649431831 0.46713679563994498 0 -0.18337937489664821 0.48356839781997168 0 -0.19511197543601369 0.47606725323690458 0 -0.18311948649431831 0.46713679563994498 0 -0.18337937489664821 0.48356839781997168 0 -0.18311948649431831 0.46713679563994498 0 -0.18337937489664821 0.48356839781997168 0 -0.17485937494801759 0.47808814193434568 0 -0.17453557306473899 0.46796298731641428 0 -0.18311948649431831 0.46713679563994498 0 -0.17485937494801759 0.47808814193434568 0 -0.17453557306473899 0.46796298731641428 0 -0.15779819732271971 0.4695739402503486 0 -0.17453557306473899 0.46796298731641428 0 -0.16499414335466689 0.48039049058434952 0 -0.17453557306473899 0.46796298731641428 0 -0.16499414335466689 0.48039049058434952 0 -0.15779819732271971 0.4695739402503486 0 -0.17453557306473899 0.46796298731641428 0 -0.17485937494801759 0.47808814193434568 0 -0.16499414335466689 0.48039049058434952 0 -0.17485937494801759 0.47808814193434568 0 -0.16499414335466689 0.48039049058434952 0 -0.1699453859209171 0.49288017845899518 0 -0.1558122254133027 0.48316327461493752 0 -0.16499414335466689 0.48039049058434952 0 -0.15682389603308189 0.47748605108520858 0 -0.16499414335466689 0.48039049058434952 0 -0.15682389603308189 0.47748605108520858 0 -0.15779819732271971 0.4695739402503486 0 -0.15453849507163009 0.5 0 -0.1699453859209171 0.49288017845899518 0 -0.18363926329897839 0.49999999999999828 0 -0.15453849507163009 0.5 0 -0.15545271364459581 0.49281799385228547 0 -0.1699453859209171 0.49288017845899518 0 -0.15545271364459581 0.49281799385228547 0 -0.16499414335466689 0.48039049058434952 0 -0.1699453859209171 0.49288017845899518 0 -0.15545271364459581 0.49281799385228547 0 -0.16499414335466689 0.48039049058434952 0 -0.1558122254133027 0.48316327461493752 0 -0.15545271364459581 0.49281799385228547 0 -0.16499414335466689 0.48039049058434952 0 -0.18337937489664821 0.48356839781997168 0 -0.18363926329897839 0.49999999999999828 0 -0.18337937489664821 0.48356839781997168 0 -0.1699453859209171 0.49288017845899518 0 -0.18363926329897839 0.49999999999999828 0 -0.18337937489664821 0.48356839781997168 0 -0.17485937494801759 0.47808814193434568 0 -0.1699453859209171 0.49288017845899518 0 -0.18337937489664821 0.48356839781997168 0 -0.18363926329897839 0.49999999999999828 0 -0.19848883175809501 0.48685236178056529 0 -0.18363926329897839 0.49999999999999828 0 -0.19848883175809501 0.48685236178056529 0 -0.20708556466301639 0.5 0 -0.18311948649431831 0.46713679563994498 0 -0.19511197543601369 0.47606725323690458 0 -0.20656524953558469 0.46488016823659339 0 -0.18337937489664821 0.48356839781997168 0 -0.19848883175809501 0.48685236178056529 0 -0.19511197543601369 0.47606725323690458 0 -0.19848883175809501 0.48685236178056529 0 -0.19511197543601369 0.47606725323690458 0 -0.206747867840962 0.47700509082497228 0 -0.19511197543601369 0.47606725323690458 0 -0.206747867840962 0.47700509082497228 0 -0.20656524953558469 0.46488016823659339 0 -0.19848883175809501 0.48685236178056529 0 -0.206747867840962 0.47700509082497228 0 -0.21585796601610141 0.48648558657266339 0 -0.206747867840962 0.47700509082497228 0 -0.21852396914967101 0.47285401242330122 0 -0.20656524953558469 0.46488016823659339 0 -0.206747867840962 0.47700509082497228 0 -0.21852396914967101 0.47285401242330122 0 -0.21585796601610141 0.48648558657266339 0 -0.20708556466301639 0.5 0 -0.21585796601610141 0.48648558657266339 0 -0.23053186602705439 0.5 0 -0.19848883175809501 0.48685236178056529 0 -0.20708556466301639 0.5 0 -0.21585796601610141 0.48648558657266339 0 -0.21585796601610141 0.48648558657266339 0 -0.23053186602705439 0.5 0 -0.2373192826940049 0.48342253064983348 0 -0.21852396914967101 0.47285401242330122 0 -0.2373192826940049 0.48342253064983348 0 -0.23001101257685119 0.46262354083324181 0 -0.21852396914967101 0.47285401242330122 0 -0.21585796601610141 0.48648558657266339 0 -0.2373192826940049 0.48342253064983348 0 -0.25474868654415728 0.48692894813519849 0 -0.25315469521642581 0.4750486889203015 0 -0.2373192826940049 0.48342253064983348 0 -0.25315469521642581 0.4750486889203015 0 -0.2373192826940049 0.48342253064983348 0 -0.23001101257685119 0.46262354083324181 0 -0.25397816739109252 0.5 0 -0.23053186602705439 0.5 0 -0.2373192826940049 0.48342253064983348 0 -0.25397816739109252 0.5 0 -0.25474868654415728 0.48692894813519849 0 -0.2373192826940049 0.48342253064983348 0 -0.26330490497154813 0.43976041958731371 0 -0.24129970279445639 0.44943490890582899 0 -0.24092688658692171 0.43286849171069308 0 -0.24129970279445639 0.44943490890582899 0 -0.2242493546558077 0.44235471361969553 0 -0.24092688658692171 0.43286849171069308 0 -0.25345677561811758 0.46036691342989022 0 -0.23001101257685119 0.46262354083324181 0 -0.25345677561811758 0.46036691342989022 0 -0.24129970279445639 0.44943490890582899 0 -0.23001101257685119 0.46262354083324181 0 -0.25345677561811758 0.46036691342989022 0 -0.25315469521642581 0.4750486889203015 0 -0.23001101257685119 0.46262354083324181 0 -0.24129970279445639 0.44943490890582899 0 -0.23001101257685119 0.46262354083324181 0 -0.2242493546558077 0.44235471361969553 0 -0.23001101257685119 0.46262354083324181 0 -0.2242493546558077 0.44235471361969553 0 -0.2144914677851314 0.45380351874251162 0 -0.2242493546558077 0.44235471361969553 0 -0.20880164963731279 0.443380440886459 0 -0.2144914677851314 0.45380351874251162 0 -0.20880164963731279 0.443380440886459 0 -0.2144914677851314 0.45380351874251162 0 -0.20415969833182021 0.45549933815243238 0 -0.23001101257685119 0.46262354083324181 0 -0.2144914677851314 0.45380351874251162 0 -0.20656524953558469 0.46488016823659339 0 -0.21852396914967101 0.47285401242330122 0 -0.23001101257685119 0.46262354083324181 0 -0.20656524953558469 0.46488016823659339 0 -0.23001101257685119 0.46262354083324181 0 -0.20656524953558469 0.46488016823659339 0 -0.2144914677851314 0.45380351874251162 0 -0.20415969833182021 0.45549933815243238 0 -0.20656524953558469 0.46488016823659339 0 -0.1829865290739871 0.45873048193697258 0 -0.1829590266345629 0.45699162349075462 0 -0.20415969833182021 0.45549933815243238 0 -0.1829865290739871 0.45873048193697258 0 -0.20415969833182021 0.45549933815243238 0 -0.18311948649431831 0.46713679563994498 0 -0.20415969833182021 0.45549933815243238 0 -0.20656524953558469 0.46488016823659339 0 -0.1829865290739871 0.45873048193697258 0 -0.18311948649431831 0.46713679563994498 0 -0.20415969833182021 0.45549933815243238 0 -0.18311948649431831 0.46713679563994498 0 -0.20656524953558469 0.46488016823659339 0 -0.1829590266345629 0.45699162349075462 0 -0.19557533522393281 0.44055915781337712 0 -0.1829590266345629 0.45699162349075462 0 -0.20415969833182021 0.45549933815243238 0 -0.19557533522393281 0.44055915781337712 0 -0.20880164963731279 0.443380440886459 0 -0.20415969833182021 0.45549933815243238 0 -0.19557533522393281 0.44055915781337712 0 -0.19557533522393281 0.44055915781337712 0 -0.20819164381331129 0.42412669213600601 0 -0.19557533522393281 0.44055915781337712 0 -0.19413142888046839 0.4217351031076268 0 -0.18255950863604661 0.43173185523385532 0 -0.19557533522393281 0.44055915781337712 0 -0.19413142888046839 0.4217351031076268 0 -0.20819164381331129 0.42412669213600601 0 -0.19413142888046839 0.4217351031076268 0 -0.20819164381331129 0.42412669213600601 0 -0.2021706660915297 0.40578572337793972 0 -0.19413142888046839 0.4217351031076268 0 -0.2021706660915297 0.40578572337793972 0 -0.18215999063752189 0.40647208697695608 0 -0.20819164381331129 0.42412669213600601 0 -0.22405449890785839 0.40643558214578251 0 -0.2021706660915297 0.40578572337793972 0 -0.20880164963731279 0.443380440886459 0 -0.19557533522393281 0.44055915781337712 0 -0.20819164381331129 0.42412669213600601 0 -0.2242493546558077 0.44235471361969553 0 -0.20880164963731279 0.443380440886459 0 -0.20819164381331129 0.42412669213600601 0 -0.2242493546558077 0.44235471361969553 0 -0.20819164381331129 0.42412669213600601 0 -0.22600929792909111 0.42518400498706249 0 -0.2242493546558077 0.44235471361969553 0 -0.22600929792909111 0.42518400498706249 0 -0.24092688658692171 0.43286849171069308 0 -0.20819164381331129 0.42412669213600601 0 -0.22600929792909111 0.42518400498706249 0 -0.22405449890785839 0.40643558214578251 0 -0.22600929792909111 0.42518400498706249 0 -0.22405449890785839 0.40643558214578251 0 -0.2382988550227183 0.41778448946306668 0 -0.2572482915111563 0.42152384209731297 0 -0.2382988550227183 0.41778448946306668 0 -0.2490618870264745 0.40647588616764979 0 -0.22405449890785839 0.40643558214578251 0 -0.2382988550227183 0.41778448946306668 0 -0.2490618870264745 0.40647588616764979 0 -0.2572482915111563 0.42152384209731297 0 -0.2382988550227183 0.41778448946306668 0 -0.24092688658692171 0.43286849171069308 0 -0.22600929792909111 0.42518400498706249 0 -0.2382988550227183 0.41778448946306668 0 -0.24092688658692171 0.43286849171069308 0 -0.24000210142933509 0.37809552861286783 0 -0.23801773827758249 0.39392053259368742 0 -0.22567210936962789 0.38582584627882549 0 -0.25152819264859128 0.38883491631829081 0 -0.24000210142933509 0.37809552861286783 0 -0.23801773827758249 0.39392053259368742 0 -0.25213085833087667 0.37355178257669552 0 -0.25152819264859128 0.38883491631829081 0 -0.24000210142933509 0.37809552861286783 0 -0.25152819264859128 0.38883491631829081 0 -0.2490618870264745 0.40647588616764979 0 -0.23801773827758249 0.39392053259368742 0 -0.22405449890785839 0.40643558214578251 0 -0.2490618870264745 0.40647588616764979 0 -0.23801773827758249 0.39392053259368742 0 -0.22405449890785839 0.40643558214578251 0 -0.22567210936962789 0.38582584627882549 0 -0.2099895612515065 0.38861519238670661 0 -0.22405449890785839 0.40643558214578251 0 -0.23801773827758249 0.39392053259368742 0 -0.22567210936962789 0.38582584627882549 0 -0.22567210936962789 0.38582584627882549 0 -0.21752164111765379 0.37637519474985792 0 -0.23054114355980421 0.3681661286558337 0 -0.24000210142933509 0.37809552861286783 0 -0.22567210936962789 0.38582584627882549 0 -0.23054114355980421 0.3681661286558337 0 -0.22567210936962789 0.38582584627882549 0 -0.21752164111765379 0.37637519474985792 0 -0.2099895612515065 0.38861519238670661 0 -0.21752164111765379 0.37637519474985792 0 -0.2099895612515065 0.38861519238670661 0 -0.20825127389149589 0.37038948781896619 0 -0.2099895612515065 0.38861519238670661 0 -0.1956253707180633 0.37355818799515828 0 -0.20825127389149589 0.37038948781896619 0 -0.22405449890785839 0.40643558214578251 0 -0.2099895612515065 0.38861519238670661 0 -0.2021706660915297 0.40578572337793972 0 -0.2021706660915297 0.40578572337793972 0 -0.19434121226752371 0.39112870189136351 0 -0.18215999063752189 0.40647208697695608 0 -0.2099895612515065 0.38861519238670661 0 -0.2021706660915297 0.40578572337793972 0 -0.19434121226752371 0.39112870189136351 0 -0.2099895612515065 0.38861519238670661 0 -0.19434121226752371 0.39112870189136351 0 -0.1956253707180633 0.37355818799515828 0 -0.19434121226752371 0.39112870189136351 0 -0.18176047263899719 0.38121231872005679 0 -0.1956253707180633 0.37355818799515828 0 -0.18176047263899719 0.38121231872005679 0 -0.16585623702428451 0.39107516703040651 0 -0.16689278400863089 0.37048631692620287 0 -0.16585623702428451 0.39107516703040651 0 -0.1532541744773912 0.375434017343177 0 -0.15169756500005979 0.38990146883471011 0 -0.16585623702428451 0.39107516703040651 0 -0.1532541744773912 0.375434017343177 0 -0.16689278400863089 0.37048631692620287 0 -0.16585623702428451 0.39107516703040651 0 -0.1665369108918931 0.40914444316194981 0 -0.1556916669008335 0.40278409093046019 0 -0.16585623702428451 0.39107516703040651 0 -0.18215999063752189 0.40647208697695608 0 -0.1665369108918931 0.40914444316194981 0 -0.16585623702428451 0.39107516703040651 0 -0.15169756500005979 0.38990146883471011 0 -0.1556916669008335 0.40278409093046019 0 -0.18176047263899719 0.38121231872005679 0 -0.16585623702428451 0.39107516703040651 0 -0.18215999063752189 0.40647208697695608 0 -0.18176047263899719 0.38121231872005679 0 -0.18215999063752189 0.40647208697695608 0 -0.19434121226752371 0.39112870189136351 0 -0.18176047263899719 0.38121231872005679 0 -0.18215999063752189 0.40647208697695608 0 -0.18215999063752189 0.40647208697695608 0 -0.18255950863604661 0.43173185523385532 0 -0.18215999063752189 0.40647208697695608 0 -0.16958367679162159 0.42493542776846188 0 -0.1665369108918931 0.40914444316194981 0 -0.19413142888046839 0.4217351031076268 0 -0.18215999063752189 0.40647208697695608 0 -0.18255950863604661 0.43173185523385532 0 -0.18215999063752189 0.40647208697695608 0 -0.18255950863604661 0.43173185523385532 0 -0.16958367679162159 0.42493542776846188 0 -0.16940388650370539 0.44815354093755089 0 -0.18255950863604661 0.43173185523385532 0 -0.16958367679162159 0.42493542776846188 0 -0.16940388650370539 0.44815354093755089 0 -0.16958367679162159 0.42493542776846188 0 -0.15912083936695831 0.4347249498771325 0 -0.16958367679162159 0.42493542776846188 0 -0.15912083936695831 0.4347249498771325 0 -0.15604886632200479 0.41831593774319042 0 -0.16958367679162159 0.42493542776846188 0 -0.1665369108918931 0.40914444316194981 0 -0.15604886632200479 0.41831593774319042 0 -0.1665369108918931 0.40914444316194981 0 -0.15604886632200479 0.41831593774319042 0 -0.1556916669008335 0.40278409093046019 0 -0.15604886632200479 0.41831593774319042 0 -0.14768726638806501 0.40958107086639878 0 -0.1556916669008335 0.40278409093046019 0 -0.15604886632200479 0.41831593774319042 0 -0.1455440964649429 0.41771164433310332 0 -0.14575226394851429 0.42876386523653243 0 -0.15604886632200479 0.41831593774319042 0 -0.1455440964649429 0.41771164433310332 0 -0.14768726638806501 0.40958107086639878 0 -0.1455440964649429 0.41771164433310332 0 -0.14768726638806501 0.40958107086639878 0 -0.13820848934052041 0.41088683445876423 0 -0.15912083936695831 0.4347249498771325 0 -0.15604886632200479 0.41831593774319042 0 -0.14575226394851429 0.42876386523653243 0 -0.14949031039727409 0.43903968606904947 0 -0.15912083936695831 0.4347249498771325 0 -0.14575226394851429 0.42876386523653243 0 -0.1455440964649429 0.41771164433310332 0 -0.14575226394851429 0.42876386523653243 0 -0.13557398954387551 0.42076075412316039 0 -0.13973201497409549 0.44099892737807922 0 -0.14949031039727409 0.43903968606904947 0 -0.14575226394851429 0.42876386523653243 0 -0.13491063247587859 0.43073185275000708 0 -0.1242188050129694 0.42501783294758849 0 -0.1248743097581413 0.44162978393037222 0 -0.13973201497409549 0.44099892737807922 0 -0.14575226394851429 0.42876386523653243 0 -0.13491063247587859 0.43073185275000708 0 -0.14575226394851429 0.42876386523653243 0 -0.13491063247587859 0.43073185275000708 0 -0.13557398954387551 0.42076075412316039 0 -0.13491063247587859 0.43073185275000708 0 -0.13557398954387551 0.42076075412316039 0 -0.1242188050129694 0.42501783294758849 0 -0.13820848934052041 0.41088683445876423 0 -0.13557398954387551 0.42076075412316039 0 -0.12623023605756489 0.41143854881348008 0 -0.1455440964649429 0.41771164433310332 0 -0.13820848934052041 0.41088683445876423 0 -0.13557398954387551 0.42076075412316039 0 -0.13557398954387551 0.42076075412316039 0 -0.12623023605756489 0.41143854881348008 0 -0.1242188050129694 0.42501783294758849 0 -0.13820848934052041 0.41088683445876423 0 -0.12623023605756489 0.41143854881348008 0 -0.13398515235888339 0.40371564514020769 0 -0.12997925716256209 0.39431640422262348 0 -0.14074253368576661 0.38200722200303072 0 -0.1429432129120235 0.39820684686647628 0 -0.12623023605756489 0.41143854881348008 0 -0.13398515235888339 0.40371564514020769 0 -0.12997925716256209 0.39431640422262348 0 -0.13398515235888339 0.40371564514020769 0 -0.12997925716256209 0.39431640422262348 0 -0.1429432129120235 0.39820684686647628 0 -0.13820848934052041 0.41088683445876423 0 -0.13398515235888339 0.40371564514020769 0 -0.1429432129120235 0.39820684686647628 0 -0.12997925716256209 0.39431640422262348 0 -0.14074253368576661 0.38200722200303072 0 -0.12523428666698541 0.37069662222368049 0 -0.12997925716256209 0.39431640422262348 0 -0.12523428666698541 0.37069662222368049 0 -0.12103247972044499 0.39311621374447298 0 -0.14074253368576661 0.38200722200303072 0 -0.15169756500005979 0.38990146883471011 0 -0.1429432129120235 0.39820684686647628 0 -0.14074253368576661 0.38200722200303072 0 -0.1532541744773912 0.375434017343177 0 -0.15169756500005979 0.38990146883471011 0 -0.15169756500005979 0.38990146883471011 0 -0.1556916669008335 0.40278409093046019 0 -0.1429432129120235 0.39820684686647628 0 -0.14768726638806501 0.40958107086639878 0 -0.1556916669008335 0.40278409093046019 0 -0.1429432129120235 0.39820684686647628 0 -0.14768726638806501 0.40958107086639878 0 -0.13820848934052041 0.41088683445876423 0 -0.1429432129120235 0.39820684686647628 0 -0.14407255521749979 0.34403263722221961 0 -0.15504053286571459 0.3545366000593369 0 -0.14129669608781389 0.36249735492572199 0 -0.14407255521749979 0.34403263722221961 0 -0.15504053286571459 0.3545366000593369 0 -0.1549481930100888 0.34056708499864929 0 -0.14074253368576661 0.38200722200303072 0 -0.1532541744773912 0.375434017343177 0 -0.14129669608781389 0.36249735492572199 0 -0.1532541744773912 0.375434017343177 0 -0.15504053286571459 0.3545366000593369 0 -0.14129669608781389 0.36249735492572199 0 -0.14129669608781389 0.36249735492572199 0 -0.12523428666698541 0.37069662222368049 0 -0.1294360936135257 0.3482770307028879 0 -0.12523428666698541 0.37069662222368049 0 -0.1294360936135257 0.3482770307028879 0 -0.14074253368576661 0.38200722200303072 0 -0.14129669608781389 0.36249735492572199 0 -0.12523428666698541 0.37069662222368049 0 -0.14407255521749979 0.34403263722221961 0 -0.14129669608781389 0.36249735492572199 0 -0.1294360936135257 0.3482770307028879 0 -0.1294360936135257 0.3482770307028879 0 -0.13363790056006589 0.32585743918209531 0 -0.14407255521749979 0.34403263722221961 0 -0.1294360936135257 0.3482770307028879 0 -0.13363790056006589 0.32585743918209531 0 -0.1294360936135257 0.3482770307028879 0 -0.13363790056006589 0.32585743918209531 0 -0.1154499742120704 0.34086754873962172 0 -0.12722248981549561 0.3181430308760943 0 -0.13363790056006589 0.32585743918209531 0 -0.1360408951285694 0.3130357752318072 0 -0.12722248981549561 0.3181430308760943 0 -0.1360408951285694 0.3130357752318072 0 -0.12136448477009221 0.30951812845445109 0 -0.12722248981549561 0.3181430308760943 0 -0.13363790056006589 0.32585743918209531 0 -0.12142985306419619 0.32461006626398298 0 -0.13363790056006589 0.32585743918209531 0 -0.12142985306419619 0.32461006626398298 0 -0.13363790056006589 0.32585743918209531 0 -0.1360408951285694 0.3130357752318072 0 -0.14290423209994971 0.32095809222069871 0 -0.13363790056006589 0.32585743918209531 0 -0.1360408951285694 0.3130357752318072 0 -0.14290423209994971 0.32095809222069871 0 -0.1532404752523272 0.32269894785805692 0 -0.1464174014568787 0.29836992735667278 0 -0.13363790056006589 0.32585743918209531 0 -0.14290423209994971 0.32095809222069871 0 -0.15729966860100811 0.32827511069417059 0 -0.13363790056006589 0.32585743918209531 0 -0.15729966860100811 0.32827511069417059 0 -0.14290423209994971 0.32095809222069871 0 -0.1532404752523272 0.32269894785805692 0 -0.15729966860100811 0.32827511069417059 0 -0.1532404752523272 0.32269894785805692 0 -0.15943794807189979 0.31595908059817063 0 -0.1547819877644892 0.3091453549012102 0 -0.14407255521749979 0.34403263722221961 0 -0.13363790056006589 0.32585743918209531 0 -0.14748957934716561 0.33468306802428371 0 -0.13363790056006589 0.32585743918209531 0 -0.14748957934716561 0.33468306802428371 0 -0.15729966860100811 0.32827511069417059 0 -0.14748957934716561 0.33468306802428371 0 -0.1549481930100888 0.34056708499864929 0 -0.15729966860100811 0.32827511069417059 0 -0.14407255521749979 0.34403263722221961 0 -0.14748957934716561 0.33468306802428371 0 -0.1549481930100888 0.34056708499864929 0 -0.15729966860100811 0.32827511069417059 0 -0.18096143664194889 0.33069278220625808 0 -0.1549481930100888 0.34056708499864929 0 -0.15729966860100811 0.32827511069417059 0 -0.16781010436956259 0.34240718275037813 0 -0.15729966860100811 0.32827511069417059 0 -0.16781010436956259 0.34240718275037813 0 -0.18096143664194889 0.33069278220625808 0 -0.15729966860100811 0.32827511069417059 0 -0.17028988351433311 0.32233995817617028 0 -0.18096143664194889 0.33069278220625808 0 -0.15943794807189979 0.31595908059817063 0 -0.16495134068588049 0.31685297469802859 0 -0.1638395481514221 0.30983277085387728 0 -0.1532404752523272 0.32269894785805692 0 -0.15943794807189979 0.31595908059817063 0 -0.16037638850537991 0.32126535467967993 0 -0.15943794807189979 0.31595908059817063 0 -0.16037638850537991 0.32126535467967993 0 -0.16495134068588049 0.31685297469802859 0 -0.15729966860100811 0.32827511069417059 0 -0.16037638850537991 0.32126535467967993 0 -0.17028988351433311 0.32233995817617028 0 -0.1532404752523272 0.32269894785805692 0 -0.15729966860100811 0.32827511069417059 0 -0.16037638850537991 0.32126535467967993 0 -0.16495134068588049 0.31685297469802859 0 -0.17285953122972289 0.31090601179704258 0 -0.1638395481514221 0.30983277085387728 0 -0.17028988351433311 0.32233995817617028 0 -0.16495134068588049 0.31685297469802859 0 -0.17285953122972289 0.31090601179704258 0 -0.16037638850537991 0.32126535467967993 0 -0.17028988351433311 0.32233995817617028 0 -0.16495134068588049 0.31685297469802859 0 -0.18077272512400111 0.31876138179813301 0 -0.17285953122972289 0.31090601179704258 0 -0.17028988351433311 0.32233995817617028 0 -0.18077272512400111 0.31876138179813301 0 -0.17285953122972289 0.31090601179704258 0 -0.17028988351433311 0.32233995817617028 0 -0.18077272512400111 0.31876138179813301 0 -0.18096143664194889 0.33069278220625808 0 -0.18077272512400111 0.31876138179813301 0 -0.19386790912735871 0.33176087567547108 0 -0.18077272512400111 0.31876138179813301 0 -0.18096143664194889 0.33069278220625808 0 -0.18077272512400111 0.31876138179813301 0 -0.18096143664194889 0.33069278220625808 0 -0.19386790912735871 0.33176087567547108 0 -0.18096143664194889 0.33069278220625808 0 -0.1813609546404725 0.35595255046315749 0 -0.18096143664194889 0.33069278220625808 0 -0.1813609546404725 0.35595255046315749 0 -0.19258948339875709 0.33633707034479371 0 -0.16781010436956259 0.34240718275037813 0 -0.18096143664194889 0.33069278220625808 0 -0.1813609546404725 0.35595255046315749 0 -0.18096143664194889 0.33069278220625808 0 -0.19386790912735871 0.33176087567547108 0 -0.15504053286571459 0.3545366000593369 0 -0.16781010436956259 0.34240718275037813 0 -0.1813609546404725 0.35595255046315749 0 -0.15504053286571459 0.3545366000593369 0 -0.1549481930100888 0.34056708499864929 0 -0.16781010436956259 0.34240718275037813 0 -0.1532541744773912 0.375434017343177 0 -0.15504053286571459 0.3545366000593369 0 -0.16689278400863089 0.37048631692620287 0 -0.15504053286571459 0.3545366000593369 0 -0.1813609546404725 0.35595255046315749 0 -0.16689278400863089 0.37048631692620287 0 -0.18176047263899719 0.38121231872005679 0 -0.1813609546404725 0.35595255046315749 0 -0.18176047263899719 0.38121231872005679 0 -0.1813609546404725 0.35595255046315749 0 -0.1956253707180633 0.37355818799515828 0 -0.18176047263899719 0.38121231872005679 0 -0.1813609546404725 0.35595255046315749 0 -0.16689278400863089 0.37048631692620287 0 -0.1813609546404725 0.35595255046315749 0 -0.1956253707180633 0.37355818799515828 0 -0.2000380028121157 0.35856944723279938 0 -0.1956253707180633 0.37355818799515828 0 -0.2000380028121157 0.35856944723279938 0 -0.20825127389149589 0.37038948781896619 0 -0.1813609546404725 0.35595255046315749 0 -0.1951678646333711 0.34883535218340811 0 -0.19258948339875709 0.33633707034479371 0 -0.1813609546404725 0.35595255046315749 0 -0.1951678646333711 0.34883535218340811 0 -0.2000380028121157 0.35856944723279938 0 -0.1951678646333711 0.34883535218340811 0 -0.2000380028121157 0.35856944723279938 0 -0.20668301768213909 0.34448234069288158 0 -0.20668301768213909 0.34448234069288158 0 -0.2120127789660084 0.36084248239747968 0 -0.21921666942493959 0.3569244055809645 0 -0.2000380028121157 0.35856944723279938 0 -0.20668301768213909 0.34448234069288158 0 -0.2120127789660084 0.36084248239747968 0 -0.2120127789660084 0.36084248239747968 0 -0.21921666942493959 0.3569244055809645 0 -0.20668301768213909 0.34448234069288158 0 -0.21921666942493959 0.3569244055809645 0 -0.22158808080033929 0.34557455345049992 0 -0.20668301768213909 0.34448234069288158 0 -0.21921666942493959 0.3569244055809645 0 -0.2000380028121157 0.35856944723279938 0 -0.20825127389149589 0.37038948781896619 0 -0.2120127789660084 0.36084248239747968 0 -0.2120127789660084 0.36084248239747968 0 -0.2199937556016836 0.36693485901855288 0 -0.21921666942493959 0.3569244055809645 0 -0.20825127389149589 0.37038948781896619 0 -0.2120127789660084 0.36084248239747968 0 -0.2199937556016836 0.36693485901855288 0 -0.21752164111765379 0.37637519474985792 0 -0.20825127389149589 0.37038948781896619 0 -0.2199937556016836 0.36693485901855288 0 -0.21752164111765379 0.37637519474985792 0 -0.23054114355980421 0.3681661286558337 0 -0.2199937556016836 0.36693485901855288 0 -0.23054114355980421 0.3681661286558337 0 -0.21921666942493959 0.3569244055809645 0 -0.23305195790672301 0.35812934693154008 0 -0.23054114355980421 0.3681661286558337 0 -0.2199937556016836 0.36693485901855288 0 -0.21921666942493959 0.3569244055809645 0 -0.23054114355980421 0.3681661286558337 0 -0.21921666942493959 0.3569244055809645 0 -0.21921666942493959 0.3569244055809645 0 -0.22158808080033929 0.34557455345049992 0 -0.23915963598069589 0.34607775607121571 0 -0.21921666942493959 0.3569244055809645 0 -0.23915963598069589 0.34607775607121571 0 -0.21921666942493959 0.3569244055809645 0 -0.23305195790672301 0.35812934693154008 0 -0.23915963598069589 0.34607775607121571 0 -0.23305195790672301 0.35812934693154008 0 -0.23915963598069589 0.34607775607121571 0 -0.24329038266145239 0.36134909741814653 0 -0.25407523553642281 0.3497448278934856 0 -0.23915963598069589 0.34607775607121571 0 -0.24329038266145239 0.36134909741814653 0 -0.25213085833087667 0.37355178257669552 0 -0.24000210142933509 0.37809552861286783 0 -0.24329038266145239 0.36134909741814653 0 -0.24000210142933509 0.37809552861286783 0 -0.23054114355980421 0.3681661286558337 0 -0.24329038266145239 0.36134909741814653 0 -0.23054114355980421 0.3681661286558337 0 -0.23305195790672301 0.35812934693154008 0 -0.24329038266145239 0.36134909741814653 0 -0.23582541811145999 0.32679902143390172 0 -0.24885494741763489 0.31718848033418301 0 -0.23189508169276829 0.30076725351495531 0 -0.23582541811145999 0.32679902143390172 0 -0.24885494741763489 0.31718848033418301 0 -0.24633099797708269 0.32737693631841108 0 -0.25451497659773847 0.32559442806853028 0 -0.24885494741763489 0.31718848033418301 0 -0.24633099797708269 0.32737693631841108 0 -0.24843663428782739 0.33758714710907461 0 -0.22129300011358269 0.33481371145693772 0 -0.25451497659773847 0.32559442806853028 0 -0.24633099797708269 0.32737693631841108 0 -0.24843663428782739 0.33758714710907461 0 -0.25910260253645218 0.33523110656146687 0 -0.23915963598069589 0.34607775607121571 0 -0.23582541811145999 0.32679902143390172 0 -0.24633099797708269 0.32737693631841108 0 -0.24843663428782739 0.33758714710907461 0 -0.25910260253645218 0.33523110656146687 0 -0.23915963598069589 0.34607775607121571 0 -0.24843663428782739 0.33758714710907461 0 -0.23582541811145999 0.32679902143390172 0 -0.24843663428782739 0.33758714710907461 0 -0.22129300011358269 0.33481371145693772 0 -0.23915963598069589 0.34607775607121571 0 -0.24843663428782739 0.33758714710907461 0 -0.22129300011358269 0.33481371145693772 0 -0.22158808080033929 0.34557455345049992 0 -0.23915963598069589 0.34607775607121571 0 -0.22129300011358269 0.33481371145693772 0 -0.23582541811145999 0.32679902143390172 0 -0.21954464392232159 0.31820766509236142 0 -0.23189508169276829 0.30076725351495531 0 -0.23582541811145999 0.32679902143390172 0 -0.22129300011358269 0.33481371145693772 0 -0.21954464392232159 0.31820766509236142 0 -0.21954464392232159 0.31820766509236142 0 -0.20492818889453221 0.32276220977772679 0 -0.20060783596013981 0.3076349397264902 0 -0.22129300011358269 0.33481371145693772 0 -0.21954464392232159 0.31820766509236142 0 -0.20492818889453221 0.32276220977772679 0 -0.22129300011358269 0.33481371145693772 0 -0.20492818889453221 0.32276220977772679 0 -0.19386790912735871 0.33176087567547108 0 -0.22129300011358269 0.33481371145693772 0 -0.19386790912735871 0.33176087567547108 0 -0.20668301768213909 0.34448234069288158 0 -0.22129300011358269 0.33481371145693772 0 -0.19386790912735871 0.33176087567547108 0 -0.20668301768213909 0.34448234069288158 0 -0.22158808080033929 0.34557455345049992 0 -0.22129300011358269 0.33481371145693772 0 -0.20668301768213909 0.34448234069288158 0 -0.19386790912735871 0.33176087567547108 0 -0.19258948339875709 0.33633707034479371 0 -0.20668301768213909 0.34448234069288158 0 -0.19386790912735871 0.33176087567547108 0 -0.1951678646333711 0.34883535218340811 0 -0.20668301768213909 0.34448234069288158 0 -0.19258948339875709 0.33633707034479371 0 -0.18096143664194889 0.33069278220625808 0 -0.19386790912735871 0.33176087567547108 0 -0.19258948339875709 0.33633707034479371 0 -0.19386790912735871 0.33176087567547108 0 -0.19258948339875709 0.33633707034479371 0 -0.18077272512400111 0.31876138179813301 0 -0.19386790912735871 0.33176087567547108 0 -0.20060783596013981 0.3076349397264902 0 -0.20492818889453221 0.32276220977772679 0 -0.19386790912735871 0.33176087567547108 0 -0.20060783596013981 0.3076349397264902 0 -0.19386790912735871 0.33176087567547108 0 -0.20060783596013981 0.3076349397264902 0 -0.20060783596013981 0.3076349397264902 0 -0.20734776279292019 0.28350900377750898 0 -0.23189508169276829 0.30076725351495531 0 -0.21954464392232159 0.31820766509236142 0 -0.20060783596013981 0.3076349397264902 0 -0.23189508169276829 0.30076725351495531 0 -0.20060783596013981 0.3076349397264902 0 -0.20734776279292019 0.28350900377750898 0 -0.18034630435624241 0.29180066960649809 0 -0.20734776279292019 0.28350900377750898 0 -0.19375927737912041 0.2730469699042487 0 -0.18034630435624241 0.29180066960649809 0 -0.20060783596013981 0.3076349397264902 0 -0.20734776279292019 0.28350900377750898 0 -0.20734776279292019 0.28350900377750898 0 -0.23189508169276829 0.30076725351495531 0 -0.22396762922540969 0.27514125130055722 0 -0.23189508169276829 0.30076725351495531 0 -0.2378434694439332 0.28391349183279069 0 -0.22396762922540969 0.27514125130055722 0 -0.25673188405007052 0.28646841290673969 0 -0.23189508169276829 0.30076725351495531 0 -0.2378434694439332 0.28391349183279069 0 -0.25673188405007052 0.28646841290673969 0 -0.23189508169276829 0.30076725351495531 0 -0.25505401324638421 0.30366623925853881 0 -0.25673188405007052 0.28646841290673969 0 -0.23189508169276829 0.30076725351495531 0 -0.25505401324638421 0.30366623925853881 0 -0.24885494741763489 0.31718848033418301 0 -0.23189508169276829 0.30076725351495531 0 -0.25265925142613249 0.26128234508680298 0 -0.23885305679183191 0.2684477152547543 0 -0.23951274761537589 0.2474853768326048 0 -0.23885305679183191 0.2684477152547543 0 -0.22811192938500721 0.25829645972706228 0 -0.23951274761537589 0.2474853768326048 0 -0.25621817608628389 0.2460965770837312 0 -0.25265925142613249 0.26128234508680298 0 -0.23951274761537589 0.2474853768326048 0 -0.25673188405007052 0.28646841290673969 0 -0.2378434694439332 0.28391349183279069 0 -0.23885305679183191 0.2684477152547543 0 -0.25265925142613249 0.26128234508680298 0 -0.25673188405007052 0.28646841290673969 0 -0.23885305679183191 0.2684477152547543 0 -0.23885305679183191 0.2684477152547543 0 -0.22396762922540969 0.27514125130055722 0 -0.22811192938500721 0.25829645972706228 0 -0.2378434694439332 0.28391349183279069 0 -0.23885305679183191 0.2684477152547543 0 -0.22396762922540969 0.27514125130055722 0 -0.22811192938500721 0.25829645972706228 0 -0.22371849106378741 0.2462845034026982 0 -0.23951274761537589 0.2474853768326048 0 -0.22396762922540969 0.27514125130055722 0 -0.22811192938500721 0.25829645972706228 0 -0.21408768962570049 0.25938306782852782 0 -0.22811192938500721 0.25829645972706228 0 -0.21408768962570049 0.25938306782852782 0 -0.22371849106378741 0.2462845034026982 0 -0.21408768962570049 0.25938306782852782 0 -0.19928355658839081 0.25766712263582692 0 -0.2066863838603582 0.24242880758937649 0 -0.21408768962570049 0.25938306782852782 0 -0.20163280817849061 0.26608937016207479 0 -0.19928355658839081 0.25766712263582692 0 -0.20734776279292019 0.28350900377750898 0 -0.21408768962570049 0.25938306782852782 0 -0.20734776279292019 0.28350900377750898 0 -0.22396762922540969 0.27514125130055722 0 -0.21408768962570049 0.25938306782852782 0 -0.20734776279292019 0.28350900377750898 0 -0.21408768962570049 0.25938306782852782 0 -0.20163280817849061 0.26608937016207479 0 -0.20734776279292019 0.28350900377750898 0 -0.20163280817849061 0.26608937016207479 0 -0.19375927737912041 0.2730469699042487 0 -0.20163280817849061 0.26608937016207479 0 -0.19375927737912041 0.2730469699042487 0 -0.19160269433399771 0.26436194023610149 0 -0.19375927737912041 0.2730469699042487 0 -0.19160269433399771 0.26436194023610149 0 -0.17991988358848049 0.26483995741486333 0 -0.19928355658839081 0.25766712263582692 0 -0.18259587964237009 0.2606558300825601 0 -0.2066863838603582 0.24242880758937649 0 -0.18259587964237009 0.2606558300825601 0 -0.19333963139412971 0.24385714112684301 0 -0.19928355658839081 0.25766712263582692 0 -0.19160269433399771 0.26436194023610149 0 -0.18259587964237009 0.2606558300825601 0 -0.18259587964237009 0.2606558300825601 0 -0.2066863838603582 0.24242880758937649 0 -0.20163280817849061 0.26608937016207479 0 -0.19928355658839081 0.25766712263582692 0 -0.19160269433399771 0.26436194023610149 0 -0.17991988358848049 0.26483995741486333 0 -0.17951502337729761 0.2392424245160312 0 -0.17991988358848049 0.26483995741486333 0 -0.17042143569771079 0.26099360542817968 0 -0.17951502337729761 0.2392424245160312 0 -0.18259587964237009 0.2606558300825601 0 -0.17991988358848049 0.26483995741486333 0 -0.17951502337729761 0.2392424245160312 0 -0.19160269433399771 0.26436194023610149 0 -0.18259587964237009 0.2606558300825601 0 -0.17991988358848049 0.26483995741486333 0 -0.18259587964237009 0.2606558300825601 0 -0.17991988358848049 0.26483995741486333 0 -0.17991988358848049 0.26483995741486333 0 -0.17042143569771079 0.26099360542817968 0 -0.17716480609589361 0.26914773470870201 0 -0.17042143569771079 0.26099360542817968 0 -0.1627301728603629 0.26968240911070368 0 -0.1532221513837192 0.25419418888983192 0 -0.17042143569771079 0.26099360542817968 0 -0.1532221513837192 0.25419418888983192 0 -0.17951502337729761 0.2392424245160312 0 -0.1627301728603629 0.26968240911070368 0 -0.1620479085915319 0.28265904931380531 0 -0.15271877240598841 0.27446820953958367 0 -0.17042143569771079 0.26099360542817968 0 -0.1627301728603629 0.26968240911070368 0 -0.1699765768805111 0.26885491792894611 0 -0.1627301728603629 0.26968240911070368 0 -0.1699765768805111 0.26885491792894611 0 -0.16860704672851359 0.27535934789532951 0 -0.1627301728603629 0.26968240911070368 0 -0.16860704672851359 0.27535934789532951 0 -0.1620479085915319 0.28265904931380531 0 -0.16860704672851359 0.27535934789532951 0 -0.17077339862397739 0.28423195702734899 0 -0.1620479085915319 0.28265904931380531 0 -0.17991988358848049 0.26483995741486333 0 -0.18034630435624241 0.29180066960649809 0 -0.17991988358848049 0.26483995741486333 0 -0.17716480609589361 0.26914773470870201 0 -0.18034630435624241 0.29180066960649809 0 -0.16860704672851359 0.27535934789532951 0 -0.17716480609589361 0.26914773470870201 0 -0.17077339862397739 0.28423195702734899 0 -0.19375927737912041 0.2730469699042487 0 -0.17991988358848049 0.26483995741486333 0 -0.18034630435624241 0.29180066960649809 0 -0.17042143569771079 0.26099360542817968 0 -0.1699765768805111 0.26885491792894611 0 -0.17716480609589361 0.26914773470870201 0 -0.1699765768805111 0.26885491792894611 0 -0.16860704672851359 0.27535934789532951 0 -0.17716480609589361 0.26914773470870201 0 -0.17991988358848049 0.26483995741486333 0 -0.17716480609589361 0.26914773470870201 0 -0.17716480609589361 0.26914773470870201 0 -0.18034630435624241 0.29180066960649809 0 -0.17077339862397739 0.28423195702734899 0 -0.18034630435624241 0.29180066960649809 0 -0.16501618616712291 0.29775164083812761 0 -0.17077339862397739 0.28423195702734899 0 -0.18077272512400111 0.31876138179813301 0 -0.18034630435624241 0.29180066960649809 0 -0.18077272512400111 0.31876138179813301 0 -0.18034630435624241 0.29180066960649809 0 -0.17285953122972289 0.31090601179704258 0 -0.18034630435624241 0.29180066960649809 0 -0.17285953122972289 0.31090601179704258 0 -0.16501618616712291 0.29775164083812761 0 -0.18077272512400111 0.31876138179813301 0 -0.20060783596013981 0.3076349397264902 0 -0.18034630435624241 0.29180066960649809 0 -0.16501618616712291 0.29775164083812761 0 -0.15329008091572741 0.28945008379417048 0 -0.1547819877644892 0.3091453549012102 0 -0.17285953122972289 0.31090601179704258 0 -0.16501618616712291 0.29775164083812761 0 -0.1638395481514221 0.30983277085387728 0 -0.16501618616712291 0.29775164083812761 0 -0.1638395481514221 0.30983277085387728 0 -0.1547819877644892 0.3091453549012102 0 -0.15943794807189979 0.31595908059817063 0 -0.1638395481514221 0.30983277085387728 0 -0.1547819877644892 0.3091453549012102 0 -0.16501618616712291 0.29775164083812761 0 -0.17077339862397739 0.28423195702734899 0 -0.1620479085915319 0.28265904931380531 0 -0.16501618616712291 0.29775164083812761 0 -0.1620479085915319 0.28265904931380531 0 -0.15329008091572741 0.28945008379417048 0 -0.1464174014568787 0.29836992735667278 0 -0.13959432766143021 0.2740409068552887 0 -0.1620479085915319 0.28265904931380531 0 -0.15329008091572741 0.28945008379417048 0 -0.15271877240598841 0.27446820953958367 0 -0.15329008091572741 0.28945008379417048 0 -0.1464174014568787 0.29836992735667278 0 -0.13959432766143021 0.2740409068552887 0 -0.15329008091572741 0.28945008379417048 0 -0.1464174014568787 0.29836992735667278 0 -0.1547819877644892 0.3091453549012102 0 -0.1532404752523272 0.32269894785805692 0 -0.1464174014568787 0.29836992735667278 0 -0.1360408951285694 0.3130357752318072 0 -0.14290423209994971 0.32095809222069871 0 -0.1464174014568787 0.29836992735667278 0 -0.1532404752523272 0.32269894785805692 0 -0.1464174014568787 0.29836992735667278 0 -0.1547819877644892 0.3091453549012102 0 -0.1360408951285694 0.3130357752318072 0 -0.1264253840414637 0.29528772621663357 0 -0.12136448477009221 0.30951812845445109 0 -0.1360408951285694 0.3130357752318072 0 -0.1464174014568787 0.29836992735667278 0 -0.1264253840414637 0.29528772621663357 0 -0.1464174014568787 0.29836992735667278 0 -0.1264253840414637 0.29528772621663357 0 -0.13959432766143021 0.2740409068552887 0 -0.1264253840414637 0.29528772621663357 0 -0.13959432766143021 0.2740409068552887 0 -0.1185373796182298 0.27837978510360878 0 -0.13959432766143021 0.2740409068552887 0 -0.1327712538659816 0.24971188635390451 0 -0.13959432766143021 0.2740409068552887 0 -0.116744543106582 0.25728181003509248 0 -0.1327712538659816 0.24971188635390451 0 -0.13959432766143021 0.2740409068552887 0 -0.1532221513837192 0.25419418888983192 0 -0.1327712538659816 0.24971188635390451 0 -0.1627301728603629 0.26968240911070368 0 -0.1532221513837192 0.25419418888983192 0 -0.15271877240598841 0.27446820953958367 0 -0.13959432766143021 0.2740409068552887 0 -0.1532221513837192 0.25419418888983192 0 -0.15271877240598841 0.27446820953958367 0 -0.15329008091572741 0.28945008379417048 0 -0.13959432766143021 0.2740409068552887 0 -0.15271877240598841 0.27446820953958367 0 -0.1061606963602142 0.26761343855331338 0 -0.1001789302111205 0.27974269320078388 0 -0.1185373796182298 0.27837978510360878 0 -0.1061606963602142 0.26761343855331338 0 -0.1001789302111205 0.27974269320078388 0 -0.092613028744971265 0.26767711662392979 0 -0.1061606963602142 0.26761343855331338 0 -0.10005120432924321 0.25626016583208688 0 -0.116744543106582 0.25728181003509248 0 -0.1061606963602142 0.26761343855331338 0 -0.10005120432924321 0.25626016583208688 0 -0.092613028744971265 0.26767711662392979 0 -0.10005120432924321 0.25626016583208688 0 -0.116744543106582 0.25728181003509248 0 -0.1045487088169635 0.24438495162540061 0 -0.13959432766143021 0.2740409068552887 0 -0.116744543106582 0.25728181003509248 0 -0.1185373796182298 0.27837978510360878 0 -0.1061606963602142 0.26761343855331338 0 -0.116744543106582 0.25728181003509248 0 -0.1185373796182298 0.27837978510360878 0 -0.1264253840414637 0.29528772621663357 0 -0.1127724140037699 0.30190213115774378 0 -0.1091517300735869 0.29135078386346752 0 -0.1264253840414637 0.29528772621663357 0 -0.1185373796182298 0.27837978510360878 0 -0.1091517300735869 0.29135078386346752 0 -0.1264253840414637 0.29528772621663357 0 -0.12136448477009221 0.30951812845445109 0 -0.1127724140037699 0.30190213115774378 0 -0.12136448477009221 0.30951812845445109 0 -0.1127724140037699 0.30190213115774378 0 -0.1061991548417472 0.31213959050036899 0 -0.1127724140037699 0.30190213115774378 0 -0.1061991548417472 0.31213959050036899 0 -0.1005146973405663 0.30141191014932889 0 -0.1127724140037699 0.30190213115774378 0 -0.1005146973405663 0.30141191014932889 0 -0.1091517300735869 0.29135078386346752 0 -0.1005146973405663 0.30141191014932889 0 -0.094430836728355921 0.29177030977787999 0 -0.089068024122243669 0.30112896568664949 0 -0.1061991548417472 0.31213959050036899 0 -0.1005146973405663 0.30141191014932889 0 -0.090928135519314904 0.31087631578889069 0 -0.1001789302111205 0.27974269320078388 0 -0.1185373796182298 0.27837978510360878 0 -0.1091517300735869 0.29135078386346752 0 -0.1005146973405663 0.30141191014932889 0 -0.1091517300735869 0.29135078386346752 0 -0.094430836728355921 0.29177030977787999 0 -0.1001789302111205 0.27974269320078388 0 -0.1091517300735869 0.29135078386346752 0 -0.094430836728355921 0.29177030977787999 0 -0.1001789302111205 0.27974269320078388 0 -0.094430836728355921 0.29177030977787999 0 -0.086145563619835275 0.2816538088019015 0 -0.094430836728355921 0.29177030977787999 0 -0.086145563619835275 0.2816538088019015 0 -0.081526075002782958 0.29533369696514911 0 -0.094430836728355921 0.29177030977787999 0 -0.081526075002782958 0.29533369696514911 0 -0.089068024122243669 0.30112896568664949 0 -0.086145563619835275 0.2816538088019015 0 -0.081526075002782958 0.29533369696514911 0 -0.070830210313899522 0.29195808219782299 0 -0.090928135519314904 0.31087631578889069 0 -0.079482369404140468 0.30560554845979909 0 -0.074915307566508993 0.31649039264194578 0 -0.090928135519314904 0.31087631578889069 0 -0.089068024122243669 0.30112896568664949 0 -0.079482369404140468 0.30560554845979909 0 -0.1005146973405663 0.30141191014932889 0 -0.090928135519314904 0.31087631578889069 0 -0.089068024122243669 0.30112896568664949 0 -0.081526075002782958 0.29533369696514911 0 -0.089068024122243669 0.30112896568664949 0 -0.079482369404140468 0.30560554845979909 0 -0.054647974243728172 0.30430181459310768 0 -0.074915307566508993 0.31649039264194578 0 -0.079482369404140468 0.30560554845979909 0 -0.068661557073843291 0.3005821027458685 0 -0.074915307566508993 0.31649039264194578 0 -0.068661557073843291 0.3005821027458685 0 -0.054647974243728172 0.30430181459310768 0 -0.074915307566508993 0.31649039264194578 0 -0.081526075002782958 0.29533369696514911 0 -0.079482369404140468 0.30560554845979909 0 -0.068661557073843291 0.3005821027458685 0 -0.070830210313899522 0.29195808219782299 0 -0.067453711470644842 0.27023673344429472 0 -0.052574645638654917 0.28480468584225688 0 -0.081526075002782958 0.29533369696514911 0 -0.068661557073843291 0.3005821027458685 0 -0.070830210313899522 0.29195808219782299 0 -0.068661557073843291 0.3005821027458685 0 -0.070830210313899522 0.29195808219782299 0 -0.068661557073843291 0.3005821027458685 0 -0.070830210313899522 0.29195808219782299 0 -0.059610011597539182 0.29372125904316332 0 -0.086145563619835275 0.2816538088019015 0 -0.070830210313899522 0.29195808219782299 0 -0.077256670317037021 0.26667642926106078 0 -0.070830210313899522 0.29195808219782299 0 -0.067453711470644842 0.27023673344429472 0 -0.070830210313899522 0.29195808219782299 0 -0.077256670317037021 0.26667642926106078 0 -0.070830210313899522 0.29195808219782299 0 -0.067453711470644842 0.27023673344429472 0 -0.077256670317037021 0.26667642926106078 0 -0.086145563619835275 0.2816538088019015 0 -0.077256670317037021 0.26667642926106078 0 -0.092613028744971265 0.26767711662392979 0 -0.1001789302111205 0.27974269320078388 0 -0.086145563619835275 0.2816538088019015 0 -0.092613028744971265 0.26767711662392979 0 -0.077256670317037021 0.26667642926106078 0 -0.086302411784292182 0.25447467192259482 0 -0.083666647235009842 0.24139059785004849 0 -0.077256670317037021 0.26667642926106078 0 -0.083666647235009842 0.24139059785004849 0 -0.10005120432924321 0.25626016583208688 0 -0.086302411784292182 0.25447467192259482 0 -0.094679029848152713 0.24609146959404629 0 -0.10005120432924321 0.25626016583208688 0 -0.092613028744971265 0.26767711662392979 0 -0.086302411784292182 0.25447467192259482 0 -0.077256670317037021 0.26667642926106078 0 -0.092613028744971265 0.26767711662392979 0 -0.086302411784292182 0.25447467192259482 0 -0.077256670317037021 0.26667642926106078 0 -0.064077212627390134 0.24851538469076631 0 -0.083666647235009842 0.24139059785004849 0 -0.067453711470644842 0.27023673344429472 0 -0.077256670317037021 0.26667642926106078 0 -0.064077212627390134 0.24851538469076631 0 -0.067453711470644842 0.27023673344429472 0 -0.064077212627390134 0.24851538469076631 0 -0.067453711470644842 0.27023673344429472 0 -0.04634179854296408 0.26632715615711849 0 -0.064077212627390134 0.24851538469076631 0 -0.04634179854296408 0.26632715615711849 0 -0.064077212627390134 0.24851538469076631 0 -0.046578861792199937 0.24361118962503389 0 -0.067453711470644842 0.27023673344429472 0 -0.04634179854296408 0.26632715615711849 0 -0.052574645638654917 0.28480468584225688 0 -0.04634179854296408 0.26632715615711849 0 -0.034380640920947357 0.29211323654426968 0 -0.052574645638654917 0.28480468584225688 0 -0.04634179854296408 0.26632715615711849 0 -0.022607631921228569 0.27169805167723737 0 -0.034380640920947357 0.29211323654426968 0 -0.04634179854296408 0.26632715615711849 0 -0.03068766995985707 0.25286978792993342 0 -0.022607631921228569 0.27169805167723737 0 -0.04634179854296408 0.26632715615711849 0 -0.03068766995985707 0.25286978792993342 0 -0.046578861792199937 0.24361118962503389 0 -0.03068766995985707 0.25286978792993342 0 -0.022607631921228569 0.27169805167723737 0 -0.0098044441781452579 0.25473951632571468 0 -0.022607631921228569 0.27169805167723737 0 -0.015153941911089409 0.29208252597919021 0 3.3590645499582607e-05 0.27236849017123349 0 -0.022607631921228569 0.27169805167723737 0 -0.0098044441781452579 0.25473951632571468 0 3.3590645499582607e-05 0.27236849017123349 0 -0.0098044441781452579 0.25473951632571468 0 0.0073806355134042019 0.25529449578482938 0 3.3590645499582607e-05 0.27236849017123349 0 -0.0088759444352828343 0.31092800175718183 0 -0.015153941911089409 0.29208252597919021 0 0.0083336089875100904 0.29343585490586271 0 -0.015153941911089409 0.29208252597919021 0 0.0083336089875100904 0.29343585490586271 0 3.3590645499582607e-05 0.27236849017123349 0 -0.022607631921228569 0.27169805167723737 0 -0.015153941911089409 0.29208252597919021 0 -0.034380640920947357 0.29211323654426968 0 -0.0088759444352828343 0.31092800175718183 0 -0.015153941911089409 0.29208252597919021 0 -0.03508050583840458 0.3127012881250415 0 -0.015153941911089409 0.29208252597919021 0 -0.034380640920947357 0.29211323654426968 0 -0.03508050583840458 0.3127012881250415 0 -0.034380640920947357 0.29211323654426968 0 -0.054647974243728172 0.30430181459310768 0 -0.034380640920947357 0.29211323654426968 0 -0.054647974243728172 0.30430181459310768 0 -0.03508050583840458 0.3127012881250415 0 -0.034380640920947357 0.29211323654426968 0 -0.052574645638654917 0.28480468584225688 0 -0.054647974243728172 0.30430181459310768 0 -0.052574645638654917 0.28480468584225688 0 -0.059610011597539182 0.29372125904316332 0 -0.054647974243728172 0.30430181459310768 0 -0.070830210313899522 0.29195808219782299 0 -0.052574645638654917 0.28480468584225688 0 -0.059610011597539182 0.29372125904316332 0 -0.068661557073843291 0.3005821027458685 0 -0.059610011597539182 0.29372125904316332 0 -0.054647974243728172 0.30430181459310768 0 -0.058679851530075752 0.32054224196392622 0 -0.045885169747561752 0.33132665820789581 0 -0.073191842414501496 0.33174208285196288 0 -0.054647974243728172 0.30430181459310768 0 -0.058679851530075752 0.32054224196392622 0 -0.03508050583840458 0.3127012881250415 0 -0.045885169747561752 0.33132665820789581 0 -0.067541502003893042 0.3482616942848048 0 -0.073191842414501496 0.33174208285196288 0 -0.045885169747561752 0.33132665820789581 0 -0.073191842414501496 0.33174208285196288 0 -0.045885169747561752 0.33132665820789581 0 -0.018578497080621779 0.33091123356382868 0 -0.045885169747561752 0.33132665820789581 0 -0.03508050583840458 0.3127012881250415 0 -0.018578497080621779 0.33091123356382868 0 -0.058679851530075752 0.32054224196392622 0 -0.045885169747561752 0.33132665820789581 0 -0.03508050583840458 0.3127012881250415 0 -0.0088759444352828343 0.31092800175718183 0 -0.03508050583840458 0.3127012881250415 0 -0.018578497080621779 0.33091123356382868 0 -0.018578497080621779 0.33091123356382868 0 -0.0050552824635438226 0.34569829691311771 0 -0.02749858990914332 0.35301881799134821 0 -0.045885169747561752 0.33132665820789581 0 -0.018578497080621779 0.33091123356382868 0 -0.02749858990914332 0.35301881799134821 0 -0.018578497080621779 0.33091123356382868 0 -0.0050552824635438226 0.34569829691311771 0 0.0064742168078369342 0.3347740657525386 0 -0.018578497080621779 0.33091123356382868 0 0.0087281755863181168 0.33049580891976171 0 -0.018578497080621779 0.33091123356382868 0 0.0064742168078369342 0.3347740657525386 0 0.0087281755863181168 0.33049580891976171 0 -0.018578497080621779 0.33091123356382868 0 -0.003280447873963227 0.32161399115684158 0 0.0087281755863181168 0.33049580891976171 0 -0.0088759444352828343 0.31092800175718183 0 -0.018578497080621779 0.33091123356382868 0 -0.003280447873963227 0.32161399115684158 0 -0.0088759444352828343 0.31092800175718183 0 -0.003280447873963227 0.32161399115684158 0 0.0056044744337335906 0.31412092038659428 0 -0.0052616759920083916 0.36132776784546622 0 -0.0045342830833226501 0.3863935686212247 0 -0.0052616759920083916 0.36132776784546622 0 -0.024169526760701381 0.37267007813580277 0 -0.0045342830833226501 0.3863935686212247 0 -0.0052616759920083916 0.36132776784546622 0 -0.0045342830833226501 0.3863935686212247 0 0.0079023355216259559 0.37348921158265391 0 -0.0052616759920083916 0.36132776784546622 0 -0.0050552824635438226 0.34569829691311771 0 0.0061318462344260851 0.35417601161121459 0 -0.0052616759920083916 0.36132776784546622 0 -0.0050552824635438226 0.34569829691311771 0 -0.02749858990914332 0.35301881799134821 0 -0.02749858990914332 0.35301881799134821 0 -0.024169526760701381 0.37267007813580277 0 -0.04149310004589906 0.37124785083274592 0 -0.0052616759920083916 0.36132776784546622 0 -0.02749858990914332 0.35301881799134821 0 -0.024169526760701381 0.37267007813580277 0 -0.02749858990914332 0.35301881799134821 0 -0.04149310004589906 0.37124785083274592 0 -0.051818441616049399 0.35735321764765782 0 -0.045885169747561752 0.33132665820789581 0 -0.02749858990914332 0.35301881799134821 0 -0.051818441616049399 0.35735321764765782 0 -0.045885169747561752 0.33132665820789581 0 -0.051818441616049399 0.35735321764765782 0 -0.067541502003893042 0.3482616942848048 0 -0.04149310004589906 0.37124785083274592 0 -0.051818441616049399 0.35735321764765782 0 -0.056875823715872062 0.37631267096962301 0 -0.051818441616049399 0.35735321764765782 0 -0.069616273344600341 0.3650636543096733 0 -0.056875823715872062 0.37631267096962301 0 -0.069616273344600341 0.3650636543096733 0 -0.085055645225370236 0.37193713089684588 0 -0.071788917171084016 0.3809272333041443 0 -0.069616273344600341 0.3650636543096733 0 -0.071788917171084016 0.3809272333041443 0 -0.056875823715872062 0.37631267096962301 0 -0.069616273344600341 0.3650636543096733 0 -0.085055645225370236 0.37193713089684588 0 -0.084100884505446297 0.3554636863979832 0 -0.085055645225370236 0.37193713089684588 0 -0.084100884505446297 0.3554636863979832 0 -0.1008292236537022 0.36036332390371462 0 -0.084100884505446297 0.3554636863979832 0 -0.067541502003893042 0.3482616942848048 0 -0.085709514220790303 0.34113927750747819 0 -0.084100884505446297 0.3554636863979832 0 -0.085709514220790303 0.34113927750747819 0 -0.099722393067727538 0.34687368244968458 0 -0.069616273344600341 0.3650636543096733 0 -0.084100884505446297 0.3554636863979832 0 -0.067541502003893042 0.3482616942848048 0 -0.051818441616049399 0.35735321764765782 0 -0.069616273344600341 0.3650636543096733 0 -0.067541502003893042 0.3482616942848048 0 -0.067541502003893042 0.3482616942848048 0 -0.073191842414501496 0.33174208285196288 0 -0.085709514220790303 0.34113927750747819 0 -0.058679851530075752 0.32054224196392622 0 -0.073191842414501496 0.33174208285196288 0 -0.074915307566508993 0.31649039264194578 0 -0.054647974243728172 0.30430181459310768 0 -0.058679851530075752 0.32054224196392622 0 -0.074915307566508993 0.31649039264194578 0 -0.073191842414501496 0.33174208285196288 0 -0.074915307566508993 0.31649039264194578 0 -0.095182640889289766 0.32867897069078372 0 -0.090928135519314904 0.31087631578889069 0 -0.074915307566508993 0.31649039264194578 0 -0.095182640889289766 0.32867897069078372 0 -0.074915307566508993 0.31649039264194578 0 -0.095182640889289766 0.32867897069078372 0 -0.073191842414501496 0.33174208285196288 0 -0.085709514220790303 0.34113927750747819 0 -0.095182640889289766 0.32867897069078372 0 -0.085709514220790303 0.34113927750747819 0 -0.095182640889289766 0.32867897069078372 0 -0.099722393067727538 0.34687368244968458 0 -0.095182640889289766 0.32867897069078372 0 -0.1154499742120704 0.34086754873962172 0 -0.095182640889289766 0.32867897069078372 0 -0.1098512680755149 0.32470257897991811 0 -0.1154499742120704 0.34086754873962172 0 -0.095182640889289766 0.32867897069078372 0 -0.1154499742120704 0.34086754873962172 0 -0.099722393067727538 0.34687368244968458 0 -0.1061991548417472 0.31213959050036899 0 -0.090928135519314904 0.31087631578889069 0 -0.095182640889289766 0.32867897069078372 0 -0.1061991548417472 0.31213959050036899 0 -0.095182640889289766 0.32867897069078372 0 -0.1098512680755149 0.32470257897991811 0 -0.1061991548417472 0.31213959050036899 0 -0.115330384384618 0.31728312261503783 0 -0.1098512680755149 0.32470257897991811 0 -0.12136448477009221 0.30951812845445109 0 -0.1061991548417472 0.31213959050036899 0 -0.115330384384618 0.31728312261503783 0 -0.115330384384618 0.31728312261503783 0 -0.1098512680755149 0.32470257897991811 0 -0.12142985306419619 0.32461006626398298 0 -0.12722248981549561 0.3181430308760943 0 -0.115330384384618 0.31728312261503783 0 -0.12142985306419619 0.32461006626398298 0 -0.12722248981549561 0.3181430308760943 0 -0.12136448477009221 0.30951812845445109 0 -0.115330384384618 0.31728312261503783 0 -0.1098512680755149 0.32470257897991811 0 -0.12142985306419619 0.32461006626398298 0 -0.1154499742120704 0.34086754873962172 0 -0.13363790056006589 0.32585743918209531 0 -0.12142985306419619 0.32461006626398298 0 -0.1154499742120704 0.34086754873962172 0 -0.12523428666698541 0.37069662222368049 0 -0.1294360936135257 0.3482770307028879 0 -0.1154159689866658 0.35521970897278921 0 -0.1154499742120704 0.34086754873962172 0 -0.1154159689866658 0.35521970897278921 0 -0.099722393067727538 0.34687368244968458 0 -0.1294360936135257 0.3482770307028879 0 -0.1154499742120704 0.34086754873962172 0 -0.1154159689866658 0.35521970897278921 0 -0.12523428666698541 0.37069662222368049 0 -0.1154159689866658 0.35521970897278921 0 -0.11117961403065831 0.36839673047223442 0 -0.12523428666698541 0.37069662222368049 0 -0.11117961403065831 0.36839673047223442 0 -0.1123930043347208 0.38073562172137532 0 -0.11117961403065831 0.36839673047223442 0 -0.1008292236537022 0.36036332390371462 0 -0.09970079949094271 0.37763208900548878 0 -0.1154159689866658 0.35521970897278921 0 -0.11117961403065831 0.36839673047223442 0 -0.1008292236537022 0.36036332390371462 0 -0.085055645225370236 0.37193713089684588 0 -0.1008292236537022 0.36036332390371462 0 -0.09970079949094271 0.37763208900548878 0 -0.084100884505446297 0.3554636863979832 0 -0.1008292236537022 0.36036332390371462 0 -0.099722393067727538 0.34687368244968458 0 -0.1154159689866658 0.35521970897278921 0 -0.1008292236537022 0.36036332390371462 0 -0.099722393067727538 0.34687368244968458 0 -0.1036554482544351 0.39516830989393792 0 -0.1102807352191843 0.41378788895710661 0 -0.09259379641793411 0.40948313349934218 0 -0.1036554482544351 0.39516830989393792 0 -0.09970079949094271 0.37763208900548878 0 -0.1123930043347208 0.38073562172137532 0 -0.1036554482544351 0.39516830989393792 0 -0.09970079949094271 0.37763208900548878 0 -0.084297773186445962 0.39217279846007119 0 -0.11117961403065831 0.36839673047223442 0 -0.09970079949094271 0.37763208900548878 0 -0.1123930043347208 0.38073562172137532 0 -0.12523428666698541 0.37069662222368049 0 -0.1123930043347208 0.38073562172137532 0 -0.12103247972044499 0.39311621374447298 0 -0.1036554482544351 0.39516830989393792 0 -0.1123930043347208 0.38073562172137532 0 -0.12103247972044499 0.39311621374447298 0 -0.12523428666698541 0.37069662222368049 0 -0.12103247972044499 0.39311621374447298 0 -0.1036554482544351 0.39516830989393792 0 -0.12103247972044499 0.39311621374447298 0 -0.1102807352191843 0.41378788895710661 0 -0.12997925716256209 0.39431640422262348 0 -0.1102807352191843 0.41378788895710661 0 -0.12997925716256209 0.39431640422262348 0 -0.12103247972044499 0.39311621374447298 0 -0.1102807352191843 0.41378788895710661 0 -0.12623023605756489 0.41143854881348008 0 -0.1102807352191843 0.41378788895710661 0 -0.1242188050129694 0.42501783294758849 0 -0.12623023605756489 0.41143854881348008 0 -0.12997925716256209 0.39431640422262348 0 -0.1102807352191843 0.41378788895710661 0 -0.1102807352191843 0.41378788895710661 0 -0.1104760497445479 0.43296770510105842 0 -0.1242188050129694 0.42501783294758849 0 -0.1104760497445479 0.43296770510105842 0 -0.1242188050129694 0.42501783294758849 0 -0.1248743097581413 0.44162978393037222 0 -0.1102807352191843 0.41378788895710661 0 -0.090582213275806372 0.43325937369158968 0 -0.1102807352191843 0.41378788895710661 0 -0.1104760497445479 0.43296770510105842 0 -0.090582213275806372 0.43325937369158968 0 -0.1102807352191843 0.41378788895710661 0 -0.09259379641793411 0.40948313349934218 0 -0.090582213275806372 0.43325937369158968 0 -0.09259379641793411 0.40948313349934218 0 -0.090582213275806372 0.43325937369158968 0 -0.074152812153798875 0.41302729649400538 0 -0.090582213275806372 0.43325937369158968 0 -0.066022972602334681 0.42956105407568013 0 -0.074152812153798875 0.41302729649400538 0 -0.066022972602334681 0.42956105407568013 0 -0.074152812153798875 0.41302729649400538 0 -0.049329429094603867 0.41198700835812702 0 -0.074152812153798875 0.41302729649400538 0 -0.063154715464804681 0.39516467689365731 0 -0.084297773186445962 0.39217279846007119 0 -0.09259379641793411 0.40948313349934218 0 -0.074152812153798875 0.41302729649400538 0 -0.084297773186445962 0.39217279846007119 0 -0.1036554482544351 0.39516830989393792 0 -0.09259379641793411 0.40948313349934218 0 -0.084297773186445962 0.39217279846007119 0 -0.085055645225370236 0.37193713089684588 0 -0.09970079949094271 0.37763208900548878 0 -0.084297773186445962 0.39217279846007119 0 -0.085055645225370236 0.37193713089684588 0 -0.084297773186445962 0.39217279846007119 0 -0.071788917171084016 0.3809272333041443 0 -0.063154715464804681 0.39516467689365731 0 -0.084297773186445962 0.39217279846007119 0 -0.071788917171084016 0.3809272333041443 0 -0.063154715464804681 0.39516467689365731 0 -0.071788917171084016 0.3809272333041443 0 -0.056875823715872062 0.37631267096962301 0 -0.04149310004589906 0.37124785083274592 0 -0.056875823715872062 0.37631267096962301 0 -0.04338349465279491 0.38811939282985902 0 -0.063154715464804681 0.39516467689365731 0 -0.056875823715872062 0.37631267096962301 0 -0.04338349465279491 0.38811939282985902 0 -0.063154715464804681 0.39516467689365731 0 -0.04338349465279491 0.38811939282985902 0 -0.049329429094603867 0.41198700835812702 0 -0.04338349465279491 0.38811939282985902 0 -0.024844401122877391 0.39948633252540261 0 -0.049329429094603867 0.41198700835812702 0 -0.024169526760701381 0.37267007813580277 0 -0.04149310004589906 0.37124785083274592 0 -0.04338349465279491 0.38811939282985902 0 -0.024169526760701381 0.37267007813580277 0 -0.04338349465279491 0.38811939282985902 0 -0.024844401122877391 0.39948633252540261 0 -0.024169526760701381 0.37267007813580277 0 -0.024844401122877391 0.39948633252540261 0 -0.0045342830833226501 0.3863935686212247 0 -0.024844401122877391 0.39948633252540261 0 -0.0045342830833226501 0.3863935686212247 0 -0.0038092142255275289 0.41137928311071797 0 -0.0045342830833226501 0.3863935686212247 0 -0.0038092142255275289 0.41137928311071797 0 -0.024169526760701381 0.37267007813580277 0 -0.0045342830833226501 0.3863935686212247 0 -0.0030841453677343121 0.43636499760021141 0 -0.0038092142255275289 0.41137928311071797 0 -0.026324668085478481 0.42779129271708288 0 -0.0030841453677343121 0.43636499760021141 0 -0.0038092142255275289 0.41137928311071797 0 -0.024844401122877391 0.39948633252540261 0 -0.0038092142255275289 0.41137928311071797 0 -0.026324668085478481 0.42779129271708288 0 -0.026324668085478481 0.42779129271708288 0 -0.049329429094603867 0.41198700835812702 0 -0.049413859365407042 0.43472239834070731 0 -0.024844401122877391 0.39948633252540261 0 -0.026324668085478481 0.42779129271708288 0 -0.049329429094603867 0.41198700835812702 0 -0.074152812153798875 0.41302729649400538 0 -0.063154715464804681 0.39516467689365731 0 -0.049329429094603867 0.41198700835812702 0 -0.066022972602334681 0.42956105407568013 0 -0.049329429094603867 0.41198700835812702 0 -0.049413859365407042 0.43472239834070731 0 -0.066022972602334681 0.42956105407568013 0 -0.049413859365407042 0.43472239834070731 0 -0.0708836913324285 0.45273085842607269 0 -0.0393713920190637 0.45112048084748302 0 -0.052402143273794041 0.47435943831340011 0 -0.0708836913324285 0.45273085842607269 0 -0.049413859365407042 0.43472239834070731 0 -0.0393713920190637 0.45112048084748302 0 -0.0708836913324285 0.45273085842607269 0 -0.0393713920190637 0.45112048084748302 0 -0.02876560419008364 0.47203163756026523 0 -0.052402143273794041 0.47435943831340011 0 -0.026324668085478481 0.42779129271708288 0 -0.049413859365407042 0.43472239834070731 0 -0.0393713920190637 0.45112048084748302 0 -0.0030841453677343121 0.43636499760021141 0 -0.026324668085478481 0.42779129271708288 0 -0.01888650882967766 0.45329231687868837 0 -0.026324668085478481 0.42779129271708288 0 -0.0393713920190637 0.45112048084748302 0 -0.01888650882967766 0.45329231687868837 0 -0.0393713920190637 0.45112048084748302 0 -0.01888650882967766 0.45329231687868837 0 -0.02876560419008364 0.47203163756026523 0 -0.01888650882967766 0.45329231687868837 0 -0.01341416680576474 0.47109478045738301 0 -0.02876560419008364 0.47203163756026523 0 -0.01888650882967766 0.45329231687868837 0 -0.002359076509941094 0.46135071208970457 0 -0.01341416680576474 0.47109478045738301 0 -0.0030841453677343121 0.43636499760021141 0 -0.01888650882967766 0.45329231687868837 0 -0.002359076509941094 0.46135071208970457 0 -0.0030841453677343121 0.43636499760021141 0 -0.002359076509941094 0.46135071208970457 0 -0.0090346539348886701 0.5 0 -0.0016340076521478781 0.48633642657919801 0 -0.017460482120078509 0.48648722646036041 0 -0.0016340076521478781 0.48633642657919801 0 -0.01341416680576474 0.47109478045738301 0 -0.017460482120078509 0.48648722646036041 0 -0.002359076509941094 0.46135071208970457 0 -0.0016340076521478781 0.48633642657919801 0 -0.01341416680576474 0.47109478045738301 0 -0.002359076509941094 0.46135071208970457 0 -0.0016340076521478781 0.48633642657919801 0 -0.002359076509941094 0.46135071208970457 0 -0.0016340076521478781 0.48633642657919801 0 0.0036787250480955699 0.47408322248379448 0 -0.01341416680576474 0.47109478045738301 0 -0.02876560419008364 0.47203163756026523 0 -0.017460482120078509 0.48648722646036041 0 -0.02876560419008364 0.47203163756026523 0 -0.017460482120078509 0.48648722646036041 0 -0.038135422162237087 0.5 0 -0.0090346539348886701 0.5 0 -0.017460482120078509 0.48648722646036041 0 -0.038135422162237087 0.5 0 -0.02876560419008364 0.47203163756026523 0 -0.038135422162237087 0.5 0 -0.052402143273794041 0.47435943831340011 0 -0.038135422162237087 0.5 0 -0.052402143273794041 0.47435943831340011 0 -0.067236190389585393 0.5 0 -0.052402143273794041 0.47435943831340011 0 -0.067236190389585393 0.5 0 -0.073349005429332273 0.47921852398434828 0 -0.067236190389585393 0.5 0 -0.073349005429332273 0.47921852398434828 0 -0.096336958616933588 0.5 0 -0.073349005429332273 0.47921852398434828 0 -0.096336958616933588 0.5 0 -0.093805091172543903 0.47224368257650851 0 -0.052402143273794041 0.47435943831340011 0 -0.073349005429332273 0.47921852398434828 0 -0.0708836913324285 0.45273085842607269 0 -0.0708836913324285 0.45273085842607269 0 -0.1043361340672995 0.45358667135048331 0 -0.093805091172543903 0.47224368257650851 0 -0.090582213275806372 0.43325937369158968 0 -0.0708836913324285 0.45273085842607269 0 -0.1043361340672995 0.45358667135048331 0 -0.090582213275806372 0.43325937369158968 0 -0.066022972602334681 0.42956105407568013 0 -0.0708836913324285 0.45273085842607269 0 -0.090582213275806372 0.43325937369158968 0 -0.0708836913324285 0.45273085842607269 0 -0.073349005429332273 0.47921852398434828 0 -0.0708836913324285 0.45273085842607269 0 -0.093805091172543903 0.47224368257650851 0 -0.1043361340672995 0.45358667135048331 0 -0.12052644250191399 0.4682622397032008 0 -0.093805091172543903 0.47224368257650851 0 -0.1104760497445479 0.43296770510105842 0 -0.090582213275806372 0.43325937369158968 0 -0.1043361340672995 0.45358667135048331 0 -0.12618187852634369 0.45882241462805679 0 -0.1043361340672995 0.45358667135048331 0 -0.1248743097581413 0.44162978393037222 0 -0.1104760497445479 0.43296770510105842 0 -0.1043361340672995 0.45358667135048331 0 -0.1248743097581413 0.44162978393037222 0 -0.12618187852634369 0.45882241462805679 0 -0.1043361340672995 0.45358667135048331 0 -0.12052644250191399 0.4682622397032008 0 -0.1317912103042716 0.47600940211286807 0 -0.12052644250191399 0.4682622397032008 0 -0.11642361318749669 0.48420448820259387 0 -0.12052644250191399 0.4682622397032008 0 -0.11642361318749669 0.48420448820259387 0 -0.093805091172543903 0.47224368257650851 0 -0.12543772684428189 0.5 0 -0.11642361318749669 0.48420448820259387 0 -0.096336958616933588 0.5 0 -0.12543772684428189 0.5 0 -0.13178312884530541 0.48627570230508688 0 -0.11642361318749669 0.48420448820259387 0 -0.11642361318749669 0.48420448820259387 0 -0.096336958616933588 0.5 0 -0.093805091172543903 0.47224368257650851 0 -0.1693268494853358 0.079538523923443544 0 -0.16945340910355561 0.089496265134995978 0 -0.1618062267740645 0.07958177760614682 0 -0.16945340910355561 0.089496265134995978 0 -0.1618062267740645 0.07958177760614682 0 -0.1616157516695074 0.095139316102685473 0 -0.1618062267740645 0.07958177760614682 0 -0.1616157516695074 0.095139316102685473 0 -0.14767322655010931 0.084806545451415583 0 -0.1618062267740645 0.07958177760614682 0 -0.16640070467345031 0.07104807823334372 0 -0.15517576509654349 0.068304766057398533 0 -0.16640070467345031 0.07104807823334372 0 -0.15517576509654349 0.068304766057398533 0 -0.16451238623864939 0.061110077383343737 0 -0.16640070467345031 0.07104807823334372 0 -0.17354141001077031 0.063798093567348918 0 -0.16451238623864939 0.061110077383343737 0 -0.17157411485926041 0.074087910936242465 0 -0.16640070467345031 0.07104807823334372 0 -0.17354141001077031 0.063798093567348918 0 -0.1693268494853358 0.079538523923443544 0 -0.17157411485926041 0.074087910936242465 0 -0.16640070467345031 0.07104807823334372 0 -0.1693268494853358 0.079538523923443544 0 -0.1618062267740645 0.07958177760614682 0 -0.16640070467345031 0.07104807823334372 0 -0.17354141001077031 0.063798093567348918 0 -0.17702749526748529 0.081966948020833708 0 -0.17656426821359539 0.052679136019797047 0 -0.18185637422210199 0.067243003367259677 0 -0.17702749526748529 0.081966948020833708 0 -0.17656426821359539 0.052679136019797047 0 -0.17702749526748529 0.081966948020833708 0 -0.17656426821359539 0.052679136019797047 0 -0.17157411485926041 0.074087910936242465 0 -0.17354141001077031 0.063798093567348918 0 -0.17702749526748529 0.081966948020833708 0 -0.18185637422210199 0.067243003367259677 0 -0.1853153676200878 0.058850167416455039 0 -0.18892740292417859 0.064703221589215376 0 -0.18185637422210199 0.067243003367259677 0 -0.19050021368002351 0.072419239531055349 0 -0.18892740292417859 0.064703221589215376 0 -0.18185637422210199 0.067243003367259677 0 -0.18141962227324601 0.075216957450553817 0 -0.17702749526748529 0.081966948020833708 0 -0.18185637422210199 0.067243003367259677 0 -0.18141962227324601 0.075216957450553817 0 -0.19050021368002351 0.072419239531055349 0 -0.18141962227324601 0.075216957450553817 0 -0.1867192510276118 0.077748512173410014 0 -0.19050021368002351 0.072419239531055349 0 -0.18141962227324601 0.075216957450553817 0 -0.1867192510276118 0.077748512173410014 0 -0.1819129998543452 0.079414551687582866 0 -0.18248563084903771 0.082725789105533951 0 -0.17702749526748529 0.081966948020833708 0 -0.17749072232138041 0.1112547600218704 0 -0.1867192510276118 0.077748512173410014 0 -0.18248563084903771 0.082725789105533951 0 -0.1819129998543452 0.079414551687582866 0 -0.18141962227324601 0.075216957450553817 0 -0.1819129998543452 0.079414551687582866 0 -0.17702749526748529 0.081966948020833708 0 -0.18248563084903771 0.082725789105533951 0 -0.1819129998543452 0.079414551687582866 0 -0.17702749526748529 0.081966948020833708 0 -0.1693268494853358 0.079538523923443544 0 -0.16945340910355561 0.089496265134995978 0 -0.17702749526748529 0.081966948020833708 0 -0.1693268494853358 0.079538523923443544 0 -0.17157411485926041 0.074087910936242465 0 -0.17702749526748529 0.081966948020833708 0 -0.17702749526748529 0.081966948020833708 0 -0.17749072232138041 0.1112547600218704 0 -0.16945340910355561 0.089496265134995978 0 -0.17702749526748529 0.081966948020833708 0 -0.17749072232138041 0.1112547600218704 0 -0.17749072232138041 0.1112547600218704 0 -0.1951643137470572 0.093770439387570487 0 -0.18248563084903771 0.082725789105533951 0 -0.17749072232138041 0.1112547600218704 0 -0.1951643137470572 0.093770439387570487 0 -0.17749072232138041 0.1112547600218704 0 -0.19150979458678249 0.1243728737611647 0 -0.17789558253256721 0.1368522929207025 0 -0.17749072232138041 0.1112547600218704 0 -0.17789558253256721 0.1368522929207025 0 -0.17749072232138041 0.1112547600218704 0 -0.16113979031376621 0.12743058591966341 0 -0.17749072232138041 0.1112547600218704 0 -0.15084139672814201 0.110160429760413 0 -0.16113979031376621 0.12743058591966341 0 -0.17749072232138041 0.1112547600218704 0 -0.1616157516695074 0.095139316102685473 0 -0.15084139672814201 0.110160429760413 0 -0.16945340910355561 0.089496265134995978 0 -0.17749072232138041 0.1112547600218704 0 -0.1616157516695074 0.095139316102685473 0 -0.1616157516695074 0.095139316102685473 0 -0.15084139672814201 0.110160429760413 0 -0.14767322655010931 0.084806545451415583 0 -0.15084139672814201 0.110160429760413 0 -0.1348328660863515 0.097215266237156234 0 -0.14767322655010931 0.084806545451415583 0 -0.15084139672814201 0.110160429760413 0 -0.13137241316615089 0.11357835761918721 0 -0.14300315410871919 0.1253406317882016 0 -0.15084139672814201 0.110160429760413 0 -0.16113979031376621 0.12743058591966341 0 -0.14300315410871919 0.1253406317882016 0 -0.13137241316615089 0.11357835761918721 0 -0.14300315410871919 0.1253406317882016 0 -0.12687331202938101 0.13192737382428379 0 -0.13137241316615089 0.11357835761918721 0 -0.1348328660863515 0.097215266237156234 0 -0.1198812247159142 0.095002477965890675 0 -0.15084139672814201 0.110160429760413 0 -0.13137241316615089 0.11357835761918721 0 -0.1348328660863515 0.097215266237156234 0 -0.1348328660863515 0.097215266237156234 0 -0.12533951967512769 0.078274991835817334 0 -0.1198812247159142 0.095002477965890675 0 -0.1348328660863515 0.097215266237156234 0 -0.12533951967512769 0.078274991835817334 0 -0.14767322655010931 0.084806545451415583 0 -0.1618062267740645 0.07958177760614682 0 -0.14767322655010931 0.084806545451415583 0 -0.15517576509654349 0.068304766057398533 0 -0.14767322655010931 0.084806545451415583 0 -0.15517576509654349 0.068304766057398533 0 -0.14001017723872511 0.063978020277280875 0 -0.12533951967512769 0.078274991835817334 0 -0.14767322655010931 0.084806545451415583 0 -0.14001017723872511 0.063978020277280875 0 -0.12533951967512769 0.078274991835817334 0 -0.14001017723872511 0.063978020277280875 0 -0.1248745965026067 0.059896082918310993 0 -0.14001017723872511 0.063978020277280875 0 -0.13626681081840961 0.042829268155062397 0 -0.1248745965026067 0.059896082918310993 0 -0.13626681081840961 0.042829268155062397 0 -0.1339340902388827 0.022300844741854581 0 -0.1180188049733784 0.030804183747700629 0 -0.13626681081840961 0.042829268155062397 0 -0.1339340902388827 0.022300844741854581 0 -0.15968783393996419 0.037567277286728401 0 -0.13626681081840961 0.042829268155062397 0 -0.15351002702878311 0.053877414325468623 0 -0.15968783393996419 0.037567277286728401 0 -0.13626681081840961 0.042829268155062397 0 -0.15968783393996419 0.037567277286728401 0 -0.14001017723872511 0.063978020277280875 0 -0.13626681081840961 0.042829268155062397 0 -0.15351002702878311 0.053877414325468623 0 -0.15517576509654349 0.068304766057398533 0 -0.14001017723872511 0.063978020277280875 0 -0.15351002702878311 0.053877414325468623 0 -0.12735709500343681 0.004015926865657337 0 -0.15177498865293759 0.016606981474429749 0 -0.12735709500343681 0.004015926865657337 0 -0.1339340902388827 0.022300844741854581 0 -0.15177498865293759 0.016606981474429749 0 -0.12735709500343681 0.004015926865657337 0 -0.1339340902388827 0.022300844741854581 0 -0.11835839359799651 0.016938700943610479 0 -0.1339340902388827 0.022300844741854581 0 -0.15177498865293759 0.016606981474429749 0 -0.15968783393996419 0.037567277286728401 0 -0.1339340902388827 0.022300844741854581 0 -0.15968783393996419 0.037567277286728401 0 -0.12735709500343681 0.004015926865657337 0 -0.15177498865293759 0.016606981474429749 0 -0.14801408494475049 0.0031182785745780331 0 -0.15177498865293759 0.016606981474429749 0 -0.14801408494475049 0.0031182785745780331 0 -0.1619193683370386 0.0066468078375689294 0 -0.15773416148281841 -0.0035868741371463562 0 -0.14801408494475049 0.0031182785745780331 0 -0.1619193683370386 0.0066468078375689294 0 -0.15177498865293759 0.016606981474429749 0 -0.1619193683370386 0.0066468078375689294 0 -0.16760309597538539 0.015861310899326669 0 -0.16716832075785379 -0.0032078365625175 0 -0.1619193683370386 0.0066468078375689294 0 -0.17584419881677341 0.0071523107965592754 0 -0.1619193683370386 0.0066468078375689294 0 -0.16760309597538539 0.015861310899326669 0 -0.17584419881677341 0.0071523107965592754 0 -0.15177498865293759 0.016606981474429749 0 -0.17619288230243149 0.029198036083215671 0 -0.15177498865293759 0.016606981474429749 0 -0.17619288230243149 0.029198036083215671 0 -0.15968783393996419 0.037567277286728401 0 -0.15177498865293759 0.016606981474429749 0 -0.16760309597538539 0.015861310899326669 0 -0.17619288230243149 0.029198036083215671 0 -0.17619288230243149 0.029198036083215671 0 -0.1852069371874478 0.015311100034367831 0 -0.17584419881677341 0.0071523107965592754 0 -0.17619288230243149 0.029198036083215671 0 -0.17584419881677341 0.0071523107965592754 0 -0.16760309597538539 0.015861310899326669 0 -0.17619288230243149 0.029198036083215671 0 -0.17584419881677341 0.0071523107965592754 0 -0.17619288230243149 0.029198036083215671 0 -0.19572946351785711 0.039272048382664133 0 -0.19029700863621521 0.024089069561314659 0 -0.17619288230243149 0.029198036083215671 0 -0.1852069371874478 0.015311100034367831 0 -0.19029700863621521 0.024089069561314659 0 -0.1852069371874478 0.015311100034367831 0 -0.18717715497560061 0.0062623078557712403 0 -0.17584419881677341 0.0071523107965592754 0 -0.18154179604087481 -0.0036104187285780349 0 -0.18717715497560061 0.0062623078557712403 0 -0.17584419881677341 0.0071523107965592754 0 -0.15351002702878311 0.053877414325468623 0 -0.1659033968134131 0.050269055427132232 0 -0.15968783393996419 0.037567277286728401 0 -0.1659033968134131 0.050269055427132232 0 -0.16451238623864939 0.061110077383343737 0 -0.17656426821359539 0.052679136019797047 0 -0.17354141001077031 0.063798093567348918 0 -0.16451238623864939 0.061110077383343737 0 -0.17656426821359539 0.052679136019797047 0 -0.16451238623864939 0.061110077383343737 0 -0.17656426821359539 0.052679136019797047 0 -0.15351002702878311 0.053877414325468623 0 -0.1659033968134131 0.050269055427132232 0 -0.16451238623864939 0.061110077383343737 0 -0.15517576509654349 0.068304766057398533 0 -0.15351002702878311 0.053877414325468623 0 -0.16451238623864939 0.061110077383343737 0 -0.15968783393996419 0.037567277286728401 0 -0.1762663423330757 0.033842591165095401 0 -0.1659033968134131 0.050269055427132232 0 -0.15968783393996419 0.037567277286728401 0 -0.1764827173319595 0.047523031967639129 0 -0.17619288230243149 0.029198036083215671 0 -0.15968783393996419 0.037567277286728401 0 -0.1762663423330757 0.033842591165095401 0 -0.15968783393996419 0.037567277286728401 0 -0.1764827173319595 0.047523031967639129 0 -0.15968783393996419 0.037567277286728401 0 -0.1762663423330757 0.033842591165095401 0 -0.1764827173319595 0.047523031967639129 0 -0.17619288230243149 0.029198036083215671 0 -0.19572946351785711 0.039272048382664133 0 -0.181281627628781 0.040827380692469641 0 -0.18051660755046151 0.049914261515807259 0 -0.1764827173319595 0.047523031967639129 0 -0.17619288230243149 0.029198036083215671 0 -0.1762663423330757 0.033842591165095401 0 -0.19572946351785711 0.039272048382664133 0 -0.1762663423330757 0.033842591165095401 0 -0.181281627628781 0.040827380692469641 0 -0.19572946351785711 0.039272048382664133 0 -0.1762663423330757 0.033842591165095401 0 -0.181281627628781 0.040827380692469641 0 -0.1764827173319595 0.047523031967639129 0 -0.1762663423330757 0.033842591165095401 0 -0.1764827173319595 0.047523031967639129 0 -0.17619288230243149 0.029198036083215671 0 -0.1762663423330757 0.033842591165095401 0 -0.181281627628781 0.040827380692469641 0 -0.18051660755046151 0.049914261515807259 0 -0.19572946351785711 0.039272048382664133 0 -0.18051660755046151 0.049914261515807259 0 -0.17656426821359539 0.052679136019797047 0 -0.1853153676200878 0.058850167416455039 0 -0.18051660755046151 0.049914261515807259 0 -0.1764827173319595 0.047523031967639129 0 -0.1764827173319595 0.047523031967639129 0 -0.17656426821359539 0.052679136019797047 0 -0.1659033968134131 0.050269055427132232 0 -0.1764827173319595 0.047523031967639129 0 -0.17656426821359539 0.052679136019797047 0 -0.18051660755046151 0.049914261515807259 0 -0.1764827173319595 0.047523031967639129 0 -0.17656426821359539 0.052679136019797047 0 -0.18051660755046151 0.049914261515807259 0 -0.17656426821359539 0.052679136019797047 0 -0.18185637422210199 0.067243003367259677 0 -0.17656426821359539 0.052679136019797047 0 -0.1853153676200878 0.058850167416455039 0 -0.1853153676200878 0.058850167416455039 0 -0.19803765617450109 0.060300476042091433 0 -0.18892740292417859 0.064703221589215376 0 -0.18051660755046151 0.049914261515807259 0 -0.19803765617450109 0.060300476042091433 0 -0.1977866825790292 0.05007637869738242 0 -0.18051660755046151 0.049914261515807259 0 -0.1853153676200878 0.058850167416455039 0 -0.19803765617450109 0.060300476042091433 0 -0.18051660755046151 0.049914261515807259 0 -0.19803765617450109 0.060300476042091433 0 -0.19803765617450109 0.060300476042091433 0 -0.1977866825790292 0.05007637869738242 0 -0.2066297839190599 0.054855205218219752 0 -0.18051660755046151 0.049914261515807259 0 -0.1977866825790292 0.05007637869738242 0 -0.19572946351785711 0.039272048382664133 0 -0.18051660755046151 0.049914261515807259 0 -0.19572946351785711 0.039272048382664133 0 -0.19572946351785711 0.039272048382664133 0 -0.2098237389609823 0.029412342647955388 0 -0.1977866825790292 0.05007637869738242 0 -0.19572946351785711 0.039272048382664133 0 -0.2073344650466164 0.045256152092875389 0 -0.19572946351785711 0.039272048382664133 0 -0.2073344650466164 0.045256152092875389 0 -0.2073344650466164 0.045256152092875389 0 -0.21702036639386221 0.038769314305699548 0 -0.2098237389609823 0.029412342647955388 0 -0.19572946351785711 0.039272048382664133 0 -0.2073344650466164 0.045256152092875389 0 -0.2098237389609823 0.029412342647955388 0 -0.21702036639386221 0.038769314305699548 0 -0.2098237389609823 0.029412342647955388 0 -0.2284051488343061 0.035137669629428533 0 -0.2073344650466164 0.045256152092875389 0 -0.21702036639386221 0.038769314305699548 0 -0.22251811273354419 0.045271092852538893 0 -0.2073344650466164 0.045256152092875389 0 -0.21769334509658461 0.055951218203848879 0 -0.22251811273354419 0.045271092852538893 0 -0.21769334509658461 0.055951218203848879 0 -0.20947987249717179 0.060448397508133619 0 -0.2066297839190599 0.054855205218219752 0 -0.21769334509658461 0.055951218203848879 0 -0.20947987249717179 0.060448397508133619 0 -0.2155587047985415 0.070686690568374386 0 -0.19803765617450109 0.060300476042091433 0 -0.20947987249717179 0.060448397508133619 0 -0.2066297839190599 0.054855205218219752 0 -0.1977866825790292 0.05007637869738242 0 -0.2073344650466164 0.045256152092875389 0 -0.2066297839190599 0.054855205218219752 0 -0.2073344650466164 0.045256152092875389 0 -0.21769334509658461 0.055951218203848879 0 -0.2066297839190599 0.054855205218219752 0 -0.1989264366345522 -0.0080023544535597537 0 -0.1965234412062255 0.0098537758749781944 0 -0.20713549204565579 6.5395444916274768e-05 0 -0.19066530249761049 -0.0041303576494283751 0 -0.18717715497560061 0.0062623078557712403 0 -0.1965234412062255 0.0098537758749781944 0 -0.1852069371874478 0.015311100034367831 0 -0.18717715497560061 0.0062623078557712403 0 -0.1965234412062255 0.0098537758749781944 0 -0.1965234412062255 0.0098537758749781944 0 -0.20113962024173071 0.02227838771243261 0 -0.2107847094499361 0.011405203725301251 0 -0.19572946351785711 0.039272048382664133 0 -0.20113962024173071 0.02227838771243261 0 -0.2098237389609823 0.029412342647955388 0 -0.19572946351785711 0.039272048382664133 0 -0.20113962024173071 0.02227838771243261 0 -0.19029700863621521 0.024089069561314659 0 -0.1965234412062255 0.0098537758749781944 0 -0.20113962024173071 0.02227838771243261 0 -0.19029700863621521 0.024089069561314659 0 -0.1852069371874478 0.015311100034367831 0 -0.1965234412062255 0.0098537758749781944 0 -0.19029700863621521 0.024089069561314659 0 -0.2098237389609823 0.029412342647955388 0 -0.2107847094499361 0.011405203725301251 0 -0.22391801440410891 0.019552636913248388 0 -0.20113962024173071 0.02227838771243261 0 -0.2098237389609823 0.029412342647955388 0 -0.2107847094499361 0.011405203725301251 0 -0.2098237389609823 0.029412342647955388 0 -0.22391801440410891 0.019552636913248388 0 -0.21702438745170211 -0.0043907958627755336 0 -0.2107847094499361 0.011405203725301251 0 -0.20713549204565579 6.5395444916274768e-05 0 -0.21702438745170211 -0.0043907958627755336 0 -0.2107847094499361 0.011405203725301251 0 -0.22391801440410891 0.019552636913248388 0 -0.1965234412062255 0.0098537758749781944 0 -0.2107847094499361 0.011405203725301251 0 -0.20713549204565579 6.5395444916274768e-05 0 -0.22867745033346079 0.0038692188645070222 0 -0.22391801440410891 0.019552636913248388 0 -0.2344599051246074 0.012178015861532989 0 -0.21702438745170211 -0.0043907958627755336 0 -0.22391801440410891 0.019552636913248388 0 -0.21702438745170211 -0.0043907958627755336 0 -0.22867745033346079 0.0038692188645070222 0 -0.22391801440410891 0.019552636913248388 0 -0.22391801440410891 0.019552636913248388 0 -0.2403792472176362 0.02548084658656756 0 -0.2344599051246074 0.012178015861532989 0 -0.2098237389609823 0.029412342647955388 0 -0.22391801440410891 0.019552636913248388 0 -0.2284051488343061 0.035137669629428533 0 -0.22391801440410891 0.019552636913248388 0 -0.2403792472176362 0.02548084658656756 0 -0.2284051488343061 0.035137669629428533 0 -0.22391801440410891 0.019552636913248388 0 -0.2344599051246074 0.012178015861532989 0 -0.22391801440410891 0.019552636913248388 0 -0.2284051488343061 0.035137669629428533 0 -0.2522816967992324 0.037264740289820159 0 -0.25157722050270093 0.012682655753942951 0 -0.2403792472176362 0.02548084658656756 0 -0.25157722050270093 0.012682655753942951 0 -0.2403792472176362 0.02548084658656756 0 -0.2344599051246074 0.012178015861532989 0 -0.25267499080189931 -0.0034516002120552492 0 -0.25157722050270093 0.012682655753942951 0 -0.2401015516947359 0.00075261550232862703 0 -0.25157722050270093 0.012682655753942951 0 -0.2344599051246074 0.012178015861532989 0 -0.2401015516947359 0.00075261550232862703 0 -0.22867745033346079 0.0038692188645070222 0 -0.2344599051246074 0.012178015861532989 0 -0.2401015516947359 0.00075261550232862703 0 -0.21769334509658461 0.055951218203848879 0 -0.23255980098598539 0.056775429521547523 0 -0.2155587047985415 0.070686690568374386 0 -0.23289228326450309 0.050722702345608793 0 -0.22641588552015429 0.052180110730886013 0 -0.22251811273354419 0.045271092852538893 0 -0.23289228326450309 0.050722702345608793 0 -0.23255980098598539 0.056775429521547523 0 -0.22641588552015429 0.052180110730886013 0 -0.21769334509658461 0.055951218203848879 0 -0.23255980098598539 0.056775429521547523 0 -0.22641588552015429 0.052180110730886013 0 -0.21769334509658461 0.055951218203848879 0 -0.22641588552015429 0.052180110730886013 0 -0.22251811273354419 0.045271092852538893 0 -0.21702036639386221 0.038769314305699548 0 -0.22251811273354419 0.045271092852538893 0 -0.2284051488343061 0.035137669629428533 0 -0.23289228326450309 0.050722702345608793 0 -0.22251811273354419 0.045271092852538893 0 -0.2284051488343061 0.035137669629428533 0 -0.23289228326450309 0.050722702345608793 0 -0.2284051488343061 0.035137669629428533 0 -0.2522816967992324 0.037264740289820159 0 -0.2403792472176362 0.02548084658656756 0 -0.2284051488343061 0.035137669629428533 0 -0.2522816967992324 0.037264740289820159 0 -0.23289228326450309 0.050722702345608793 0 -0.2284051488343061 0.035137669629428533 0 -0.2522816967992324 0.037264740289820159 0 -0.23289228326450309 0.050722702345608793 0 -0.23255980098598539 0.056775429521547523 0 -0.2522816967992324 0.037264740289820159 0 -0.23255980098598539 0.056775429521547523 0 -0.2522816967992324 0.037264740289820159 0 -0.23255980098598539 0.056775429521547523 0 -0.24906194248509719 0.058488871325365822 0 -0.23255980098598539 0.056775429521547523 0 -0.24906194248509719 0.058488871325365822 0 -0.23770452364983391 0.071010308971772351 0 -0.26257114212692878 0.06573449919026883 0 -0.24906194248509719 0.058488871325365822 0 -0.23770452364983391 0.071010308971772351 0 -0.25261226255175379 0.080423606239198905 0 -0.23770452364983391 0.071010308971772351 0 -0.23158356521460469 0.085326977986282804 0 -0.25261226255175379 0.080423606239198905 0 -0.23158356521460469 0.085326977986282804 0 -0.24377998071086901 0.096378574065869249 0 -0.23158356521460469 0.085326977986282804 0 -0.21283790517273879 0.076286118753275345 0 -0.22135706029896429 0.097751395037259853 0 -0.23158356521460469 0.085326977986282804 0 -0.22135706029896429 0.097751395037259853 0 -0.24377998071086901 0.096378574065869249 0 -0.23255980098598539 0.056775429521547523 0 -0.21283790517273879 0.076286118753275345 0 -0.23770452364983391 0.071010308971772351 0 -0.23158356521460469 0.085326977986282804 0 -0.21283790517273879 0.076286118753275345 0 -0.23255980098598539 0.056775429521547523 0 -0.23770452364983391 0.071010308971772351 0 -0.21283790517273879 0.076286118753275345 0 -0.23255980098598539 0.056775429521547523 0 -0.21283790517273879 0.076286118753275345 0 -0.2155587047985415 0.070686690568374386 0 -0.23770452364983391 0.071010308971772351 0 -0.21283790517273879 0.076286118753275345 0 -0.19803765617450109 0.060300476042091433 0 -0.20947987249717179 0.060448397508133619 0 -0.2155587047985415 0.070686690568374386 0 -0.19803765617450109 0.060300476042091433 0 -0.20333782300263301 0.070680183335342567 0 -0.2155587047985415 0.070686690568374386 0 -0.19803765617450109 0.060300476042091433 0 -0.2155587047985415 0.070686690568374386 0 -0.21283790517273879 0.076286118753275345 0 -0.19766176801088831 0.079505953929404904 0 -0.20333782300263301 0.070680183335342567 0 -0.21283790517273879 0.076286118753275345 0 -0.19766176801088831 0.079505953929404904 0 -0.20333782300263301 0.070680183335342567 0 -0.21283790517273879 0.076286118753275345 0 -0.2155587047985415 0.070686690568374386 0 -0.21283790517273879 0.076286118753275345 0 -0.1951643137470572 0.093770439387570487 0 -0.22135706029896429 0.097751395037259853 0 -0.21283790517273879 0.076286118753275345 0 -0.1951643137470572 0.093770439387570487 0 -0.21283790517273879 0.076286118753275345 0 -0.19766176801088831 0.079505953929404904 0 -0.1951643137470572 0.093770439387570487 0 -0.18248563084903771 0.082725789105533951 0 -0.19766176801088831 0.079505953929404904 0 -0.1951643137470572 0.093770439387570487 0 -0.1867192510276118 0.077748512173410014 0 -0.18248563084903771 0.082725789105533951 0 -0.19766176801088831 0.079505953929404904 0 -0.18248563084903771 0.082725789105533951 0 -0.19766176801088831 0.079505953929404904 0 -0.1867192510276118 0.077748512173410014 0 -0.19766176801088831 0.079505953929404904 0 -0.19050021368002351 0.072419239531055349 0 -0.19803765617450109 0.060300476042091433 0 -0.19050021368002351 0.072419239531055349 0 -0.18892740292417859 0.064703221589215376 0 -0.19803765617450109 0.060300476042091433 0 -0.20333782300263301 0.070680183335342567 0 -0.19050021368002351 0.072419239531055349 0 -0.20333782300263301 0.070680183335342567 0 -0.19766176801088831 0.079505953929404904 0 -0.19050021368002351 0.072419239531055349 0 -0.17749072232138041 0.1112547600218704 0 -0.19150979458678249 0.1243728737611647 0 -0.1951643137470572 0.093770439387570487 0 -0.19150979458678249 0.1243728737611647 0 -0.1951643137470572 0.093770439387570487 0 -0.20994497012605751 0.11823125198409511 0 -0.1951643137470572 0.093770439387570487 0 -0.20994497012605751 0.11823125198409511 0 -0.22135706029896429 0.097751395037259853 0 -0.20994497012605751 0.11823125198409511 0 -0.2348316268224595 0.11651500804646669 0 -0.2235388627286797 0.12965651036182041 0 -0.20994497012605751 0.11823125198409511 0 -0.22135706029896429 0.097751395037259853 0 -0.2348316268224595 0.11651500804646669 0 -0.22135706029896429 0.097751395037259853 0 -0.24377998071086901 0.096378574065869249 0 -0.2348316268224595 0.11651500804646669 0 -0.25136603029008331 0.1103208693098497 0 -0.24377998071086901 0.096378574065869249 0 -0.2348316268224595 0.11651500804646669 0 -0.25922316449870308 0.12628093809151891 0 -0.25136603029008331 0.1103208693098497 0 -0.2348316268224595 0.11651500804646669 0 -0.25922316449870308 0.12628093809151891 0 -0.2348316268224595 0.11651500804646669 0 -0.2369615480924761 0.1404602413506009 0 -0.2369615480924761 0.1404602413506009 0 -0.2235388627286797 0.12965651036182041 0 -0.2124173058737257 0.14341954006611901 0 -0.2348316268224595 0.11651500804646669 0 -0.2369615480924761 0.1404602413506009 0 -0.2235388627286797 0.12965651036182041 0 -0.2369615480924761 0.1404602413506009 0 -0.22679867445049531 0.16064067306310431 0 -0.2124173058737257 0.14341954006611901 0 -0.2369615480924761 0.1404602413506009 0 -0.247018622616726 0.15992587597476091 0 -0.22679867445049531 0.16064067306310431 0 -0.25846103874104392 0.14702121199507179 0 -0.2369615480924761 0.1404602413506009 0 -0.247018622616726 0.15992587597476091 0 -0.247018622616726 0.15992587597476091 0 -0.23359887481107691 0.1809086922627815 0 -0.247018622616726 0.15992587597476091 0 -0.23359887481107691 0.1809086922627815 0 -0.22679867445049531 0.16064067306310431 0 -0.26439180367967152 0.18225540552070321 0 -0.247018622616726 0.15992587597476091 0 -0.23359887481107691 0.1809086922627815 0 -0.23359887481107691 0.1809086922627815 0 -0.20517995294037331 0.17379218369948349 0 -0.2201791270054278 0.2018915085508021 0 -0.23359887481107691 0.1809086922627815 0 -0.22679867445049531 0.16064067306310431 0 -0.20517995294037331 0.17379218369948349 0 -0.22679867445049531 0.16064067306310431 0 -0.20517995294037331 0.17379218369948349 0 -0.2124173058737257 0.14341954006611901 0 -0.20517995294037331 0.17379218369948349 0 -0.19274338499996449 0.14807478539393409 0 -0.17830044274374979 0.16244982581953471 0 -0.19150979458678249 0.1243728737611647 0 -0.19274338499996449 0.14807478539393409 0 -0.2124173058737257 0.14341954006611901 0 -0.20994497012605751 0.11823125198409511 0 -0.2235388627286797 0.12965651036182041 0 -0.2124173058737257 0.14341954006611901 0 -0.19150979458678249 0.1243728737611647 0 -0.20994497012605751 0.11823125198409511 0 -0.2124173058737257 0.14341954006611901 0 -0.20517995294037331 0.17379218369948349 0 -0.19274338499996449 0.14807478539393409 0 -0.2124173058737257 0.14341954006611901 0 -0.22371849106378741 0.2462845034026982 0 -0.23019370483249479 0.22382880503591951 0 -0.2066863838603582 0.24242880758937649 0 -0.22371849106378741 0.2462845034026982 0 -0.23951274761537589 0.2474853768326048 0 -0.23019370483249479 0.22382880503591951 0 -0.25272375818517617 0.22994970808158929 0 -0.25621817608628389 0.2460965770837312 0 -0.23951274761537589 0.2474853768326048 0 -0.25370102580463139 0.2052288024824625 0 -0.25272375818517617 0.22994970808158929 0 -0.23019370483249479 0.22382880503591951 0 -0.25272375818517617 0.22994970808158929 0 -0.23951274761537589 0.2474853768326048 0 -0.23019370483249479 0.22382880503591951 0 -0.25370102580463139 0.2052288024824625 0 -0.23359887481107691 0.1809086922627815 0 -0.2201791270054278 0.2018915085508021 0 -0.25370102580463139 0.2052288024824625 0 -0.23019370483249479 0.22382880503591951 0 -0.2201791270054278 0.2018915085508021 0 -0.23019370483249479 0.22382880503591951 0 -0.2201791270054278 0.2018915085508021 0 -0.20675937919977869 0.22287432483882261 0 -0.25370102580463139 0.2052288024824625 0 -0.23019370483249479 0.22382880503591951 0 -0.23359887481107691 0.1809086922627815 0 -0.2201791270054278 0.2018915085508021 0 -0.20517995294037331 0.17379218369948349 0 -0.2201791270054278 0.2018915085508021 0 -0.19686056424972551 0.20437535499954981 0 -0.20517995294037331 0.17379218369948349 0 -0.19686056424972551 0.20437535499954981 0 -0.17870530295493239 0.18804735871836689 0 -0.19686056424972551 0.20437535499954981 0 -0.20675937919977869 0.22287432483882261 0 -0.19122946023172571 0.22600186257262461 0 -0.19686056424972551 0.20437535499954981 0 -0.19122946023172571 0.22600186257262461 0 -0.179110163166115 0.21364489161719899 0 -0.2201791270054278 0.2018915085508021 0 -0.19686056424972551 0.20437535499954981 0 -0.20675937919977869 0.22287432483882261 0 -0.2201791270054278 0.2018915085508021 0 -0.20675937919977869 0.22287432483882261 0 -0.23019370483249479 0.22382880503591951 0 -0.2066863838603582 0.24242880758937649 0 -0.23019370483249479 0.22382880503591951 0 -0.20675937919977869 0.22287432483882261 0 -0.2066863838603582 0.24242880758937649 0 -0.20675937919977869 0.22287432483882261 0 -0.19333963139412971 0.24385714112684301 0 -0.20675937919977869 0.22287432483882261 0 -0.19122946023172571 0.22600186257262461 0 -0.19333963139412971 0.24385714112684301 0 -0.19122946023172571 0.22600186257262461 0 -0.19333963139412971 0.24385714112684301 0 -0.17951502337729761 0.2392424245160312 0 -0.20675937919977869 0.22287432483882261 0 -0.19333963139412971 0.24385714112684301 0 -0.2066863838603582 0.24242880758937649 0 -0.18259587964237009 0.2606558300825601 0 -0.19333963139412971 0.24385714112684301 0 -0.2066863838603582 0.24242880758937649 0 -0.21408768962570049 0.25938306782852782 0 -0.22371849106378741 0.2462845034026982 0 -0.2066863838603582 0.24242880758937649 0 -0.1532221513837192 0.25419418888983192 0 -0.17951502337729761 0.2392424245160312 0 -0.15110003921584569 0.22881829817408891 0 -0.18259587964237009 0.2606558300825601 0 -0.19333963139412971 0.24385714112684301 0 -0.17951502337729761 0.2392424245160312 0 -0.17951502337729761 0.2392424245160312 0 -0.1619547442009632 0.2162214427956837 0 -0.179110163166115 0.21364489161719899 0 -0.19122946023172571 0.22600186257262461 0 -0.17951502337729761 0.2392424245160312 0 -0.179110163166115 0.21364489161719899 0 -0.17951502337729761 0.2392424245160312 0 -0.179110163166115 0.21364489161719899 0 -0.17951502337729761 0.2392424245160312 0 -0.1619547442009632 0.2162214427956837 0 -0.15110003921584569 0.22881829817408891 0 -0.1619547442009632 0.2162214427956837 0 -0.179110163166115 0.21364489161719899 0 -0.17870530295493239 0.18804735871836689 0 -0.19686056424972551 0.20437535499954981 0 -0.179110163166115 0.21364489161719899 0 -0.17870530295493239 0.18804735871836689 0 -0.179110163166115 0.21364489161719899 0 -0.17870530295493239 0.18804735871836689 0 -0.1619547442009632 0.2162214427956837 0 -0.17870530295493239 0.18804735871836689 0 -0.15775407484820861 0.18727827749961631 0 -0.14804225966403101 0.20585853828705919 0 -0.15775407484820861 0.18727827749961631 0 -0.13876353146598761 0.18223131465273959 0 -0.1619547442009632 0.2162214427956837 0 -0.14804225966403101 0.20585853828705919 0 -0.15775407484820861 0.18727827749961631 0 -0.13876353146598761 0.18223131465273959 0 -0.1245765098090509 0.17966052017845999 0 -0.1190175871807343 0.20067046473278771 0 -0.14804225966403101 0.20585853828705919 0 -0.13876353146598761 0.18223131465273959 0 -0.1190175871807343 0.20067046473278771 0 -0.14804225966403101 0.20585853828705919 0 -0.13479108425045189 0.2189379304695287 0 -0.1190175871807343 0.20067046473278771 0 -0.13479108425045189 0.2189379304695287 0 -0.12594818007053379 0.2253828658525201 0 -0.1190175871807343 0.20067046473278771 0 -0.1619547442009632 0.2162214427956837 0 -0.14804225966403101 0.20585853828705919 0 -0.15110003921584569 0.22881829817408891 0 -0.14804225966403101 0.20585853828705919 0 -0.15110003921584569 0.22881829817408891 0 -0.13479108425045189 0.2189379304695287 0 -0.15110003921584569 0.22881829817408891 0 -0.13479108425045189 0.2189379304695287 0 -0.1378537507735782 0.22769286600650679 0 -0.15110003921584569 0.22881829817408891 0 -0.1378537507735782 0.22769286600650679 0 -0.13827307027013019 0.2362506378269415 0 -0.13479108425045189 0.2189379304695287 0 -0.12594818007053379 0.2253828658525201 0 -0.1378537507735782 0.22769286600650679 0 -0.12594818007053379 0.2253828658525201 0 -0.1378537507735782 0.22769286600650679 0 -0.13827307027013019 0.2362506378269415 0 -0.12594818007053379 0.2253828658525201 0 -0.13827307027013019 0.2362506378269415 0 -0.1327712538659816 0.24971188635390451 0 -0.12594818007053379 0.2253828658525201 0 -0.1327712538659816 0.24971188635390451 0 -0.1532221513837192 0.25419418888983192 0 -0.15110003921584569 0.22881829817408891 0 -0.13827307027013019 0.2362506378269415 0 -0.1532221513837192 0.25419418888983192 0 -0.13827307027013019 0.2362506378269415 0 -0.1327712538659816 0.24971188635390451 0 -0.16317411874061041 0.14897554401654969 0 -0.16113979031376621 0.12743058591966341 0 -0.1447888583061562 0.1436064118174607 0 -0.16317411874061041 0.14897554401654969 0 -0.16113979031376621 0.12743058591966341 0 -0.17789558253256721 0.1368522929207025 0 -0.17749072232138041 0.1112547600218704 0 -0.16113979031376621 0.12743058591966341 0 -0.17789558253256721 0.1368522929207025 0 -0.19150979458678249 0.1243728737611647 0 -0.19274338499996449 0.14807478539393409 0 -0.17789558253256721 0.1368522929207025 0 -0.16317411874061041 0.14897554401654969 0 -0.17789558253256721 0.1368522929207025 0 -0.17830044274374979 0.16244982581953471 0 -0.17789558253256721 0.1368522929207025 0 -0.17830044274374979 0.16244982581953471 0 -0.19274338499996449 0.14807478539393409 0 -0.17789558253256721 0.1368522929207025 0 -0.17830044274374979 0.16244982581953471 0 -0.20517995294037331 0.17379218369948349 0 -0.17870530295493239 0.18804735871836689 0 -0.17830044274374979 0.16244982581953471 0 -0.17870530295493239 0.18804735871836689 0 -0.17830044274374979 0.16244982581953471 0 -0.17870530295493239 0.18804735871836689 0 -0.17830044274374979 0.16244982581953471 0 -0.15775407484820861 0.18727827749961631 0 -0.17830044274374979 0.16244982581953471 0 -0.15775407484820861 0.18727827749961631 0 -0.15245232938168229 0.1648839185887534 0 -0.16317411874061041 0.14897554401654969 0 -0.17830044274374979 0.16244982581953471 0 -0.15245232938168229 0.1648839185887534 0 -0.15775407484820861 0.18727827749961631 0 -0.15245232938168229 0.1648839185887534 0 -0.13876353146598761 0.18223131465273959 0 -0.13876353146598761 0.18223131465273959 0 -0.12843792629854631 0.15978223771525801 0 -0.1245765098090509 0.17966052017845999 0 -0.15245232938168229 0.1648839185887534 0 -0.13876353146598761 0.18223131465273959 0 -0.12843792629854631 0.15978223771525801 0 -0.12843792629854631 0.15978223771525801 0 -0.1447888583061562 0.1436064118174607 0 -0.12843792629854631 0.15978223771525801 0 -0.1447888583061562 0.1436064118174607 0 -0.1204435081575875 0.14623213693654391 0 -0.16317411874061041 0.14897554401654969 0 -0.15245232938168229 0.1648839185887534 0 -0.1447888583061562 0.1436064118174607 0 -0.15245232938168229 0.1648839185887534 0 -0.12843792629854631 0.15978223771525801 0 -0.1447888583061562 0.1436064118174607 0 -0.16113979031376621 0.12743058591966341 0 -0.1447888583061562 0.1436064118174607 0 -0.14300315410871919 0.1253406317882016 0 -0.16113979031376621 0.12743058591966341 0 -0.1447888583061562 0.1436064118174607 0 -0.1447888583061562 0.1436064118174607 0 -0.12687331202938101 0.13192737382428379 0 -0.1204435081575875 0.14623213693654391 0 -0.1447888583061562 0.1436064118174607 0 -0.14300315410871919 0.1253406317882016 0 -0.12687331202938101 0.13192737382428379 0 -0.12687331202938101 0.13192737382428379 0 -0.1130049083687871 0.13722853083192951 0 -0.10667563132183119 0.1260080396076822 0 -0.12687331202938101 0.13192737382428379 0 -0.1130049083687871 0.13722853083192951 0 -0.1204435081575875 0.14623213693654391 0 -0.10667563132183119 0.1260080396076822 0 -0.081978849477511453 0.1384377215961772 0 -0.096577670607123245 0.1239972751083621 0 -0.10667563132183119 0.1260080396076822 0 -0.1008242758955458 0.1385116675773613 0 -0.081978849477511453 0.1384377215961772 0 -0.10667563132183119 0.1260080396076822 0 -0.081978849477511453 0.1384377215961772 0 -0.1130049083687871 0.13722853083192951 0 -0.10667563132183119 0.1260080396076822 0 -0.1008242758955458 0.1385116675773613 0 -0.1130049083687871 0.13722853083192951 0 -0.1008242758955458 0.1385116675773613 0 -0.1078791741402548 0.14587794917826699 0 -0.094422293866394627 0.1556947047027778 0 -0.094582816169344081 0.14500609667275041 0 -0.1078791741402548 0.14587794917826699 0 -0.1008242758955458 0.1385116675773613 0 -0.094582816169344081 0.14500609667275041 0 -0.1078791741402548 0.14587794917826699 0 -0.12843792629854631 0.15978223771525801 0 -0.1204435081575875 0.14623213693654391 0 -0.1073217141416921 0.15896651377475199 0 -0.1078791741402548 0.14587794917826699 0 -0.1204435081575875 0.14623213693654391 0 -0.1073217141416921 0.15896651377475199 0 -0.1130049083687871 0.13722853083192951 0 -0.1078791741402548 0.14587794917826699 0 -0.1204435081575875 0.14623213693654391 0 -0.12843792629854631 0.15978223771525801 0 -0.1245765098090509 0.17966052017845999 0 -0.1120869942909358 0.17595806361305491 0 -0.1120869942909358 0.17595806361305491 0 -0.1073217141416921 0.15896651377475199 0 -0.12843792629854631 0.15978223771525801 0 -0.1120869942909358 0.17595806361305491 0 -0.12843792629854631 0.15978223771525801 0 -0.1120869942909358 0.17595806361305491 0 -0.1073217141416921 0.15896651377475199 0 -0.1245765098090509 0.17966052017845999 0 -0.1120869942909358 0.17595806361305491 0 -0.1190175871807343 0.20067046473278771 0 -0.1120869942909358 0.17595806361305491 0 -0.1020860412129876 0.1687304780430319 0 -0.095149617161195271 0.19271405424946009 0 -0.1020860412129876 0.1687304780430319 0 -0.095149617161195271 0.19271405424946009 0 -0.1120869942909358 0.17595806361305491 0 -0.095149617161195271 0.19271405424946009 0 -0.1020860412129876 0.1687304780430319 0 -0.093279947424905002 0.17994671451597891 0 -0.095149617161195271 0.19271405424946009 0 -0.1020860412129876 0.1687304780430319 0 -0.089956478385260899 0.16811851343374709 0 -0.093279947424905002 0.17994671451597891 0 -0.094422293866394627 0.1556947047027778 0 -0.1078791741402548 0.14587794917826699 0 -0.1020860412129876 0.1687304780430319 0 -0.1078791741402548 0.14587794917826699 0 -0.1073217141416921 0.15896651377475199 0 -0.1020860412129876 0.1687304780430319 0 -0.1120869942909358 0.17595806361305491 0 -0.1073217141416921 0.15896651377475199 0 -0.1020860412129876 0.1687304780430319 0 -0.1078791741402548 0.14587794917826699 0 -0.1020860412129876 0.1687304780430319 0 -0.094422293866394627 0.1556947047027778 0 -0.1020860412129876 0.1687304780430319 0 -0.089956478385260899 0.16811851343374709 0 -0.094422293866394627 0.1556947047027778 0 -0.089956478385260899 0.16811851343374709 0 -0.084742563178951485 0.15922574422532609 0 -0.089956478385260899 0.16811851343374709 0 -0.080023232193096983 0.1657260639694961 0 -0.084742563178951485 0.15922574422532609 0 -0.089956478385260899 0.16811851343374709 0 -0.080023232193096983 0.1657260639694961 0 -0.081293191825158789 0.17801619480298669 0 -0.080023232193096983 0.1657260639694961 0 -0.084742563178951485 0.15922574422532609 0 -0.074930767296401246 0.15918989644816289 0 -0.081293191825158789 0.17801619480298669 0 -0.095149617161195271 0.19271405424946009 0 -0.073474196407973841 0.19079473501472519 0 -0.081293191825158789 0.17801619480298669 0 -0.095149617161195271 0.19271405424946009 0 -0.093279947424905002 0.17994671451597891 0 -0.081293191825158789 0.17801619480298669 0 -0.095149617161195271 0.19271405424946009 0 -0.089956478385260899 0.16811851343374709 0 -0.093279947424905002 0.17994671451597891 0 -0.081293191825158789 0.17801619480298669 0 -0.064604308801312821 0.18244611143699499 0 -0.069549912031587807 0.17131438064227461 0 -0.073474196407973841 0.19079473501472519 0 -0.081293191825158789 0.17801619480298669 0 -0.069549912031587807 0.17131438064227461 0 -0.073474196407973841 0.19079473501472519 0 -0.069549912031587807 0.17131438064227461 0 -0.073474196407973841 0.19079473501472519 0 -0.064604308801312821 0.18244611143699499 0 -0.069549912031587807 0.17131438064227461 0 -0.062041409668937363 0.1723934095439342 0 -0.084742563178951485 0.15922574422532609 0 -0.074930767296401246 0.15918989644816289 0 -0.074588176879671189 0.15080810715310269 0 -0.080023232193096983 0.1657260639694961 0 -0.074930767296401246 0.15918989644816289 0 -0.06743676648912228 0.16331833535651319 0 -0.081293191825158789 0.17801619480298669 0 -0.069549912031587807 0.17131438064227461 0 -0.06743676648912228 0.16331833535651319 0 -0.080023232193096983 0.1657260639694961 0 -0.081293191825158789 0.17801619480298669 0 -0.06743676648912228 0.16331833535651319 0 -0.081293191825158789 0.17801619480298669 0 -0.06743676648912228 0.16331833535651319 0 -0.069549912031587807 0.17131438064227461 0 -0.062031688412593149 0.16441565219234799 0 -0.062041409668937363 0.1723934095439342 0 -0.069549912031587807 0.17131438064227461 0 -0.06743676648912228 0.16331833535651319 0 -0.062031688412593149 0.16441565219234799 0 -0.06743676648912228 0.16331833535651319 0 -0.06725389334219653 0.15771987894696021 0 -0.062031688412593149 0.16441565219234799 0 -0.074930767296401246 0.15918989644816289 0 -0.06743676648912228 0.16331833535651319 0 -0.06725389334219653 0.15771987894696021 0 -0.081978849477511453 0.1384377215961772 0 -0.05728206763319247 0.1508674035846734 0 -0.06725389334219653 0.15771987894696021 0 -0.074588176879671189 0.15080810715310269 0 -0.05728206763319247 0.1508674035846734 0 -0.074588176879671189 0.15080810715310269 0 -0.081978849477511453 0.1384377215961772 0 -0.05728206763319247 0.1508674035846734 0 -0.081978849477511453 0.1384377215961772 0 -0.06070043620975589 0.134524720015781 0 -0.05728206763319247 0.1508674035846734 0 -0.074930767296401246 0.15918989644816289 0 -0.06725389334219653 0.15771987894696021 0 -0.074588176879671189 0.15080810715310269 0 -0.071786582042575819 0.1280585334591178 0 -0.081978849477511453 0.1384377215961772 0 -0.08034823769671974 0.121089655777625 0 -0.071786582042575819 0.1280585334591178 0 -0.081978849477511453 0.1384377215961772 0 -0.06070043620975589 0.134524720015781 0 -0.071786582042575819 0.1280585334591178 0 -0.06070043620975589 0.134524720015781 0 -0.06411880478631618 0.11818203644688791 0 -0.081978849477511453 0.1384377215961772 0 -0.08034823769671974 0.121089655777625 0 -0.096577670607123245 0.1239972751083621 0 -0.1008242758955458 0.1385116675773613 0 -0.094582816169344081 0.14500609667275041 0 -0.081978849477511453 0.1384377215961772 0 -0.094582816169344081 0.14500609667275041 0 -0.081978849477511453 0.1384377215961772 0 -0.0854808471676783 0.14892295327365951 0 -0.094422293866394627 0.1556947047027778 0 -0.084742563178951485 0.15922574422532609 0 -0.0854808471676783 0.14892295327365951 0 -0.094422293866394627 0.1556947047027778 0 -0.094582816169344081 0.14500609667275041 0 -0.0854808471676783 0.14892295327365951 0 -0.084742563178951485 0.15922574422532609 0 -0.074588176879671189 0.15080810715310269 0 -0.0854808471676783 0.14892295327365951 0 -0.074588176879671189 0.15080810715310269 0 -0.081978849477511453 0.1384377215961772 0 -0.0854808471676783 0.14892295327365951 0 -0.1045487088169635 0.24438495162540061 0 -0.11455994162881621 0.23631135170566109 0 -0.098826177075254387 0.23394696074010041 0 -0.10005120432924321 0.25626016583208688 0 -0.094679029848152713 0.24609146959404629 0 -0.1045487088169635 0.24438495162540061 0 -0.094679029848152713 0.24609146959404629 0 -0.1045487088169635 0.24438495162540061 0 -0.098826177075254387 0.23394696074010041 0 -0.116744543106582 0.25728181003509248 0 -0.1045487088169635 0.24438495162540061 0 -0.11455994162881621 0.23631135170566109 0 -0.116744543106582 0.25728181003509248 0 -0.1327712538659816 0.24971188635390451 0 -0.11455994162881621 0.23631135170566109 0 -0.12594818007053379 0.2253828658525201 0 -0.1327712538659816 0.24971188635390451 0 -0.11455994162881621 0.23631135170566109 0 -0.11455994162881621 0.23631135170566109 0 -0.1144435087069731 0.2232582902708152 0 -0.1063794885369051 0.22193246116811141 0 -0.12594818007053379 0.2253828658525201 0 -0.1144435087069731 0.2232582902708152 0 -0.1108864245916369 0.20940648235696879 0 -0.12594818007053379 0.2253828658525201 0 -0.11455994162881621 0.23631135170566109 0 -0.1144435087069731 0.2232582902708152 0 -0.11455994162881621 0.23631135170566109 0 -0.1063794885369051 0.22193246116811141 0 -0.098826177075254387 0.23394696074010041 0 -0.1063794885369051 0.22193246116811141 0 -0.098826177075254387 0.23394696074010041 0 -0.089950704149474564 0.21660149084549701 0 -0.1063794885369051 0.22193246116811141 0 -0.089950704149474564 0.21660149084549701 0 -0.10053720550511509 0.21148400771379949 0 -0.095149617161195271 0.19271405424946009 0 -0.089950704149474564 0.21660149084549701 0 -0.1063794885369051 0.22193246116811141 0 -0.10053720550511509 0.21148400771379949 0 -0.089950704149474564 0.21660149084549701 0 -0.10053720550511509 0.21148400771379949 0 -0.1108864245916369 0.20940648235696879 0 -0.095149617161195271 0.19271405424946009 0 -0.1063794885369051 0.22193246116811141 0 -0.10053720550511509 0.21148400771379949 0 -0.1108864245916369 0.20940648235696879 0 -0.12594818007053379 0.2253828658525201 0 -0.1190175871807343 0.20067046473278771 0 -0.12594818007053379 0.2253828658525201 0 -0.1108864245916369 0.20940648235696879 0 -0.1190175871807343 0.20067046473278771 0 -0.12594818007053379 0.2253828658525201 0 -0.1108864245916369 0.20940648235696879 0 -0.1144435087069731 0.2232582902708152 0 -0.1063794885369051 0.22193246116811141 0 -0.1108864245916369 0.20940648235696879 0 -0.1120869942909358 0.17595806361305491 0 -0.1190175871807343 0.20067046473278771 0 -0.1108864245916369 0.20940648235696879 0 -0.1190175871807343 0.20067046473278771 0 -0.10682171669235439 0.1942096232944058 0 -0.1120869942909358 0.17595806361305491 0 -0.1190175871807343 0.20067046473278771 0 -0.10682171669235439 0.1942096232944058 0 -0.1108864245916369 0.20940648235696879 0 -0.095149617161195271 0.19271405424946009 0 -0.1108864245916369 0.20940648235696879 0 -0.10682171669235439 0.1942096232944058 0 -0.095149617161195271 0.19271405424946009 0 -0.1120869942909358 0.17595806361305491 0 -0.10682171669235439 0.1942096232944058 0 -0.095149617161195271 0.19271405424946009 0 -0.095149617161195271 0.19271405424946009 0 -0.077398480784349299 0.2102750893871779 0 -0.095149617161195271 0.19271405424946009 0 -0.073474196407973841 0.19079473501472519 0 -0.077398480784349299 0.2102750893871779 0 -0.095149617161195271 0.19271405424946009 0 -0.077398480784349299 0.2102750893871779 0 -0.087241526055590657 0.20514135106535239 0 -0.073474196407973841 0.19079473501472519 0 -0.077398480784349299 0.2102750893871779 0 -0.073474196407973841 0.19079473501472519 0 -0.077398480784349299 0.2102750893871779 0 -0.068984895145132993 0.20348567813270921 0 -0.064604308801312821 0.18244611143699499 0 -0.073474196407973841 0.19079473501472519 0 -0.062951628171730722 0.19451437844324071 0 -0.073474196407973841 0.19079473501472519 0 -0.062951628171730722 0.19451437844324071 0 -0.068984895145132993 0.20348567813270921 0 -0.062951628171730722 0.19451437844324071 0 -0.068984895145132993 0.20348567813270921 0 -0.057478398324341332 0.20606456403591589 0 -0.068984895145132993 0.20348567813270921 0 -0.075683327299925024 0.21197187487555791 0 -0.057478398324341332 0.20606456403591589 0 -0.075683327299925024 0.21197187487555791 0 -0.060700713784132942 0.2267940359372384 0 -0.057478398324341332 0.20606456403591589 0 -0.075683327299925024 0.21197187487555791 0 -0.057478398324341332 0.20606456403591589 0 -0.077398480784349299 0.2102750893871779 0 -0.068984895145132993 0.20348567813270921 0 -0.075683327299925024 0.21197187487555791 0 -0.075683327299925024 0.21197187487555791 0 -0.077884159070199604 0.2126860219832131 0 -0.060700713784132942 0.2267940359372384 0 -0.075683327299925024 0.21197187487555791 0 -0.077884159070199604 0.2126860219832131 0 -0.077398480784349299 0.2102750893871779 0 -0.075683327299925024 0.21197187487555791 0 -0.077884159070199604 0.2126860219832131 0 -0.077398480784349299 0.2102750893871779 0 -0.077884159070199604 0.2126860219832131 0 -0.077398480784349299 0.2102750893871779 0 -0.075683327299925024 0.21197187487555791 0 -0.077884159070199604 0.2126860219832131 0 -0.089950704149474564 0.21660149084549701 0 -0.077884159070199604 0.2126860219832131 0 -0.087241526055590657 0.20514135106535239 0 -0.089950704149474564 0.21660149084549701 0 -0.095149617161195271 0.19271405424946009 0 -0.087241526055590657 0.20514135106535239 0 -0.089950704149474564 0.21660149084549701 0 -0.095149617161195271 0.19271405424946009 0 -0.089950704149474564 0.21660149084549701 0 -0.077398480784349299 0.2102750893871779 0 -0.077884159070199604 0.2126860219832131 0 -0.087241526055590657 0.20514135106535239 0 -0.077884159070199604 0.2126860219832131 0 -0.083666647235009842 0.24139059785004849 0 -0.089950704149474564 0.21660149084549701 0 -0.083666647235009842 0.24139059785004849 0 -0.077884159070199604 0.2126860219832131 0 -0.089950704149474564 0.21660149084549701 0 -0.083666647235009842 0.24139059785004849 0 -0.098826177075254387 0.23394696074010041 0 -0.089950704149474564 0.21660149084549701 0 -0.083666647235009842 0.24139059785004849 0 -0.077884159070199604 0.2126860219832131 0 -0.083666647235009842 0.24139059785004849 0 -0.060700713784132942 0.2267940359372384 0 -0.075683327299925024 0.21197187487555791 0 -0.060700713784132942 0.2267940359372384 0 -0.064077212627390134 0.24851538469076631 0 -0.083666647235009842 0.24139059785004849 0 -0.060700713784132942 0.2267940359372384 0 -0.086302411784292182 0.25447467192259482 0 -0.083666647235009842 0.24139059785004849 0 -0.094679029848152713 0.24609146959404629 0 -0.098826177075254387 0.23394696074010041 0 -0.083666647235009842 0.24139059785004849 0 -0.086302411784292182 0.25447467192259482 0 -0.094679029848152713 0.24609146959404629 0 -0.083666647235009842 0.24139059785004849 0 -0.03068766995985707 0.25286978792993342 0 -0.034335222642673788 0.23481172099035691 0 -0.046578861792199937 0.24361118962503389 0 -0.034335222642673788 0.23481172099035691 0 -0.046578861792199937 0.24361118962503389 0 -0.045510089746351297 0.2289623102588538 0 -0.064077212627390134 0.24851538469076631 0 -0.046578861792199937 0.24361118962503389 0 -0.055802081643016588 0.23164020743468811 0 -0.064077212627390134 0.24851538469076631 0 -0.055802081643016588 0.23164020743468811 0 -0.060700713784132942 0.2267940359372384 0 -0.064077212627390134 0.24851538469076631 0 -0.060700713784132942 0.2267940359372384 0 -0.046578861792199937 0.24361118962503389 0 -0.055802081643016588 0.23164020743468811 0 -0.045510089746351297 0.2289623102588538 0 -0.055802081643016588 0.23164020743468811 0 -0.053252725762674542 0.2222055350902031 0 -0.045510089746351297 0.2289623102588538 0 -0.055802081643016588 0.23164020743468811 0 -0.060700713784132942 0.2267940359372384 0 -0.053252725762674542 0.2222055350902031 0 -0.055802081643016588 0.23164020743468811 0 -0.060700713784132942 0.2267940359372384 0 -0.053252725762674542 0.2222055350902031 0 -0.045510089746351297 0.2289623102588538 0 -0.046772345315528908 0.21756655778431969 0 -0.045510089746351297 0.2289623102588538 0 -0.036443083940353373 0.22210497005765251 0 -0.046772345315528908 0.21756655778431969 0 -0.034335222642673788 0.23481172099035691 0 -0.045510089746351297 0.2289623102588538 0 -0.036443083940353373 0.22210497005765251 0 -0.034335222642673788 0.23481172099035691 0 -0.036443083940353373 0.22210497005765251 0 -0.024866254401544021 0.22078734426404351 0 -0.036443083940353373 0.22210497005765251 0 -0.046772345315528908 0.21756655778431969 0 -0.031637039445344017 0.19767931081015269 0 -0.046772345315528908 0.21756655778431969 0 -0.057478398324341332 0.20606456403591589 0 -0.031637039445344017 0.19767931081015269 0 -0.060700713784132942 0.2267940359372384 0 -0.053252725762674542 0.2222055350902031 0 -0.057478398324341332 0.20606456403591589 0 -0.060700713784132942 0.2267940359372384 0 -0.057478398324341332 0.20606456403591589 0 -0.053252725762674542 0.2222055350902031 0 -0.046772345315528908 0.21756655778431969 0 -0.057478398324341332 0.20606456403591589 0 -0.062951628171730722 0.19451437844324071 0 -0.057478398324341332 0.20606456403591589 0 -0.054948738746262903 0.1897910154656581 0 -0.057478398324341332 0.20606456403591589 0 -0.054948738746262903 0.1897910154656581 0 -0.031637039445344017 0.19767931081015269 0 -0.057478398324341332 0.20606456403591589 0 -0.054948738746262903 0.1897910154656581 0 -0.054948738746262903 0.1897910154656581 0 -0.031637039445344017 0.19767931081015269 0 -0.039999697082172873 0.18418677263352329 0 -0.057478398324341332 0.20606456403591589 0 -0.031637039445344017 0.19767931081015269 0 -0.031637039445344017 0.19767931081015269 0 -0.0057956805663459468 0.1892940575843915 0 -0.031637039445344017 0.19767931081015269 0 -0.0057956805663459468 0.1892940575843915 0 -0.024775833668462071 0.17590936267321361 0 -0.031637039445344017 0.19767931081015269 0 -0.0057956805663459468 0.1892940575843915 0 -0.01019634689217482 0.20814994011246479 0 -0.0057956805663459468 0.1892940575843915 0 -0.01019634689217482 0.20814994011246479 0 0.0090806704795409685 0.20996839310177981 0 -0.01019634689217482 0.20814994011246479 0 0.00014186162909880781 0.2338185852574263 0 0.0090806704795409685 0.20996839310177981 0 -0.036443083940353373 0.22210497005765251 0 -0.031637039445344017 0.19767931081015269 0 -0.024866254401544021 0.22078734426404351 0 -0.031637039445344017 0.19767931081015269 0 -0.01019634689217482 0.20814994011246479 0 -0.024866254401544021 0.22078734426404351 0 -0.034335222642673788 0.23481172099035691 0 -0.024866254401544021 0.22078734426404351 0 -0.01991034591062427 0.239405390953495 0 -0.024866254401544021 0.22078734426404351 0 0.00014186162909880781 0.2338185852574263 0 -0.024866254401544021 0.22078734426404351 0 -0.01991034591062427 0.239405390953495 0 0.00014186162909880781 0.2338185852574263 0 -0.01019634689217482 0.20814994011246479 0 -0.024866254401544021 0.22078734426404351 0 0.00014186162909880781 0.2338185852574263 0 -0.0098044441781452579 0.25473951632571468 0 0.00014186162909880781 0.2338185852574263 0 0.0073806355134042019 0.25529449578482938 0 -0.0098044441781452579 0.25473951632571468 0 -0.01991034591062427 0.239405390953495 0 0.00014186162909880781 0.2338185852574263 0 -0.03068766995985707 0.25286978792993342 0 -0.034335222642673788 0.23481172099035691 0 -0.01991034591062427 0.239405390953495 0 -0.03068766995985707 0.25286978792993342 0 -0.0098044441781452579 0.25473951632571468 0 -0.01991034591062427 0.239405390953495 0 -0.045513089216113363 0.1481501368583191 0 -0.039963318838929777 0.1583549670989208 0 -0.028048700007850699 0.14601834090005769 0 -0.045513089216113363 0.1481501368583191 0 -0.037584816749385713 0.12707105787504261 0 -0.028048700007850699 0.14601834090005769 0 -0.037584816749385713 0.12707105787504261 0 -0.028048700007850699 0.14601834090005769 0 -0.045513089216113363 0.1481501368583191 0 -0.037584816749385713 0.12707105787504261 0 -0.045513089216113363 0.1481501368583191 0 -0.037584816749385713 0.12707105787504261 0 -0.049753839012929922 0.13582205838018921 0 -0.037584816749385713 0.12707105787504261 0 -0.049753839012929922 0.13582205838018921 0 -0.051208231868337763 0.1260313133231428 0 -0.049753839012929922 0.13582205838018921 0 -0.06070043620975589 0.134524720015781 0 -0.052276118599972977 0.1457036522838337 0 -0.051208231868337763 0.1260313133231428 0 -0.06070043620975589 0.134524720015781 0 -0.06411880478631618 0.11818203644688791 0 -0.06070043620975589 0.134524720015781 0 -0.06411880478631618 0.11818203644688791 0 -0.049753839012929922 0.13582205838018921 0 -0.051208231868337763 0.1260313133231428 0 -0.06070043620975589 0.134524720015781 0 -0.06070043620975589 0.134524720015781 0 -0.052276118599972977 0.1457036522838337 0 -0.05728206763319247 0.1508674035846734 0 -0.06070043620975589 0.134524720015781 0 -0.05728206763319247 0.1508674035846734 0 -0.045513089216113363 0.1481501368583191 0 -0.049753839012929922 0.13582205838018921 0 -0.052276118599972977 0.1457036522838337 0 -0.045513089216113363 0.1481501368583191 0 -0.052276118599972977 0.1457036522838337 0 -0.053440893212920608 0.15280063427064891 0 -0.052276118599972977 0.1457036522838337 0 -0.053440893212920608 0.15280063427064891 0 -0.05728206763319247 0.1508674035846734 0 -0.053440893212920608 0.15280063427064891 0 -0.05728206763319247 0.1508674035846734 0 -0.05728206763319247 0.1508674035846734 0 -0.062031688412593149 0.16441565219234799 0 -0.053441361682841117 0.16922921584159559 0 -0.053440893212920608 0.15280063427064891 0 -0.05728206763319247 0.1508674035846734 0 -0.053441361682841117 0.16922921584159559 0 -0.045513089216113363 0.1481501368583191 0 -0.053440893212920608 0.15280063427064891 0 -0.053441361682841117 0.16922921584159559 0 -0.045513089216113363 0.1481501368583191 0 -0.053441361682841117 0.16922921584159559 0 -0.05728206763319247 0.1508674035846734 0 -0.053441361682841117 0.16922921584159559 0 -0.06725389334219653 0.15771987894696021 0 -0.05728206763319247 0.1508674035846734 0 -0.062031688412593149 0.16441565219234799 0 -0.062031688412593149 0.16441565219234799 0 -0.053441361682841117 0.16922921584159559 0 -0.062041409668937363 0.1723934095439342 0 -0.053441361682841117 0.16922921584159559 0 -0.047633738945979477 0.17108968717192211 0 -0.039963318838929777 0.1583549670989208 0 -0.052991971448818453 0.17137768000779441 0 -0.053441361682841117 0.16922921584159559 0 -0.047633738945979477 0.17108968717192211 0 -0.052991971448818453 0.17137768000779441 0 -0.053441361682841117 0.16922921584159559 0 -0.054948738746262903 0.1897910154656581 0 -0.052419079168185397 0.17351746689540021 0 -0.046888846475854867 0.17837904804597579 0 -0.062951628171730722 0.19451437844324071 0 -0.054948738746262903 0.1897910154656581 0 -0.052419079168185397 0.17351746689540021 0 -0.062951628171730722 0.19451437844324071 0 -0.052991971448818453 0.17137768000779441 0 -0.052419079168185397 0.17351746689540021 0 -0.064604308801312821 0.18244611143699499 0 -0.062951628171730722 0.19451437844324071 0 -0.053441361682841117 0.16922921584159559 0 -0.062951628171730722 0.19451437844324071 0 -0.052991971448818453 0.17137768000779441 0 -0.053441361682841117 0.16922921584159559 0 -0.054948738746262903 0.1897910154656581 0 -0.052419079168185397 0.17351746689540021 0 -0.062951628171730722 0.19451437844324071 0 -0.053441361682841117 0.16922921584159559 0 -0.064604308801312821 0.18244611143699499 0 -0.053441361682841117 0.16922921584159559 0 -0.062041409668937363 0.1723934095439342 0 -0.052991971448818453 0.17137768000779441 0 -0.047633738945979477 0.17108968717192211 0 -0.052419079168185397 0.17351746689540021 0 -0.047633738945979477 0.17108968717192211 0 -0.052419079168185397 0.17351746689540021 0 -0.046888846475854867 0.17837904804597579 0 -0.054948738746262903 0.1897910154656581 0 -0.046888846475854867 0.17837904804597579 0 -0.039999697082172873 0.18418677263352329 0 -0.031637039445344017 0.19767931081015269 0 -0.039999697082172873 0.18418677263352329 0 -0.024775833668462071 0.17590936267321361 0 -0.046888846475854867 0.17837904804597579 0 -0.039999697082172873 0.18418677263352329 0 -0.039442978436673673 0.17331029806337539 0 -0.047633738945979477 0.17108968717192211 0 -0.046888846475854867 0.17837904804597579 0 -0.039442978436673673 0.17331029806337539 0 -0.039442978436673673 0.17331029806337539 0 -0.032139483942643897 0.16694135859911591 0 -0.024775833668462071 0.17590936267321361 0 -0.039999697082172873 0.18418677263352329 0 -0.039442978436673673 0.17331029806337539 0 -0.024775833668462071 0.17590936267321361 0 -0.045513089216113363 0.1481501368583191 0 -0.053441361682841117 0.16922921584159559 0 -0.039963318838929777 0.1583549670989208 0 -0.039963318838929777 0.1583549670989208 0 -0.032139483942643897 0.16694135859911591 0 -0.02343924065842673 0.15869802647678349 0 -0.047633738945979477 0.17108968717192211 0 -0.039442978436673673 0.17331029806337539 0 -0.039963318838929777 0.1583549670989208 0 -0.039442978436673673 0.17331029806337539 0 -0.039963318838929777 0.1583549670989208 0 -0.032139483942643897 0.16694135859911591 0 -0.032139483942643897 0.16694135859911591 0 -0.02343924065842673 0.15869802647678349 0 -0.024775833668462071 0.17590936267321361 0 -0.02343924065842673 0.15869802647678349 0 -0.024775833668462071 0.17590936267321361 0 -0.0048034666842798916 0.1614245706846468 0 -0.0057956805663459468 0.1892940575843915 0 -0.024775833668462071 0.17590936267321361 0 -0.0048034666842798916 0.1614245706846468 0 -0.0048034666842798916 0.1614245706846468 0 -0.01090464080839405 0.14353955890474629 0 0.011098566836083609 0.13484946890849181 0 -0.02343924065842673 0.15869802647678349 0 -0.0048034666842798916 0.1614245706846468 0 -0.01090464080839405 0.14353955890474629 0 -0.039963318838929777 0.1583549670989208 0 -0.02343924065842673 0.15869802647678349 0 -0.028048700007850699 0.14601834090005769 0 -0.02343924065842673 0.15869802647678349 0 -0.01090464080839405 0.14353955890474629 0 -0.028048700007850699 0.14601834090005769 0 -0.037584816749385713 0.12707105787504261 0 -0.0187932077553963 0.1304023687453105 0 -0.02482114599867602 0.1199028763409456 0 -0.01090464080839405 0.14353955890474629 0 -0.028048700007850699 0.14601834090005769 0 -0.0187932077553963 0.1304023687453105 0 -0.037584816749385713 0.12707105787504261 0 -0.028048700007850699 0.14601834090005769 0 -0.0187932077553963 0.1304023687453105 0 -0.0064436606074630637 0.13109611639504981 0 -0.007175360702145514 0.1155930690216506 0 0.011098566836083609 0.13484946890849181 0 -0.01090464080839405 0.14353955890474629 0 -0.0064436606074630637 0.13109611639504981 0 0.011098566836083609 0.13484946890849181 0 -0.0187932077553963 0.1304023687453105 0 -0.0064436606074630637 0.13109611639504981 0 -0.007175360702145514 0.1155930690216506 0 -0.01090464080839405 0.14353955890474629 0 -0.0187932077553963 0.1304023687453105 0 -0.0064436606074630637 0.13109611639504981 0 -0.007175360702145514 0.1155930690216506 0 -0.0040088977147468936 0.097024336429998151 0 -0.013655752966245171 0.094180689311720855 0 -0.007175360702145514 0.1155930690216506 0 -0.0040088977147468936 0.097024336429998151 0 0.0025937760044158291 0.1064596481343341 0 -0.007175360702145514 0.1155930690216506 0 -0.013655752966245171 0.094180689311720855 0 -0.02544928824037461 0.096336669134809427 0 -0.029459919491476121 0.1011230655410132 0 -0.021580178673492881 0.1105609364200745 0 -0.037915498494119543 0.10215930426450601 0 -0.007175360702145514 0.1155930690216506 0 -0.02544928824037461 0.096336669134809427 0 -0.007175360702145514 0.1155930690216506 0 -0.02544928824037461 0.096336669134809427 0 -0.0241566231860777 0.1021061234229471 0 -0.02544928824037461 0.096336669134809427 0 -0.029459919491476121 0.1011230655410132 0 -0.035034026511796899 0.0954599165668297 0 -0.02544928824037461 0.096336669134809427 0 -0.029459919491476121 0.1011230655410132 0 -0.0241566231860777 0.1021061234229471 0 -0.02544928824037461 0.096336669134809427 0 -0.0241566231860777 0.1021061234229471 0 -0.029459919491476121 0.1011230655410132 0 -0.0241566231860777 0.1021061234229471 0 -0.021580178673492881 0.1105609364200745 0 -0.02482114599867602 0.1199028763409456 0 -0.021580178673492881 0.1105609364200745 0 -0.032585978911933711 0.11378053360982859 0 -0.007175360702145514 0.1155930690216506 0 -0.0241566231860777 0.1021061234229471 0 -0.021580178673492881 0.1105609364200745 0 -0.0187932077553963 0.1304023687453105 0 -0.007175360702145514 0.1155930690216506 0 -0.02482114599867602 0.1199028763409456 0 -0.007175360702145514 0.1155930690216506 0 -0.02482114599867602 0.1199028763409456 0 -0.021580178673492881 0.1105609364200745 0 -0.01109578586274463 0.07592966442077155 0 -0.01963881101933795 0.057650575484614511 0 -0.0089029190745683329 0.062319161291970238 0 -0.0031702267477386531 0.067180855403790804 0 -0.01109578586274463 0.07592966442077155 0 0.0065236609159091173 0.071671444604676282 0 -0.0031702267477386531 0.067180855403790804 0 -0.0089029190745683329 0.062319161291970238 0 0.00079413703044923156 0.058803151297745167 0 -0.0031702267477386531 0.067180855403790804 0 -0.01109578586274463 0.07592966442077155 0 -0.0089029190745683329 0.062319161291970238 0 -0.0040088977147468936 0.097024336429998151 0 -0.01109578586274463 0.07592966442077155 0 0.011643404763696401 0.092949868607662828 0 -0.0040088977147468936 0.097024336429998151 0 -0.013655752966245171 0.094180689311720855 0 -0.01109578586274463 0.07592966442077155 0 -0.013655752966245171 0.094180689311720855 0 -0.01109578586274463 0.07592966442077155 0 -0.02054943231121421 0.086019707551374502 0 -0.02544928824037461 0.096336669134809427 0 -0.02054943231121421 0.086019707551374502 0 -0.029642132364781061 0.077623064684345475 0 -0.02544928824037461 0.096336669134809427 0 -0.029642132364781061 0.077623064684345475 0 -0.036673455980692451 0.084509049595857907 0 -0.01109578586274463 0.07592966442077155 0 -0.02054943231121421 0.086019707551374502 0 -0.029642132364781061 0.077623064684345475 0 -0.02544928824037461 0.096336669134809427 0 -0.029642132364781061 0.077623064684345475 0 -0.013655752966245171 0.094180689311720855 0 -0.02544928824037461 0.096336669134809427 0 -0.02054943231121421 0.086019707551374502 0 -0.02544928824037461 0.096336669134809427 0 -0.036673455980692451 0.084509049595857907 0 -0.01109578586274463 0.07592966442077155 0 -0.033834976489186493 0.058909460233881362 0 -0.01109578586274463 0.07592966442077155 0 -0.029642132364781061 0.077623064684345475 0 -0.033834976489186493 0.058909460233881362 0 -0.01109578586274463 0.07592966442077155 0 -0.033834976489186493 0.058909460233881362 0 -0.01963881101933795 0.057650575484614511 0 -0.029642132364781061 0.077623064684345475 0 -0.033834976489186493 0.058909460233881362 0 -0.029642132364781061 0.077623064684345475 0 -0.036732086871232597 0.066761861307427367 0 -0.033834976489186493 0.058909460233881362 0 -0.042969512877196837 0.063698159366550891 0 -0.036732086871232597 0.066761861307427367 0 -0.038306240480512441 0.072768089837317376 0 -0.042969512877196837 0.063698159366550891 0 -0.038306240480512441 0.072768089837317376 0 -0.046136221960229658 0.070392563092827029 0 -0.042969512877196837 0.063698159366550891 0 -0.036732086871232597 0.066761861307427367 0 -0.038907572144486188 0.060810532415041758 0 -0.029642132364781061 0.077623064684345475 0 -0.036732086871232597 0.066761861307427367 0 -0.038306240480512441 0.072768089837317376 0 -0.038306240480512441 0.072768089837317376 0 -0.046136221960229658 0.070392563092827029 0 -0.043586306971417507 0.077534071189344175 0 -0.038306240480512441 0.072768089837317376 0 -0.043586306971417507 0.077534071189344175 0 -0.036673455980692451 0.084509049595857907 0 -0.043586306971417507 0.077534071189344175 0 -0.036673455980692451 0.084509049595857907 0 -0.046978765451358998 0.084182386091036676 0 -0.029642132364781061 0.077623064684345475 0 -0.038306240480512441 0.072768089837317376 0 -0.036673455980692451 0.084509049595857907 0 -0.02544928824037461 0.096336669134809427 0 -0.036673455980692451 0.084509049595857907 0 -0.035034026511796899 0.0954599165668297 0 -0.036673455980692451 0.084509049595857907 0 -0.044089979176562301 0.093675305350012283 0 -0.035034026511796899 0.0954599165668297 0 -0.036673455980692451 0.084509049595857907 0 -0.044089979176562301 0.093675305350012283 0 -0.046978765451358998 0.084182386091036676 0 -0.044089979176562301 0.093675305350012283 0 -0.057144835734191893 0.088207312209507505 0 -0.046978765451358998 0.084182386091036676 0 -0.057144835734191893 0.088207312209507505 0 -0.046978765451358998 0.084182386091036676 0 -0.053399249393930842 0.076986192110461482 0 -0.043586306971417507 0.077534071189344175 0 -0.046978765451358998 0.084182386091036676 0 -0.053399249393930842 0.076986192110461482 0 -0.053399249393930842 0.076986192110461482 0 -0.070406408885084593 0.061857930521202607 0 -0.059815066152941319 0.061788281472960463 0 -0.057144835734191893 0.088207312209507505 0 -0.053399249393930842 0.076986192110461482 0 -0.070406408885084593 0.061857930521202607 0 -0.046136221960229658 0.070392563092827029 0 -0.043586306971417507 0.077534071189344175 0 -0.053399249393930842 0.076986192110461482 0 -0.046136221960229658 0.070392563092827029 0 -0.053399249393930842 0.076986192110461482 0 -0.05257832837313995 0.068950164376806455 0 -0.053399249393930842 0.076986192110461482 0 -0.05257832837313995 0.068950164376806455 0 -0.059815066152941319 0.061788281472960463 0 -0.05257832837313995 0.068950164376806455 0 -0.052166049838275927 0.062310195238599278 0 -0.059815066152941319 0.061788281472960463 0 -0.046136221960229658 0.070392563092827029 0 -0.05257832837313995 0.068950164376806455 0 -0.052166049838275927 0.062310195238599278 0 -0.042969512877196837 0.063698159366550891 0 -0.046136221960229658 0.070392563092827029 0 -0.052166049838275927 0.062310195238599278 0 -0.021580178673492881 0.1105609364200745 0 -0.043883262583300407 0.11455669389781301 0 -0.021580178673492881 0.1105609364200745 0 -0.043883262583300407 0.11455669389781301 0 -0.032585978911933711 0.11378053360982859 0 -0.037584816749385713 0.12707105787504261 0 -0.051208231868337763 0.1260313133231428 0 -0.043883262583300407 0.11455669389781301 0 -0.037584816749385713 0.12707105787504261 0 -0.043883262583300407 0.11455669389781301 0 -0.037584816749385713 0.12707105787504261 0 -0.032585978911933711 0.11378053360982859 0 -0.037584816749385713 0.12707105787504261 0 -0.043883262583300407 0.11455669389781301 0 -0.032585978911933711 0.11378053360982859 0 -0.037584816749385713 0.12707105787504261 0 -0.02482114599867602 0.1199028763409456 0 -0.032585978911933711 0.11378053360982859 0 -0.021580178673492881 0.1105609364200745 0 -0.043883262583300407 0.11455669389781301 0 -0.037915498494119543 0.10215930426450601 0 -0.044089979176562301 0.093675305350012283 0 -0.043883262583300407 0.11455669389781301 0 -0.037915498494119543 0.10215930426450601 0 -0.044089979176562301 0.093675305350012283 0 -0.037915498494119543 0.10215930426450601 0 -0.035034026511796899 0.0954599165668297 0 -0.029459919491476121 0.1011230655410132 0 -0.037915498494119543 0.10215930426450601 0 -0.035034026511796899 0.0954599165668297 0 -0.044089979176562301 0.093675305350012283 0 -0.057144835734191893 0.088207312209507505 0 -0.043883262583300407 0.11455669389781301 0 -0.057144835734191893 0.088207312209507505 0 -0.043883262583300407 0.11455669389781301 0 -0.057144835734191893 0.088207312209507505 0 -0.043883262583300407 0.11455669389781301 0 -0.056175626513735713 0.104231459755559 0 -0.056175626513735713 0.104231459755559 0 -0.061770267295803899 0.1005995653590098 0 -0.06411880478631618 0.11818203644688791 0 -0.057144835734191893 0.088207312209507505 0 -0.056175626513735713 0.104231459755559 0 -0.061770267295803899 0.1005995653590098 0 -0.043883262583300407 0.11455669389781301 0 -0.06411880478631618 0.11818203644688791 0 -0.051208231868337763 0.1260313133231428 0 -0.043883262583300407 0.11455669389781301 0 -0.06411880478631618 0.11818203644688791 0 -0.043883262583300407 0.11455669389781301 0 -0.056175626513735713 0.104231459755559 0 -0.06411880478631618 0.11818203644688791 0 -0.071786582042575819 0.1280585334591178 0 -0.06411880478631618 0.11818203644688791 0 -0.08034823769671974 0.121089655777625 0 -0.06411880478631618 0.11818203644688791 0 -0.08034823769671974 0.121089655777625 0 -0.075381325115152609 0.106019298300689 0 -0.06411880478631618 0.11818203644688791 0 -0.08034823769671974 0.121089655777625 0 -0.08034823769671974 0.121089655777625 0 -0.096577670607123245 0.1239972751083621 0 -0.08034823769671974 0.121089655777625 0 -0.092569001324263961 0.1124699312803344 0 -0.096577670607123245 0.1239972751083621 0 -0.08034823769671974 0.121089655777625 0 -0.083967771981719092 0.1102844810624737 0 -0.092569001324263961 0.1124699312803344 0 -0.08034823769671974 0.121089655777625 0 -0.083967771981719092 0.1102844810624737 0 -0.075381325115152609 0.106019298300689 0 -0.087572523790740042 0.10155903889124659 0 -0.082071947835387321 0.094412947715560025 0 -0.09233625647768956 0.091651488650119919 0 -0.083967771981719092 0.1102844810624737 0 -0.092569001324263961 0.1124699312803344 0 -0.087572523790740042 0.10155903889124659 0 -0.083967771981719092 0.1102844810624737 0 -0.087572523790740042 0.10155903889124659 0 -0.075381325115152609 0.106019298300689 0 -0.087572523790740042 0.10155903889124659 0 -0.082071947835387321 0.094412947715560025 0 -0.075381325115152609 0.106019298300689 0 -0.06411880478631618 0.11818203644688791 0 -0.06964180214897181 0.091777453024084701 0 -0.082071947835387321 0.094412947715560025 0 -0.075381325115152609 0.106019298300689 0 -0.06964180214897181 0.091777453024084701 0 -0.06411880478631618 0.11818203644688791 0 -0.075381325115152609 0.106019298300689 0 -0.06964180214897181 0.091777453024084701 0 -0.061770267295803899 0.1005995653590098 0 -0.06411880478631618 0.11818203644688791 0 -0.06964180214897181 0.091777453024084701 0 -0.057144835734191893 0.088207312209507505 0 -0.061770267295803899 0.1005995653590098 0 -0.06964180214897181 0.091777453024084701 0 -0.06964180214897181 0.091777453024084701 0 -0.075164799511626648 0.065372869601281192 0 -0.057144835734191893 0.088207312209507505 0 -0.06964180214897181 0.091777453024084701 0 -0.068089461569968729 0.076803891339018993 0 -0.06964180214897181 0.091777453024084701 0 -0.068089461569968729 0.076803891339018993 0 -0.075164799511626648 0.065372869601281192 0 -0.057144835734191893 0.088207312209507505 0 -0.068089461569968729 0.076803891339018993 0 -0.070406408885084593 0.061857930521202607 0 -0.06964180214897181 0.091777453024084701 0 -0.075164799511626648 0.065372869601281192 0 -0.08073347634316104 0.073575546631144614 0 -0.057144835734191893 0.088207312209507505 0 -0.070406408885084593 0.061857930521202607 0 -0.068089461569968729 0.076803891339018993 0 -0.075164799511626648 0.065372869601281192 0 -0.070406408885084593 0.061857930521202607 0 -0.089923560922876636 0.068178037636278263 0 -0.08578586832533959 0.082170087930996366 0 -0.103675070998617 0.083967309240415983 0 -0.08073347634316104 0.073575546631144614 0 -0.089923560922876636 0.068178037636278263 0 -0.083186879645449088 0.059889597987781727 0 -0.075164799511626648 0.065372869601281192 0 -0.08073347634316104 0.073575546631144614 0 -0.083186879645449088 0.059889597987781727 0 -0.08073347634316104 0.073575546631144614 0 -0.089923560922876636 0.068178037636278263 0 -0.08578586832533959 0.082170087930996366 0 -0.06964180214897181 0.091777453024084701 0 -0.08073347634316104 0.073575546631144614 0 -0.08578586832533959 0.082170087930996366 0 -0.082071947835387321 0.094412947715560025 0 -0.06964180214897181 0.091777453024084701 0 -0.08578586832533959 0.082170087930996366 0 -0.082071947835387321 0.094412947715560025 0 -0.08578586832533959 0.082170087930996366 0 -0.09233625647768956 0.091651488650119919 0 -0.09233625647768956 0.091651488650119919 0 -0.103675070998617 0.083967309240415983 0 -0.10429444750695741 0.1014886749251958 0 -0.08578586832533959 0.082170087930996366 0 -0.09233625647768956 0.091651488650119919 0 -0.103675070998617 0.083967309240415983 0 -0.103675070998617 0.083967309240415983 0 -0.1198812247159142 0.095002477965890675 0 -0.10429444750695741 0.1014886749251958 0 -0.089923560922876636 0.068178037636278263 0 -0.103675070998617 0.083967309240415983 0 -0.10785209906359081 0.065371441260914459 0 -0.12533951967512769 0.078274991835817334 0 -0.103675070998617 0.083967309240415983 0 -0.10785209906359081 0.065371441260914459 0 -0.12533951967512769 0.078274991835817334 0 -0.10785209906359081 0.065371441260914459 0 -0.1248745965026067 0.059896082918310993 0 -0.12533951967512769 0.078274991835817334 0 -0.103675070998617 0.083967309240415983 0 -0.1198812247159142 0.095002477965890675 0 -0.13137241316615089 0.11357835761918721 0 -0.1198812247159142 0.095002477965890675 0 -0.10429444750695741 0.1014886749251958 0 -0.13137241316615089 0.11357835761918721 0 -0.12687331202938101 0.13192737382428379 0 -0.10667563132183119 0.1260080396076822 0 -0.13137241316615089 0.11357835761918721 0 -0.10667563132183119 0.1260080396076822 0 -0.1062978327852654 0.11550845570815239 0 -0.13137241316615089 0.11357835761918721 0 -0.1062978327852654 0.11550845570815239 0 -0.10429444750695741 0.1014886749251958 0 -0.13137241316615089 0.11357835761918721 0 -0.10667563132183119 0.1260080396076822 0 -0.10667563132183119 0.1260080396076822 0 -0.1062978327852654 0.11550845570815239 0 -0.096577670607123245 0.1239972751083621 0 -0.092569001324263961 0.1124699312803344 0 -0.1062978327852654 0.11550845570815239 0 -0.096577670607123245 0.1239972751083621 0 -0.092569001324263961 0.1124699312803344 0 -0.1062978327852654 0.11550845570815239 0 -0.10429444750695741 0.1014886749251958 0 -0.092569001324263961 0.1124699312803344 0 -0.087572523790740042 0.10155903889124659 0 -0.10429444750695741 0.1014886749251958 0 -0.087572523790740042 0.10155903889124659 0 -0.09233625647768956 0.091651488650119919 0 -0.10429444750695741 0.1014886749251958 0 -0.10370969952600501 0.019997694726909911 0 -0.098524362227562057 0.035744340183224317 0 -0.08645931971955316 0.02325136753113614 0 -0.10370969952600501 0.019997694726909911 0 -0.08645931971955316 0.02325136753113614 0 -0.091682611010439896 0.0063963380850077774 0 -0.10370969952600501 0.019997694726909911 0 -0.1180188049733784 0.030804183747700629 0 -0.098524362227562057 0.035744340183224317 0 -0.10370969952600501 0.019997694726909911 0 -0.10877227824827949 0.0075748546359299482 0 -0.091682611010439896 0.0063963380850077774 0 -0.1029392013539359 -0.0085751277431150782 0 -0.10877227824827949 0.0075748546359299482 0 -0.091682611010439896 0.0063963380850077774 0 -0.10370969952600501 0.019997694726909911 0 -0.10877227824827949 0.0075748546359299482 0 -0.11835839359799651 0.016938700943610479 0 -0.1029392013539359 -0.0085751277431150782 0 -0.12735709500343681 0.004015926865657337 0 -0.10877227824827949 0.0075748546359299482 0 -0.12735709500343681 0.004015926865657337 0 -0.10877227824827949 0.0075748546359299482 0 -0.11835839359799651 0.016938700943610479 0 -0.1339340902388827 0.022300844741854581 0 -0.11835839359799651 0.016938700943610479 0 -0.1180188049733784 0.030804183747700629 0 -0.10370969952600501 0.019997694726909911 0 -0.11835839359799651 0.016938700943610479 0 -0.1180188049733784 0.030804183747700629 0 -0.1180188049733784 0.030804183747700629 0 -0.1128457876968547 0.048091259023394652 0 -0.098524362227562057 0.035744340183224317 0 -0.13626681081840961 0.042829268155062397 0 -0.1128457876968547 0.048091259023394652 0 -0.13626681081840961 0.042829268155062397 0 -0.1180188049733784 0.030804183747700629 0 -0.1128457876968547 0.048091259023394652 0 -0.13626681081840961 0.042829268155062397 0 -0.1128457876968547 0.048091259023394652 0 -0.1248745965026067 0.059896082918310993 0 -0.10785209906359081 0.065371441260914459 0 -0.1128457876968547 0.048091259023394652 0 -0.1248745965026067 0.059896082918310993 0 -0.1128457876968547 0.048091259023394652 0 -0.089424764575299687 0.053353249891726941 0 -0.089923560922876636 0.068178037636278263 0 -0.10785209906359081 0.065371441260914459 0 -0.089424764575299687 0.053353249891726941 0 -0.10785209906359081 0.065371441260914459 0 -0.1128457876968547 0.048091259023394652 0 -0.089424764575299687 0.053353249891726941 0 -0.1128457876968547 0.048091259023394652 0 -0.098524362227562057 0.035744340183224317 0 -0.089424764575299687 0.053353249891726941 0 -0.098524362227562057 0.035744340183224317 0 -0.080687796874281473 0.038968286178477703 0 -0.08645931971955316 0.02325136753113614 0 -0.098524362227562057 0.035744340183224317 0 -0.080687796874281473 0.038968286178477703 0 -0.089424764575299687 0.053353249891726941 0 -0.080687796874281473 0.038968286178477703 0 -0.089424764575299687 0.053353249891726941 0 -0.083186879645449088 0.059889597987781727 0 -0.075164799511626648 0.065372869601281192 0 -0.080687796874281473 0.038968286178477703 0 -0.083186879645449088 0.059889597987781727 0 -0.089923560922876636 0.068178037636278263 0 -0.089424764575299687 0.053353249891726941 0 -0.083186879645449088 0.059889597987781727 0 -0.075164799511626648 0.065372869601281192 0 -0.080687796874281473 0.038968286178477703 0 -0.071303082845968715 0.053347503409362687 0 -0.075164799511626648 0.065372869601281192 0 -0.080687796874281473 0.038968286178477703 0 -0.075164799511626648 0.065372869601281192 0 -0.070406408885084593 0.061857930521202607 0 -0.071303082845968715 0.053347503409362687 0 -0.071303082845968715 0.053347503409362687 0 -0.064856269609628314 0.055117702274744398 0 -0.065400139349222536 0.045420728471107522 0 -0.070406408885084593 0.061857930521202607 0 -0.071303082845968715 0.053347503409362687 0 -0.064856269609628314 0.055117702274744398 0 -0.070406408885084593 0.061857930521202607 0 -0.064856269609628314 0.055117702274744398 0 -0.059815066152941319 0.061788281472960463 0 -0.080687796874281473 0.038968286178477703 0 -0.065400139349222536 0.045420728471107522 0 -0.063264057366842208 0.031259222641012697 0 -0.080687796874281473 0.038968286178477703 0 -0.063264057366842208 0.031259222641012697 0 -0.073460039823911166 0.024685388153665749 0 -0.080687796874281473 0.038968286178477703 0 -0.071303082845968715 0.053347503409362687 0 -0.065400139349222536 0.045420728471107522 0 -0.063264057366842208 0.031259222641012697 0 -0.073460039823911166 0.024685388153665749 0 -0.061440697951084179 0.017621877449499421 0 -0.073460039823911166 0.024685388153665749 0 -0.076769634387976737 0.01135693610240161 0 -0.061440697951084179 0.017621877449499421 0 -0.080687796874281473 0.038968286178477703 0 -0.073460039823911166 0.024685388153665749 0 -0.08645931971955316 0.02325136753113614 0 -0.073460039823911166 0.024685388153665749 0 -0.08645931971955316 0.02325136753113614 0 -0.076769634387976737 0.01135693610240161 0 -0.08645931971955316 0.02325136753113614 0 -0.091682611010439896 0.0063963380850077774 0 -0.076769634387976737 0.01135693610240161 0 -0.091682611010439896 0.0063963380850077774 0 -0.078933949510919491 0.00072378658541613432 0 -0.076769634387976737 0.01135693610240161 0 -0.086097875964997059 -0.0058870606910941042 0 -0.091682611010439896 0.0063963380850077774 0 -0.078933949510919491 0.00072378658541613432 0 -0.078933949510919491 0.00072378658541613432 0 -0.076769634387976737 0.01135693610240161 0 -0.068462160169621672 0.0025537029525893409 0 -0.068462160169621672 0.0025537029525893409 0 -0.057836245250817257 0.0062936453779614283 0 -0.061440697951084179 0.017621877449499421 0 -0.076769634387976737 0.01135693610240161 0 -0.068462160169621672 0.0025537029525893409 0 -0.061440697951084179 0.017621877449499421 0 -0.057836245250817257 0.0062936453779614283 0 -0.061440697951084179 0.017621877449499421 0 -0.042678209040760022 0.019440128409622049 0 -0.057836245250817257 0.0062936453779614283 0 -0.042678209040760022 0.019440128409622049 0 -0.044352522143416888 0.0050416822031405977 0 -0.063264057366842208 0.031259222641012697 0 -0.042678209040760022 0.019440128409622049 0 -0.05195897498334151 0.039592758420259042 0 -0.063264057366842208 0.031259222641012697 0 -0.061440697951084179 0.017621877449499421 0 -0.042678209040760022 0.019440128409622049 0 -0.042678209040760022 0.019440128409622049 0 -0.038256592764973757 0.039174794321751791 0 -0.042678209040760022 0.019440128409622049 0 -0.038256592764973757 0.039174794321751791 0 -0.027511467414372541 0.03001296694831072 0 -0.042678209040760022 0.019440128409622049 0 -0.028180513839983729 0.018098474401369 0 -0.027511467414372541 0.03001296694831072 0 -0.042678209040760022 0.019440128409622049 0 -0.032770024037711037 0.0084985419153508525 0 -0.028180513839983729 0.018098474401369 0 -0.032770024037711037 0.0084985419153508525 0 -0.03614709390981162 0.0015378833132510439 0 -0.044352522143416888 0.0050416822031405977 0 -0.029539197120254941 -0.00051038393964639519 0 -0.032770024037711037 0.0084985419153508525 0 -0.03614709390981162 0.0015378833132510439 0 -0.042678209040760022 0.019440128409622049 0 -0.032770024037711037 0.0084985419153508525 0 -0.044352522143416888 0.0050416822031405977 0 -0.042969512877196837 0.063698159366550891 0 -0.047980875447113908 0.056604040506729722 0 -0.052166049838275927 0.062310195238599278 0 -0.047980875447113908 0.056604040506729722 0 -0.052166049838275927 0.062310195238599278 0 -0.055804220694704088 0.051985500715961808 0 -0.064856269609628314 0.055117702274744398 0 -0.059815066152941319 0.061788281472960463 0 -0.055804220694704088 0.051985500715961808 0 -0.052166049838275927 0.062310195238599278 0 -0.059815066152941319 0.061788281472960463 0 -0.055804220694704088 0.051985500715961808 0 -0.064856269609628314 0.055117702274744398 0 -0.065400139349222536 0.045420728471107522 0 -0.055804220694704088 0.051985500715961808 0 -0.047980875447113908 0.056604040506729722 0 -0.055804220694704088 0.051985500715961808 0 -0.046350630683546529 0.050276175962098407 0 -0.055804220694704088 0.051985500715961808 0 -0.05195897498334151 0.039592758420259042 0 -0.046350630683546529 0.050276175962098407 0 -0.065400139349222536 0.045420728471107522 0 -0.055804220694704088 0.051985500715961808 0 -0.05195897498334151 0.039592758420259042 0 -0.065400139349222536 0.045420728471107522 0 -0.063264057366842208 0.031259222641012697 0 -0.05195897498334151 0.039592758420259042 0 -0.042678209040760022 0.019440128409622049 0 -0.05195897498334151 0.039592758420259042 0 -0.038256592764973757 0.039174794321751791 0 -0.05195897498334151 0.039592758420259042 0 -0.038256592764973757 0.039174794321751791 0 -0.046350630683546529 0.050276175962098407 0 -0.038256592764973757 0.039174794321751791 0 -0.033834976489186493 0.058909460233881362 0 -0.038256592764973757 0.039174794321751791 0 -0.038513274033404883 0.055407770980391423 0 -0.033834976489186493 0.058909460233881362 0 -0.038256592764973757 0.039174794321751791 0 -0.046350630683546529 0.050276175962098407 0 -0.038513274033404883 0.055407770980391423 0 -0.038256592764973757 0.039174794321751791 0 -0.033834976489186493 0.058909460233881362 0 -0.02879531395286377 0.050132256585483953 0 -0.046350630683546529 0.050276175962098407 0 -0.038513274033404883 0.055407770980391423 0 -0.042914570065583427 0.057802329486214707 0 -0.036732086871232597 0.066761861307427367 0 -0.033834976489186493 0.058909460233881362 0 -0.038907572144486188 0.060810532415041758 0 -0.038513274033404883 0.055407770980391423 0 -0.033834976489186493 0.058909460233881362 0 -0.038513274033404883 0.055407770980391423 0 -0.033834976489186493 0.058909460233881362 0 -0.038907572144486188 0.060810532415041758 0 -0.042969512877196837 0.063698159366550891 0 -0.038907572144486188 0.060810532415041758 0 -0.042914570065583427 0.057802329486214707 0 -0.038513274033404883 0.055407770980391423 0 -0.038907572144486188 0.060810532415041758 0 -0.042914570065583427 0.057802329486214707 0 -0.047980875447113908 0.056604040506729722 0 -0.046350630683546529 0.050276175962098407 0 -0.042914570065583427 0.057802329486214707 0 -0.042969512877196837 0.063698159366550891 0 -0.047980875447113908 0.056604040506729722 0 -0.042914570065583427 0.057802329486214707 0 -0.033834976489186493 0.058909460233881362 0 -0.01963881101933795 0.057650575484614511 0 -0.02879531395286377 0.050132256585483953 0 -0.01963881101933795 0.057650575484614511 0 -0.02879531395286377 0.050132256585483953 0 -0.02345087553795689 0.044794196301688183 0 -0.01963881101933795 0.057650575484614511 0 -0.02345087553795689 0.044794196301688183 0 -0.012175026131353321 0.050402421608982242 0 -0.02345087553795689 0.044794196301688183 0 -0.014695186475719159 0.0359408453649432 0 -0.012175026131353321 0.050402421608982242 0 -0.038256592764973757 0.039174794321751791 0 -0.02879531395286377 0.050132256585483953 0 -0.02345087553795689 0.044794196301688183 0 -0.038256592764973757 0.039174794321751791 0 -0.02345087553795689 0.044794196301688183 0 -0.027511467414372541 0.03001296694831072 0 -0.02345087553795689 0.044794196301688183 0 -0.014695186475719159 0.0359408453649432 0 -0.027511467414372541 0.03001296694831072 0 -0.014695186475719159 0.0359408453649432 0 -0.0023331541944977092 0.045311556235899067 0 0.00074240361007229996 0.028778475488121531 0 -0.014695186475719159 0.0359408453649432 0 -0.0023331541944977092 0.045311556235899067 0 -0.012175026131353321 0.050402421608982242 0 -0.0023331541944977092 0.045311556235899067 0 -0.012175026131353321 0.050402421608982242 0 0.00079413703044923156 0.058803151297745167 0 -0.012175026131353321 0.050402421608982242 0 -0.0089029190745683329 0.062319161291970238 0 0.00079413703044923156 0.058803151297745167 0 -0.01963881101933795 0.057650575484614511 0 -0.012175026131353321 0.050402421608982242 0 -0.0089029190745683329 0.062319161291970238 0 -0.021996997598287969 0.010981086364913869 0 -0.02112675760807068 0.0030512678310729521 0 -0.0083058662928979787 0.012079608812324741 0 -0.021996997598287969 0.010981086364913869 0 -0.01661374249992489 0.02103319015209278 0 -0.0083058662928979787 0.012079608812324741 0 -0.021996997598287969 0.010981086364913869 0 -0.02112675760807068 0.0030512678310729521 0 -0.02631380729169577 0.0053104208567875946 0 -0.029539197120254941 -0.00051038393964639519 0 -0.02112675760807068 0.0030512678310729521 0 -0.02631380729169577 0.0053104208567875946 0 -0.029539197120254941 -0.00051038393964639519 0 -0.032770024037711037 0.0084985419153508525 0 -0.02631380729169577 0.0053104208567875946 0 -0.032770024037711037 0.0084985419153508525 0 -0.021996997598287969 0.010981086364913869 0 -0.02631380729169577 0.0053104208567875946 0 -0.032770024037711037 0.0084985419153508525 0 -0.021996997598287969 0.010981086364913869 0 -0.028180513839983729 0.018098474401369 0 -0.028180513839983729 0.018098474401369 0 -0.027511467414372541 0.03001296694831072 0 -0.01661374249992489 0.02103319015209278 0 -0.014695186475719159 0.0359408453649432 0 -0.027511467414372541 0.03001296694831072 0 -0.01661374249992489 0.02103319015209278 0 -0.021996997598287969 0.010981086364913869 0 -0.028180513839983729 0.018098474401369 0 -0.01661374249992489 0.02103319015209278 0 -0.01661374249992489 0.02103319015209278 0 0.00074240361007229996 0.028778475488121531 0 -0.0083058662928979787 0.012079608812324741 0 0.0060294939382754481 0.01286563290641534 0 0.00074240361007229996 0.028778475488121531 0 -0.014695186475719159 0.0359408453649432 0 -0.01661374249992489 0.02103319015209278 0 0.00074240361007229996 0.028778475488121531 0 -0.0083058662928979787 0.012079608812324741 0 0.00074240361007229996 0.028778475488121531 0 -0.01661374249992489 0.02103319015209278 0 -0.0083058662928979787 0.012079608812324741 0 0.00074240361007229996 0.028778475488121531 0 -0.0072764121498596901 -0.0036325873431357339 0 -0.0083058662928979787 0.012079608812324741 0 0.0012074066645448821 -0.00065723147797176382 0 -0.0072764121498596901 -0.0036325873431357339 0 -0.013607688627124061 -0.00178224205395049 0 -0.0083058662928979787 0.012079608812324741 0 -0.017354136195868258 -0.0046192578634720229 0 -0.0083058662928979787 0.012079608812324741 0 -0.017354136195868258 -0.0046192578634720229 0 -0.013607688627124061 -0.00178224205395049 0 -0.0083058662928979787 0.012079608812324741 0 -0.0083058662928979787 0.012079608812324741 0 0.0060294939382754481 0.01286563290641534 0 0.0012074066645448821 -0.00065723147797176382 0 -0.017354136195868258 -0.0046192578634720229 0 -0.02112675760807068 0.0030512678310729521 0 -0.0083058662928979787 0.012079608812324741 0 0.0060294939382754481 0.01286563290641534 0 0.0012074066645448821 -0.00065723147797176382 0 0.01265631079038235 -0.01012693536007268 0 0.0060294939382754481 0.01286563290641534 0 0.020311547060899309 0.014329649790385431 0 0.01265631079038235 -0.01012693536007268 0 0.00074240361007229996 0.028778475488121531 0 0.015746539320639769 0.024046632949657649 0 0.022626785018342459 0.038544513255683338 0 0.0060294939382754481 0.01286563290641534 0 0.00074240361007229996 0.028778475488121531 0 0.015746539320639769 0.024046632949657649 0 0.0060294939382754481 0.01286563290641534 0 0.015746539320639769 0.024046632949657649 0 0.020311547060899309 0.014329649790385431 0 0.015746539320639769 0.024046632949657649 0 0.029022466975609298 0.02571489330768258 0 0.020311547060899309 0.014329649790385431 0 0.015746539320639769 0.024046632949657649 0 0.029022466975609298 0.02571489330768258 0 0.022626785018342459 0.038544513255683338 0 0.020311547060899309 0.014329649790385431 0 0.034885408484197772 0.0062912350017927032 0 0.01265631079038235 -0.01012693536007268 0 0.029022466975609298 0.02571489330768258 0 0.020311547060899309 0.014329649790385431 0 0.034885408484197772 0.0062912350017927032 0 0.00079413703044923156 0.058803151297745167 0 0.01366790099406239 0.052632887419703241 0 0.0065236609159091173 0.071671444604676282 0 -0.0023331541944977092 0.045311556235899067 0 0.00079413703044923156 0.058803151297745167 0 0.01366790099406239 0.052632887419703241 0 0.00074240361007229996 0.028778475488121531 0 0.01366790099406239 0.052632887419703241 0 0.022626785018342459 0.038544513255683338 0 0.00074240361007229996 0.028778475488121531 0 0.022626785018342459 0.038544513255683338 0 -0.0023331541944977092 0.045311556235899067 0 0.00074240361007229996 0.028778475488121531 0 0.01366790099406239 0.052632887419703241 0 0.00074240361007229996 0.028778475488121531 0 0.01366790099406239 0.052632887419703241 0 0.029022466975609298 0.02571489330768258 0 0.022626785018342459 0.038544513255683338 0 0.037630953216902623 0.033668105561091018 0 0.01366790099406239 0.052632887419703241 0 0.022626785018342459 0.038544513255683338 0 0.025434983742737761 0.055249644843112657 0 0.022626785018342459 0.038544513255683338 0 0.025434983742737761 0.055249644843112657 0 0.034616451435572633 0.051242168749322393 0 0.025434983742737761 0.055249644843112657 0 0.034062632092931817 0.061255223706808547 0 0.02703491536905472 0.067401080742933134 0 0.01366790099406239 0.052632887419703241 0 0.025434983742737761 0.055249644843112657 0 0.02703491536905472 0.067401080742933134 0 0.034616451435572633 0.051242168749322393 0 0.044511166426612833 0.04831055102324476 0 0.060132464308973767 0.062986029428160187 0 0.034616451435572633 0.051242168749322393 0 0.060132464308973767 0.062986029428160187 0 0.044258496001147778 0.063884183083345675 0 0.034062632092931817 0.061255223706808547 0 0.034616451435572633 0.051242168749322393 0 0.044258496001147778 0.063884183083345675 0 0.025434983742737761 0.055249644843112657 0 0.034062632092931817 0.061255223706808547 0 0.034616451435572633 0.051242168749322393 0 0.022626785018342459 0.038544513255683338 0 0.044511166426612833 0.04831055102324476 0 0.022626785018342459 0.038544513255683338 0 0.034616451435572633 0.051242168749322393 0 0.044511166426612833 0.04831055102324476 0 0.022626785018342459 0.038544513255683338 0 0.044511166426612833 0.04831055102324476 0 0.037630953216902623 0.033668105561091018 0 0.044511166426612833 0.04831055102324476 0 0.037630953216902623 0.033668105561091018 0 0.0484135161167236 0.034205204957136963 0 0.0484135161167236 0.034205204957136963 0 0.060669767880595721 0.038134724015348051 0 0.0518117103670514 0.042737821036878322 0 0.0484135161167236 0.034205204957136963 0 0.060669767880595721 0.038134724015348051 0 0.057623658326613529 0.02352368721002385 0 0.060669767880595721 0.038134724015348051 0 0.0518117103670514 0.042737821036878322 0 0.059559274975242667 0.047504887075434543 0 0.044511166426612833 0.04831055102324476 0 0.0518117103670514 0.042737821036878322 0 0.059559274975242667 0.047504887075434543 0 0.044511166426612833 0.04831055102324476 0 0.0484135161167236 0.034205204957136963 0 0.0518117103670514 0.042737821036878322 0 0.044511166426612833 0.04831055102324476 0 0.066395547834883203 0.05807658879080619 0 0.060132464308973767 0.062986029428160187 0 0.034616451435572633 0.051242168749322393 0 0.060132464308973767 0.062986029428160187 0 0.044511166426612833 0.04831055102324476 0 0.066395547834883203 0.05807658879080619 0 0.044511166426612833 0.04831055102324476 0 0.059559274975242667 0.047504887075434543 0 0.066395547834883203 0.05807658879080619 0 0.034885408484197772 0.0062912350017927032 0 0.052968053050369737 0.0090809173488315582 0 0.042517259973231587 -0.011683923625132649 0 0.034885408484197772 0.0062912350017927032 0 0.043580831547224863 0.021565365261707499 0 0.052968053050369737 0.0090809173488315582 0 0.029022466975609298 0.02571489330768258 0 0.034885408484197772 0.0062912350017927032 0 0.043580831547224863 0.021565365261707499 0 0.029022466975609298 0.02571489330768258 0 0.037630953216902623 0.033668105561091018 0 0.043580831547224863 0.021565365261707499 0 0.037630953216902623 0.033668105561091018 0 0.0484135161167236 0.034205204957136963 0 0.043580831547224863 0.021565365261707499 0 0.057623658326613529 0.02352368721002385 0 0.052968053050369737 0.0090809173488315582 0 0.071708216805815503 0.016768608491387289 0 0.043580831547224863 0.021565365261707499 0 0.057623658326613529 0.02352368721002385 0 0.052968053050369737 0.0090809173488315582 0 0.0484135161167236 0.034205204957136963 0 0.043580831547224863 0.021565365261707499 0 0.057623658326613529 0.02352368721002385 0 0.052968053050369737 0.0090809173488315582 0 0.071708216805815503 0.016768608491387289 0 0.067492943165135169 -0.0019794682467893379 0 0.083930998993742512 0.0059737405228527038 0 0.071708216805815503 0.016768608491387289 0 0.067492943165135169 -0.0019794682467893379 0 0.083930998993742512 0.0059737405228527038 0 0.098495163759696414 0.0029673617968291321 0 0.094917995650245529 0.021722354499223519 0 0.083930998993742512 0.0059737405228527038 0 0.071708216805815503 0.016768608491387289 0 0.094917995650245529 0.021722354499223519 0 0.071708216805815503 0.016768608491387289 0 0.07449934060461412 0.03258063005354956 0 0.094917995650245529 0.021722354499223519 0 0.07449934060461412 0.03258063005354956 0 0.087237150257314613 0.037926204838731957 0 0.094917995650245529 0.021722354499223519 0 0.057623658326613529 0.02352368721002385 0 0.071708216805815503 0.016768608491387289 0 0.07449934060461412 0.03258063005354956 0 0.060669767880595721 0.038134724015348051 0 0.057623658326613529 0.02352368721002385 0 0.07449934060461412 0.03258063005354956 0 0.060669767880595721 0.038134724015348051 0 0.069155187538762042 0.045022305850501279 0 0.07449934060461412 0.03258063005354956 0 0.060669767880595721 0.038134724015348051 0 0.059559274975242667 0.047504887075434543 0 0.069155187538762042 0.045022305850501279 0 0.069155187538762042 0.045022305850501279 0 0.07449934060461412 0.03258063005354956 0 0.079692196512252927 0.044953406994506007 0 0.059559274975242667 0.047504887075434543 0 0.069155187538762042 0.045022305850501279 0 0.067326156772233525 0.050603546620565112 0 0.059559274975242667 0.047504887075434543 0 0.066395547834883203 0.05807658879080619 0 0.067326156772233525 0.050603546620565112 0 0.066395547834883203 0.05807658879080619 0 0.067326156772233525 0.050603546620565112 0 0.074194616740046182 0.051810404765518438 0 0.069155187538762042 0.045022305850501279 0 0.067326156772233525 0.050603546620565112 0 0.074194616740046182 0.051810404765518438 0 0.069155187538762042 0.045022305850501279 0 0.074194616740046182 0.051810404765518438 0 0.079692196512252927 0.044953406994506007 0 0.066395547834883203 0.05807658879080619 0 0.074194616740046182 0.051810404765518438 0 0.080343143758095259 0.058335218209008277 0 0.066395547834883203 0.05807658879080619 0 0.080343143758095259 0.058335218209008277 0 0.08827992924315356 0.067842626558367619 0 0.080343143758095259 0.058335218209008277 0 0.083306510346727383 0.05351440315152866 0 0.090416084875221875 0.058235299142909973 0 0.074194616740046182 0.051810404765518438 0 0.083306510346727383 0.05351440315152866 0 0.079692196512252927 0.044953406994506007 0 0.083306510346727383 0.05351440315152866 0 0.089760373586053266 0.048866493307206167 0 0.079692196512252927 0.044953406994506007 0 0.074194616740046182 0.051810404765518438 0 0.080343143758095259 0.058335218209008277 0 0.083306510346727383 0.05351440315152866 0 0.083306510346727383 0.05351440315152866 0 0.089760373586053266 0.048866493307206167 0 0.090416084875221875 0.058235299142909973 0 0.089760373586053266 0.048866493307206167 0 0.090416084875221875 0.058235299142909973 0 0.099395501669828634 0.055681054702382278 0 0.080343143758095259 0.058335218209008277 0 0.090416084875221875 0.058235299142909973 0 0.08827992924315356 0.067842626558367619 0 0.087237150257314613 0.037926204838731957 0 0.098930039005792711 0.04227996871225087 0 0.094917995650245529 0.021722354499223519 0 0.07449934060461412 0.03258063005354956 0 0.079692196512252927 0.044953406994506007 0 0.087237150257314613 0.037926204838731957 0 0.089760373586053266 0.048866493307206167 0 0.079692196512252927 0.044953406994506007 0 0.087237150257314613 0.037926204838731957 0 0.089760373586053266 0.048866493307206167 0 0.087237150257314613 0.037926204838731957 0 0.098930039005792711 0.04227996871225087 0 0.10894092886672049 0.033503019923715648 0 0.098930039005792711 0.04227996871225087 0 0.11550376979223601 0.054551475820320147 0 0.10894092886672049 0.033503019923715648 0 0.098930039005792711 0.04227996871225087 0 0.094917995650245529 0.021722354499223519 0 0.098930039005792711 0.04227996871225087 0 0.099395501669828634 0.055681054702382278 0 0.11550376979223601 0.054551475820320147 0 0.099395501669828634 0.055681054702382278 0 0.11550376979223601 0.054551475820320147 0 0.10561354398445311 0.069921878226714862 0 0.090416084875221875 0.058235299142909973 0 0.099395501669828634 0.055681054702382278 0 0.095618088847860577 0.065038419849084594 0 0.089760373586053266 0.048866493307206167 0 0.098930039005792711 0.04227996871225087 0 0.099395501669828634 0.055681054702382278 0 0.10894092886672049 0.033503019923715648 0 0.11961069471150609 0.02296590295220987 0 0.12977361784467401 0.039215218793308727 0 0.10894092886672049 0.033503019923715648 0 0.11550376979223601 0.054551475820320147 0 0.12977361784467401 0.039215218793308727 0 0.11961069471150609 0.02296590295220987 0 0.1158546052028349 0.0064685721448778594 0 0.094917995650245529 0.021722354499223519 0 0.11961069471150609 0.02296590295220987 0 0.1158546052028349 0.0064685721448778594 0 0.13894824890776639 0.02136224913872127 0 0.1158546052028349 0.0064685721448778594 0 0.098495163759696414 0.0029673617968291321 0 0.094917995650245529 0.021722354499223519 0 0.10894092886672049 0.033503019923715648 0 0.11961069471150609 0.02296590295220987 0 0.094917995650245529 0.021722354499223519 0 0.097728221435088053 0.099184528615223033 0 0.110275064223293 0.10236359857942121 0 0.11116449005577619 0.086473750785835857 0 0.099894961061174667 0.1104201015940532 0 0.11150799601301251 0.1117412241471519 0 0.110275064223293 0.10236359857942121 0 0.097728221435088053 0.099184528615223033 0 0.099894961061174667 0.1104201015940532 0 0.110275064223293 0.10236359857942121 0 0.097728221435088053 0.099184528615223033 0 0.099894961061174667 0.1104201015940532 0 0.084925795867796111 0.1103515185161017 0 0.099894961061174667 0.1104201015940532 0 0.096984900528893664 0.1212489081817222 0 0.084925795867796111 0.1103515185161017 0 0.099894961061174667 0.1104201015940532 0 0.096984900528893664 0.1212489081817222 0 0.10712684862241641 0.1210429748963526 0 0.096984900528893664 0.1212489081817222 0 0.10712684862241641 0.1210429748963526 0 0.10589272808503949 0.13156516273042271 0 0.099894961061174667 0.1104201015940532 0 0.10712684862241641 0.1210429748963526 0 0.11150799601301251 0.1117412241471519 0 0.10712684862241641 0.1210429748963526 0 0.11150799601301251 0.1117412241471519 0 0.1187293914863337 0.1182846474287873 0 0.11150799601301251 0.1117412241471519 0 0.1187293914863337 0.1182846474287873 0 0.1197878353292403 0.1092484053650479 0 0.10712684862241641 0.1210429748963526 0 0.1187293914863337 0.1182846474287873 0 0.114987521205969 0.1268010028982309 0 0.1187293914863337 0.1182846474287873 0 0.12813823657366311 0.12049833089676459 0 0.12624189261331301 0.1140678077034443 0 0.1187293914863337 0.1182846474287873 0 0.12212988809696081 0.1249307776834532 0 0.12813823657366311 0.12049833089676459 0 0.1187293914863337 0.1182846474287873 0 0.12212988809696081 0.1249307776834532 0 0.114987521205969 0.1268010028982309 0 0.1187293914863337 0.1182846474287873 0 0.1197878353292403 0.1092484053650479 0 0.12624189261331301 0.1140678077034443 0 0.1216961693062274 0.1020981758197984 0 0.110275064223293 0.10236359857942121 0 0.11116449005577619 0.086473750785835857 0 0.1197878353292403 0.1092484053650479 0 0.1216961693062274 0.1020981758197984 0 0.1302764983332621 0.10693497851168419 0 0.1216961693062274 0.1020981758197984 0 0.11116449005577619 0.086473750785835857 0 0.13668050292917741 0.098217611464673699 0 0.1197878353292403 0.1092484053650479 0 0.1216961693062274 0.1020981758197984 0 0.110275064223293 0.10236359857942121 0 0.11150799601301251 0.1117412241471519 0 0.1197878353292403 0.1092484053650479 0 0.110275064223293 0.10236359857942121 0 0.11116449005577619 0.086473750785835857 0 0.1207366242219714 0.074251990558816788 0 0.1300820653953097 0.084166932106396392 0 0.11116449005577619 0.086473750785835857 0 0.13668050292917741 0.098217611464673699 0 0.11116449005577619 0.086473750785835857 0 0.1207366242219714 0.074251990558816788 0 0.10561354398445311 0.069921878226714862 0 0.11550376979223601 0.054551475820320147 0 0.1207366242219714 0.074251990558816788 0 0.13255022158949201 0.068763676371196639 0 0.11550376979223601 0.054551475820320147 0 0.1207366242219714 0.074251990558816788 0 0.10561354398445311 0.069921878226714862 0 0.11116449005577619 0.086473750785835857 0 0.10561354398445311 0.069921878226714862 0 0.085648477182374977 0.074729890106998029 0 0.10561354398445311 0.069921878226714862 0 0.095618088847860577 0.065038419849084594 0 0.085648477182374977 0.074729890106998029 0 0.099395501669828634 0.055681054702382278 0 0.10561354398445311 0.069921878226714862 0 0.095618088847860577 0.065038419849084594 0 0.11116449005577619 0.086473750785835857 0 0.085648477182374977 0.074729890106998029 0 0.11116449005577619 0.086473750785835857 0 0.090808031879269946 0.087622927320568048 0 0.085648477182374977 0.074729890106998029 0 0.097728221435088053 0.099184528615223033 0 0.11116449005577619 0.086473750785835857 0 0.090808031879269946 0.087622927320568048 0 0.097728221435088053 0.099184528615223033 0 0.090808031879269946 0.087622927320568048 0 0.080235742217082393 0.093435287859391092 0 0.090808031879269946 0.087622927320568048 0 0.078675001300488379 0.083882301042573534 0 0.085648477182374977 0.074729890106998029 0 0.090808031879269946 0.087622927320568048 0 0.078675001300488379 0.083882301042573534 0 0.080235742217082393 0.093435287859391092 0 0.066395547834883203 0.05807658879080619 0 0.08827992924315356 0.067842626558367619 0 0.085648477182374977 0.074729890106998029 0 0.095618088847860577 0.065038419849084594 0 0.08827992924315356 0.067842626558367619 0 0.085648477182374977 0.074729890106998029 0 0.090416084875221875 0.058235299142909973 0 0.095618088847860577 0.065038419849084594 0 0.08827992924315356 0.067842626558367619 0 0.066395547834883203 0.05807658879080619 0 0.085648477182374977 0.074729890106998029 0 0.060132464308973767 0.062986029428160187 0 0.066395547834883203 0.05807658879080619 0 0.08827992924315356 0.067842626558367619 0 0.085648477182374977 0.074729890106998029 0 0.068637102026180674 0.07792917868559901 0 0.060132464308973767 0.062986029428160187 0 0.085648477182374977 0.074729890106998029 0 0.060132464308973767 0.062986029428160187 0 0.078675001300488379 0.083882301042573534 0 0.085648477182374977 0.074729890106998029 0 0.068637102026180674 0.07792917868559901 0 0.080235742217082393 0.093435287859391092 0 0.069503799956795384 0.087722797055870286 0 0.068523875558259784 0.095111972458496966 0 0.078675001300488379 0.083882301042573534 0 0.080235742217082393 0.093435287859391092 0 0.069503799956795384 0.087722797055870286 0 0.078675001300488379 0.083882301042573534 0 0.068637102026180674 0.07792917868559901 0 0.069503799956795384 0.087722797055870286 0 0.068637102026180674 0.07792917868559901 0 0.069503799956795384 0.087722797055870286 0 0.060111091978902922 0.083782113849914977 0 0.069503799956795384 0.087722797055870286 0 0.06135777996986308 0.093915161513068182 0 0.060111091978902922 0.083782113849914977 0 0.069503799956795384 0.087722797055870286 0 0.068523875558259784 0.095111972458496966 0 0.06135777996986308 0.093915161513068182 0 0.068523875558259784 0.095111972458496966 0 0.071520258741129425 0.10189571548122769 0 0.062413973273008162 0.1018934272394761 0 0.068523875558259784 0.095111972458496966 0 0.062413973273008162 0.1018934272394761 0 0.06135777996986308 0.093915161513068182 0 0.071520258741129425 0.10189571548122769 0 0.072821304814728441 0.1108529925529516 0 0.063718101814298073 0.11016590081819259 0 0.071520258741129425 0.10189571548122769 0 0.063718101814298073 0.11016590081819259 0 0.062413973273008162 0.1018934272394761 0 0.071520258741129425 0.10189571548122769 0 0.084925795867796111 0.1103515185161017 0 0.072821304814728441 0.1108529925529516 0 0.080235742217082393 0.093435287859391092 0 0.068523875558259784 0.095111972458496966 0 0.071520258741129425 0.10189571548122769 0 0.097728221435088053 0.099184528615223033 0 0.080235742217082393 0.093435287859391092 0 0.084925795867796111 0.1103515185161017 0 0.080235742217082393 0.093435287859391092 0 0.071520258741129425 0.10189571548122769 0 0.084925795867796111 0.1103515185161017 0 0.084925795867796111 0.1103515185161017 0 0.074154959480044275 0.1204842858357125 0 0.087075880893963842 0.12621803440601359 0 0.096984900528893664 0.1212489081817222 0 0.084925795867796111 0.1103515185161017 0 0.087075880893963842 0.12621803440601359 0 0.084925795867796111 0.1103515185161017 0 0.074154959480044275 0.1204842858357125 0 0.072821304814728441 0.1108529925529516 0 0.074154959480044275 0.1204842858357125 0 0.072821304814728441 0.1108529925529516 0 0.063718101814298073 0.11016590081819259 0 0.074154959480044275 0.1204842858357125 0 0.063718101814298073 0.11016590081819259 0 0.060124536552058239 0.11864948812996751 0 0.074154959480044275 0.1204842858357125 0 0.060124536552058239 0.11864948812996751 0 0.061109117960118017 0.12720913792676911 0 0.060124536552058239 0.11864948812996751 0 0.052595679859244633 0.1236025024456274 0 0.054913207086597561 0.11271600588853189 0 0.060124536552058239 0.11864948812996751 0 0.052595679859244633 0.1236025024456274 0 0.061109117960118017 0.12720913792676911 0 0.052595679859244633 0.1236025024456274 0 0.054913207086597561 0.11271600588853189 0 0.046771683079868627 0.1089772416004138 0 0.063718101814298073 0.11016590081819259 0 0.060124536552058239 0.11864948812996751 0 0.054913207086597561 0.11271600588853189 0 0.063718101814298073 0.11016590081819259 0 0.062413973273008162 0.1018934272394761 0 0.053620768430252298 0.1031656988462608 0 0.063718101814298073 0.11016590081819259 0 0.054913207086597561 0.11271600588853189 0 0.053620768430252298 0.1031656988462608 0 0.06135777996986308 0.093915161513068182 0 0.053620768430252298 0.1031656988462608 0 0.051535176025136201 0.090416251810209708 0 0.062413973273008162 0.1018934272394761 0 0.06135777996986308 0.093915161513068182 0 0.053620768430252298 0.1031656988462608 0 0.053620768430252298 0.1031656988462608 0 0.042875633238578528 0.09739353282270094 0 0.051535176025136201 0.090416251810209708 0 0.053620768430252298 0.1031656988462608 0 0.046771683079868627 0.1089772416004138 0 0.042875633238578528 0.09739353282270094 0 0.054913207086597561 0.11271600588853189 0 0.053620768430252298 0.1031656988462608 0 0.046771683079868627 0.1089772416004138 0 0.046771683079868627 0.1089772416004138 0 0.042875633238578528 0.09739353282270094 0 0.034382595390138257 0.1099700727945534 0 0.042875633238578528 0.09739353282270094 0 0.034382595390138257 0.1099700727945534 0 0.030708755379597181 0.088685576768743155 0 0.034382595390138257 0.1099700727945534 0 0.030708755379597181 0.088685576768743155 0 0.052595679859244633 0.1236025024456274 0 0.046771683079868627 0.1089772416004138 0 0.034382595390138257 0.1099700727945534 0 0.034382595390138257 0.1099700727945534 0 0.02520709702204247 0.1232263280856261 0 0.037354296692750887 0.12718670835402709 0 0.052595679859244633 0.1236025024456274 0 0.034382595390138257 0.1099700727945534 0 0.037354296692750887 0.12718670835402709 0 0.034382595390138257 0.1099700727945534 0 0.037354296692750887 0.12718670835402709 0 0.052595679859244633 0.1236025024456274 0 0.034382595390138257 0.1099700727945534 0 0.060132464308973767 0.062986029428160187 0 0.051537231586459821 0.0703604747810012 0 0.044258496001147778 0.063884183083345675 0 0.051537231586459821 0.0703604747810012 0 0.045053238281461433 0.071665999821029613 0 0.044258496001147778 0.063884183083345675 0 0.060132464308973767 0.062986029428160187 0 0.058160070023191839 0.074213970699792686 0 0.051537231586459821 0.0703604747810012 0 0.068637102026180674 0.07792917868559901 0 0.060132464308973767 0.062986029428160187 0 0.058160070023191839 0.074213970699792686 0 0.051537231586459821 0.0703604747810012 0 0.049495561811348857 0.078896267932753172 0 0.045053238281461433 0.071665999821029613 0 0.058160070023191839 0.074213970699792686 0 0.051537231586459821 0.0703604747810012 0 0.049495561811348857 0.078896267932753172 0 0.049495561811348857 0.078896267932753172 0 0.051535176025136201 0.090416251810209708 0 0.041750220721871581 0.085344735896560275 0 0.049495561811348857 0.078896267932753172 0 0.060111091978902922 0.083782113849914977 0 0.051535176025136201 0.090416251810209708 0 0.068637102026180674 0.07792917868559901 0 0.058160070023191839 0.074213970699792686 0 0.060111091978902922 0.083782113849914977 0 0.058160070023191839 0.074213970699792686 0 0.049495561811348857 0.078896267932753172 0 0.060111091978902922 0.083782113849914977 0 0.06135777996986308 0.093915161513068182 0 0.060111091978902922 0.083782113849914977 0 0.051535176025136201 0.090416251810209708 0 0.042875633238578528 0.09739353282270094 0 0.051535176025136201 0.090416251810209708 0 0.041750220721871581 0.085344735896560275 0 0.042875633238578528 0.09739353282270094 0 0.041750220721871581 0.085344735896560275 0 0.030708755379597181 0.088685576768743155 0 0.041750220721871581 0.085344735896560275 0 0.037489048909448763 0.07466528487264068 0 0.030708755379597181 0.088685576768743155 0 0.049495561811348857 0.078896267932753172 0 0.041750220721871581 0.085344735896560275 0 0.037489048909448763 0.07466528487264068 0 0.037489048909448763 0.07466528487264068 0 0.02703491536905472 0.067401080742933134 0 0.030708755379597181 0.088685576768743155 0 0.049495561811348857 0.078896267932753172 0 0.045053238281461433 0.071665999821029613 0 0.037489048909448763 0.07466528487264068 0 0.045053238281461433 0.071665999821029613 0 0.037489048909448763 0.07466528487264068 0 0.037579666130808903 0.067774354445351542 0 0.034062632092931817 0.061255223706808547 0 0.037579666130808903 0.067774354445351542 0 0.02703491536905472 0.067401080742933134 0 0.037489048909448763 0.07466528487264068 0 0.037579666130808903 0.067774354445351542 0 0.02703491536905472 0.067401080742933134 0 0.034062632092931817 0.061255223706808547 0 0.037579666130808903 0.067774354445351542 0 0.044258496001147778 0.063884183083345675 0 0.045053238281461433 0.071665999821029613 0 0.037579666130808903 0.067774354445351542 0 0.044258496001147778 0.063884183083345675 0 0.02703491536905472 0.067401080742933134 0 0.030708755379597181 0.088685576768743155 0 0.01366790099406239 0.052632887419703241 0 0.026593398378051959 0.076487299351285121 0 0.01366790099406239 0.052632887419703241 0 0.02703491536905472 0.067401080742933134 0 0.026593398378051959 0.076487299351285121 0 0.02703491536905472 0.067401080742933134 0 0.026593398378051959 0.076487299351285121 0 0.030708755379597181 0.088685576768743155 0 0.01366790099406239 0.052632887419703241 0 0.026593398378051959 0.076487299351285121 0 0.01611389888654503 0.070322973248010373 0 0.026593398378051959 0.076487299351285121 0 0.01611389888654503 0.070322973248010373 0 0.01767063525815666 0.080500261616376856 0 0.01767063525815666 0.080500261616376856 0 0.030708755379597181 0.088685576768743155 0 0.011643404763696401 0.092949868607662828 0 0.026593398378051959 0.076487299351285121 0 0.01767063525815666 0.080500261616376856 0 0.030708755379597181 0.088685576768743155 0 0.01767063525815666 0.080500261616376856 0 0.011643404763696401 0.092949868607662828 0 0.0065236609159091173 0.071671444604676282 0 -0.01109578586274463 0.07592966442077155 0 0.011643404763696401 0.092949868607662828 0 0.0065236609159091173 0.071671444604676282 0 -0.01109578586274463 0.07592966442077155 0 0.011643404763696401 0.092949868607662828 0 0.01366790099406239 0.052632887419703241 0 0.01611389888654503 0.070322973248010373 0 0.0065236609159091173 0.071671444604676282 0 0.01611389888654503 0.070322973248010373 0 0.01767063525815666 0.080500261616376856 0 0.0065236609159091173 0.071671444604676282 0 -0.0031702267477386531 0.067180855403790804 0 0.00079413703044923156 0.058803151297745167 0 0.0065236609159091173 0.071671444604676282 0 0.034382595390138257 0.1099700727945534 0 0.02520709702204247 0.1232263280856261 0 0.01356063639681436 0.11371506303709419 0 0.02520709702204247 0.1232263280856261 0 0.01356063639681436 0.11371506303709419 0 0.011098566836083609 0.13484946890849181 0 0.034382595390138257 0.1099700727945534 0 0.011643404763696401 0.092949868607662828 0 0.01356063639681436 0.11371506303709419 0 0.034382595390138257 0.1099700727945534 0 0.011643404763696401 0.092949868607662828 0 0.034382595390138257 0.1099700727945534 0 0.030708755379597181 0.088685576768743155 0 0.011643404763696401 0.092949868607662828 0 -0.0040088977147468936 0.097024336429998151 0 0.011643404763696401 0.092949868607662828 0 0.0025937760044158291 0.1064596481343341 0 0.011643404763696401 0.092949868607662828 0 0.0025937760044158291 0.1064596481343341 0 0.01356063639681436 0.11371506303709419 0 -0.007175360702145514 0.1155930690216506 0 0.0025937760044158291 0.1064596481343341 0 0.01356063639681436 0.11371506303709419 0 -0.007175360702145514 0.1155930690216506 0 0.01356063639681436 0.11371506303709419 0 0.011098566836083609 0.13484946890849181 0 -0.007175360702145514 0.1155930690216506 0 0.011098566836083609 0.13484946890849181 0 0.02520709702204247 0.1232263280856261 0 0.011098566836083609 0.13484946890849181 0 0.028759663239593541 0.13617761485890201 0 0.02520709702204247 0.1232263280856261 0 0.028759663239593541 0.13617761485890201 0 0.037354296692750887 0.12718670835402709 0 0.011098566836083609 0.13484946890849181 0 0.029372494374312729 0.15410586879533311 0 0.013538337341477229 0.1636201682865295 0 0.011098566836083609 0.13484946890849181 0 0.028759663239593541 0.13617761485890201 0 0.029372494374312729 0.15410586879533311 0 0.011098566836083609 0.13484946890849181 0 0.029372494374312729 0.15410586879533311 0 -0.0048034666842798916 0.1614245706846468 0 0.011098566836083609 0.13484946890849181 0 0.013538337341477229 0.1636201682865295 0 -0.0057956805663459468 0.1892940575843915 0 -0.0048034666842798916 0.1614245706846468 0 0.013538337341477229 0.1636201682865295 0 -0.0057956805663459468 0.1892940575843915 0 0.013538337341477229 0.1636201682865295 0 0.020045678312652242 0.18090880435863019 0 -0.0057956805663459468 0.1892940575843915 0 0.020045678312652242 0.18090880435863019 0 0.029372494374312729 0.15410586879533311 0 0.013538337341477229 0.1636201682865295 0 0.020045678312652242 0.18090880435863019 0 0.029372494374312729 0.15410586879533311 0 0.045887037191650451 0.17252355113286891 0 0.04813315871709322 0.1541455757588851 0 0.029372494374312729 0.15410586879533311 0 0.020045678312652242 0.18090880435863019 0 0.045887037191650451 0.17252355113286891 0 0.020045678312652242 0.18090880435863019 0 0.045887037191650451 0.17252355113286891 0 0.020045678312652242 0.18090880435863019 0 0.045887037191650451 0.17252355113286891 0 0.041991232206495782 0.1919910870650737 0 0.045887037191650451 0.17252355113286891 0 0.060802696405823108 0.1787365445376432 0 0.041991232206495782 0.1919910870650737 0 0.045887037191650451 0.17252355113286891 0 0.071728396070648653 0.1641382979071076 0 0.045887037191650451 0.17252355113286891 0 0.060802696405823108 0.1787365445376432 0 0.071728396070648653 0.1641382979071076 0 0.045887037191650451 0.17252355113286891 0 0.059657673584757237 0.15824269734654939 0 0.04813315871709322 0.1541455757588851 0 0.045887037191650451 0.17252355113286891 0 0.059657673584757237 0.15824269734654939 0 0.071728396070648653 0.1641382979071076 0 0.059657673584757237 0.15824269734654939 0 0.04813315871709322 0.1541455757588851 0 0.060329678829100349 0.1474246815113264 0 0.04813315871709322 0.1541455757588851 0 0.050215372913412007 0.1458935282758238 0 0.060329678829100349 0.1474246815113264 0 0.050215372913412007 0.1458935282758238 0 0.060329678829100349 0.1474246815113264 0 0.052072656112092337 0.13760051191958289 0 0.050215372913412007 0.1458935282758238 0 0.052072656112092337 0.13760051191958289 0 0.040325997995362128 0.14440334391350099 0 0.060329678829100349 0.1474246815113264 0 0.062159468211553673 0.13737243366585769 0 0.052072656112092337 0.13760051191958289 0 0.062159468211553673 0.13737243366585769 0 0.054733357378362921 0.13083888414419281 0 0.052072656112092337 0.13760051191958289 0 0.052595679859244633 0.1236025024456274 0 0.054733357378362921 0.13083888414419281 0 0.061109117960118017 0.12720913792676911 0 0.062159468211553673 0.13737243366585769 0 0.054733357378362921 0.13083888414419281 0 0.061109117960118017 0.12720913792676911 0 0.052595679859244633 0.1236025024456274 0 0.054733357378362921 0.13083888414419281 0 0.046346625143134958 0.1312929959830558 0 0.054733357378362921 0.13083888414419281 0 0.052072656112092337 0.13760051191958289 0 0.046346625143134958 0.1312929959830558 0 0.037354296692750887 0.12718670835402709 0 0.040325997995362128 0.14440334391350099 0 0.046346625143134958 0.1312929959830558 0 0.037354296692750887 0.12718670835402709 0 0.040325997995362128 0.14440334391350099 0 0.028759663239593541 0.13617761485890201 0 0.037354296692750887 0.12718670835402709 0 0.040325997995362128 0.14440334391350099 0 0.052072656112092337 0.13760051191958289 0 0.046346625143134958 0.1312929959830558 0 0.040325997995362128 0.14440334391350099 0 0.052595679859244633 0.1236025024456274 0 0.046346625143134958 0.1312929959830558 0 0.037354296692750887 0.12718670835402709 0 0.028759663239593541 0.13617761485890201 0 0.029372494374312729 0.15410586879533311 0 0.040325997995362128 0.14440334391350099 0 0.029372494374312729 0.15410586879533311 0 0.04813315871709322 0.1541455757588851 0 0.040325997995362128 0.14440334391350099 0 0.04813315871709322 0.1541455757588851 0 0.050215372913412007 0.1458935282758238 0 0.040325997995362128 0.14440334391350099 0 0.025149977659741599 0.24684982625080901 0 0.00014186162909880781 0.2338185852574263 0 0.02177620002751179 0.22559840920251981 0 0.025149977659741599 0.24684982625080901 0 0.00014186162909880781 0.2338185852574263 0 0.025149977659741599 0.24684982625080901 0 0.00014186162909880781 0.2338185852574263 0 0.0073806355134042019 0.25529449578482938 0 0.00014186162909880781 0.2338185852574263 0 0.02177620002751179 0.22559840920251981 0 0.0090806704795409685 0.20996839310177981 0 0.025149977659741599 0.24684982625080901 0 0.02177620002751179 0.22559840920251981 0 0.039960986899899173 0.22780444499479169 0 0.02177620002751179 0.22559840920251981 0 0.0090806704795409685 0.20996839310177981 0 0.034547503469278373 0.20955079640779209 0 0.0090806704795409685 0.20996839310177981 0 0.02162293693503077 0.1981024475624624 0 0.034547503469278373 0.20955079640779209 0 -0.0057956805663459468 0.1892940575843915 0 0.0090806704795409685 0.20996839310177981 0 0.02162293693503077 0.1981024475624624 0 -0.0057956805663459468 0.1892940575843915 0 0.020045678312652242 0.18090880435863019 0 0.02162293693503077 0.1981024475624624 0 0.020045678312652242 0.18090880435863019 0 0.02162293693503077 0.1981024475624624 0 0.041991232206495782 0.1919910870650737 0 0.02162293693503077 0.1981024475624624 0 0.041991232206495782 0.1919910870650737 0 0.034547503469278373 0.20955079640779209 0 0.041991232206495782 0.1919910870650737 0 0.05849467095877426 0.1965416733816682 0 0.050764695011206777 0.20916964222725651 0 0.060802696405823108 0.1787365445376432 0 0.041991232206495782 0.1919910870650737 0 0.05849467095877426 0.1965416733816682 0 0.050764695011206777 0.20916964222725651 0 0.066981886553135278 0.20878848804672309 0 0.05849467095877426 0.1965416733816682 0 0.050764695011206777 0.20916964222725651 0 0.066981886553135278 0.20878848804672309 0 0.050764695011206777 0.20916964222725651 0 0.061514006406540499 0.23071042489022231 0 0.066981886553135278 0.20878848804672309 0 0.050764695011206777 0.20916964222725651 0 0.034547503469278373 0.20955079640779209 0 0.039960986899899173 0.22780444499479169 0 0.050764695011206777 0.20916964222725651 0 0.034547503469278373 0.20955079640779209 0 0.041991232206495782 0.1919910870650737 0 0.050764695011206777 0.20916964222725651 0 0.034547503469278373 0.20955079640779209 0 0.02177620002751179 0.22559840920251981 0 0.034547503469278373 0.20955079640779209 0 0.039960986899899173 0.22780444499479169 0 0.039960986899899173 0.22780444499479169 0 0.061514006406540499 0.23071042489022231 0 0.045472231705318063 0.24424317023843681 0 0.050764695011206777 0.20916964222725651 0 0.039960986899899173 0.22780444499479169 0 0.061514006406540499 0.23071042489022231 0 0.061514006406540499 0.23071042489022231 0 0.056046126259945157 0.25263236173372139 0 0.061514006406540499 0.23071042489022231 0 0.056046126259945157 0.25263236173372139 0 0.067905867336300579 0.25358800162702 0 0.061514006406540499 0.23071042489022231 0 0.045472231705318063 0.24424317023843681 0 0.056046126259945157 0.25263236173372139 0 0.025149977659741599 0.24684982625080901 0 0.039960986899899173 0.22780444499479169 0 0.045472231705318063 0.24424317023843681 0 0.092857250133516089 0.24175825718487831 0 0.078525547080241467 0.2465942846531784 0 0.093798877441032588 0.2579700649065903 0 0.092857250133516089 0.24175825718487831 0 0.078525547080241467 0.2465942846531784 0 0.081986142109724491 0.22560265144644431 0 0.061514006406540499 0.23071042489022231 0 0.078525547080241467 0.2465942846531784 0 0.067905867336300579 0.25358800162702 0 0.061514006406540499 0.23071042489022231 0 0.078525547080241467 0.2465942846531784 0 0.081986142109724491 0.22560265144644431 0 0.061514006406540499 0.23071042489022231 0 0.081986142109724491 0.22560265144644431 0 0.066981886553135278 0.20878848804672309 0 0.061514006406540499 0.23071042489022231 0 0.066981886553135278 0.20878848804672309 0 0.081986142109724491 0.22560265144644431 0 0.09236794217301933 0.20819183719001669 0 0.066981886553135278 0.20878848804672309 0 0.09236794217301933 0.20819183719001669 0 0.066981886553135278 0.20878848804672309 0 0.09236794217301933 0.20819183719001669 0 0.066981886553135278 0.20878848804672309 0 0.071445073857882777 0.19089458628000441 0 0.060802696405823108 0.1787365445376432 0 0.05849467095877426 0.1965416733816682 0 0.071445073857882777 0.19089458628000441 0 0.066981886553135278 0.20878848804672309 0 0.071445073857882777 0.19089458628000441 0 0.05849467095877426 0.1965416733816682 0 0.066981886553135278 0.20878848804672309 0 0.071445073857882777 0.19089458628000441 0 0.09236794217301933 0.20819183719001669 0 0.071445073857882777 0.19089458628000441 0 0.086464584236575506 0.1862285865309723 0 0.09236794217301933 0.20819183719001669 0 0.086464584236575506 0.1862285865309723 0 0.1023855527362314 0.18749689463882899 0 0.09236794217301933 0.20819183719001669 0 0.11775399779290339 0.20759518633331239 0 0.1023855527362314 0.18749689463882899 0 0.11775399779290339 0.20759518633331239 0 0.1023855527362314 0.18749689463882899 0 0.12550986450034471 0.186594373040398 0 0.09236794217301933 0.20819183719001669 0 0.11775399779290339 0.20759518633331239 0 0.09236794217301933 0.20819183719001669 0 0.11775399779290339 0.20759518633331239 0 0.10906069526472741 0.22998953009969161 0 0.092857250133516089 0.24175825718487831 0 0.081986142109724491 0.22560265144644431 0 0.10906069526472741 0.22998953009969161 0 0.081986142109724491 0.22560265144644431 0 0.09236794217301933 0.20819183719001669 0 0.10906069526472741 0.22998953009969161 0 0.11775399779290339 0.20759518633331239 0 0.10906069526472741 0.22998953009969161 0 0.1382648444377183 0.22719855966067881 0 0.10906069526472741 0.22998953009969161 0 0.12787711237058769 0.24521089126939841 0 0.1100607559553454 0.25396994184181759 0 0.092857250133516089 0.24175825718487831 0 0.10906069526472741 0.22998953009969161 0 0.1100607559553454 0.25396994184181759 0 0.081151633673542972 0.15313158297098389 0 0.083920606388658545 0.14050817004821939 0 0.0975697549496468 0.15575304468134629 0 0.081151633673542972 0.15313158297098389 0 0.083920606388658545 0.14050817004821939 0 0.071387777285217918 0.15212681924726251 0 0.074154959480044275 0.1204842858357125 0 0.087075880893963842 0.12621803440601359 0 0.083920606388658545 0.14050817004821939 0 0.087075880893963842 0.12621803440601359 0 0.083920606388658545 0.14050817004821939 0 0.097906888154765004 0.1362305538396491 0 0.062159468211553673 0.13737243366585769 0 0.061109117960118017 0.12720913792676911 0 0.083920606388658545 0.14050817004821939 0 0.074154959480044275 0.1204842858357125 0 0.061109117960118017 0.12720913792676911 0 0.083920606388658545 0.14050817004821939 0 0.061109117960118017 0.12720913792676911 0 0.083920606388658545 0.14050817004821939 0 0.062159468211553673 0.13737243366585769 0 0.083920606388658545 0.14050817004821939 0 0.069449382678632612 0.1443580261181665 0 0.060329678829100349 0.1474246815113264 0 0.062159468211553673 0.13737243366585769 0 0.069449382678632612 0.1443580261181665 0 0.060329678829100349 0.1474246815113264 0 0.069449382678632612 0.1443580261181665 0 0.071387777285217918 0.15212681924726251 0 0.083920606388658545 0.14050817004821939 0 0.069449382678632612 0.1443580261181665 0 0.071387777285217918 0.15212681924726251 0 0.059657673584757237 0.15824269734654939 0 0.060329678829100349 0.1474246815113264 0 0.071387777285217918 0.15212681924726251 0 0.059657673584757237 0.15824269734654939 0 0.071387777285217918 0.15212681924726251 0 0.071728396070648653 0.1641382979071076 0 0.081151633673542972 0.15313158297098389 0 0.071387777285217918 0.15212681924726251 0 0.071728396070648653 0.1641382979071076 0 0.071445073857882777 0.19089458628000441 0 0.075908261162629706 0.17300068451328551 0 0.086464584236575506 0.1862285865309723 0 0.060802696405823108 0.1787365445376432 0 0.071445073857882777 0.19089458628000441 0 0.075908261162629706 0.17300068451328551 0 0.071445073857882777 0.19089458628000441 0 0.075908261162629706 0.17300068451328551 0 0.060802696405823108 0.1787365445376432 0 0.071728396070648653 0.1641382979071076 0 0.075908261162629706 0.17300068451328551 0 0.086464584236575506 0.1862285865309723 0 0.090216091253114361 0.17155893003272579 0 0.1023855527362314 0.18749689463882899 0 0.075908261162629706 0.17300068451328551 0 0.086464584236575506 0.1862285865309723 0 0.090216091253114361 0.17155893003272579 0 0.081151633673542972 0.15313158297098389 0 0.071728396070648653 0.1641382979071076 0 0.0975697549496468 0.15575304468134629 0 0.071728396070648653 0.1641382979071076 0 0.090216091253114361 0.17155893003272579 0 0.0975697549496468 0.15575304468134629 0 0.071728396070648653 0.1641382979071076 0 0.075908261162629706 0.17300068451328551 0 0.090216091253114361 0.17155893003272579 0 0.071728396070648653 0.1641382979071076 0 0.0975697549496468 0.15575304468134629 0 0.090216091253114361 0.17155893003272579 0 0.1064810698159025 0.16893633516972181 0 0.0975697549496468 0.15575304468134629 0 0.1064810698159025 0.16893633516972181 0 0.1067320948171991 0.1538072021696697 0 0.0975697549496468 0.15575304468134629 0 0.090216091253114361 0.17155893003272579 0 0.1064810698159025 0.16893633516972181 0 0.1023855527362314 0.18749689463882899 0 0.1064810698159025 0.16893633516972181 0 0.12954358324573961 0.16710623429112001 0 0.12550986450034471 0.186594373040398 0 0.1064810698159025 0.16893633516972181 0 0.1023855527362314 0.18749689463882899 0 0.12550986450034471 0.186594373040398 0 0.1064810698159025 0.16893633516972181 0 0.1067320948171991 0.1538072021696697 0 0.12954358324573961 0.16710623429112001 0 0.1067320948171991 0.1538072021696697 0 0.1262856736452258 0.1537478882528979 0 0.12954358324573961 0.16710623429112001 0 0.1067320948171991 0.1538072021696697 0 0.12954358324573961 0.16710623429112001 0 0.1148569119608701 0.14824987142416859 0 0.1067320948171991 0.1538072021696697 0 0.1262856736452258 0.1537478882528979 0 0.118317888191051 0.14254191757659121 0 0.1148569119608701 0.14824987142416859 0 0.1262856736452258 0.1537478882528979 0 0.118317888191051 0.14254191757659121 0 0.12756241452120801 0.13893694775055651 0 0.1262856736452258 0.1537478882528979 0 0.1148569119608701 0.14824987142416859 0 0.1067320948171991 0.1538072021696697 0 0.1080919911900045 0.14290247769751591 0 0.118317888191051 0.14254191757659121 0 0.1148569119608701 0.14824987142416859 0 0.1080919911900045 0.14290247769751591 0 0.083920606388658545 0.14050817004821939 0 0.1067320948171991 0.1538072021696697 0 0.1067320948171991 0.1538072021696697 0 0.1080919911900045 0.14290247769751591 0 0.097906888154765004 0.1362305538396491 0 0.083920606388658545 0.14050817004821939 0 0.1067320948171991 0.1538072021696697 0 0.097906888154765004 0.1362305538396491 0 0.083920606388658545 0.14050817004821939 0 0.1067320948171991 0.1538072021696697 0 0.0975697549496468 0.15575304468134629 0 0.096984900528893664 0.1212489081817222 0 0.097906888154765004 0.1362305538396491 0 0.10589272808503949 0.13156516273042271 0 0.096984900528893664 0.1212489081817222 0 0.087075880893963842 0.12621803440601359 0 0.097906888154765004 0.1362305538396491 0 0.1080919911900045 0.14290247769751591 0 0.097906888154765004 0.1362305538396491 0 0.10589272808503949 0.13156516273042271 0 0.1080919911900045 0.14290247769751591 0 0.10589272808503949 0.13156516273042271 0 0.11327312463209829 0.13597294690712769 0 0.10712684862241641 0.1210429748963526 0 0.10589272808503949 0.13156516273042271 0 0.114987521205969 0.1268010028982309 0 0.10589272808503949 0.13156516273042271 0 0.114987521205969 0.1268010028982309 0 0.11327312463209829 0.13597294690712769 0 0.114987521205969 0.1268010028982309 0 0.11327312463209829 0.13597294690712769 0 0.1203000125167645 0.13336293759413789 0 0.118317888191051 0.14254191757659121 0 0.1080919911900045 0.14290247769751591 0 0.11327312463209829 0.13597294690712769 0 0.118317888191051 0.14254191757659121 0 0.1203000125167645 0.13336293759413789 0 0.12756241452120801 0.13893694775055651 0 0.118317888191051 0.14254191757659121 0 0.11327312463209829 0.13597294690712769 0 0.1203000125167645 0.13336293759413789 0 0.12212988809696081 0.1249307776834532 0 0.114987521205969 0.1268010028982309 0 0.1203000125167645 0.13336293759413789 0 0.12212988809696081 0.1249307776834532 0 0.1203000125167645 0.13336293759413789 0 0.12788127083107459 0.1291064789800366 0 0.12788127083107459 0.1291064789800366 0 0.13409394305489639 0.1257339851238449 0 0.12813823657366311 0.12049833089676459 0 0.12788127083107459 0.1291064789800366 0 0.13410827310584911 0.13282331674432049 0 0.13409394305489639 0.1257339851238449 0 0.12788127083107459 0.1291064789800366 0 0.12756241452120801 0.13893694775055651 0 0.13410827310584911 0.13282331674432049 0 0.1203000125167645 0.13336293759413789 0 0.12788127083107459 0.1291064789800366 0 0.12756241452120801 0.13893694775055651 0 0.13410827310584911 0.13282331674432049 0 0.14295710802469111 0.12768772724150559 0 0.13848136883728299 0.14203914735535511 0 0.12756241452120801 0.13893694775055651 0 0.13410827310584911 0.13282331674432049 0 0.13848136883728299 0.14203914735535511 0 0.13410827310584911 0.13282331674432049 0 0.13409394305489639 0.1257339851238449 0 0.14295710802469111 0.12768772724150559 0 0.14295710802469111 0.12768772724150559 0 0.15698787762036359 0.14007723406829989 0 0.15364605026385231 0.1227496740475859 0 0.14295710802469111 0.12768772724150559 0 0.13848136883728299 0.14203914735535511 0 0.15698787762036359 0.14007723406829989 0 0.13848136883728299 0.14203914735535511 0 0.1441447949138806 0.1573716891147208 0 0.15698787762036359 0.14007723406829989 0 0.1441447949138806 0.1573716891147208 0 0.1598153361361678 0.15982657838785511 0 0.15698787762036359 0.14007723406829989 0 0.13848136883728299 0.14203914735535511 0 0.1262856736452258 0.1537478882528979 0 0.1441447949138806 0.1573716891147208 0 0.12756241452120801 0.13893694775055651 0 0.13848136883728299 0.14203914735535511 0 0.1262856736452258 0.1537478882528979 0 0.1262856736452258 0.1537478882528979 0 0.12954358324573961 0.16710623429112001 0 0.1441447949138806 0.1573716891147208 0 0.12954358324573961 0.16710623429112001 0 0.12550986450034471 0.186594373040398 0 0.15375492999850379 0.1814330523327968 0 0.12954358324573961 0.16710623429112001 0 0.15375492999850379 0.1814330523327968 0 0.1441447949138806 0.1573716891147208 0 0.15375492999850379 0.1814330523327968 0 0.1441447949138806 0.1573716891147208 0 0.1598153361361678 0.15982657838785511 0 0.1598153361361678 0.15982657838785511 0 0.17205847002769489 0.1711246398383999 0 0.17247097746626519 0.1464629757798975 0 0.15375492999850379 0.1814330523327968 0 0.1598153361361678 0.15982657838785511 0 0.17205847002769489 0.1711246398383999 0 0.15375492999850379 0.1814330523327968 0 0.17205847002769489 0.1711246398383999 0 0.18411838942066619 0.18828130780555291 0 0.17205847002769489 0.1711246398383999 0 0.18411838942066619 0.18828130780555291 0 0.19050902449260759 0.164433536692701 0 0.17205847002769489 0.1711246398383999 0 0.17247097746626519 0.1464629757798975 0 0.19050902449260759 0.164433536692701 0 0.17247097746626519 0.1464629757798975 0 0.1903693880120208 0.14015559280000461 0 0.19050902449260759 0.164433536692701 0 0.17247097746626519 0.1464629757798975 0 0.18002451345814399 0.12716596121819479 0 0.1903693880120208 0.14015559280000461 0 0.17247097746626519 0.1464629757798975 0 0.18002451345814399 0.12716596121819479 0 0.16417220099380411 0.12505127510387981 0 0.15698787762036359 0.14007723406829989 0 0.16417220099380411 0.12505127510387981 0 0.15364605026385231 0.1227496740475859 0 0.17247097746626519 0.1464629757798975 0 0.15698787762036359 0.14007723406829989 0 0.16417220099380411 0.12505127510387981 0 0.1598153361361678 0.15982657838785511 0 0.17247097746626519 0.1464629757798975 0 0.15698787762036359 0.14007723406829989 0 0.14702044576598061 0.2478904659134552 0 0.1382648444377183 0.22719855966067881 0 0.15828943790025421 0.22969507774947781 0 0.14702044576598061 0.2478904659134552 0 0.12787711237058769 0.24521089126939841 0 0.1382648444377183 0.22719855966067881 0 0.10906069526472741 0.22998953009969161 0 0.12787711237058769 0.24521089126939841 0 0.1382648444377183 0.22719855966067881 0 0.1382648444377183 0.22719855966067881 0 0.14314005341278749 0.20699853547660821 0 0.15828943790025421 0.22969507774947781 0 0.14314005341278749 0.20699853547660821 0 0.16852610903267151 0.206401884619904 0 0.11775399779290339 0.20759518633331239 0 0.1382648444377183 0.22719855966067881 0 0.14314005341278749 0.20699853547660821 0 0.11775399779290339 0.20759518633331239 0 0.14314005341278749 0.20699853547660821 0 0.11775399779290339 0.20759518633331239 0 0.12550986450034471 0.186594373040398 0 0.14314005341278749 0.20699853547660821 0 0.15375492999850379 0.1814330523327968 0 0.14314005341278749 0.20699853547660821 0 0.16852610903267151 0.206401884619904 0 0.12550986450034471 0.186594373040398 0 0.15375492999850379 0.1814330523327968 0 0.14314005341278749 0.20699853547660821 0 0.15375492999850379 0.1814330523327968 0 0.18411838942066619 0.18828130780555291 0 0.16852610903267151 0.206401884619904 0 0.18411838942066619 0.18828130780555291 0 0.16852610903267151 0.206401884619904 0 0.1878214256448299 0.20672411698152671 0 0.16852610903267151 0.206401884619904 0 0.17766068788986381 0.23020170431202469 0 0.1878214256448299 0.20672411698152671 0 0.14314005341278749 0.20699853547660821 0 0.16852610903267151 0.206401884619904 0 0.15828943790025421 0.22969507774947781 0 0.16852610903267151 0.206401884619904 0 0.15828943790025421 0.22969507774947781 0 0.17766068788986381 0.23020170431202469 0 0.17766068788986381 0.23020170431202469 0 0.19353513124668931 0.22246748781277501 0 0.1878214256448299 0.20672411698152671 0 0.17766068788986381 0.23020170431202469 0 0.18692125413578081 0.24552837502103991 0 0.19379669244916639 0.23440003217329089 0 0.17766068788986381 0.23020170431202469 0 0.18692125413578081 0.24552837502103991 0 0.16774616909827719 0.2460930353984315 0 0.15828943790025421 0.22969507774947781 0 0.17766068788986381 0.23020170431202469 0 0.16774616909827719 0.2460930353984315 0 0.14702044576598061 0.2478904659134552 0 0.15828943790025421 0.22969507774947781 0 0.16774616909827719 0.2460930353984315 0 0.21557305570370441 0.24515722135805329 0 0.2029257889591993 0.24295866219667439 0 0.23007231546290949 0.2334513308517342 0 0.2029257889591993 0.24295866219667439 0 0.23007231546290949 0.2334513308517342 0 0.21557305570370441 0.24515722135805329 0 0.2029257889591993 0.24295866219667439 0 0.20107379594449931 0.25686311186437227 0 0.18692125413578081 0.24552837502103991 0 0.2029257889591993 0.24295866219667439 0 0.20107379594449931 0.25686311186437227 0 0.18692125413578081 0.24552837502103991 0 0.19379669244916639 0.23440003217329089 0 0.2029257889591993 0.24295866219667439 0 0.17766068788986381 0.23020170431202469 0 0.19379669244916639 0.23440003217329089 0 0.19353513124668931 0.22246748781277501 0 0.19379669244916639 0.23440003217329089 0 0.2029257889591993 0.24295866219667439 0 0.20920449219815451 0.22515354045629349 0 0.19379669244916639 0.23440003217329089 0 0.19353513124668931 0.22246748781277501 0 0.20920449219815451 0.22515354045629349 0 0.2029257889591993 0.24295866219667439 0 0.20920449219815451 0.22515354045629349 0 0.23007231546290949 0.2334513308517342 0 0.19353513124668931 0.22246748781277501 0 0.20920449219815451 0.22515354045629349 0 0.20732414099141369 0.20672295990195361 0 0.20920449219815451 0.22515354045629349 0 0.20732414099141369 0.20672295990195361 0 0.22783619495118521 0.20973527166224001 0 0.19353513124668931 0.22246748781277501 0 0.20732414099141369 0.20672295990195361 0 0.1878214256448299 0.20672411698152671 0 0.18411838942066619 0.18828130780555291 0 0.1878214256448299 0.20672411698152671 0 0.20343121377691101 0.18825927067945539 0 0.20732414099141369 0.20672295990195361 0 0.1878214256448299 0.20672411698152671 0 0.20343121377691101 0.18825927067945539 0 0.20732414099141369 0.20672295990195361 0 0.20343121377691101 0.18825927067945539 0 0.2219787971027708 0.18678942035429349 0 0.20732414099141369 0.20672295990195361 0 0.22783619495118521 0.20973527166224001 0 0.2219787971027708 0.18678942035429349 0 0.24528107816237801 0.1907036486386274 0 0.22783619495118521 0.20973527166224001 0 0.2219787971027708 0.18678942035429349 0 0.24528107816237801 0.1907036486386274 0 0.25242827713160498 0.21540237912569379 0 0.24528107816237801 0.1907036486386274 0 0.22783619495118521 0.20973527166224001 0 0.25242827713160498 0.21540237912569379 0 0.20920449219815451 0.22515354045629349 0 0.22783619495118521 0.20973527166224001 0 0.23007231546290949 0.2334513308517342 0 0.23007231546290949 0.2334513308517342 0 0.25242827713160498 0.21540237912569379 0 0.23007231546290949 0.2334513308517342 0 0.25511338863332461 0.22468137717712711 0 0.25242827713160498 0.21540237912569379 0 0.23007231546290949 0.2334513308517342 0 0.25511338863332461 0.22468137717712711 0 0.23007231546290949 0.2334513308517342 0 0.2457442494512444 0.24022391879071339 0 0.25511338863332461 0.22468137717712711 0 0.22783619495118521 0.20973527166224001 0 0.23007231546290949 0.2334513308517342 0 0.25242827713160498 0.21540237912569379 0 0.2457442494512444 0.24022391879071339 0 0.23628031136540401 0.25597328662156199 0 0.26221447651104962 0.2479993693513689 0 0.23007231546290949 0.2334513308517342 0 0.2457442494512444 0.24022391879071339 0 0.23628031136540401 0.25597328662156199 0 0.21557305570370441 0.24515722135805329 0 0.23007231546290949 0.2334513308517342 0 0.23628031136540401 0.25597328662156199 0 0.21557305570370441 0.24515722135805329 0 0.23007231546290949 0.2334513308517342 0 0.21023583046185859 0.14706018503428281 0 0.22521494488481819 0.12557893006429149 0 0.2001236667938262 0.1180422718546187 0 0.18002451345814399 0.12716596121819479 0 0.1903693880120208 0.14015559280000461 0 0.2001236667938262 0.1180422718546187 0 0.21023583046185859 0.14706018503428281 0 0.1903693880120208 0.14015559280000461 0 0.2001236667938262 0.1180422718546187 0 0.21023583046185859 0.14706018503428281 0 0.1903693880120208 0.14015559280000461 0 0.19050902449260759 0.164433536692701 0 0.18411838942066619 0.18828130780555291 0 0.20343121377691101 0.18825927067945539 0 0.19050902449260759 0.164433536692701 0 0.20343121377691101 0.18825927067945539 0 0.19050902449260759 0.164433536692701 0 0.20962662881846919 0.1707346457134423 0 0.20343121377691101 0.18825927067945539 0 0.20962662881846919 0.1707346457134423 0 0.2219787971027708 0.18678942035429349 0 0.21023583046185859 0.14706018503428281 0 0.20962662881846919 0.1707346457134423 0 0.2254160648188453 0.164078398330023 0 0.21023583046185859 0.14706018503428281 0 0.19050902449260759 0.164433536692701 0 0.20962662881846919 0.1707346457134423 0 0.20962662881846919 0.1707346457134423 0 0.2254160648188453 0.164078398330023 0 0.2219787971027708 0.18678942035429349 0 0.2254160648188453 0.164078398330023 0 0.2219787971027708 0.18678942035429349 0 0.23714843650665229 0.1758398884969993 0 0.24528107816237801 0.1907036486386274 0 0.2219787971027708 0.18678942035429349 0 0.23714843650665229 0.1758398884969993 0 0.24528107816237801 0.1907036486386274 0 0.23714843650665229 0.1758398884969993 0 0.25292738168467233 0.17649485219682931 0 0.2254160648188453 0.164078398330023 0 0.24653130607993951 0.16237692388552691 0 0.23688534306575301 0.1458043597726891 0 0.23714843650665229 0.1758398884969993 0 0.24653130607993951 0.16237692388552691 0 0.25292738168467233 0.17649485219682931 0 0.2254160648188453 0.164078398330023 0 0.23714843650665229 0.1758398884969993 0 0.24653130607993951 0.16237692388552691 0 0.24653130607993951 0.16237692388552691 0 0.2496536413094039 0.15044712256699261 0 0.23688534306575301 0.1458043597726891 0 0.2496536413094039 0.15044712256699261 0 0.23688534306575301 0.1458043597726891 0 0.25004344172447263 0.14019424959050239 0 0.21023583046185859 0.14706018503428281 0 0.2254160648188453 0.164078398330023 0 0.23688534306575301 0.1458043597726891 0 0.21023583046185859 0.14706018503428281 0 0.23688534306575301 0.1458043597726891 0 0.22521494488481819 0.12557893006429149 0 0.22521494488481819 0.12557893006429149 0 0.25030622297580962 0.13311558827396619 0 0.23688534306575301 0.1458043597726891 0 0.22521494488481819 0.12557893006429149 0 0.25030622297580962 0.13311558827396619 0 0.23688534306575301 0.1458043597726891 0 0.25004344172447263 0.14019424959050239 0 0.25030622297580962 0.13311558827396619 0 0.22521494488481819 0.12557893006429149 0 0.2369469616243938 0.1144798656387125 0 0.25030622297580962 0.13311558827396619 0 0.2369469616243938 0.1144798656387125 0 0.25094552198087999 0.11589449234768209 0 0.25030622297580962 0.13311558827396619 0 0.2369469616243938 0.1144798656387125 0 0.25158482098595109 0.098673396421397969 0 0.25094552198087999 0.11589449234768209 0 0.2369469616243938 0.1144798656387125 0 0.2308580048349978 0.09939168424622695 0 0.25158482098595109 0.098673396421397969 0 0.2308580048349978 0.09939168424622695 0 0.2177667053289645 0.10879872465146249 0 0.21723881235993189 0.092441087960636145 0 0.2369469616243938 0.1144798656387125 0 0.2308580048349978 0.09939168424622695 0 0.2177667053289645 0.10879872465146249 0 0.22521494488481819 0.12557893006429149 0 0.2369469616243938 0.1144798656387125 0 0.2177667053289645 0.10879872465146249 0 0.2177667053289645 0.10879872465146249 0 0.1970849337058638 0.1019164286603922 0 0.2001236667938262 0.1180422718546187 0 0.22521494488481819 0.12557893006429149 0 0.2177667053289645 0.10879872465146249 0 0.2001236667938262 0.1180422718546187 0 0.22521494488481819 0.12557893006429149 0 0.2001236667938262 0.1180422718546187 0 0.1970849337058638 0.1019164286603922 0 0.20420713705815571 0.090978010823124941 0 0.21723881235993189 0.092441087960636145 0 0.1970849337058638 0.1019164286603922 0 0.21723881235993189 0.092441087960636145 0 0.2177667053289645 0.10879872465146249 0 0.1970849337058638 0.1019164286603922 0 0.21723881235993189 0.092441087960636145 0 0.1970849337058638 0.1019164286603922 0 0.1916307843626972 0.08827444688259839 0 0.17503238870283441 0.11050561364494491 0 0.2001236667938262 0.1180422718546187 0 0.17503238870283441 0.11050561364494491 0 0.1970849337058638 0.1019164286603922 0 0.2001236667938262 0.1180422718546187 0 0.17503238870283441 0.11050561364494491 0 0.1916307843626972 0.08827444688259839 0 0.2082291800225603 0.066043280120252124 0 0.19067723801237901 0.065525043857756982 0 0.1916307843626972 0.08827444688259839 0 0.2082291800225603 0.066043280120252124 0 0.1916307843626972 0.08827444688259839 0 0.21087401780412959 0.081280079788873041 0 0.20420713705815571 0.090978010823124941 0 0.1970849337058638 0.1019164286603922 0 0.1916307843626972 0.08827444688259839 0 0.20420713705815571 0.090978010823124941 0 0.1916307843626972 0.08827444688259839 0 0.21087401780412959 0.081280079788873041 0 0.2082291800225603 0.066043280120252124 0 0.21087401780412959 0.081280079788873041 0 0.20420713705815571 0.090978010823124941 0 0.21723881235993189 0.092441087960636145 0 0.21087401780412959 0.081280079788873041 0 0.21723881235993189 0.092441087960636145 0 0.22613356481757629 0.0775902723280468 0 0.21087401780412959 0.081280079788873041 0 0.2082291800225603 0.066043280120252124 0 0.22613356481757629 0.0775902723280468 0 0.2082291800225603 0.066043280120252124 0 0.22613356481757629 0.0775902723280468 0 0.2082291800225603 0.066043280120252124 0 0.2259496113806885 0.070300708218039992 0 0.21450653174737461 0.057635669175196122 0 0.2259496113806885 0.070300708218039992 0 0.21450653174737461 0.057635669175196122 0 0.2082291800225603 0.066043280120252124 0 0.2259496113806885 0.070300708218039992 0 0.22613356481757629 0.0775902723280468 0 0.2259496113806885 0.070300708218039992 0 0.2248665156508784 0.061611733455129589 0 0.21450653174737461 0.057635669175196122 0 0.2259496113806885 0.070300708218039992 0 0.22613356481757629 0.0775902723280468 0 0.23739269101400209 0.082965747260884265 0 0.2259496113806885 0.070300708218039992 0 0.23739269101400209 0.082965747260884265 0 0.237967452106535 0.070105640596903412 0 0.2259496113806885 0.070300708218039992 0 0.23739269101400209 0.082965747260884265 0 0.2259496113806885 0.070300708218039992 0 0.2330718446673557 0.064441819436705627 0 0.2248665156508784 0.061611733455129589 0 0.2259496113806885 0.070300708218039992 0 0.2330718446673557 0.064441819436705627 0 0.237967452106535 0.070105640596903412 0 0.2308580048349978 0.09939168424622695 0 0.21723881235993189 0.092441087960636145 0 0.23739269101400209 0.082965747260884265 0 0.21723881235993189 0.092441087960636145 0 0.22613356481757629 0.0775902723280468 0 0.23739269101400209 0.082965747260884265 0 0.21723881235993189 0.092441087960636145 0 0.23739269101400209 0.082965747260884265 0 0.23739269101400209 0.082965747260884265 0 0.25158482098595109 0.098673396421397969 0 0.23739269101400209 0.082965747260884265 0 0.25243039498113262 0.075895774732197205 0 0.25158482098595109 0.098673396421397969 0 0.2308580048349978 0.09939168424622695 0 0.23739269101400209 0.082965747260884265 0 0.25158482098595109 0.098673396421397969 0 0.23739269101400209 0.082965747260884265 0 0.25243039498113262 0.075895774732197205 0 0.23934469018649959 0.064583282500140851 0 0.237967452106535 0.070105640596903412 0 0.24496427956833819 0.066036472520138348 0 0.2330718446673557 0.064441819436705627 0 0.23934469018649959 0.064583282500140851 0 0.2376257901407148 0.059976102198904507 0 0.2330718446673557 0.064441819436705627 0 0.23934469018649959 0.064583282500140851 0 0.237967452106535 0.070105640596903412 0 0.23739269101400209 0.082965747260884265 0 0.237967452106535 0.070105640596903412 0 0.24429048066179679 0.072622021298478806 0 0.24429048066179679 0.072622021298478806 0 0.24842415088314279 0.069033451464499671 0 0.25243039498113262 0.075895774732197205 0 0.23739269101400209 0.082965747260884265 0 0.24429048066179679 0.072622021298478806 0 0.25243039498113262 0.075895774732197205 0 0.24842415088314279 0.069033451464499671 0 0.24853219730195361 0.063845178725116872 0 0.25274476311700622 0.067427493409812952 0 0.237967452106535 0.070105640596903412 0 0.24429048066179679 0.072622021298478806 0 0.24496427956833819 0.066036472520138348 0 0.24429048066179679 0.072622021298478806 0 0.24842415088314279 0.069033451464499671 0 0.24496427956833819 0.066036472520138348 0 0.23934469018649959 0.064583282500140851 0 0.24496427956833819 0.066036472520138348 0 0.24309408444955441 0.062356377748052388 0 0.24496427956833819 0.066036472520138348 0 0.24602681454492631 0.062964227281045088 0 0.24309408444955441 0.062356377748052388 0 0.24496427956833819 0.066036472520138348 0 0.24602681454492631 0.062964227281045088 0 0.24853219730195361 0.063845178725116872 0 0.24842415088314279 0.069033451464499671 0 0.24496427956833819 0.066036472520138348 0 0.24853219730195361 0.063845178725116872 0 0.24751669685985911 0.059618880130872708 0 0.24309408444955441 0.062356377748052388 0 0.2376257901407148 0.059976102198904507 0 0.24751669685985911 0.059618880130872708 0 0.24426241142214139 0.049994713685017962 0 0.2310385276818335 0.053106641608170198 0 0.24751669685985911 0.059618880130872708 0 0.2376257901407148 0.059976102198904507 0 0.2310385276818335 0.053106641608170198 0 0.24751669685985911 0.059618880130872708 0 0.2310385276818335 0.053106641608170198 0 0.24853219730195361 0.063845178725116872 0 0.24751669685985911 0.059618880130872708 0 0.2530174900015254 0.0600809219264858 0 0.24602681454492631 0.062964227281045088 0 0.24853219730195361 0.063845178725116872 0 0.24751669685985911 0.059618880130872708 0 0.24602681454492631 0.062964227281045088 0 0.24751669685985911 0.059618880130872708 0 0.24309408444955441 0.062356377748052388 0 0.23934469018649959 0.064583282500140851 0 0.24309408444955441 0.062356377748052388 0 0.2376257901407148 0.059976102198904507 0 0.24426241142214139 0.049994713685017962 0 0.23928634064401511 0.040096757013566242 0 0.2310385276818335 0.053106641608170198 0 0.24751669685985911 0.059618880130872708 0 0.24426241142214139 0.049994713685017962 0 0.25102243244437311 0.053297338652025752 0 0.24426241142214139 0.049994713685017962 0 0.25174039047255609 0.044464402284776217 0 0.25102243244437311 0.053297338652025752 0 0.23928634064401511 0.040096757013566242 0 0.2320502206633881 0.021165953515508481 0 0.25044211127373811 0.032849993626191502 0 0.23928634064401511 0.040096757013566242 0 0.25044211127373811 0.032849993626191502 0 0.25174039047255609 0.044464402284776217 0 0.24426241142214139 0.049994713685017962 0 0.23928634064401511 0.040096757013566242 0 0.25174039047255609 0.044464402284776217 0 0.22618438235043381 0.038998837361733103 0 0.2320502206633881 0.021165953515508481 0 0.20963369093729961 0.03941564640516447 0 0.23928634064401511 0.040096757013566242 0 0.22618438235043381 0.038998837361733103 0 0.2320502206633881 0.021165953515508481 0 0.22618438235043381 0.038998837361733103 0 0.2310385276818335 0.053106641608170198 0 0.21456035850380811 0.046594403085467223 0 0.23928634064401511 0.040096757013566242 0 0.22618438235043381 0.038998837361733103 0 0.2310385276818335 0.053106641608170198 0 0.2310385276818335 0.053106641608170198 0 0.21456035850380811 0.046594403085467223 0 0.2248665156508784 0.061611733455129589 0 0.2310385276818335 0.053106641608170198 0 0.21456035850380811 0.046594403085467223 0 0.2248665156508784 0.061611733455129589 0 0.21456035850380811 0.046594403085467223 0 0.2330718446673557 0.064441819436705627 0 0.2248665156508784 0.061611733455129589 0 0.23150027442910881 0.059501590197602497 0 0.2248665156508784 0.061611733455129589 0 0.23150027442910881 0.059501590197602497 0 0.2310385276818335 0.053106641608170198 0 0.2330718446673557 0.064441819436705627 0 0.2376257901407148 0.059976102198904507 0 0.23150027442910881 0.059501590197602497 0 0.2376257901407148 0.059976102198904507 0 0.23150027442910881 0.059501590197602497 0 0.2310385276818335 0.053106641608170198 0 0.2320502206633881 0.021165953515508481 0 0.22999165343287109 0.0038227322559807589 0 0.25446675038947358 0.0029162606258486688 0 0.2320502206633881 0.021165953515508481 0 0.2600935707136679 0.019574361616358959 0 0.25446675038947358 0.0029162606258486688 0 0.22999165343287109 0.0038227322559807589 0 0.25446675038947358 0.0029162606258486688 0 0.24138147174972829 -0.0061427828714447699 0 0.2320502206633881 0.021165953515508481 0 0.25446675038947358 0.0029162606258486688 0 0.2320502206633881 0.021165953515508481 0 0.2600935707136679 0.019574361616358959 0 0.25044211127373811 0.032849993626191502 0 0.2320502206633881 0.021165953515508481 0 0.20963369093729961 0.03941564640516447 0 0.22999165343287109 0.0038227322559807589 0 0.21340461703840111 0.0096506044731711187 0 0.21351355446813719 -0.0021103410187178909 0 0.2320502206633881 0.021165953515508481 0 0.22999165343287109 0.0038227322559807589 0 0.21340461703840111 0.0096506044731711187 0 0.21340461703840111 0.0096506044731711187 0 0.1998105265397013 0.00335350757378736 0 0.21351355446813719 -0.0021103410187178909 0 0.21340461703840111 0.0096506044731711187 0 0.20371525389429951 0.01279949030761077 0 0.2082588668535221 0.02245160931237615 0 0.21340461703840111 0.0096506044731711187 0 0.20371525389429951 0.01279949030761077 0 0.1998105265397013 0.00335350757378736 0 0.2320502206633881 0.021165953515508481 0 0.2082588668535221 0.02245160931237615 0 0.20963369093729961 0.03941564640516447 0 0.2320502206633881 0.021165953515508481 0 0.21340461703840111 0.0096506044731711187 0 0.2082588668535221 0.02245160931237615 0 0.2082588668535221 0.02245160931237615 0 0.19338700514557339 0.015742239871108451 0 0.20963369093729961 0.03941564640516447 0 0.19338700514557339 0.015742239871108451 0 0.1989601287501698 0.040429129743079398 0 0.18048502430789731 0.01998114488410483 0 0.1989601287501698 0.040429129743079398 0 0.18048502430789731 0.01998114488410483 0 0.19338700514557339 0.015742239871108451 0 0.20963369093729961 0.03941564640516447 0 0.20371525389429951 0.01279949030761077 0 0.2082588668535221 0.02245160931237615 0 0.19338700514557339 0.015742239871108451 0 0.19338700514557339 0.015742239871108451 0 0.1998105265397013 0.00335350757378736 0 0.17714031935384769 -0.0079311666629475405 0 0.20371525389429951 0.01279949030761077 0 0.19338700514557339 0.015742239871108451 0 0.1998105265397013 0.00335350757378736 0 0.21450653174737461 0.057635669175196122 0 0.2029561920580818 0.044851916216142339 0 0.21450653174737461 0.057635669175196122 0 0.2029561920580818 0.044851916216142339 0 0.2021088015620611 0.053433964061651712 0 0.21450653174737461 0.057635669175196122 0 0.21456035850380811 0.046594403085467223 0 0.2029561920580818 0.044851916216142339 0 0.2082291800225603 0.066043280120252124 0 0.21450653174737461 0.057635669175196122 0 0.2021088015620611 0.053433964061651712 0 0.2248665156508784 0.061611733455129589 0 0.21450653174737461 0.057635669175196122 0 0.21456035850380811 0.046594403085467223 0 0.2082291800225603 0.066043280120252124 0 0.21450653174737461 0.057635669175196122 0 0.22618438235043381 0.038998837361733103 0 0.21456035850380811 0.046594403085467223 0 0.20963369093729961 0.03941564640516447 0 0.21456035850380811 0.046594403085467223 0 0.20963369093729961 0.03941564640516447 0 0.21456035850380811 0.046594403085467223 0 0.20530753189452691 0.042937648913457381 0 0.2029561920580818 0.044851916216142339 0 0.20963369093729961 0.03941564640516447 0 0.20530753189452691 0.042937648913457381 0 0.1989601287501698 0.040429129743079398 0 0.21456035850380811 0.046594403085467223 0 0.20530753189452691 0.042937648913457381 0 0.21456035850380811 0.046594403085467223 0 0.20963369093729961 0.03941564640516447 0 0.20530753189452691 0.042937648913457381 0 0.20963369093729961 0.03941564640516447 0 0.20530753189452691 0.042937648913457381 0 0.20530753189452691 0.042937648913457381 0 0.2029561920580818 0.044851916216142339 0 0.1989601287501698 0.040429129743079398 0 0.1774654858828027 0.031934360706524292 0 0.2029561920580818 0.044851916216142339 0 0.1989601287501698 0.040429129743079398 0 0.19971656766465989 0.047489351670260083 0 0.1989601287501698 0.040429129743079398 0 0.19133087755196571 0.045131483978966998 0 0.19971656766465989 0.047489351670260083 0 0.2029561920580818 0.044851916216142339 0 0.19971656766465989 0.047489351670260083 0 0.19338700514557339 0.015742239871108451 0 0.20963369093729961 0.03941564640516447 0 0.1989601287501698 0.040429129743079398 0 0.1989601287501698 0.040429129743079398 0 0.19133087755196571 0.045131483978966998 0 0.18298678422305309 0.040980100737508622 0 0.20530753189452691 0.042937648913457381 0 0.2029561920580818 0.044851916216142339 0 0.1989601287501698 0.040429129743079398 0 0.20530753189452691 0.042937648913457381 0 0.1989601287501698 0.040429129743079398 0 0.2029561920580818 0.044851916216142339 0 0.1989601287501698 0.040429129743079398 0 0.2082291800225603 0.066043280120252124 0 0.18513553631762919 0.051149603126408108 0 0.2021088015620611 0.053433964061651712 0 0.19971656766465989 0.047489351670260083 0 0.18513553631762919 0.051149603126408108 0 0.2082291800225603 0.066043280120252124 0 0.2021088015620611 0.053433964061651712 0 0.18513553631762919 0.051149603126408108 0 0.19067723801237901 0.065525043857756982 0 0.2082291800225603 0.066043280120252124 0 0.18513553631762919 0.051149603126408108 0 0.19133087755196571 0.045131483978966998 0 0.19971656766465989 0.047489351670260083 0 0.18513553631762919 0.051149603126408108 0 0.2029561920580818 0.044851916216142339 0 0.2021088015620611 0.053433964061651712 0 0.19971656766465989 0.047489351670260083 0 0.17734631865053521 0.060730067185729229 0 0.18513553631762919 0.051149603126408108 0 0.16725106424272049 0.052894846580172288 0 0.19067723801237901 0.065525043857756982 0 0.17734631865053521 0.060730067185729229 0 0.18513553631762919 0.051149603126408108 0 0.18298678422305309 0.040980100737508622 0 0.1774654858828027 0.031934360706524292 0 0.1620418926126978 0.036255926132564682 0 0.19133087755196571 0.045131483978966998 0 0.18513553631762919 0.051149603126408108 0 0.18298678422305309 0.040980100737508622 0 0.18513553631762919 0.051149603126408108 0 0.18298678422305309 0.040980100737508622 0 0.1620418926126978 0.036255926132564682 0 0.1989601287501698 0.040429129743079398 0 0.18298678422305309 0.040980100737508622 0 0.1774654858828027 0.031934360706524292 0 0.18513553631762919 0.051149603126408108 0 0.1620418926126978 0.036255926132564682 0 0.1620418926126978 0.036255926132564682 0 0.16725106424272049 0.052894846580172288 0 0.15541952745182569 0.04677658384696623 0 0.18513553631762919 0.051149603126408108 0 0.1620418926126978 0.036255926132564682 0 0.16725106424272049 0.052894846580172288 0 0.16725106424272049 0.052894846580172288 0 0.15507694825043991 0.057889849327421902 0 0.15541952745182569 0.04677658384696623 0 0.16725106424272049 0.052894846580172288 0 0.15507694825043991 0.057889849327421902 0 0.1653937448538241 0.067538194789913991 0 0.17734631865053521 0.060730067185729229 0 0.16725106424272049 0.052894846580172288 0 0.1653937448538241 0.067538194789913991 0 0.18048502430789731 0.01998114488410483 0 0.1657030786406338 0.0084270166623369204 0 0.17714031935384769 -0.0079311666629475405 0 0.19338700514557339 0.015742239871108451 0 0.17714031935384769 -0.0079311666629475405 0 0.19338700514557339 0.015742239871108451 0 0.18048502430789731 0.01998114488410483 0 0.17714031935384769 -0.0079311666629475405 0 0.1989601287501698 0.040429129743079398 0 0.1774654858828027 0.031934360706524292 0 0.18048502430789731 0.01998114488410483 0 0.1774654858828027 0.031934360706524292 0 0.18048502430789731 0.01998114488410483 0 0.16935520337559401 0.020657770454092759 0 0.1774654858828027 0.031934360706524292 0 0.15597084301543529 0.02343959166996953 0 0.1774654858828027 0.031934360706524292 0 0.1620418926126978 0.036255926132564682 0 0.15597084301543529 0.02343959166996953 0 0.1774654858828027 0.031934360706524292 0 0.16935520337559401 0.020657770454092759 0 0.15597084301543529 0.02343959166996953 0 0.16935520337559401 0.020657770454092759 0 0.1657030786406338 0.0084270166623369204 0 0.15597084301543529 0.02343959166996953 0 0.18048502430789731 0.01998114488410483 0 0.16935520337559401 0.020657770454092759 0 0.1657030786406338 0.0084270166623369204 0 0.1657030786406338 0.0084270166623369204 0 0.14883794818754281 0.01110572894874149 0 0.15480995508657039 -0.001084596553268768 0 0.1657030786406338 0.0084270166623369204 0 0.14883794818754281 0.01110572894874149 0 0.15597084301543529 0.02343959166996953 0 0.14883794818754281 0.01110572894874149 0 0.13464870039648349 0.00080453217212592717 0 0.15480995508657039 -0.001084596553268768 0 0.14883794818754281 0.01110572894874149 0 0.13894824890776639 0.02136224913872127 0 0.13464870039648349 0.00080453217212592717 0 0.1620418926126978 0.036255926132564682 0 0.13894824890776639 0.02136224913872127 0 0.14883794818754281 0.01110572894874149 0 0.15597084301543529 0.02343959166996953 0 0.13894824890776639 0.02136224913872127 0 0.1620418926126978 0.036255926132564682 0 0.15597084301543529 0.02343959166996953 0 0.13894824890776639 0.02136224913872127 0 0.11961069471150609 0.02296590295220987 0 0.13894824890776639 0.02136224913872127 0 0.12977361784467401 0.039215218793308727 0 0.1158546052028349 0.0064685721448778594 0 0.13894824890776639 0.02136224913872127 0 0.1158546052028349 0.0064685721448778594 0 0.13894824890776639 0.02136224913872127 0 0.13464870039648349 0.00080453217212592717 0 0.14278372382386809 0.048416123664777412 0 0.1428601767931531 0.062084067640591357 0 0.15507694825043991 0.057889849327421902 0 0.14278372382386809 0.048416123664777412 0 0.15507694825043991 0.057889849327421902 0 0.15541952745182569 0.04677658384696623 0 0.1620418926126978 0.036255926132564682 0 0.13894824890776639 0.02136224913872127 0 0.14579340212816641 0.038405220315267663 0 0.1620418926126978 0.036255926132564682 0 0.15541952745182569 0.04677658384696623 0 0.14579340212816641 0.038405220315267663 0 0.14278372382386809 0.048416123664777412 0 0.15541952745182569 0.04677658384696623 0 0.14579340212816641 0.038405220315267663 0 0.14278372382386809 0.048416123664777412 0 0.14579340212816641 0.038405220315267663 0 0.12977361784467401 0.039215218793308727 0 0.13894824890776639 0.02136224913872127 0 0.14579340212816641 0.038405220315267663 0 0.12977361784467401 0.039215218793308727 0 0.11550376979223601 0.054551475820320147 0 0.12977361784467401 0.039215218793308727 0 0.1326943019686847 0.054606112458038862 0 0.11550376979223601 0.054551475820320147 0 0.1326943019686847 0.054606112458038862 0 0.13255022158949201 0.068763676371196639 0 0.14278372382386809 0.048416123664777412 0 0.12977361784467401 0.039215218793308727 0 0.1326943019686847 0.054606112458038862 0 0.14278372382386809 0.048416123664777412 0 0.1428601767931531 0.062084067640591357 0 0.1326943019686847 0.054606112458038862 0 0.1428601767931531 0.062084067640591357 0 0.1326943019686847 0.054606112458038862 0 0.13255022158949201 0.068763676371196639 0 0.1207366242219714 0.074251990558816788 0 0.13255022158949201 0.068763676371196639 0 0.13578085374332971 0.077614708003019631 0 0.13255022158949201 0.068763676371196639 0 0.13578085374332971 0.077614708003019631 0 0.1430759120552613 0.073085192731263071 0 0.1428601767931531 0.062084067640591357 0 0.13255022158949201 0.068763676371196639 0 0.1430759120552613 0.073085192731263071 0 0.1428601767931531 0.062084067640591357 0 0.1430759120552613 0.073085192731263071 0 0.15260580868734391 0.069203578475014266 0 0.1430759120552613 0.073085192731263071 0 0.14969883640752091 0.076610515579137797 0 0.14563192422462459 0.083183778073064013 0 0.13578085374332971 0.077614708003019631 0 0.1430759120552613 0.073085192731263071 0 0.14563192422462459 0.083183778073064013 0 0.1430759120552613 0.073085192731263071 0 0.14969883640752091 0.076610515579137797 0 0.15260580868734391 0.069203578475014266 0 0.14969883640752091 0.076610515579137797 0 0.15260580868734391 0.069203578475014266 0 0.15677919641446331 0.080277826610221981 0 0.1428601767931531 0.062084067640591357 0 0.15507694825043991 0.057889849327421902 0 0.15260580868734391 0.069203578475014266 0 0.1506819444987289 0.088437751930635633 0 0.14868901735932749 0.09586058707093438 0 0.157853861938485 0.092527754269896317 0 0.1506819444987289 0.088437751930635633 0 0.15677919641446331 0.080277826610221981 0 0.157853861938485 0.092527754269896317 0 0.14969883640752091 0.076610515579137797 0 0.14563192422462459 0.083183778073064013 0 0.15677919641446331 0.080277826610221981 0 0.1506819444987289 0.088437751930635633 0 0.14563192422462459 0.083183778073064013 0 0.15677919641446331 0.080277826610221981 0 0.14563192422462459 0.083183778073064013 0 0.1444557225567443 0.090338813629061501 0 0.13888671887288589 0.088270852986767859 0 0.1506819444987289 0.088437751930635633 0 0.14563192422462459 0.083183778073064013 0 0.1444557225567443 0.090338813629061501 0 0.1444557225567443 0.090338813629061501 0 0.14209274384079601 0.094639397504520467 0 0.14868901735932749 0.09586058707093438 0 0.1506819444987289 0.088437751930635633 0 0.1444557225567443 0.090338813629061501 0 0.14868901735932749 0.09586058707093438 0 0.1444557225567443 0.090338813629061501 0 0.13888671887288589 0.088270852986767859 0 0.14209274384079601 0.094639397504520467 0 0.13888671887288589 0.088270852986767859 0 0.13668050292917741 0.098217611464673699 0 0.14209274384079601 0.094639397504520467 0 0.13888671887288589 0.088270852986767859 0 0.1300820653953097 0.084166932106396392 0 0.13668050292917741 0.098217611464673699 0 0.11116449005577619 0.086473750785835857 0 0.1300820653953097 0.084166932106396392 0 0.13668050292917741 0.098217611464673699 0 0.13578085374332971 0.077614708003019631 0 0.13888671887288589 0.088270852986767859 0 0.1300820653953097 0.084166932106396392 0 0.13578085374332971 0.077614708003019631 0 0.14563192422462459 0.083183778073064013 0 0.13888671887288589 0.088270852986767859 0 0.1207366242219714 0.074251990558816788 0 0.13578085374332971 0.077614708003019631 0 0.1300820653953097 0.084166932106396392 0 0.1216961693062274 0.1020981758197984 0 0.1302764983332621 0.10693497851168419 0 0.13668050292917741 0.098217611464673699 0 0.1302764983332621 0.10693497851168419 0 0.13758713408363871 0.1043360441680015 0 0.13668050292917741 0.098217611464673699 0 0.1302764983332621 0.10693497851168419 0 0.1360833458267342 0.1084620534226548 0 0.13758713408363871 0.1043360441680015 0 0.1360833458267342 0.1084620534226548 0 0.13758713408363871 0.1043360441680015 0 0.14314356584317489 0.10755645506983 0 0.13758713408363871 0.1043360441680015 0 0.13668050292917741 0.098217611464673699 0 0.14175175748584509 0.1005091223711649 0 0.13668050292917741 0.098217611464673699 0 0.14209274384079601 0.094639397504520467 0 0.14175175748584509 0.1005091223711649 0 0.12813823657366311 0.12049833089676459 0 0.13246275659848361 0.1130811342378658 0 0.13708322035591489 0.118794437000363 0 0.12212988809696081 0.1249307776834532 0 0.12788127083107459 0.1291064789800366 0 0.12813823657366311 0.12049833089676459 0 0.1197878353292403 0.1092484053650479 0 0.1302764983332621 0.10693497851168419 0 0.12624189261331301 0.1140678077034443 0 0.12813823657366311 0.12049833089676459 0 0.12624189261331301 0.1140678077034443 0 0.13246275659848361 0.1130811342378658 0 0.1302764983332621 0.10693497851168419 0 0.12624189261331301 0.1140678077034443 0 0.13246275659848361 0.1130811342378658 0 0.138866780176991 0.11235807520418389 0 0.13708322035591489 0.118794437000363 0 0.14572099158606311 0.1154247658161887 0 0.1360833458267342 0.1084620534226548 0 0.13246275659848361 0.1130811342378658 0 0.138866780176991 0.11235807520418389 0 0.1302764983332621 0.10693497851168419 0 0.1360833458267342 0.1084620534226548 0 0.13246275659848361 0.1130811342378658 0 0.1360833458267342 0.1084620534226548 0 0.138866780176991 0.11235807520418389 0 0.14314356584317489 0.10755645506983 0 0.13246275659848361 0.1130811342378658 0 0.138866780176991 0.11235807520418389 0 0.13708322035591489 0.118794437000363 0 0.13409394305489639 0.1257339851238449 0 0.14295710802469111 0.12768772724150559 0 0.13708322035591489 0.118794437000363 0 0.13409394305489639 0.1257339851238449 0 0.12813823657366311 0.12049833089676459 0 0.13708322035591489 0.118794437000363 0 0.14572099158606311 0.1154247658161887 0 0.15364605026385231 0.1227496740475859 0 0.15839207309433961 0.10550736800805539 0 0.14295710802469111 0.12768772724150559 0 0.13708322035591489 0.118794437000363 0 0.14572099158606311 0.1154247658161887 0 0.14295710802469111 0.12768772724150559 0 0.14572099158606311 0.1154247658161887 0 0.15364605026385231 0.1227496740475859 0 0.138866780176991 0.11235807520418389 0 0.14572099158606311 0.1154247658161887 0 0.14314356584317489 0.10755645506983 0 0.14572099158606311 0.1154247658161887 0 0.14314356584317489 0.10755645506983 0 0.15839207309433961 0.10550736800805539 0 0.14175175748584509 0.1005091223711649 0 0.15839207309433961 0.10550736800805539 0 0.14175175748584509 0.1005091223711649 0 0.14314356584317489 0.10755645506983 0 0.15839207309433961 0.10550736800805539 0 0.14175175748584509 0.1005091223711649 0 0.14868901735932749 0.09586058707093438 0 0.15839207309433961 0.10550736800805539 0 0.14209274384079601 0.094639397504520467 0 0.14175175748584509 0.1005091223711649 0 0.14868901735932749 0.09586058707093438 0 0.13758713408363871 0.1043360441680015 0 0.14175175748584509 0.1005091223711649 0 0.14314356584317489 0.10755645506983 0 0.14868901735932749 0.09586058707093438 0 0.15839207309433961 0.10550736800805539 0 0.157853861938485 0.092527754269896317 0 0.15839207309433961 0.10550736800805539 0 0.17503238870283441 0.11050561364494491 0 0.15839207309433961 0.10550736800805539 0 0.1705578526620479 0.095927182961129481 0 0.157853861938485 0.092527754269896317 0 0.15839207309433961 0.10550736800805539 0 0.1705578526620479 0.095927182961129481 0 0.17503238870283441 0.11050561364494491 0 0.16417220099380411 0.12505127510387981 0 0.15839207309433961 0.10550736800805539 0 0.17503238870283441 0.11050561364494491 0 0.16417220099380411 0.12505127510387981 0 0.15364605026385231 0.1227496740475859 0 0.15839207309433961 0.10550736800805539 0 0.16417220099380411 0.12505127510387981 0 0.17503238870283441 0.11050561364494491 0 0.18002451345814399 0.12716596121819479 0 0.16417220099380411 0.12505127510387981 0 0.17503238870283441 0.11050561364494491 0 0.18002451345814399 0.12716596121819479 0 0.2001236667938262 0.1180422718546187 0 0.17503238870283441 0.11050561364494491 0 0.1916307843626972 0.08827444688259839 0 0.1705578526620479 0.095927182961129481 0 0.17503238870283441 0.11050561364494491 0 0.1916307843626972 0.08827444688259839 0 0.17503238870283441 0.11050561364494491 0 0.1916307843626972 0.08827444688259839 0 0.17935943521264269 0.07135827912697662 0 0.16988015521188329 0.08282073200015258 0 0.1916307843626972 0.08827444688259839 0 0.1705578526620479 0.095927182961129481 0 0.16988015521188329 0.08282073200015258 0 0.19067723801237901 0.065525043857756982 0 0.1916307843626972 0.08827444688259839 0 0.17935943521264269 0.07135827912697662 0 0.19067723801237901 0.065525043857756982 0 0.17734631865053521 0.060730067185729229 0 0.17935943521264269 0.07135827912697662 0 0.17734631865053521 0.060730067185729229 0 0.17935943521264269 0.07135827912697662 0 0.1653937448538241 0.067538194789913991 0 0.17935943521264269 0.07135827912697662 0 0.1653937448538241 0.067538194789913991 0 0.16988015521188329 0.08282073200015258 0 0.15507694825043991 0.057889849327421902 0 0.15260580868734391 0.069203578475014266 0 0.1653937448538241 0.067538194789913991 0 0.15260580868734391 0.069203578475014266 0 0.1653937448538241 0.067538194789913991 0 0.15677919641446331 0.080277826610221981 0 0.1653937448538241 0.067538194789913991 0 0.15677919641446331 0.080277826610221981 0 0.16988015521188329 0.08282073200015258 0 0.15677919641446331 0.080277826610221981 0 0.157853861938485 0.092527754269896317 0 0.16988015521188329 0.08282073200015258 0 0.1705578526620479 0.095927182961129481 0 0.157853861938485 0.092527754269896317 0 0.16988015521188329 0.08282073200015258 0 0.099456207782380623 0.4822659283708195 0 0.1141892196830592 0.48396198267476093 0 0.11304725129434449 0.46767028325629811 0 0.099456207782380623 0.4822659283708195 0 0.11304725129434449 0.46767028325629811 0 0.096803680563272876 0.46646214520586099 0 0.099456207782380623 0.4822659283708195 0 0.10782601469385079 0.5 0 0.078267650747156567 0.50000000000000133 0 0.099456207782380623 0.4822659283708195 0 0.10782601469385079 0.5 0 0.1141892196830592 0.48396198267476093 0 0.10782601469385079 0.5 0 0.1249193769550877 0.49369376296818718 0 0.1141892196830592 0.48396198267476093 0 0.1249193769550877 0.49369376296818718 0 0.1141892196830592 0.48396198267476093 0 0.12569724768963239 0.47617993877849962 0 0.10782601469385079 0.5 0 0.1249193769550877 0.49369376296818718 0 0.13738437864054501 0.5 0 0.1141892196830592 0.48396198267476093 0 0.11304725129434449 0.46767028325629811 0 0.12569724768963239 0.47617993877849962 0 0.11304725129434449 0.46767028325629811 0 0.1267882431275838 0.46370707134437261 0 0.12569724768963239 0.47617993877849962 0 0.11304725129434449 0.46767028325629811 0 0.1221607865463437 0.4507156547582637 0 0.1004821270038239 0.44949914822431608 0 0.11304725129434449 0.46767028325629811 0 0.1221607865463437 0.4507156547582637 0 0.1267882431275838 0.46370707134437261 0 0.1221607865463437 0.4507156547582637 0 0.1004821270038239 0.44949914822431608 0 0.12259086230274099 0.42947812748907283 0 0.1004821270038239 0.44949914822431608 0 0.096803680563272876 0.46646214520586099 0 0.084307548883437972 0.45862843933572522 0 0.11304725129434449 0.46767028325629811 0 0.1004821270038239 0.44949914822431608 0 0.096803680563272876 0.46646214520586099 0 0.084307548883437972 0.45862843933572522 0 0.070120974899159305 0.46867166915081548 0 0.08254081050968877 0.47642281665818748 0 0.096803680563272876 0.46646214520586099 0 0.084307548883437972 0.45862843933572522 0 0.08254081050968877 0.47642281665818748 0 0.084307548883437972 0.45862843933572522 0 0.083205653112744402 0.44008551456546158 0 0.070599818540594342 0.45171728711773013 0 0.1004821270038239 0.44949914822431608 0 0.084307548883437972 0.45862843933572522 0 0.083205653112744402 0.44008551456546158 0 0.1004821270038239 0.44949914822431608 0 0.083205653112744402 0.44008551456546158 0 0.095892719888732866 0.42453745382262881 0 0.070599818540594342 0.45171728711773013 0 0.057347956450285731 0.44480695268810438 0 0.068330088192809502 0.43602814955066621 0 0.083205653112744402 0.44008551456546158 0 0.070599818540594342 0.45171728711773013 0 0.068330088192809502 0.43602814955066621 0 0.070599818540594342 0.45171728711773013 0 0.070120974899159305 0.46867166915081548 0 0.05832870883015126 0.45973880463956351 0 0.084307548883437972 0.45862843933572522 0 0.070599818540594342 0.45171728711773013 0 0.070120974899159305 0.46867166915081548 0 0.070120974899159305 0.46867166915081548 0 0.08254081050968877 0.47642281665818748 0 0.061557047466102868 0.48310025102256282 0 0.070120974899159305 0.46867166915081548 0 0.061557047466102868 0.48310025102256282 0 0.05832870883015126 0.45973880463956351 0 0.099456207782380623 0.4822659283708195 0 0.096803680563272876 0.46646214520586099 0 0.08254081050968877 0.47642281665818748 0 0.099456207782380623 0.4822659283708195 0 0.08254081050968877 0.47642281665818748 0 0.078267650747156567 0.50000000000000133 0 0.078267650747156567 0.50000000000000133 0 0.049166882519808157 0.5 0 0.061557047466102868 0.48310025102256282 0 0.08254081050968877 0.47642281665818748 0 0.078267650747156567 0.50000000000000133 0 0.061557047466102868 0.48310025102256282 0 0.078267650747156567 0.50000000000000133 0 0.061557047466102868 0.48310025102256282 0 0.049166882519808157 0.5 0 0.061557047466102868 0.48310025102256282 0 0.038208171894904559 0.48286056860770488 0 0.061557047466102868 0.48310025102256282 0 0.044846444185049857 0.46620050204512359 0 0.05832870883015126 0.45973880463956351 0 0.061557047466102868 0.48310025102256282 0 0.044846444185049857 0.46620050204512359 0 0.061557047466102868 0.48310025102256282 0 0.038208171894904559 0.48286056860770488 0 0.044846444185049857 0.46620050204512359 0 0.038208171894904559 0.48286056860770488 0 0.029572045059576241 0.469060477695939 0 0.044846444185049857 0.46620050204512359 0 0.049166882519808157 0.5 0 0.038208171894904559 0.48286056860770488 0 0.020066114292459799 0.5 0 0.038208171894904559 0.48286056860770488 0 0.020066114292459799 0.5 0 0.021055159894441029 0.48095839664786189 0 0.038208171894904559 0.48286056860770488 0 0.029572045059576241 0.469060477695939 0 0.021055159894441029 0.48095839664786189 0 0.029572045059576241 0.469060477695939 0 0.021055159894441029 0.48095839664786189 0 0.01561460841948897 0.46598216811131982 0 0.021055159894441029 0.48095839664786189 0 0.0030933759349822849 0.48266358315495572 0 0.01561460841948897 0.46598216811131982 0 0.0030933759349822849 0.48266358315495572 0 0.01561460841948897 0.46598216811131982 0 0.0036787250480955699 0.47408322248379448 0 0.0030933759349822849 0.48266358315495572 0 0.01561460841948897 0.46598216811131982 0 -0.0016340076521478781 0.48633642657919801 0 0.0036787250480955699 0.47408322248379448 0 0.0030933759349822849 0.48266358315495572 0 0.020066114292459799 0.5 0 0.021055159894441029 0.48095839664786189 0 0.0030933759349822849 0.48266358315495572 0 -0.0090346539348886701 0.5 0 -0.0016340076521478781 0.48633642657919801 0 0.020066114292459799 0.5 0 -0.0016340076521478781 0.48633642657919801 0 0.020066114292459799 0.5 0 0.0030933759349822849 0.48266358315495572 0 -0.0030841453677343121 0.43636499760021141 0 -0.002359076509941094 0.46135071208970457 0 0.010470448459028871 0.45111158928184719 0 -0.0030841453677343121 0.43636499760021141 0 0.010470448459028871 0.45111158928184719 0 0.017893296784651399 0.43894227458572882 0 -0.002359076509941094 0.46135071208970457 0 0.010470448459028871 0.45111158928184719 0 0.01561460841948897 0.46598216811131982 0 -0.002359076509941094 0.46135071208970457 0 0.0036787250480955699 0.47408322248379448 0 0.01561460841948897 0.46598216811131982 0 0.010470448459028871 0.45111158928184719 0 0.01561460841948897 0.46598216811131982 0 0.0281358409039968 0.44930075306768458 0 0.029572045059576241 0.469060477695939 0 0.01561460841948897 0.46598216811131982 0 0.0281358409039968 0.44930075306768458 0 0.01561460841948897 0.46598216811131982 0 0.0281358409039968 0.44930075306768458 0 0.010470448459028871 0.45111158928184719 0 0.0281358409039968 0.44930075306768458 0 0.017893296784651399 0.43894227458572882 0 0.0281358409039968 0.44930075306768458 0 0.017893296784651399 0.43894227458572882 0 0.03800042812263172 0.43615865433005307 0 0.0281358409039968 0.44930075306768458 0 0.017893296784651399 0.43894227458572882 0 0.0281358409039968 0.44930075306768458 0 0.04587361322417214 0.448769157871174 0 0.03800042812263172 0.43615865433005307 0 0.0281358409039968 0.44930075306768458 0 0.03800042812263172 0.43615865433005307 0 0.04587361322417214 0.448769157871174 0 0.049411209704934803 0.43621283219101809 0 0.03800042812263172 0.43615865433005307 0 0.029572045059576241 0.469060477695939 0 0.0281358409039968 0.44930075306768458 0 0.044846444185049857 0.46620050204512359 0 0.0281358409039968 0.44930075306768458 0 0.04587361322417214 0.448769157871174 0 0.044846444185049857 0.46620050204512359 0 0.0281358409039968 0.44930075306768458 0 0.044846444185049857 0.46620050204512359 0 0.04587361322417214 0.448769157871174 0 0.044846444185049857 0.46620050204512359 0 0.05832870883015126 0.45973880463956351 0 0.04587361322417214 0.448769157871174 0 0.057347956450285731 0.44480695268810438 0 0.049411209704934803 0.43621283219101809 0 0.04587361322417214 0.448769157871174 0 0.05832870883015126 0.45973880463956351 0 0.057347956450285731 0.44480695268810438 0 0.070599818540594342 0.45171728711773013 0 0.05832870883015126 0.45973880463956351 0 0.057347956450285731 0.44480695268810438 0 0.057347956450285731 0.44480695268810438 0 0.058238482531349368 0.43512174465279091 0 0.068330088192809502 0.43602814955066621 0 0.057347956450285731 0.44480695268810438 0 0.058238482531349368 0.43512174465279091 0 0.049411209704934803 0.43621283219101809 0 0.058238482531349368 0.43512174465279091 0 0.05412352915042095 0.42739076434297479 0 0.063786863135573219 0.4234822836218442 0 0.05412352915042095 0.42739076434297479 0 0.047865015341267358 0.42301655559242213 0 0.049411209704934803 0.43621283219101809 0 0.05412352915042095 0.42739076434297479 0 0.047865015341267358 0.42301655559242213 0 0.058238482531349368 0.43512174465279091 0 0.05412352915042095 0.42739076434297479 0 0.049411209704934803 0.43621283219101809 0 0.047865015341267358 0.42301655559242213 0 0.055388731832649349 0.41299308245440008 0 0.044385004541519633 0.40583709082877739 0 0.055388731832649349 0.41299308245440008 0 0.057103340742871267 0.4006394318358022 0 0.0691327228978319 0.40699071288372829 0 0.05412352915042095 0.42739076434297479 0 0.055388731832649349 0.41299308245440008 0 0.063786863135573219 0.4234822836218442 0 0.047865015341267358 0.42301655559242213 0 0.055388731832649349 0.41299308245440008 0 0.05412352915042095 0.42739076434297479 0 0.047865015341267358 0.42301655559242213 0 0.055388731832649349 0.41299308245440008 0 0.055388731832649349 0.41299308245440008 0 0.044385004541519633 0.40583709082877739 0 0.057103340742871267 0.4006394318358022 0 0.047865015341267358 0.42301655559242213 0 0.030398582533070099 0.41080889326869052 0 0.044385004541519633 0.40583709082877739 0 0.047865015341267358 0.42301655559242213 0 0.035686717363660143 0.42423985257235269 0 0.030398582533070099 0.41080889326869052 0 0.047865015341267358 0.42301655559242213 0 0.030398582533070099 0.41080889326869052 0 0.047865015341267358 0.42301655559242213 0 0.049411209704934803 0.43621283219101809 0 0.03800042812263172 0.43615865433005307 0 0.047865015341267358 0.42301655559242213 0 0.03800042812263172 0.43615865433005307 0 0.047865015341267358 0.42301655559242213 0 0.035686717363660143 0.42423985257235269 0 0.03800042812263172 0.43615865433005307 0 0.035686717363660143 0.42423985257235269 0 0.03800042812263172 0.43615865433005307 0 0.0264828434576714 0.42697530709824522 0 0.017893296784651399 0.43894227458572882 0 0.0264828434576714 0.42697530709824522 0 0.013451351612083251 0.42022136891186163 0 0.017893296784651399 0.43894227458572882 0 0.03800042812263172 0.43615865433005307 0 0.0264828434576714 0.42697530709824522 0 0.030398582533070099 0.41080889326869052 0 0.013451351612083251 0.42022136891186163 0 0.012932149724872831 0.39860123094495892 0 0.0264828434576714 0.42697530709824522 0 0.030398582533070099 0.41080889326869052 0 0.013451351612083251 0.42022136891186163 0 0.035686717363660143 0.42423985257235269 0 0.0264828434576714 0.42697530709824522 0 0.030398582533070099 0.41080889326869052 0 -0.0038092142255275289 0.41137928311071797 0 0.013451351612083251 0.42022136891186163 0 0.012932149724872831 0.39860123094495892 0 -0.0030841453677343121 0.43636499760021141 0 0.017893296784651399 0.43894227458572882 0 0.013451351612083251 0.42022136891186163 0 -0.0030841453677343121 0.43636499760021141 0 -0.0038092142255275289 0.41137928311071797 0 0.013451351612083251 0.42022136891186163 0 -0.0045342830833226501 0.3863935686212247 0 0.012932149724872831 0.39860123094495892 0 0.0079023355216259559 0.37348921158265391 0 0.012932149724872831 0.39860123094495892 0 0.025375843575522711 0.38021681034322929 0 0.0079023355216259559 0.37348921158265391 0 -0.0045342830833226501 0.3863935686212247 0 0.012932149724872831 0.39860123094495892 0 -0.0045342830833226501 0.3863935686212247 0 -0.0038092142255275289 0.41137928311071797 0 0.012932149724872831 0.39860123094495892 0 0.030398582533070099 0.41080889326869052 0 0.012932149724872831 0.39860123094495892 0 0.030398582533070099 0.41080889326869052 0 0.012932149724872831 0.39860123094495892 0 0.030218872497922818 0.39559608178221078 0 0.012932149724872831 0.39860123094495892 0 0.030218872497922818 0.39559608178221078 0 0.025375843575522711 0.38021681034322929 0 0.025375843575522711 0.38021681034322929 0 0.045236422390978262 0.39339421550307069 0 0.045418656597819553 0.37354288132317159 0 0.030218872497922818 0.39559608178221078 0 0.025375843575522711 0.38021681034322929 0 0.045236422390978262 0.39339421550307069 0 0.030398582533070099 0.41080889326869052 0 0.030218872497922818 0.39559608178221078 0 0.044385004541519633 0.40583709082877739 0 0.030218872497922818 0.39559608178221078 0 0.045236422390978262 0.39339421550307069 0 0.044385004541519633 0.40583709082877739 0 0.045236422390978262 0.39339421550307069 0 0.057103340742871267 0.4006394318358022 0 0.06607043693335328 0.38973814947632979 0 0.045236422390978262 0.39339421550307069 0 0.044385004541519633 0.40583709082877739 0 0.057103340742871267 0.4006394318358022 0 0.045236422390978262 0.39339421550307069 0 0.06607043693335328 0.38973814947632979 0 0.045418656597819553 0.37354288132317159 0 0.06607043693335328 0.38973814947632979 0 0.066778362586220691 0.36264744131756171 0 0.045418656597819553 0.37354288132317159 0 0.06607043693335328 0.38973814947632979 0 0.086713905658550791 0.37461406501925459 0 0.066778362586220691 0.36264744131756171 0 0.091303312773641829 0.3995757594209417 0 0.1025776524751303 0.38486691706586951 0 0.086713905658550791 0.37461406501925459 0 0.06607043693335328 0.38973814947632979 0 0.091303312773641829 0.3995757594209417 0 0.086713905658550791 0.37461406501925459 0 0.091303312773641829 0.3995757594209417 0 0.086713905658550791 0.37461406501925459 0 0.06607043693335328 0.38973814947632979 0 0.091303312773641829 0.3995757594209417 0 0.0691327228978319 0.40699071288372829 0 0.057103340742871267 0.4006394318358022 0 0.06607043693335328 0.38973814947632979 0 0.0691327228978319 0.40699071288372829 0 0.055388731832649349 0.41299308245440008 0 0.0691327228978319 0.40699071288372829 0 0.063786863135573219 0.4234822836218442 0 0.0691327228978319 0.40699071288372829 0 0.077714875811277062 0.4214876261871765 0 0.063786863135573219 0.4234822836218442 0 0.083205653112744402 0.44008551456546158 0 0.077714875811277062 0.4214876261871765 0 0.068330088192809502 0.43602814955066621 0 0.058238482531349368 0.43512174465279091 0 0.068330088192809502 0.43602814955066621 0 0.063786863135573219 0.4234822836218442 0 0.077714875811277062 0.4214876261871765 0 0.068330088192809502 0.43602814955066621 0 0.063786863135573219 0.4234822836218442 0 0.083205653112744402 0.44008551456546158 0 0.077714875811277062 0.4214876261871765 0 0.095892719888732866 0.42453745382262881 0 0.091303312773641829 0.3995757594209417 0 0.0691327228978319 0.40699071288372829 0 0.077714875811277062 0.4214876261871765 0 0.091303312773641829 0.3995757594209417 0 0.095892719888732866 0.42453745382262881 0 0.091303312773641829 0.3995757594209417 0 0.077714875811277062 0.4214876261871765 0 0.095892719888732866 0.42453745382262881 0 0.091303312773641829 0.3995757594209417 0 0.095892719888732866 0.42453745382262881 0 0.115428724103706 0.40267530492779557 0 0.1004821270038239 0.44949914822431608 0 0.095892719888732866 0.42453745382262881 0 0.12259086230274099 0.42947812748907283 0 0.1004821270038239 0.44949914822431608 0 0.095892719888732866 0.42453745382262881 0 0.095892719888732866 0.42453745382262881 0 0.12259086230274099 0.42947812748907283 0 0.115428724103706 0.40267530492779557 0 0.115428724103706 0.40267530492779557 0 0.119448870245615 0.38256434187866972 0 0.13692284990477191 0.38930777957628943 0 0.119448870245615 0.38256434187866972 0 0.1025776524751303 0.38486691706586951 0 0.1087205780393706 0.3656269003386084 0 0.115428724103706 0.40267530492779557 0 0.119448870245615 0.38256434187866972 0 0.1025776524751303 0.38486691706586951 0 0.1025776524751303 0.38486691706586951 0 0.1087205780393706 0.3656269003386084 0 0.086713905658550791 0.37461406501925459 0 0.091303312773641829 0.3995757594209417 0 0.115428724103706 0.40267530492779557 0 0.1025776524751303 0.38486691706586951 0 0.1087205780393706 0.3656269003386084 0 0.1202868522871179 0.34060046584014031 0 0.0915497208986496 0.34709204532757532 0 0.1087205780393706 0.3656269003386084 0 0.0915497208986496 0.34709204532757532 0 0.086713905658550791 0.37461406501925459 0 0.119448870245615 0.38256434187866972 0 0.1087205780393706 0.3656269003386084 0 0.13274728415341139 0.36410634055334368 0 0.1087205780393706 0.3656269003386084 0 0.1202868522871179 0.34060046584014031 0 0.13274728415341139 0.36410634055334368 0 0.1202868522871179 0.34060046584014031 0 0.1104734498024164 0.31171603628350752 0 0.14183880654046921 0.32250528078568202 0 0.1202868522871179 0.34060046584014031 0 0.1016552612267161 0.33013161519950079 0 0.1104734498024164 0.31171603628350752 0 0.1016552612267161 0.33013161519950079 0 0.081254576285268804 0.3210829637434266 0 0.1104734498024164 0.31171603628350752 0 0.1202868522871179 0.34060046584014031 0 0.1016552612267161 0.33013161519950079 0 0.0915497208986496 0.34709204532757532 0 0.081254576285268804 0.3210829637434266 0 0.072654821413094289 0.33942743407960763 0 0.0915497208986496 0.34709204532757532 0 0.1016552612267161 0.33013161519950079 0 0.081254576285268804 0.3210829637434266 0 0.0915497208986496 0.34709204532757532 0 0.081254576285268804 0.3210829637434266 0 0.06358813508901956 0.32234581427363851 0 0.071244474661197085 0.3036312559279935 0 0.081254576285268804 0.3210829637434266 0 0.06358813508901956 0.32234581427363851 0 0.072654821413094289 0.33942743407960763 0 0.06358813508901956 0.32234581427363851 0 0.072654821413094289 0.33942743407960763 0 0.055199983679349987 0.34246375673151652 0 0.072654821413094289 0.33942743407960763 0 0.066778362586220691 0.36264744131756171 0 0.055199983679349987 0.34246375673151652 0 0.072654821413094289 0.33942743407960763 0 0.0915497208986496 0.34709204532757532 0 0.066778362586220691 0.36264744131756171 0 0.0915497208986496 0.34709204532757532 0 0.086713905658550791 0.37461406501925459 0 0.066778362586220691 0.36264744131756171 0 0.066778362586220691 0.36264744131756171 0 0.044951457965310811 0.3555124197003488 0 0.045418656597819553 0.37354288132317159 0 0.066778362586220691 0.36264744131756171 0 0.044951457965310811 0.3555124197003488 0 0.055199983679349987 0.34246375673151652 0 0.044951457965310811 0.3555124197003488 0 0.021903196078839001 0.35746348141110651 0 0.035457090884324839 0.34144453771838768 0 0.044951457965310811 0.3555124197003488 0 0.035457090884324839 0.34144453771838768 0 0.055199983679349987 0.34246375673151652 0 0.044951457965310811 0.3555124197003488 0 0.045418656597819553 0.37354288132317159 0 0.021903196078839001 0.35746348141110651 0 0.025375843575522711 0.38021681034322929 0 0.021903196078839001 0.35746348141110651 0 0.0079023355216259559 0.37348921158265391 0 0.025375843575522711 0.38021681034322929 0 0.045418656597819553 0.37354288132317159 0 0.021903196078839001 0.35746348141110651 0 0.021903196078839001 0.35746348141110651 0 0.017151683724365509 0.3376665205351736 0 0.035457090884324839 0.34144453771838768 0 0.021903196078839001 0.35746348141110651 0 0.0095650341834115256 0.34490192427506011 0 0.017151683724365509 0.3376665205351736 0 0.021903196078839001 0.35746348141110651 0 0.0095650341834115256 0.34490192427506011 0 0.0061318462344260851 0.35417601161121459 0 -0.0050552824635438226 0.34569829691311771 0 0.0095650341834115256 0.34490192427506011 0 0.0061318462344260851 0.35417601161121459 0 0.021903196078839001 0.35746348141110651 0 0.0061318462344260851 0.35417601161121459 0 0.0079023355216259559 0.37348921158265391 0 -0.0052616759920083916 0.36132776784546622 0 0.0061318462344260851 0.35417601161121459 0 0.0079023355216259559 0.37348921158265391 0 0.0087281755863181168 0.33049580891976171 0 0.020410497070949891 0.30832150289807031 0 0.0056044744337335906 0.31412092038659428 0 0.0087281755863181168 0.33049580891976171 0 0.020410497070949891 0.30832150289807031 0 -0.003280447873963227 0.32161399115684158 0 0.0056044744337335906 0.31412092038659428 0 0.0087281755863181168 0.33049580891976171 0 0.0064742168078369342 0.3347740657525386 0 0.0087281755863181168 0.33049580891976171 0 -0.0050552824635438226 0.34569829691311771 0 0.0095650341834115256 0.34490192427506011 0 0.0064742168078369342 0.3347740657525386 0 0.0095650341834115256 0.34490192427506011 0 0.0064742168078369342 0.3347740657525386 0 0.017151683724365509 0.3376665205351736 0 0.0064742168078369342 0.3347740657525386 0 0.0087281755863181168 0.33049580891976171 0 0.017151683724365509 0.3376665205351736 0 0.0087281755863181168 0.33049580891976171 0 0.025353163704189718 0.33024288796319817 0 0.017151683724365509 0.3376665205351736 0 0.0087281755863181168 0.33049580891976171 0 0.025353163704189718 0.33024288796319817 0 0.025353163704189718 0.33024288796319817 0 0.017151683724365509 0.3376665205351736 0 0.035457090884324839 0.34144453771838768 0 0.0087281755863181168 0.33049580891976171 0 0.025353163704189718 0.33024288796319817 0 0.020410497070949891 0.30832150289807031 0 0.025353163704189718 0.33024288796319817 0 0.038017806832533571 0.30672300381527179 0 0.020410497070949891 0.30832150289807031 0 0.025353163704189718 0.33024288796319817 0 0.045812945845809312 0.32351293560108041 0 0.038017806832533571 0.30672300381527179 0 0.025353163704189718 0.33024288796319817 0 0.045812945845809312 0.32351293560108041 0 0.035457090884324839 0.34144453771838768 0 0.045812945845809312 0.32351293560108041 0 0.035457090884324839 0.34144453771838768 0 0.055199983679349987 0.34246375673151652 0 0.06358813508901956 0.32234581427363851 0 0.045812945845809312 0.32351293560108041 0 0.055199983679349987 0.34246375673151652 0 0.06358813508901956 0.32234581427363851 0 0.045812945845809312 0.32351293560108041 0 0.055148108477292443 0.3057593846019967 0 0.055148108477292443 0.3057593846019967 0 0.047586914097201803 0.29032131063477928 0 0.038017806832533571 0.30672300381527179 0 0.055148108477292443 0.3057593846019967 0 0.047586914097201803 0.29032131063477928 0 0.066935962560195753 0.28615893812798288 0 0.047586914097201803 0.29032131063477928 0 0.050578246113349837 0.27455429857722041 0 0.066935962560195753 0.28615893812798288 0 0.047586914097201803 0.29032131063477928 0 0.032092818555581597 0.28614719687637868 0 0.038017806832533571 0.30672300381527179 0 0.047586914097201803 0.29032131063477928 0 0.032092818555581597 0.28614719687637868 0 0.050578246113349837 0.27455429857722041 0 0.045812945845809312 0.32351293560108041 0 0.055148108477292443 0.3057593846019967 0 0.038017806832533571 0.30672300381527179 0 0.032092818555581597 0.28614719687637868 0 0.038017806832533571 0.30672300381527179 0 0.020410497070949891 0.30832150289807031 0 0.032092818555581597 0.28614719687637868 0 0.020410497070949891 0.30832150289807031 0 0.032092818555581597 0.28614719687637868 0 0.020410497070949891 0.30832150289807031 0 0.0083336089875100904 0.29343585490586271 0 0.032092818555581597 0.28614719687637868 0 0.0083336089875100904 0.29343585490586271 0 0.021382191810826279 0.2686960609189637 0 -0.0088759444352828343 0.31092800175718183 0 0.0056044744337335906 0.31412092038659428 0 0.0083336089875100904 0.29343585490586271 0 0.0056044744337335906 0.31412092038659428 0 0.020410497070949891 0.30832150289807031 0 0.0083336089875100904 0.29343585490586271 0 0.0073806355134042019 0.25529449578482938 0 3.3590645499582607e-05 0.27236849017123349 0 0.021382191810826279 0.2686960609189637 0 0.0083336089875100904 0.29343585490586271 0 3.3590645499582607e-05 0.27236849017123349 0 0.021382191810826279 0.2686960609189637 0 0.025149977659741599 0.24684982625080901 0 0.0073806355134042019 0.25529449578482938 0 0.021382191810826279 0.2686960609189637 0 0.025149977659741599 0.24684982625080901 0 0.021382191810826279 0.2686960609189637 0 0.043775140040213267 0.26397289085468728 0 0.025149977659741599 0.24684982625080901 0 0.045472231705318063 0.24424317023843681 0 0.050158093690384618 0.2598810672441918 0 0.025149977659741599 0.24684982625080901 0 0.050158093690384618 0.2598810672441918 0 0.025149977659741599 0.24684982625080901 0 0.043775140040213267 0.26397289085468728 0 0.050158093690384618 0.2598810672441918 0 0.032092818555581597 0.28614719687637868 0 0.043775140040213267 0.26397289085468728 0 0.032092818555581597 0.28614719687637868 0 0.021382191810826279 0.2686960609189637 0 0.043775140040213267 0.26397289085468728 0 0.032092818555581597 0.28614719687637868 0 0.043775140040213267 0.26397289085468728 0 0.050578246113349837 0.27455429857722041 0 0.050578246113349837 0.27455429857722041 0 0.063875668081316214 0.2678607518654692 0 0.066935962560195753 0.28615893812798288 0 0.043775140040213267 0.26397289085468728 0 0.050578246113349837 0.27455429857722041 0 0.050158093690384618 0.2598810672441918 0 0.050578246113349837 0.27455429857722041 0 0.056046126259945157 0.25263236173372139 0 0.063875668081316214 0.2678607518654692 0 0.050578246113349837 0.27455429857722041 0 0.050158093690384618 0.2598810672441918 0 0.056046126259945157 0.25263236173372139 0 0.045472231705318063 0.24424317023843681 0 0.050158093690384618 0.2598810672441918 0 0.056046126259945157 0.25263236173372139 0 0.050578246113349837 0.27455429857722041 0 0.056046126259945157 0.25263236173372139 0 0.078525547080241467 0.2465942846531784 0 0.067905867336300579 0.25358800162702 0 0.079567988853459573 0.27014218499250892 0 0.067905867336300579 0.25358800162702 0 0.079567988853459573 0.27014218499250892 0 0.063875668081316214 0.2678607518654692 0 0.056046126259945157 0.25263236173372139 0 0.067905867336300579 0.25358800162702 0 0.063875668081316214 0.2678607518654692 0 0.078525547080241467 0.2465942846531784 0 0.079567988853459573 0.27014218499250892 0 0.093798877441032588 0.2579700649065903 0 0.079567988853459573 0.27014218499250892 0 0.063875668081316214 0.2678607518654692 0 0.066935962560195753 0.28615893812798288 0 0.079567988853459573 0.27014218499250892 0 0.066935962560195753 0.28615893812798288 0 0.087430381393448858 0.29852998767476718 0 0.066935962560195753 0.28615893812798288 0 0.071244474661197085 0.3036312559279935 0 0.087430381393448858 0.29852998767476718 0 0.055148108477292443 0.3057593846019967 0 0.066935962560195753 0.28615893812798288 0 0.071244474661197085 0.3036312559279935 0 0.06358813508901956 0.32234581427363851 0 0.055148108477292443 0.3057593846019967 0 0.071244474661197085 0.3036312559279935 0 0.081254576285268804 0.3210829637434266 0 0.087430381393448858 0.29852998767476718 0 0.1104734498024164 0.31171603628350752 0 0.081254576285268804 0.3210829637434266 0 0.071244474661197085 0.3036312559279935 0 0.087430381393448858 0.29852998767476718 0 0.079567988853459573 0.27014218499250892 0 0.087430381393448858 0.29852998767476718 0 0.1079828451826004 0.27738565586056829 0 0.087430381393448858 0.29852998767476718 0 0.1104734498024164 0.31171603628350752 0 0.1079828451826004 0.27738565586056829 0 0.1104734498024164 0.31171603628350752 0 0.1079828451826004 0.27738565586056829 0 0.13401849175413849 0.29214957311260448 0 0.1079828451826004 0.27738565586056829 0 0.13401849175413849 0.29214957311260448 0 0.1100607559553454 0.25396994184181759 0 0.1079828451826004 0.27738565586056829 0 0.13366986361514199 0.26692500362740812 0 0.12787711237058769 0.24521089126939841 0 0.1100607559553454 0.25396994184181759 0 0.13366986361514199 0.26692500362740812 0 0.092857250133516089 0.24175825718487831 0 0.1100607559553454 0.25396994184181759 0 0.093798877441032588 0.2579700649065903 0 0.1100607559553454 0.25396994184181759 0 0.093798877441032588 0.2579700649065903 0 0.1079828451826004 0.27738565586056829 0 0.079567988853459573 0.27014218499250892 0 0.093798877441032588 0.2579700649065903 0 0.1079828451826004 0.27738565586056829 0 0.13366986361514199 0.26692500362740812 0 0.1558685034792309 0.28595093384994291 0 0.15959452244756481 0.26367036214955358 0 0.14702044576598061 0.2478904659134552 0 0.13366986361514199 0.26692500362740812 0 0.15959452244756481 0.26367036214955358 0 0.14702044576598061 0.2478904659134552 0 0.12787711237058769 0.24521089126939841 0 0.13366986361514199 0.26692500362740812 0 0.1079828451826004 0.27738565586056829 0 0.13366986361514199 0.26692500362740812 0 0.13401849175413849 0.29214957311260448 0 0.1104734498024164 0.31171603628350752 0 0.13401849175413849 0.29214957311260448 0 0.14183880654046921 0.32250528078568202 0 0.13401849175413849 0.29214957311260448 0 0.16005413832567669 0.30691349036464077 0 0.14183880654046921 0.32250528078568202 0 0.13401849175413849 0.29214957311260448 0 0.16005413832567669 0.30691349036464077 0 0.13401849175413849 0.29214957311260448 0 0.1558685034792309 0.28595093384994291 0 0.16005413832567669 0.30691349036464077 0 0.13366986361514199 0.26692500362740812 0 0.13401849175413849 0.29214957311260448 0 0.1558685034792309 0.28595093384994291 0 0.1558685034792309 0.28595093384994291 0 0.1700220001876428 0.28782965529906401 0 0.16005413832567669 0.30691349036464077 0 0.1558685034792309 0.28595093384994291 0 0.1700220001876428 0.28782965529906401 0 0.17370236977615991 0.27502287964280692 0 0.1700220001876428 0.28782965529906401 0 0.16005413832567669 0.30691349036464077 0 0.1764196225356903 0.29880027385689728 0 0.16005413832567669 0.30691349036464077 0 0.1764196225356903 0.29880027385689728 0 0.18686192329242929 0.31378732528256248 0 0.1764196225356903 0.29880027385689728 0 0.18674031124236579 0.30201460306836742 0 0.19086383386244751 0.2907864273273883 0 0.1764196225356903 0.29880027385689728 0 0.18674031124236579 0.30201460306836742 0 0.18686192329242929 0.31378732528256248 0 0.1700220001876428 0.28782965529906401 0 0.18013512871176271 0.28566990799825959 0 0.17370236977615991 0.27502287964280692 0 0.1700220001876428 0.28782965529906401 0 0.1764196225356903 0.29880027385689728 0 0.18013512871176271 0.28566990799825959 0 0.1764196225356903 0.29880027385689728 0 0.18013512871176271 0.28566990799825959 0 0.19086383386244751 0.2907864273273883 0 0.18013512871176271 0.28566990799825959 0 0.1896678171968729 0.27591030386514148 0 0.19086383386244751 0.2907864273273883 0 0.18251379545819379 0.26835647973838378 0 0.17370236977615991 0.27502287964280692 0 0.1896678171968729 0.27591030386514148 0 0.18013512871176271 0.28566990799825959 0 0.17370236977615991 0.27502287964280692 0 0.1896678171968729 0.27591030386514148 0 0.18251379545819379 0.26835647973838378 0 0.17370236977615991 0.27502287964280692 0 0.17699066645021869 0.2595722272450377 0 0.17370236977615991 0.27502287964280692 0 0.15959452244756481 0.26367036214955358 0 0.17699066645021869 0.2595722272450377 0 0.1558685034792309 0.28595093384994291 0 0.17370236977615991 0.27502287964280692 0 0.15959452244756481 0.26367036214955358 0 0.16774616909827719 0.2460930353984315 0 0.15959452244756481 0.26367036214955358 0 0.17699066645021869 0.2595722272450377 0 0.14702044576598061 0.2478904659134552 0 0.16774616909827719 0.2460930353984315 0 0.15959452244756481 0.26367036214955358 0 0.18692125413578081 0.24552837502103991 0 0.16774616909827719 0.2460930353984315 0 0.17699066645021869 0.2595722272450377 0 0.18692125413578081 0.24552837502103991 0 0.17699066645021869 0.2595722272450377 0 0.19242781921148469 0.26384338938458129 0 0.18251379545819379 0.26835647973838378 0 0.17699066645021869 0.2595722272450377 0 0.19242781921148469 0.26384338938458129 0 0.18692125413578081 0.24552837502103991 0 0.19242781921148469 0.26384338938458129 0 0.20107379594449931 0.25686311186437227 0 0.18692125413578081 0.24552837502103991 0 0.20107379594449931 0.25686311186437227 0 0.19242781921148469 0.26384338938458129 0 0.20107379594449931 0.25686311186437227 0 0.2008998280478862 0.26959186196165702 0 0.19242781921148469 0.26384338938458129 0 0.20107379594449931 0.25686311186437227 0 0.19242781921148469 0.26384338938458129 0 0.1896678171968729 0.27591030386514148 0 0.2008998280478862 0.26959186196165702 0 0.18251379545819379 0.26835647973838378 0 0.19242781921148469 0.26384338938458129 0 0.1896678171968729 0.27591030386514148 0 0.1896678171968729 0.27591030386514148 0 0.2008998280478862 0.26959186196165702 0 0.20354188417430641 0.281093168015905 0 0.2008998280478862 0.26959186196165702 0 0.2177878237122676 0.27024933667828532 0 0.20354188417430641 0.281093168015905 0 0.2177878237122676 0.27024933667828532 0 0.20354188417430641 0.281093168015905 0 0.2166033006779626 0.28924568688104418 0 0.21557305570370441 0.24515722135805329 0 0.20107379594449931 0.25686311186437227 0 0.2177878237122676 0.27024933667828532 0 0.20107379594449931 0.25686311186437227 0 0.2177878237122676 0.27024933667828532 0 0.20107379594449931 0.25686311186437227 0 0.2008998280478862 0.26959186196165702 0 0.2177878237122676 0.27024933667828532 0 0.21557305570370441 0.24515722135805329 0 0.20107379594449931 0.25686311186437227 0 0.21557305570370441 0.24515722135805329 0 0.2177878237122676 0.27024933667828532 0 0.23628031136540401 0.25597328662156199 0 0.2177878237122676 0.27024933667828532 0 0.23628031136540401 0.25597328662156199 0 0.23450185148003599 0.28363556149219821 0 0.2177878237122676 0.27024933667828532 0 0.23450185148003599 0.28363556149219821 0 0.2166033006779626 0.28924568688104418 0 0.2177878237122676 0.27024933667828532 0 0.23450185148003599 0.28363556149219821 0 0.23628031136540401 0.25597328662156199 0 0.23450185148003599 0.28363556149219821 0 0.25102838231212438 0.26850893423506528 0 0.23450185148003599 0.28363556149219821 0 0.25953152444998728 0.28294166139542631 0 0.25102838231212438 0.26850893423506528 0 0.23628031136540401 0.25597328662156199 0 0.25102838231212438 0.26850893423506528 0 0.26221447651104962 0.2479993693513689 0 0.2297645605960125 0.30261029929826411 0 0.25121587924780342 0.29702178630611242 0 0.2484846271056145 0.31037308609574782 0 0.2297645605960125 0.30261029929826411 0 0.23798581837376781 0.31938142953188831 0 0.2484846271056145 0.31037308609574782 0 0.2297645605960125 0.30261029929826411 0 0.25121587924780342 0.29702178630611242 0 0.23450185148003599 0.28363556149219821 0 0.2297645605960125 0.30261029929826411 0 0.25121587924780342 0.29702178630611242 0 0.23450185148003599 0.28363556149219821 0 0.25121587924780342 0.29702178630611242 0 0.23450185148003599 0.28363556149219821 0 0.25953152444998728 0.28294166139542631 0 0.25121587924780342 0.29702178630611242 0 0.23450185148003599 0.28363556149219821 0 0.2297645605960125 0.30261029929826411 0 0.2166033006779626 0.28924568688104418 0 0.2297645605960125 0.30261029929826411 0 0.20831324194422091 0.30819881229041318 0 0.2297645605960125 0.30261029929826411 0 0.20831324194422091 0.30819881229041318 0 0.21977364325038071 0.31928170538083578 0 0.20831324194422091 0.30819881229041318 0 0.2166033006779626 0.28924568688104418 0 0.20288664267638859 0.29424953150154581 0 0.2297645605960125 0.30261029929826411 0 0.20831324194422091 0.30819881229041318 0 0.2166033006779626 0.28924568688104418 0 0.20354188417430641 0.281093168015905 0 0.2166033006779626 0.28924568688104418 0 0.20288664267638859 0.29424953150154581 0 0.20354188417430641 0.281093168015905 0 0.20288664267638859 0.29424953150154581 0 0.19086383386244751 0.2907864273273883 0 0.20288664267638859 0.29424953150154581 0 0.19086383386244751 0.2907864273273883 0 0.19511095272300569 0.3019235629929784 0 0.1896678171968729 0.27591030386514148 0 0.20354188417430641 0.281093168015905 0 0.19086383386244751 0.2907864273273883 0 0.20831324194422091 0.30819881229041318 0 0.18686192329242929 0.31378732528256248 0 0.20831324194422091 0.30819881229041318 0 0.19511095272300569 0.3019235629929784 0 0.18686192329242929 0.31378732528256248 0 0.20831324194422091 0.30819881229041318 0 0.20288664267638859 0.29424953150154581 0 0.19511095272300569 0.3019235629929784 0 0.18674031124236579 0.30201460306836742 0 0.19086383386244751 0.2907864273273883 0 0.19511095272300569 0.3019235629929784 0 0.18674031124236579 0.30201460306836742 0 0.19511095272300569 0.3019235629929784 0 0.18686192329242929 0.31378732528256248 0 0.20141288137377081 0.31920030670374799 0 0.18686192329242929 0.31378732528256248 0 0.18608978489721489 0.32167740761667712 0 0.20831324194422091 0.30819881229041318 0 0.20141288137377081 0.31920030670374799 0 0.18686192329242929 0.31378732528256248 0 0.20141288137377081 0.31920030670374799 0 0.21212543146875301 0.33644132486871342 0 0.18608978489721489 0.32167740761667712 0 0.21212543146875301 0.33644132486871342 0 0.18608978489721489 0.32167740761667712 0 0.19231113454718349 0.34165597013868199 0 0.21212543146875301 0.33644132486871342 0 0.18608978489721489 0.32167740761667712 0 0.20831324194422091 0.30819881229041318 0 0.20141288137377081 0.31920030670374799 0 0.21977364325038071 0.31928170538083578 0 0.20141288137377081 0.31920030670374799 0 0.21212543146875301 0.33644132486871342 0 0.21977364325038071 0.31928170538083578 0 0.21977364325038071 0.31928170538083578 0 0.2290399257457596 0.32985805959198788 0 0.23798581837376781 0.31938142953188831 0 0.2297645605960125 0.30261029929826411 0 0.21977364325038071 0.31928170538083578 0 0.23798581837376781 0.31938142953188831 0 0.21212543146875301 0.33644132486871342 0 0.21977364325038071 0.31928170538083578 0 0.2290399257457596 0.32985805959198788 0 0.21212543146875301 0.33644132486871342 0 0.23060518033342339 0.33807106122714048 0 0.2290399257457596 0.32985805959198788 0 0.21212543146875301 0.33644132486871342 0 0.23060518033342339 0.33807106122714048 0 0.23816107804029091 0.35120524212074949 0 0.23060518033342339 0.33807106122714048 0 0.2290399257457596 0.32985805959198788 0 0.2430942860788903 0.33477961832711151 0 0.23060518033342339 0.33807106122714048 0 0.2430942860788903 0.33477961832711151 0 0.23816107804029091 0.35120524212074949 0 0.2484846271056145 0.31037308609574782 0 0.23798581837376781 0.31938142953188831 0 0.25508783524565293 0.32209220201309929 0 0.2430942860788903 0.33477961832711151 0 0.23798581837376781 0.31938142953188831 0 0.25508783524565293 0.32209220201309929 0 0.2290399257457596 0.32985805959198788 0 0.2430942860788903 0.33477961832711151 0 0.23798581837376781 0.31938142953188831 0 0.23439037865920059 0.35560025357312369 0 0.2386764282036242 0.37725286527910618 0 0.24311907173897271 0.36013203008567057 0 0.23439037865920059 0.35560025357312369 0 0.2386764282036242 0.37725286527910618 0 0.2492643002430574 0.365916522193315 0 0.24311907173897271 0.36013203008567057 0 0.2386764282036242 0.37725286527910618 0 0.2492643002430574 0.365916522193315 0 0.2386764282036242 0.37725286527910618 0 0.25383912625151372 0.37755129754335942 0 0.24311907173897271 0.36013203008567057 0 0.23816107804029091 0.35120524212074949 0 0.2641967246118288 0.36596915937278562 0 0.2430942860788903 0.33477961832711151 0 0.23816107804029091 0.35120524212074949 0 0.26173146881309822 0.35734024057335978 0 0.24311907173897271 0.36013203008567057 0 0.23816107804029091 0.35120524212074949 0 0.23439037865920059 0.35560025357312369 0 0.21212543146875301 0.33644132486871342 0 0.23816107804029091 0.35120524212074949 0 0.21848510057545151 0.35453686872473111 0 0.23816107804029091 0.35120524212074949 0 0.23439037865920059 0.35560025357312369 0 0.21848510057545151 0.35453686872473111 0 0.21212543146875301 0.33644132486871342 0 0.23816107804029091 0.35120524212074949 0 0.23439037865920059 0.35560025357312369 0 0.22513916990612379 0.36868200325308897 0 0.2386764282036242 0.37725286527910618 0 0.23439037865920059 0.35560025357312369 0 0.22513916990612379 0.36868200325308897 0 0.21848510057545151 0.35453686872473111 0 0.22513916990612379 0.36868200325308897 0 0.20931495008602691 0.36890180222237801 0 0.21961872799640589 0.38146559318592133 0 0.22513916990612379 0.36868200325308897 0 0.20931495008602691 0.36890180222237801 0 0.21848510057545151 0.35453686872473111 0 0.20931495008602691 0.36890180222237801 0 0.21848510057545151 0.35453686872473111 0 0.2018014651714847 0.35413555731190122 0 0.21212543146875301 0.33644132486871342 0 0.21848510057545151 0.35453686872473111 0 0.2018014651714847 0.35413555731190122 0 0.19231113454718349 0.34165597013868199 0 0.2018014651714847 0.35413555731190122 0 0.1832131523033072 0.3569188224833833 0 0.19231113454718349 0.34165597013868199 0 0.21212543146875301 0.33644132486871342 0 0.2018014651714847 0.35413555731190122 0 0.20931495008602691 0.36890180222237801 0 0.2018014651714847 0.35413555731190122 0 0.19217836357317111 0.36996972767433872 0 0.20931495008602691 0.36890180222237801 0 0.19217836357317111 0.36996972767433872 0 0.20289108470775991 0.38370682355227331 0 0.2018014651714847 0.35413555731190122 0 0.19217836357317111 0.36996972767433872 0 0.1832131523033072 0.3569188224833833 0 0.19217836357317111 0.36996972767433872 0 0.17197644233242751 0.37002706837148541 0 0.1832131523033072 0.3569188224833833 0 0.17197644233242751 0.37002706837148541 0 0.16866852787741549 0.35230522619665788 0 0.1832131523033072 0.3569188224833833 0 0.17197644233242751 0.37002706837148541 0 0.16866852787741549 0.35230522619665788 0 0.15186920095361911 0.35620033980905319 0 0.17197644233242751 0.37002706837148541 0 0.15186920095361911 0.35620033980905319 0 0.15185568245476189 0.37707061606136422 0 0.16866852787741549 0.35230522619665788 0 0.1579580049025659 0.33927316190663209 0 0.15186920095361911 0.35620033980905319 0 0.16866852787741549 0.35230522619665788 0 0.1832131523033072 0.3569188224833833 0 0.17832583889515771 0.33910673841273542 0 0.19231113454718349 0.34165597013868199 0 0.1832131523033072 0.3569188224833833 0 0.17832583889515771 0.33910673841273542 0 0.17832583889515771 0.33910673841273542 0 0.18608978489721489 0.32167740761667712 0 0.16647560889869609 0.32578562508456149 0 0.19231113454718349 0.34165597013868199 0 0.17832583889515771 0.33910673841273542 0 0.18608978489721489 0.32167740761667712 0 0.16005413832567669 0.30691349036464077 0 0.18608978489721489 0.32167740761667712 0 0.16005413832567669 0.30691349036464077 0 0.18686192329242929 0.31378732528256248 0 0.18608978489721489 0.32167740761667712 0 0.16005413832567669 0.30691349036464077 0 0.18608978489721489 0.32167740761667712 0 0.16647560889869609 0.32578562508456149 0 0.17832583889515771 0.33910673841273542 0 0.16647560889869609 0.32578562508456149 0 0.1579580049025659 0.33927316190663209 0 0.16866852787741549 0.35230522619665788 0 0.17832583889515771 0.33910673841273542 0 0.1579580049025659 0.33927316190663209 0 0.16647560889869609 0.32578562508456149 0 0.1579580049025659 0.33927316190663209 0 0.14183880654046921 0.32250528078568202 0 0.1579580049025659 0.33927316190663209 0 0.14183880654046921 0.32250528078568202 0 0.14054269679001921 0.34363296691054102 0 0.16005413832567669 0.30691349036464077 0 0.16647560889869609 0.32578562508456149 0 0.14183880654046921 0.32250528078568202 0 0.1202868522871179 0.34060046584014031 0 0.14183880654046921 0.32250528078568202 0 0.14054269679001921 0.34363296691054102 0 0.1202868522871179 0.34060046584014031 0 0.14054269679001921 0.34363296691054102 0 0.13274728415341139 0.36410634055334368 0 0.13274728415341139 0.36410634055334368 0 0.15186920095361911 0.35620033980905319 0 0.15185568245476189 0.37707061606136422 0 0.14054269679001921 0.34363296691054102 0 0.13274728415341139 0.36410634055334368 0 0.15186920095361911 0.35620033980905319 0 0.1579580049025659 0.33927316190663209 0 0.14054269679001921 0.34363296691054102 0 0.15186920095361911 0.35620033980905319 0 0.15352992747694119 0.40026604784697911 0 0.13692284990477191 0.38930777957628943 0 0.1397509022148696 0.40843688002483958 0 0.15352992747694119 0.40026604784697911 0 0.15185568245476189 0.37707061606136422 0 0.13692284990477191 0.38930777957628943 0 0.13274728415341139 0.36410634055334368 0 0.15185568245476189 0.37707061606136422 0 0.13692284990477191 0.38930777957628943 0 0.119448870245615 0.38256434187866972 0 0.13274728415341139 0.36410634055334368 0 0.13692284990477191 0.38930777957628943 0 0.115428724103706 0.40267530492779557 0 0.13692284990477191 0.38930777957628943 0 0.1397509022148696 0.40843688002483958 0 0.12259086230274099 0.42947812748907283 0 0.1397509022148696 0.40843688002483958 0 0.14363603346764281 0.42707530835579988 0 0.12259086230274099 0.42947812748907283 0 0.115428724103706 0.40267530492779557 0 0.1397509022148696 0.40843688002483958 0 0.12259086230274099 0.42947812748907283 0 0.14363603346764281 0.42707530835579988 0 0.13510526379757609 0.44116740875256688 0 0.14363603346764281 0.42707530835579988 0 0.16526304614212209 0.42908608809292892 0 0.1507341445198021 0.44370602134863157 0 0.14363603346764281 0.42707530835579988 0 0.15527295380072001 0.4153931176925994 0 0.16526304614212209 0.42908608809292892 0 0.14363603346764281 0.42707530835579988 0 0.1507341445198021 0.44370602134863157 0 0.13510526379757609 0.44116740875256688 0 0.1397509022148696 0.40843688002483958 0 0.14363603346764281 0.42707530835579988 0 0.15527295380072001 0.4153931176925994 0 0.15352992747694119 0.40026604784697911 0 0.1397509022148696 0.40843688002483958 0 0.15527295380072001 0.4153931176925994 0 0.15527295380072001 0.4153931176925994 0 0.1711416470664554 0.41062619466687539 0 0.16526304614212209 0.42908608809292892 0 0.15352992747694119 0.40026604784697911 0 0.15527295380072001 0.4153931176925994 0 0.1711416470664554 0.41062619466687539 0 0.16526304614212209 0.42908608809292892 0 0.1809560021812836 0.43814832633623357 0 0.16598328874466911 0.44273574664910909 0 0.16526304614212209 0.42908608809292892 0 0.18469425222239219 0.42125941149134333 0 0.1809560021812836 0.43814832633623357 0 0.1711416470664554 0.41062619466687539 0 0.16526304614212209 0.42908608809292892 0 0.18469425222239219 0.42125941149134333 0 0.1711416470664554 0.41062619466687539 0 0.18469425222239219 0.42125941149134333 0 0.1843100454414533 0.40126956181167389 0 0.1711416470664554 0.41062619466687539 0 0.1843100454414533 0.40126956181167389 0 0.16952276405911931 0.3912061138884545 0 0.1843100454414533 0.40126956181167389 0 0.16952276405911931 0.3912061138884545 0 0.18589276442329861 0.38606835492789338 0 0.15352992747694119 0.40026604784697911 0 0.1711416470664554 0.41062619466687539 0 0.16952276405911931 0.3912061138884545 0 0.15352992747694119 0.40026604784697911 0 0.15185568245476189 0.37707061606136422 0 0.16952276405911931 0.3912061138884545 0 0.17197644233242751 0.37002706837148541 0 0.15185568245476189 0.37707061606136422 0 0.16952276405911931 0.3912061138884545 0 0.17197644233242751 0.37002706837148541 0 0.16952276405911931 0.3912061138884545 0 0.18589276442329861 0.38606835492789338 0 0.19217836357317111 0.36996972767433872 0 0.17197644233242751 0.37002706837148541 0 0.18589276442329861 0.38606835492789338 0 0.18589276442329861 0.38606835492789338 0 0.20289108470775991 0.38370682355227331 0 0.19700705340585539 0.39579078134538831 0 0.19217836357317111 0.36996972767433872 0 0.18589276442329861 0.38606835492789338 0 0.20289108470775991 0.38370682355227331 0 0.19700705340585539 0.39579078134538831 0 0.21316338490038089 0.39704202397260657 0 0.19877798755638451 0.41086714246249401 0 0.1843100454414533 0.40126956181167389 0 0.19700705340585539 0.39579078134538831 0 0.19877798755638451 0.41086714246249401 0 0.1843100454414533 0.40126956181167389 0 0.18589276442329861 0.38606835492789338 0 0.19700705340585539 0.39579078134538831 0 0.20289108470775991 0.38370682355227331 0 0.19700705340585539 0.39579078134538831 0 0.21316338490038089 0.39704202397260657 0 0.20931495008602691 0.36890180222237801 0 0.20289108470775991 0.38370682355227331 0 0.21961872799640589 0.38146559318592133 0 0.20289108470775991 0.38370682355227331 0 0.21316338490038089 0.39704202397260657 0 0.21961872799640589 0.38146559318592133 0 0.22513916990612379 0.36868200325308897 0 0.21961872799640589 0.38146559318592133 0 0.2386764282036242 0.37725286527910618 0 0.21961872799640589 0.38146559318592133 0 0.22852735017452019 0.39320804083607441 0 0.2386764282036242 0.37725286527910618 0 0.21316338490038089 0.39704202397260657 0 0.21961872799640589 0.38146559318592133 0 0.22852735017452019 0.39320804083607441 0 0.21316338490038089 0.39704202397260657 0 0.22852735017452019 0.39320804083607441 0 0.22983145469658259 0.40925978250573319 0 0.21316338490038089 0.39704202397260657 0 0.22983145469658259 0.40925978250573319 0 0.22852735017452019 0.39320804083607441 0 0.2429624777480478 0.39890547698508871 0 0.22983145469658259 0.40925978250573319 0 0.2429624777480478 0.39890547698508871 0 0.2386764282036242 0.37725286527910618 0 0.22852735017452019 0.39320804083607441 0 0.2429624777480478 0.39890547698508871 0 0.2386764282036242 0.37725286527910618 0 0.2429624777480478 0.39890547698508871 0 0.2386764282036242 0.37725286527910618 0 0.25341304662754638 0.38974012394171498 0 0.2386764282036242 0.37725286527910618 0 0.25383912625151372 0.37755129754335942 0 0.25341304662754638 0.38974012394171498 0 0.24649952449278431 0.42147754103885982 0 0.22996656543308741 0.44177288309861867 0 0.24946733303660301 0.43176723098649622 0 0.24649952449278431 0.42147754103885982 0 0.22996656543308741 0.44177288309861867 0 0.24649952449278431 0.42147754103885982 0 0.22738899126970491 0.42458926785457718 0 0.22996656543308741 0.44177288309861867 0 0.24946733303660301 0.43176723098649622 0 0.24649952449278431 0.42147754103885982 0 0.2429624777480478 0.39890547698508871 0 0.24649952449278431 0.42147754103885982 0 0.24649952449278431 0.42147754103885982 0 0.22983145469658259 0.40925978250573319 0 0.22738899126970491 0.42458926785457718 0 0.24649952449278431 0.42147754103885982 0 0.22983145469658259 0.40925978250573319 0 0.2429624777480478 0.39890547698508871 0 0.24649952449278431 0.42147754103885982 0 0.22983145469658259 0.40925978250573319 0 0.21316338490038089 0.39704202397260657 0 0.22983145469658259 0.40925978250573319 0 0.21370806227123909 0.41789950377956148 0 0.22983145469658259 0.40925978250573319 0 0.22738899126970491 0.42458926785457718 0 0.21370806227123909 0.41789950377956148 0 0.22738899126970491 0.42458926785457718 0 0.21739304288862979 0.43200563017257382 0 0.22996656543308741 0.44177288309861867 0 0.22738899126970491 0.42458926785457718 0 0.21739304288862979 0.43200563017257382 0 0.21370806227123909 0.41789950377956148 0 0.21739304288862979 0.43200563017257382 0 0.1999317510848099 0.43097584272053618 0 0.2111195299095035 0.44359306409302351 0 0.21739304288862979 0.43200563017257382 0 0.21370806227123909 0.41789950377956148 0 0.1999317510848099 0.43097584272053618 0 0.21370806227123909 0.41789950377956148 0 0.19877798755638451 0.41086714246249401 0 0.1999317510848099 0.43097584272053618 0 0.21316338490038089 0.39704202397260657 0 0.21370806227123909 0.41789950377956148 0 0.19877798755638451 0.41086714246249401 0 0.18469425222239219 0.42125941149134333 0 0.19877798755638451 0.41086714246249401 0 0.1999317510848099 0.43097584272053618 0 0.18469425222239219 0.42125941149134333 0 0.1843100454414533 0.40126956181167389 0 0.19877798755638451 0.41086714246249401 0 0.18469425222239219 0.42125941149134333 0 0.1999317510848099 0.43097584272053618 0 0.1809560021812836 0.43814832633623357 0 0.1999317510848099 0.43097584272053618 0 0.19479511809318301 0.4526549487178691 0 0.2111195299095035 0.44359306409302351 0 0.1999317510848099 0.43097584272053618 0 0.19479511809318301 0.4526549487178691 0 0.1809560021812836 0.43814832633623357 0 0.19479511809318301 0.4526549487178691 0 0.213169792932182 0.46047172596691099 0 0.19211155850092579 0.47790980627879082 0 0.19479511809318301 0.4526549487178691 0 0.19211155850092579 0.47790980627879082 0 0.18348770279874721 0.46143911161818069 0 0.213169792932182 0.46047172596691099 0 0.2111195299095035 0.44359306409302351 0 0.22996656543308741 0.44177288309861867 0 0.19479511809318301 0.4526549487178691 0 0.213169792932182 0.46047172596691099 0 0.2111195299095035 0.44359306409302351 0 0.21739304288862979 0.43200563017257382 0 0.2111195299095035 0.44359306409302351 0 0.22996656543308741 0.44177288309861867 0 0.22996656543308741 0.44177288309861867 0 0.22854105436186559 0.46372788353366717 0 0.24141841662185301 0.45603819576859073 0 0.213169792932182 0.46047172596691099 0 0.22854105436186559 0.46372788353366717 0 0.221321310837439 0.47674074212904899 0 0.213169792932182 0.46047172596691099 0 0.22996656543308741 0.44177288309861867 0 0.22854105436186559 0.46372788353366717 0 0.24141841662185301 0.45603819576859073 0 0.23645949407781469 0.47608243786178739 0 0.25047151807745072 0.47036873115219768 0 0.22854105436186559 0.46372788353366717 0 0.24141841662185301 0.45603819576859073 0 0.23645949407781469 0.47608243786178739 0 0.24141841662185301 0.45603819576859073 0 0.25047151807745072 0.47036873115219768 0 0.25477099823403621 0.45804476415031298 0 0.24141841662185301 0.45603819576859073 0 0.25282491994113748 0.44831200937164878 0 0.25477099823403621 0.45804476415031298 0 0.22996656543308741 0.44177288309861867 0 0.24141841662185301 0.45603819576859073 0 0.24583280085865111 0.44361242472787987 0 0.24946733303660301 0.43176723098649622 0 0.22996656543308741 0.44177288309861867 0 0.24583280085865111 0.44361242472787987 0 0.24141841662185301 0.45603819576859073 0 0.24583280085865111 0.44361242472787987 0 0.25282491994113748 0.44831200937164878 0 0.24904418528453851 0.48634810883828161 0 0.23645949407781469 0.47608243786178739 0 0.23352830384551029 0.49999999999999978 0 0.24904418528453851 0.48634810883828161 0 0.23352830384551029 0.49999999999999978 0 0.25181722630913472 0.5 0 0.24904418528453851 0.48634810883828161 0 0.23645949407781469 0.47608243786178739 0 0.25047151807745072 0.47036873115219768 0 0.23645949407781469 0.47608243786178739 0 0.221321310837439 0.47674074212904899 0 0.23352830384551029 0.49999999999999978 0 0.22854105436186559 0.46372788353366717 0 0.23645949407781469 0.47608243786178739 0 0.221321310837439 0.47674074212904899 0 0.23352830384551029 0.49999999999999978 0 0.2128199311732181 0.48895490313939532 0 0.21702906166474581 0.5 0 0.23352830384551029 0.49999999999999978 0 0.2128199311732181 0.48895490313939532 0 0.221321310837439 0.47674074212904899 0 0.23352830384551029 0.49999999999999978 0 0.2128199311732181 0.48895490313939532 0 0.2128199311732181 0.48895490313939532 0 0.21702906166474581 0.5 0 0.20052981948398141 0.49999999999999989 0 0.213169792932182 0.46047172596691099 0 0.221321310837439 0.47674074212904899 0 0.19211155850092579 0.47790980627879082 0 0.221321310837439 0.47674074212904899 0 0.2128199311732181 0.48895490313939532 0 0.19211155850092579 0.47790980627879082 0 0.2128199311732181 0.48895490313939532 0 0.19211155850092579 0.47790980627879082 0 0.2128199311732181 0.48895490313939532 0 0.20052981948398141 0.49999999999999989 0 0.19295831529489699 0.4905304616351287 0 0.2128199311732181 0.48895490313939532 0 0.19211155850092579 0.47790980627879082 0 0.19295831529489699 0.4905304616351287 0 0.20052981948398141 0.49999999999999989 0 0.1839227339461352 0.49861489743603538 0 0.20052981948398141 0.49999999999999989 0 0.19295831529489699 0.4905304616351287 0 0.1839227339461352 0.49861489743603538 0 0.19211155850092579 0.47790980627879082 0 0.19295831529489699 0.4905304616351287 0 0.1809625144841838 0.48570342190566712 0 0.1839227339461352 0.49861489743603538 0 0.1809625144841838 0.48570342190566712 0 0.16731564840828889 0.49722979487207219 0 0.1839227339461352 0.49861489743603538 0 0.16731564840828889 0.49722979487207219 0 0.1839227339461352 0.49861489743603538 0 0.1669427425872391 0.49999999999999922 0 0.16731564840828889 0.49722979487207219 0 0.19295831529489699 0.4905304616351287 0 0.1839227339461352 0.49861489743603538 0 0.1809625144841838 0.48570342190566712 0 0.1809625144841838 0.48570342190566712 0 0.16731564840828889 0.49722979487207219 0 0.16935941711846161 0.48204725214512889 0 0.16731564840828889 0.49722979487207219 0 0.157708884996551 0.48584061526662409 0 0.14611751268168829 0.49546177892012921 0 0.16731564840828889 0.49722979487207219 0 0.14611751268168829 0.49546177892012921 0 0.1669427425872391 0.49999999999999922 0 0.16731564840828889 0.49722979487207219 0 0.14611751268168829 0.49546177892012921 0 0.1669427425872391 0.49999999999999922 0 0.16731564840828889 0.49722979487207219 0 0.16731564840828889 0.49722979487207219 0 0.16935941711846161 0.48204725214512889 0 0.16731564840828889 0.49722979487207219 0 0.157708884996551 0.48584061526662409 0 0.16935941711846161 0.48204725214512889 0 0.16382575626869561 0.4735735187060508 0 0.15802571703479451 0.46684670821381258 0 0.1531189490294651 0.47544631339495541 0 0.157708884996551 0.48584061526662409 0 0.16382575626869561 0.4735735187060508 0 0.1531189490294651 0.47544631339495541 0 0.157708884996551 0.48584061526662409 0 0.16382575626869561 0.4735735187060508 0 0.16935941711846161 0.48204725214512889 0 0.16935941711846161 0.48204725214512889 0 0.17140318582863401 0.46686470941818559 0 0.16382575626869561 0.4735735187060508 0 0.16935941711846161 0.48204725214512889 0 0.17140318582863401 0.46686470941818559 0 0.1809625144841838 0.48570342190566712 0 0.16935941711846161 0.48204725214512889 0 0.17140318582863401 0.46686470941818559 0 0.19211155850092579 0.47790980627879082 0 0.1809625144841838 0.48570342190566712 0 0.17140318582863401 0.46686470941818559 0 0.19211155850092579 0.47790980627879082 0 0.17140318582863401 0.46686470941818559 0 0.19479511809318301 0.4526549487178691 0 0.18348770279874721 0.46143911161818069 0 0.17341546959919829 0.45191605883299152 0 0.19211155850092579 0.47790980627879082 0 0.18348770279874721 0.46143911161818069 0 0.17140318582863401 0.46686470941818559 0 0.18348770279874721 0.46143911161818069 0 0.17341546959919829 0.45191605883299152 0 0.17140318582863401 0.46686470941818559 0 0.17341546959919829 0.45191605883299152 0 0.17140318582863401 0.46686470941818559 0 0.19479511809318301 0.4526549487178691 0 0.1809560021812836 0.43814832633623357 0 0.17341546959919829 0.45191605883299152 0 0.1809560021812836 0.43814832633623357 0 0.17341546959919829 0.45191605883299152 0 0.16598328874466911 0.44273574664910909 0 0.17341546959919829 0.45191605883299152 0 0.16598328874466911 0.44273574664910909 0 0.15954778128093949 0.4508222386347599 0 0.16598328874466911 0.44273574664910909 0 0.15954778128093949 0.4508222386347599 0 0.1507341445198021 0.44370602134863157 0 0.16526304614212209 0.42908608809292892 0 0.16598328874466911 0.44273574664910909 0 0.1507341445198021 0.44370602134863157 0 0.16382575626869561 0.4735735187060508 0 0.1651762257979181 0.46354347419730452 0 0.17140318582863401 0.46686470941818559 0 0.1651762257979181 0.46354347419730452 0 0.17140318582863401 0.46686470941818559 0 0.17341546959919829 0.45191605883299152 0 0.1651762257979181 0.46354347419730452 0 0.17140318582863401 0.46686470941818559 0 0.17341546959919829 0.45191605883299152 0 0.15954778128093949 0.4508222386347599 0 0.1651762257979181 0.46354347419730452 0 0.15954778128093949 0.4508222386347599 0 0.1651762257979181 0.46354347419730452 0 0.1582471669695637 0.45974252444074731 0 0.16382575626869561 0.4735735187060508 0 0.1651762257979181 0.46354347419730452 0 0.15802571703479451 0.46684670821381258 0 0.1651762257979181 0.46354347419730452 0 0.1582471669695637 0.45974252444074731 0 0.15802571703479451 0.46684670821381258 0 0.14976048710833001 0.46192771033000529 0 0.1507341445198021 0.44370602134863157 0 0.136404492151351 0.45486193181106682 0 0.1582471669695637 0.45974252444074731 0 0.15802571703479451 0.46684670821381258 0 0.14976048710833001 0.46192771033000529 0 0.15802571703479451 0.46684670821381258 0 0.14976048710833001 0.46192771033000529 0 0.1531189490294651 0.47544631339495541 0 0.15954778128093949 0.4508222386347599 0 0.1582471669695637 0.45974252444074731 0 0.14976048710833001 0.46192771033000529 0 0.14976048710833001 0.46192771033000529 0 0.136404492151351 0.45486193181106682 0 0.13663143795624749 0.46910754811773492 0 0.15954778128093949 0.4508222386347599 0 0.14976048710833001 0.46192771033000529 0 0.1507341445198021 0.44370602134863157 0 0.1507341445198021 0.44370602134863157 0 0.13510526379757609 0.44116740875256688 0 0.136404492151351 0.45486193181106682 0 0.1221607865463437 0.4507156547582637 0 0.12259086230274099 0.42947812748907283 0 0.13510526379757609 0.44116740875256688 0 0.1221607865463437 0.4507156547582637 0 0.13510526379757609 0.44116740875256688 0 0.136404492151351 0.45486193181106682 0 0.136404492151351 0.45486193181106682 0 0.1267882431275838 0.46370707134437261 0 0.13663143795624749 0.46910754811773492 0 0.1221607865463437 0.4507156547582637 0 0.136404492151351 0.45486193181106682 0 0.1267882431275838 0.46370707134437261 0 0.1267882431275838 0.46370707134437261 0 0.12569724768963239 0.47617993877849962 0 0.13663143795624749 0.46910754811773492 0 0.12569724768963239 0.47617993877849962 0 0.13663143795624749 0.46910754811773492 0 0.1364132019148096 0.48384982340983701 0 0.13663143795624749 0.46910754811773492 0 0.1364132019148096 0.48384982340983701 0 0.14361111091913481 0.47574478002545789 0 0.1249193769550877 0.49369376296818718 0 0.1364132019148096 0.48384982340983701 0 0.14611751268168829 0.49546177892012921 0 0.1249193769550877 0.49369376296818718 0 0.14611751268168829 0.49546177892012921 0 0.1249193769550877 0.49369376296818718 0 0.12569724768963239 0.47617993877849962 0 0.1364132019148096 0.48384982340983701 0 0.1249193769550877 0.49369376296818718 0 0.13738437864054501 0.5 0 0.14611751268168829 0.49546177892012921 0 0.1364132019148096 0.48384982340983701 0 0.14611751268168829 0.49546177892012921 0 0.14718343377546941 0.48347361591025501 0 0.1669427425872391 0.49999999999999922 0 0.13738437864054501 0.5 0 0.14611751268168829 0.49546177892012921 0 0.157708884996551 0.48584061526662409 0 0.14611751268168829 0.49546177892012921 0 0.14718343377546941 0.48347361591025501 0 0.157708884996551 0.48584061526662409 0 0.1531189490294651 0.47544631339495541 0 0.14718343377546941 0.48347361591025501 0 0.14976048710833001 0.46192771033000529 0 0.1531189490294651 0.47544631339495541 0 0.14361111091913481 0.47574478002545789 0 0.14976048710833001 0.46192771033000529 0 0.13663143795624749 0.46910754811773492 0 0.14361111091913481 0.47574478002545789 0 0.1364132019148096 0.48384982340983701 0 0.14361111091913481 0.47574478002545789 0 0.14718343377546941 0.48347361591025501 0 0.1531189490294651 0.47544631339495541 0 0.14361111091913481 0.47574478002545789 0 0.14718343377546941 0.48347361591025501 0 0.35832214194920592 0.47929915408112939 0 0.34611268429232461 0.46591887339206078 0 0.3375369348076922 0.4829399206954248 0 0.35832214194920592 0.47929915408112939 0 0.35850557312216419 0.5 0 0.3375369348076922 0.4829399206954248 0 0.35850557312216419 0.5 0 0.37801407526051067 0.48065415083330842 0 0.38797204790529932 0.5 0 0.35832214194920592 0.47929915408112939 0 0.35850557312216419 0.5 0 0.37801407526051067 0.48065415083330842 0 0.35832214194920592 0.47929915408112939 0 0.36980735363827261 0.46050290225189661 0 0.37801407526051067 0.48065415083330842 0 0.36980735363827261 0.46050290225189661 0 0.34502769605759259 0.44546544446971242 0 0.36959298495063608 0.43610817863788948 0 0.35832214194920592 0.47929915408112939 0 0.36980735363827261 0.46050290225189661 0 0.34611268429232461 0.46591887339206078 0 0.36980735363827261 0.46050290225189661 0 0.34502769605759259 0.44546544446971242 0 0.34611268429232461 0.46591887339206078 0 0.36980735363827261 0.46050290225189661 0 0.34611268429232461 0.46591887339206078 0 0.34611268429232461 0.46591887339206078 0 0.3317687487832644 0.45597005559148451 0 0.32241801494637662 0.47133484453222518 0 0.34502769605759259 0.44546544446971242 0 0.34611268429232461 0.46591887339206078 0 0.3317687487832644 0.45597005559148451 0 0.34611268429232461 0.46591887339206078 0 0.32241801494637662 0.47133484453222518 0 0.34502769605759259 0.44546544446971242 0 0.3317687487832644 0.45597005559148451 0 0.32480939915707069 0.44218818576869201 0 0.34502769605759259 0.44546544446971242 0 0.32480939915707069 0.44218818576869201 0 0.33523501366627878 0.43221560569608392 0 0.3107318966111981 0.4514989769174147 0 0.3227404476219688 0.42624713816244092 0 0.3317687487832644 0.45597005559148451 0 0.32480939915707069 0.44218818576869201 0 0.3107318966111981 0.4514989769174147 0 0.32480939915707069 0.44218818576869201 0 0.3107318966111981 0.4514989769174147 0 0.3227404476219688 0.42624713816244092 0 0.3317687487832644 0.45597005559148451 0 0.32241801494637662 0.47133484453222518 0 0.3107318966111981 0.4514989769174147 0 0.32241801494637662 0.47133484453222518 0 0.3375369348076922 0.4829399206954248 0 0.31372501333874958 0.48784291822244708 0 0.34611268429232461 0.46591887339206078 0 0.32241801494637662 0.47133484453222518 0 0.3375369348076922 0.4829399206954248 0 0.35850557312216419 0.5 0 0.3375369348076922 0.4829399206954248 0 0.32903909833902928 0.5 0 0.32903909833902928 0.5 0 0.31372501333874958 0.48784291822244708 0 0.29957262355589431 0.5 0 0.3375369348076922 0.4829399206954248 0 0.32903909833902928 0.5 0 0.31372501333874958 0.48784291822244708 0 0.31372501333874958 0.48784291822244708 0 0.30130976803097798 0.48891801032572652 0 0.29957262355589431 0.5 0 0.31372501333874958 0.48784291822244708 0 0.30130976803097798 0.48891801032572652 0 0.29872334560042851 0.47675081567238892 0 0.30130976803097798 0.48891801032572652 0 0.29957262355589431 0.5 0 0.28978827390519868 0.49553967616935518 0 0.32241801494637662 0.47133484453222518 0 0.29872334560042851 0.47675081567238892 0 0.32241801494637662 0.47133484453222518 0 0.31372501333874958 0.48784291822244708 0 0.29872334560042851 0.47675081567238892 0 0.29872334560042851 0.47675081567238892 0 0.28397488520641462 0.48012192141307769 0 0.28978827390519868 0.49553967616935518 0 0.29872334560042851 0.47675081567238892 0 0.28929399795500932 0.47058792179259418 0 0.29703527816799058 0.46117092995693892 0 0.29872334560042851 0.47675081567238892 0 0.28929399795500932 0.47058792179259418 0 0.28397488520641462 0.48012192141307769 0 0.29872334560042851 0.47675081567238892 0 0.28397488520641462 0.48012192141307769 0 0.28929399795500932 0.47058792179259418 0 0.28397488520641462 0.48012192141307769 0 0.27920072977811172 0.47805830749059319 0 0.28397488520641462 0.48012192141307769 0 0.28978827390519868 0.49553967616935518 0 0.27010614877275918 0.50000000000000067 0 0.29957262355589431 0.5 0 0.28978827390519868 0.49553967616935518 0 0.27010614877275918 0.50000000000000067 0 0.30130976803097798 0.48891801032572652 0 0.29872334560042851 0.47675081567238892 0 0.28978827390519868 0.49553967616935518 0 0.29872334560042851 0.47675081567238892 0 0.28978827390519868 0.49553967616935518 0 0.28397488520641462 0.48012192141307769 0 0.27010614877275918 0.50000000000000067 0 0.27920072977811172 0.47805830749059319 0 0.27010614877275918 0.50000000000000067 0 0.26909437115437917 0.48384867389528768 0 0.26130641782501518 0.49139676135406141 0 0.27010614877275918 0.50000000000000067 0 0.27920072977811172 0.47805830749059319 0 0.26909437115437917 0.48384867389528768 0 0.27010614877275918 0.50000000000000067 0 0.27920072977811172 0.47805830749059319 0 0.27920072977811172 0.47805830749059319 0 0.27306774476234302 0.47644699960251641 0 0.26909437115437917 0.48384867389528768 0 0.27920072977811172 0.47805830749059319 0 0.27306774476234302 0.47644699960251641 0 0.27643472525740193 0.46726539210963169 0 0.26824582816420722 0.47348896141386071 0 0.27306774476234302 0.47644699960251641 0 0.27643472525740193 0.46726539210963169 0 0.26824582816420722 0.47348896141386071 0 0.26909437115437917 0.48384867389528768 0 0.25993240985832161 0.47939275616227872 0 0.26824582816420722 0.47348896141386071 0 0.27306774476234302 0.47644699960251641 0 0.26909437115437917 0.48384867389528768 0 0.24904418528453851 0.48634810883828161 0 0.25993240985832161 0.47939275616227872 0 0.25047151807745072 0.47036873115219768 0 0.26824582816420722 0.47348896141386071 0 0.25993240985832161 0.47939275616227872 0 0.26165523792153211 0.46576309323832682 0 0.25993240985832161 0.47939275616227872 0 0.25047151807745072 0.47036873115219768 0 0.26165523792153211 0.46576309323832682 0 0.27010614877275918 0.50000000000000067 0 0.25181722630913472 0.5 0 0.26130641782501518 0.49139676135406141 0 0.24904418528453851 0.48634810883828161 0 0.25993240985832161 0.47939275616227872 0 0.26130641782501518 0.49139676135406141 0 0.24904418528453851 0.48634810883828161 0 0.25181722630913472 0.5 0 0.26130641782501518 0.49139676135406141 0 0.26909437115437917 0.48384867389528768 0 0.25993240985832161 0.47939275616227872 0 0.26130641782501518 0.49139676135406141 0 0.26490489917960358 0.45079530358348557 0 0.25548676926057468 0.44017180441404491 0 0.26331147225899149 0.43380076267102891 0 0.24946733303660301 0.43176723098649622 0 0.24583280085865111 0.44361242472787987 0 0.25548676926057468 0.44017180441404491 0 0.24583280085865111 0.44361242472787987 0 0.25548676926057468 0.44017180441404491 0 0.25282491994113748 0.44831200937164878 0 0.26490489917960358 0.45079530358348557 0 0.25548676926057468 0.44017180441404491 0 0.25282491994113748 0.44831200937164878 0 0.26490489917960358 0.45079530358348557 0 0.25282491994113748 0.44831200937164878 0 0.25477099823403621 0.45804476415031298 0 0.25047151807745072 0.47036873115219768 0 0.25477099823403621 0.45804476415031298 0 0.26165523792153211 0.46576309323832682 0 0.26490489917960358 0.45079530358348557 0 0.25477099823403621 0.45804476415031298 0 0.26165523792153211 0.46576309323832682 0 0.26490489917960358 0.45079530358348557 0 0.27160577401557351 0.46248804296782559 0 0.27679169795675967 0.45600994403837303 0 0.26490489917960358 0.45079530358348557 0 0.26165523792153211 0.46576309323832682 0 0.27160577401557351 0.46248804296782559 0 0.26824582816420722 0.47348896141386071 0 0.27160577401557351 0.46248804296782559 0 0.27643472525740193 0.46726539210963169 0 0.26824582816420722 0.47348896141386071 0 0.26165523792153211 0.46576309323832682 0 0.27160577401557351 0.46248804296782559 0 0.27160577401557351 0.46248804296782559 0 0.27643472525740193 0.46726539210963169 0 0.27679169795675967 0.45600994403837303 0 0.27643472525740193 0.46726539210963169 0 0.27679169795675967 0.45600994403837303 0 0.28829531078346382 0.45611661498118572 0 0.27903440424894049 0.4453257315987294 0 0.26331147225899149 0.43380076267102891 0 0.26490489917960358 0.45079530358348557 0 0.27903440424894049 0.4453257315987294 0 0.26331147225899149 0.43380076267102891 0 0.26490489917960358 0.45079530358348557 0 0.27679169795675967 0.45600994403837303 0 0.27903440424894049 0.4453257315987294 0 0.27903440424894049 0.4453257315987294 0 0.2917470315179379 0.44281751567604499 0 0.28179675760275558 0.42932557237874241 0 0.27679169795675967 0.45600994403837303 0 0.27903440424894049 0.4453257315987294 0 0.28829531078346382 0.45611661498118572 0 0.27903440424894049 0.4453257315987294 0 0.2917470315179379 0.44281751567604499 0 0.28829531078346382 0.45611661498118572 0 0.2917470315179379 0.44281751567604499 0 0.28829531078346382 0.45611661498118572 0 0.29813183988985342 0.45090032042111128 0 0.27920072977811172 0.47805830749059319 0 0.27643472525740193 0.46726539210963169 0 0.28829531078346382 0.45611661498118572 0 0.28929399795500932 0.47058792179259418 0 0.27920072977811172 0.47805830749059319 0 0.28829531078346382 0.45611661498118572 0 0.27920072977811172 0.47805830749059319 0 0.28829531078346382 0.45611661498118572 0 0.28829531078346382 0.45611661498118572 0 0.29703527816799058 0.46117092995693892 0 0.29813183988985342 0.45090032042111128 0 0.28929399795500932 0.47058792179259418 0 0.28829531078346382 0.45611661498118572 0 0.29703527816799058 0.46117092995693892 0 0.29872334560042851 0.47675081567238892 0 0.29703527816799058 0.46117092995693892 0 0.3107318966111981 0.4514989769174147 0 0.29872334560042851 0.47675081567238892 0 0.3107318966111981 0.4514989769174147 0 0.32241801494637662 0.47133484453222518 0 0.29872334560042851 0.47675081567238892 0 0.3107318966111981 0.4514989769174147 0 0.29703527816799058 0.46117092995693892 0 0.29813183988985342 0.45090032042111128 0 0.3107318966111981 0.4514989769174147 0 0.30159082278473881 0.44219288247638061 0 0.3107318966111981 0.4514989769174147 0 0.30884109342504262 0.43428586920116352 0 0.2917470315179379 0.44281751567604499 0 0.30159082278473881 0.44219288247638061 0 0.29850225247966211 0.43146173016616862 0 0.2917470315179379 0.44281751567604499 0 0.30159082278473881 0.44219288247638061 0 0.29813183988985342 0.45090032042111128 0 0.30159082278473881 0.44219288247638061 0 0.29813183988985342 0.45090032042111128 0 0.3107318966111981 0.4514989769174147 0 0.30884109342504262 0.43428586920116352 0 0.29850225247966211 0.43146173016616862 0 0.30862162828234507 0.42004495563460759 0 0.29850225247966211 0.43146173016616862 0 0.30862162828234507 0.42004495563460759 0 0.29547148538100448 0.41817397575591742 0 0.30159082278473881 0.44219288247638061 0 0.30884109342504262 0.43428586920116352 0 0.29850225247966211 0.43146173016616862 0 0.30862162828234507 0.42004495563460759 0 0.30304430461131138 0.40735012112542651 0 0.3196782615082488 0.40265332564926309 0 0.30862162828234507 0.42004495563460759 0 0.30304430461131138 0.40735012112542651 0 0.29547148538100448 0.41817397575591742 0 0.30304430461131138 0.40735012112542651 0 0.29062365375375682 0.40708788978866228 0 0.29547148538100448 0.41817397575591742 0 0.29062365375375682 0.40708788978866228 0 0.29547148538100448 0.41817397575591742 0 0.28288479604298378 0.41446876034122271 0 0.29547148538100448 0.41817397575591742 0 0.28288479604298378 0.41446876034122271 0 0.28179675760275558 0.42932557237874241 0 0.29062365375375682 0.40708788978866228 0 0.28288479604298378 0.41446876034122271 0 0.28001120465417539 0.40182109974822727 0 0.29850225247966211 0.43146173016616862 0 0.29547148538100448 0.41817397575591742 0 0.28179675760275558 0.42932557237874241 0 0.2917470315179379 0.44281751567604499 0 0.29850225247966211 0.43146173016616862 0 0.28179675760275558 0.42932557237874241 0 0.28179675760275558 0.42932557237874241 0 0.27042562322166658 0.41684269204638819 0 0.26331147225899149 0.43380076267102891 0 0.27903440424894049 0.4453257315987294 0 0.28179675760275558 0.42932557237874241 0 0.26331147225899149 0.43380076267102891 0 0.27042562322166658 0.41684269204638819 0 0.26380858941988822 0.4002294757553399 0 0.28001120465417539 0.40182109974822727 0 0.28288479604298378 0.41446876034122271 0 0.28179675760275558 0.42932557237874241 0 0.27042562322166658 0.41684269204638819 0 0.28288479604298378 0.41446876034122271 0 0.27042562322166658 0.41684269204638819 0 0.28001120465417539 0.40182109974822727 0 0.24649952449278431 0.42147754103885982 0 0.25492995388566009 0.41993008507457552 0 0.26380858941988822 0.4002294757553399 0 0.27042562322166658 0.41684269204638819 0 0.25492995388566009 0.41993008507457552 0 0.26380858941988822 0.4002294757553399 0 0.24649952449278431 0.42147754103885982 0 0.26380858941988822 0.4002294757553399 0 0.2429624777480478 0.39890547698508871 0 0.24649952449278431 0.42147754103885982 0 0.26380858941988822 0.4002294757553399 0 0.24946733303660301 0.43176723098649622 0 0.24649952449278431 0.42147754103885982 0 0.26331147225899149 0.43380076267102891 0 0.24649952449278431 0.42147754103885982 0 0.25492995388566009 0.41993008507457552 0 0.26331147225899149 0.43380076267102891 0 0.24649952449278431 0.42147754103885982 0 0.26331147225899149 0.43380076267102891 0 0.27042562322166658 0.41684269204638819 0 0.25492995388566009 0.41993008507457552 0 0.26331147225899149 0.43380076267102891 0 0.24946733303660301 0.43176723098649622 0 0.25548676926057468 0.44017180441404491 0 0.26331147225899149 0.43380076267102891 0 0.26350653962281989 0.38010735630523079 0 0.25341304662754638 0.38974012394171498 0 0.26380858941988822 0.4002294757553399 0 0.26350653962281989 0.38010735630523079 0 0.25383912625151372 0.37755129754335942 0 0.25710864090743918 0.37145542319719338 0 0.26350653962281989 0.38010735630523079 0 0.25383912625151372 0.37755129754335942 0 0.25341304662754638 0.38974012394171498 0 0.2429624777480478 0.39890547698508871 0 0.25341304662754638 0.38974012394171498 0 0.26380858941988822 0.4002294757553399 0 0.26380858941988822 0.4002294757553399 0 0.28001120465417539 0.40182109974822727 0 0.28036865154730628 0.37990086281960789 0 0.26350653962281989 0.38010735630523079 0 0.28036865154730628 0.37990086281960789 0 0.2641967246118288 0.36596915937278562 0 0.26380858941988822 0.4002294757553399 0 0.28036865154730628 0.37990086281960789 0 0.26350653962281989 0.38010735630523079 0 0.26380858941988822 0.4002294757553399 0 0.28036865154730628 0.37990086281960789 0 0.28036865154730628 0.37990086281960789 0 0.29170647807930872 0.39362549197251728 0 0.2987730087010142 0.37934426936791982 0 0.28036865154730628 0.37990086281960789 0 0.29170647807930872 0.39362549197251728 0 0.28001120465417539 0.40182109974822727 0 0.28036865154730628 0.37990086281960789 0 0.29170647807930872 0.39362549197251728 0 0.29062365375375682 0.40708788978866228 0 0.28001120465417539 0.40182109974822727 0 0.29170647807930872 0.39362549197251728 0 0.30304430461131138 0.40735012112542651 0 0.29062365375375682 0.40708788978866228 0 0.29170647807930872 0.39362549197251728 0 0.30304430461131138 0.40735012112542651 0 0.30637452063024528 0.39219955594670219 0 0.3196782615082488 0.40265332564926309 0 0.30304430461131138 0.40735012112542651 0 0.29170647807930872 0.39362549197251728 0 0.30304430461131138 0.40735012112542651 0 0.29170647807930872 0.39362549197251728 0 0.30637452063024528 0.39219955594670219 0 0.30637452063024528 0.39219955594670219 0 0.2987730087010142 0.37934426936791982 0 0.31661607539452802 0.37905951313608538 0 0.29170647807930872 0.39362549197251728 0 0.30637452063024528 0.39219955594670219 0 0.2987730087010142 0.37934426936791982 0 0.31661607539452802 0.37905951313608538 0 0.32905198958534931 0.38831461949406398 0 0.3196782615082488 0.40265332564926309 0 0.31661607539452802 0.37905951313608538 0 0.32905198958534931 0.38831461949406398 0 0.33389487655237682 0.3658352592629312 0 0.32905198958534931 0.38831461949406398 0 0.34270248502322931 0.38427053755298168 0 0.33389487655237682 0.3658352592629312 0 0.32905198958534931 0.38831461949406398 0 0.34270248502322931 0.38427053755298168 0 0.33272146632259869 0.40525883785771122 0 0.34270248502322931 0.38427053755298168 0 0.33272146632259869 0.40525883785771122 0 0.34270248502322931 0.38427053755298168 0 0.33272146632259869 0.40525883785771122 0 0.34670895149724801 0.40816004440777182 0 0.31661607539452802 0.37905951313608538 0 0.3196782615082488 0.40265332564926309 0 0.32905198958534931 0.38831461949406398 0 0.33272146632259869 0.40525883785771122 0 0.3196782615082488 0.40265332564926309 0 0.30637452063024528 0.39219955594670219 0 0.31661607539452802 0.37905951313608538 0 0.3196782615082488 0.40265332564926309 0 0.3196782615082488 0.40265332564926309 0 0.3227404476219688 0.42624713816244092 0 0.30862162828234507 0.42004495563460759 0 0.3196782615082488 0.40265332564926309 0 0.3227404476219688 0.42624713816244092 0 0.33272146632259869 0.40525883785771122 0 0.3196782615082488 0.40265332564926309 0 0.3227404476219688 0.42624713816244092 0 0.33272146632259869 0.40525883785771122 0 0.3227404476219688 0.42624713816244092 0 0.32480939915707069 0.44218818576869201 0 0.3227404476219688 0.42624713816244092 0 0.3107318966111981 0.4514989769174147 0 0.30884109342504262 0.43428586920116352 0 0.3227404476219688 0.42624713816244092 0 0.32480939915707069 0.44218818576869201 0 0.3227404476219688 0.42624713816244092 0 0.33523501366627878 0.43221560569608392 0 0.30884109342504262 0.43428586920116352 0 0.30862162828234507 0.42004495563460759 0 0.3227404476219688 0.42624713816244092 0 0.34502769605759259 0.44546544446971242 0 0.33523501366627878 0.43221560569608392 0 0.34795858503051302 0.425881111768525 0 0.3227404476219688 0.42624713816244092 0 0.33523501366627878 0.43221560569608392 0 0.33659904832278342 0.4201421825902541 0 0.33523501366627878 0.43221560569608392 0 0.33659904832278342 0.4201421825902541 0 0.34795858503051302 0.425881111768525 0 0.33272146632259869 0.40525883785771122 0 0.3227404476219688 0.42624713816244092 0 0.33659904832278342 0.4201421825902541 0 0.33272146632259869 0.40525883785771122 0 0.33659904832278342 0.4201421825902541 0 0.34670895149724801 0.40816004440777182 0 0.33659904832278342 0.4201421825902541 0 0.34670895149724801 0.40816004440777182 0 0.34795858503051302 0.425881111768525 0 0.34670895149724801 0.40816004440777182 0 0.34795858503051302 0.425881111768525 0 0.36336601300371613 0.41450991002864218 0 0.34670895149724801 0.40816004440777182 0 0.36336601300371613 0.41450991002864218 0 0.35690611128064731 0.3988976866485166 0 0.34502769605759259 0.44546544446971242 0 0.34795858503051302 0.425881111768525 0 0.36959298495063608 0.43610817863788948 0 0.34795858503051302 0.425881111768525 0 0.36959298495063608 0.43610817863788948 0 0.36336601300371613 0.41450991002864218 0 0.36959298495063608 0.43610817863788948 0 0.36336601300371613 0.41450991002864218 0 0.38530342098431941 0.41064856824057122 0 0.36336601300371613 0.41450991002864218 0 0.3736470799201031 0.39378130610698531 0 0.38530342098431941 0.41064856824057122 0 0.3736470799201031 0.39378130610698531 0 0.3601059063978746 0.38125551426405008 0 0.35690611128064731 0.3988976866485166 0 0.36336601300371613 0.41450991002864218 0 0.3736470799201031 0.39378130610698531 0 0.35690611128064731 0.3988976866485166 0 0.3736470799201031 0.39378130610698531 0 0.3601059063978746 0.38125551426405008 0 0.37414389550204002 0.36898578533419818 0 0.34270248502322931 0.38427053755298168 0 0.3601059063978746 0.38125551426405008 0 0.35690611128064731 0.3988976866485166 0 0.34270248502322931 0.38427053755298168 0 0.3601059063978746 0.38125551426405008 0 0.35268350372385993 0.36328223724825232 0 0.34270248502322931 0.38427053755298168 0 0.34670895149724801 0.40816004440777182 0 0.35690611128064731 0.3988976866485166 0 0.35268350372385993 0.36328223724825232 0 0.36266452242448938 0.34229393694352239 0 0.35030182712711511 0.35130594720886232 0 0.35268350372385993 0.36328223724825232 0 0.36266452242448938 0.34229393694352239 0 0.35030182712711511 0.35130594720886232 0 0.35146565257524442 0.34420791440797271 0 0.36266452242448938 0.34229393694352239 0 0.35030182712711511 0.35130594720886232 0 0.35146565257524442 0.34420791440797271 0 0.34269927497721508 0.34493512072036142 0 0.35030182712711511 0.35130594720886232 0 0.35268350372385993 0.36328223724825232 0 0.33389487655237682 0.3658352592629312 0 0.34270248502322931 0.38427053755298168 0 0.35268350372385993 0.36328223724825232 0 0.3601059063978746 0.38125551426405008 0 0.35268350372385993 0.36328223724825232 0 0.37414389550204002 0.36898578533419818 0 0.35268350372385993 0.36328223724825232 0 0.37414389550204002 0.36898578533419818 0 0.36300645299402812 0.35604351837507042 0 0.37414389550204002 0.36898578533419818 0 0.37228166628853332 0.35471301169251829 0 0.36300645299402812 0.35604351837507042 0 0.35268350372385993 0.36328223724825232 0 0.36300645299402812 0.35604351837507042 0 0.36266452242448938 0.34229393694352239 0 0.37228166628853332 0.35471301169251829 0 0.36300645299402812 0.35604351837507042 0 0.36840829020790361 0.34668560051738673 0 0.36300645299402812 0.35604351837507042 0 0.36840829020790361 0.34668560051738673 0 0.36266452242448938 0.34229393694352239 0 0.36840829020790361 0.34668560051738673 0 0.36266452242448938 0.34229393694352239 0 0.36587418437400321 0.34278907974668538 0 0.37228166628853332 0.35471301169251829 0 0.36840829020790361 0.34668560051738673 0 0.37486749369974542 0.34694596905823039 0 0.37486749369974542 0.34694596905823039 0 0.37256750073976291 0.34304532959464751 0 0.37670219357667811 0.34177383067972761 0 0.36840829020790361 0.34668560051738673 0 0.37486749369974542 0.34694596905823039 0 0.37256750073976291 0.34304532959464751 0 0.36124897776362869 0.33531944770056321 0 0.36266452242448938 0.34229393694352239 0 0.36411885078159001 0.32644375487552563 0 0.37256750073976291 0.34304532959464751 0 0.36916640720496519 0.34145859007673351 0 0.37369311900952262 0.33836265764115908 0 0.37256750073976291 0.34304532959464751 0 0.37369311900952262 0.33836265764115908 0 0.37670219357667811 0.34177383067972761 0 0.36266452242448938 0.34229393694352239 0 0.37014896644917339 0.316543878568457 0 0.36770298492566261 0.33637877995368609 0 0.36266452242448938 0.34229393694352239 0 0.37368960646642962 0.31911015363466272 0 0.36770298492566261 0.33637877995368609 0 0.36985494237623989 0.33311962493185521 0 0.37368960646642962 0.31911015363466272 0 0.36266452242448938 0.34229393694352239 0 0.37368960646642962 0.31911015363466272 0 0.36266452242448938 0.34229393694352239 0 0.37014896644917339 0.316543878568457 0 0.36411885078159001 0.32644375487552563 0 0.36840829020790361 0.34668560051738673 0 0.36916640720496519 0.34145859007673351 0 0.36587418437400321 0.34278907974668538 0 0.36840829020790361 0.34668560051738673 0 0.37256750073976291 0.34304532959464751 0 0.36916640720496519 0.34145859007673351 0 0.36916640720496519 0.34145859007673351 0 0.36587418437400321 0.34278907974668538 0 0.36708394454210669 0.33994961910346172 0 0.36916640720496519 0.34145859007673351 0 0.37010024416019238 0.33739894816112592 0 0.36708394454210669 0.33994961910346172 0 0.36916640720496519 0.34145859007673351 0 0.37010024416019238 0.33739894816112592 0 0.37369311900952262 0.33836265764115908 0 0.36770298492566261 0.33637877995368609 0 0.37010024416019238 0.33739894816112592 0 0.36708394454210669 0.33994961910346172 0 0.37010024416019238 0.33739894816112592 0 0.37369311900952262 0.33836265764115908 0 0.3722735272100694 0.33425106354392481 0 0.3722735272100694 0.33425106354392481 0 0.37245621682226088 0.32924087979990557 0 0.375263113682131 0.33313320718557798 0 0.37369311900952262 0.33836265764115908 0 0.3722735272100694 0.33425106354392481 0 0.375263113682131 0.33313320718557798 0 0.3722735272100694 0.33425106354392481 0 0.37245621682226088 0.32924087979990557 0 0.36985494237623989 0.33311962493185521 0 0.37245621682226088 0.32924087979990557 0 0.37577016905582622 0.32787937856968757 0 0.375263113682131 0.33313320718557798 0 0.37010024416019238 0.33739894816112592 0 0.3722735272100694 0.33425106354392481 0 0.36985494237623989 0.33311962493185521 0 0.36770298492566261 0.33637877995368609 0 0.37010024416019238 0.33739894816112592 0 0.36985494237623989 0.33311962493185521 0 0.36128237795215928 0.33126347269122047 0 0.36124897776362869 0.33531944770056321 0 0.36411885078159001 0.32644375487552563 0 0.36150631125237548 0.32912422255951068 0 0.36128237795215928 0.33126347269122047 0 0.36411885078159001 0.32644375487552563 0 0.36150631125237548 0.32912422255951068 0 0.35994194411877378 0.32646204206530971 0 0.35835984371964152 0.33045614064968309 0 0.36128237795215928 0.33126347269122047 0 0.35899626180536931 0.33430086833413269 0 0.35835984371964152 0.33045614064968309 0 0.36150631125237548 0.32912422255951068 0 0.36128237795215928 0.33126347269122047 0 0.35835984371964152 0.33045614064968309 0 0.36128237795215928 0.33126347269122047 0 0.36124897776362869 0.33531944770056321 0 0.35899626180536931 0.33430086833413269 0 0.36124897776362869 0.33531944770056321 0 0.36001134864139028 0.33778823672905661 0 0.35899626180536931 0.33430086833413269 0 0.36124897776362869 0.33531944770056321 0 0.36001134864139028 0.33778823672905661 0 0.36266452242448938 0.34229393694352239 0 0.36001134864139028 0.33778823672905661 0 0.36266452242448938 0.34229393694352239 0 0.3582225103283424 0.33883319475427592 0 0.36266452242448938 0.34229393694352239 0 0.36587418437400321 0.34278907974668538 0 0.36708394454210669 0.33994961910346172 0 0.36770298492566261 0.33637877995368609 0 0.36266452242448938 0.34229393694352239 0 0.36708394454210669 0.33994961910346172 0 0.36266452242448938 0.34229393694352239 0 0.37368960646642962 0.31911015363466272 0 0.37014896644917339 0.316543878568457 0 0.37014896644917339 0.316543878568457 0 0.36604953812300478 0.31497278055865852 0 0.36630954626425261 0.31087512405144152 0 0.37499251130121058 0.31593455150060828 0 0.37014896644917339 0.316543878568457 0 0.37695808612291098 0.31120865645681561 0 0.37499251130121058 0.31593455150060828 0 0.37368960646642962 0.31911015363466272 0 0.37014896644917339 0.316543878568457 0 0.37014896644917339 0.316543878568457 0 0.36646072203027302 0.32009490443849897 0 0.3659238024377004 0.31770243144255911 0 0.37014896644917339 0.316543878568457 0 0.3659238024377004 0.31770243144255911 0 0.36604953812300478 0.31497278055865852 0 0.37245621682226088 0.32924087979990557 0 0.36985494237623989 0.33311962493185521 0 0.37368960646642962 0.31911015363466272 0 0.37245621682226088 0.32924087979990557 0 0.37368960646642962 0.31911015363466272 0 0.37506056064123422 0.32471797871916308 0 0.37245621682226088 0.32924087979990557 0 0.37577016905582622 0.32787937856968757 0 0.37506056064123422 0.32471797871916308 0 0.37014896644917339 0.316543878568457 0 0.36411885078159001 0.32644375487552563 0 0.36646072203027302 0.32009490443849897 0 0.36411885078159001 0.32644375487552563 0 0.35994194411877378 0.32646204206530971 0 0.36132202517978662 0.32303080634539388 0 0.36150631125237548 0.32912422255951068 0 0.36411885078159001 0.32644375487552563 0 0.35994194411877378 0.32646204206530971 0 0.36132202517978662 0.32303080634539388 0 0.36348301458407639 0.32047903077872458 0 0.35962675317161102 0.31893041505789499 0 0.36411885078159001 0.32644375487552563 0 0.36132202517978662 0.32303080634539388 0 0.36348301458407639 0.32047903077872458 0 0.36411885078159001 0.32644375487552563 0 0.36348301458407639 0.32047903077872458 0 0.36646072203027302 0.32009490443849897 0 0.36348301458407639 0.32047903077872458 0 0.36646072203027302 0.32009490443849897 0 0.3659238024377004 0.31770243144255911 0 0.3659238024377004 0.31770243144255911 0 0.36344593390349789 0.31667187251247519 0 0.36604953812300478 0.31497278055865852 0 0.36348301458407639 0.32047903077872458 0 0.3659238024377004 0.31770243144255911 0 0.36344593390349789 0.31667187251247519 0 0.36348301458407639 0.32047903077872458 0 0.36344593390349789 0.31667187251247519 0 0.35962675317161102 0.31893041505789499 0 0.36344593390349789 0.31667187251247519 0 0.35962675317161102 0.31893041505789499 0 0.35878641637012221 0.31305233625990619 0 0.36344593390349789 0.31667187251247519 0 0.36331333565659901 0.31283202127524651 0 0.35878641637012221 0.31305233625990619 0 0.36331333565659901 0.31283202127524651 0 0.36604953812300478 0.31497278055865852 0 0.36630954626425261 0.31087512405144152 0 0.36344593390349789 0.31667187251247519 0 0.36331333565659901 0.31283202127524651 0 0.36604953812300478 0.31497278055865852 0 0.35878641637012221 0.31305233625990619 0 0.35512602374864599 0.31718053618965047 0 0.35090510471213721 0.31152713165908658 0 0.35512602374864599 0.31718053618965047 0 0.34983435518440159 0.31943204998396652 0 0.35090510471213721 0.31152713165908658 0 0.35962675317161102 0.31893041505789499 0 0.35878641637012221 0.31305233625990619 0 0.35512602374864599 0.31718053618965047 0 0.35962675317161102 0.31893041505789499 0 0.35512602374864599 0.31718053618965047 0 0.35673455485560862 0.32229528426682241 0 0.35512602374864599 0.31718053618965047 0 0.35673455485560862 0.32229528426682241 0 0.34983435518440159 0.31943204998396652 0 0.35673455485560862 0.32229528426682241 0 0.35060422568955008 0.32587015674736058 0 0.34983435518440159 0.31943204998396652 0 0.35994194411877378 0.32646204206530971 0 0.36132202517978662 0.32303080634539388 0 0.35673455485560862 0.32229528426682241 0 0.36132202517978662 0.32303080634539388 0 0.35962675317161102 0.31893041505789499 0 0.35673455485560862 0.32229528426682241 0 0.35994194411877378 0.32646204206530971 0 0.35673455485560862 0.32229528426682241 0 0.35627338036128769 0.32705738058013539 0 0.35994194411877378 0.32646204206530971 0 0.35627338036128769 0.32705738058013539 0 0.35835984371964152 0.33045614064968309 0 0.35627338036128769 0.32705738058013539 0 0.35060422568955008 0.32587015674736058 0 0.35398721241228231 0.33095327650953749 0 0.35673455485560862 0.32229528426682241 0 0.35627338036128769 0.32705738058013539 0 0.35060422568955008 0.32587015674736058 0 0.35060422568955008 0.32587015674736058 0 0.34514221143703899 0.32919058107390442 0 0.34284551192874652 0.32364904383841531 0 0.35060422568955008 0.32587015674736058 0 0.34983435518440159 0.31943204998396652 0 0.34284551192874652 0.32364904383841531 0 0.34983435518440159 0.31943204998396652 0 0.34480088275632298 0.31606258733578418 0 0.35090510471213721 0.31152713165908658 0 0.34983435518440159 0.31943204998396652 0 0.34480088275632298 0.31606258733578418 0 0.34284551192874652 0.32364904383841531 0 0.35146565257524442 0.34420791440797271 0 0.36266452242448938 0.34229393694352239 0 0.35562031764263757 0.34031424282986023 0 0.35302683950207769 0.33602013814058929 0 0.35562031764263757 0.34031424282986023 0 0.35672120529774148 0.33684362974708199 0 0.35202203774268331 0.33965573310897551 0 0.35302683950207769 0.33602013814058929 0 0.35562031764263757 0.34031424282986023 0 0.35146565257524442 0.34420791440797271 0 0.35202203774268331 0.33965573310897551 0 0.35562031764263757 0.34031424282986023 0 0.36266452242448938 0.34229393694352239 0 0.35562031764263757 0.34031424282986023 0 0.3582225103283424 0.33883319475427592 0 0.35562031764263757 0.34031424282986023 0 0.3582225103283424 0.33883319475427592 0 0.35672120529774148 0.33684362974708199 0 0.36001134864139028 0.33778823672905661 0 0.3582225103283424 0.33883319475427592 0 0.35672120529774148 0.33684362974708199 0 0.36001134864139028 0.33778823672905661 0 0.35672120529774148 0.33684362974708199 0 0.35899626180536931 0.33430086833413269 0 0.35899626180536931 0.33430086833413269 0 0.35641212776078268 0.33381706902087938 0 0.35835984371964152 0.33045614064968309 0 0.35672120529774148 0.33684362974708199 0 0.35899626180536931 0.33430086833413269 0 0.35641212776078268 0.33381706902087938 0 0.35627338036128769 0.32705738058013539 0 0.35835984371964152 0.33045614064968309 0 0.35398721241228231 0.33095327650953749 0 0.35641212776078268 0.33381706902087938 0 0.35835984371964152 0.33045614064968309 0 0.35398721241228231 0.33095327650953749 0 0.35302683950207769 0.33602013814058929 0 0.35641212776078268 0.33381706902087938 0 0.35398721241228231 0.33095327650953749 0 0.35302683950207769 0.33602013814058929 0 0.35398721241228231 0.33095327650953749 0 0.34924685744035389 0.33249877391857741 0 0.35302683950207769 0.33602013814058929 0 0.35672120529774148 0.33684362974708199 0 0.35641212776078268 0.33381706902087938 0 0.35302683950207769 0.33602013814058929 0 0.34924685744035389 0.33249877391857741 0 0.34788509595764172 0.33882226599831611 0 0.35060422568955008 0.32587015674736058 0 0.34924685744035389 0.33249877391857741 0 0.34514221143703899 0.32919058107390442 0 0.35060422568955008 0.32587015674736058 0 0.35398721241228231 0.33095327650953749 0 0.34924685744035389 0.33249877391857741 0 0.34924685744035389 0.33249877391857741 0 0.34514221143703899 0.32919058107390442 0 0.34474234507332802 0.33433591834825649 0 0.34924685744035389 0.33249877391857741 0 0.34474234507332802 0.33433591834825649 0 0.34788509595764172 0.33882226599831611 0 0.34474234507332802 0.33433591834825649 0 0.34788509595764172 0.33882226599831611 0 0.34057592936449049 0.33809639891542392 0 0.35146565257524442 0.34420791440797271 0 0.34788509595764172 0.33882226599831611 0 0.34269927497721508 0.34493512072036142 0 0.35202203774268331 0.33965573310897551 0 0.35302683950207769 0.33602013814058929 0 0.34788509595764172 0.33882226599831611 0 0.35146565257524442 0.34420791440797271 0 0.35202203774268331 0.33965573310897551 0 0.34788509595764172 0.33882226599831611 0 0.34057592936449049 0.33809639891542392 0 0.33318390910610529 0.34358855052096038 0 0.34269927497721508 0.34493512072036142 0 0.34788509595764172 0.33882226599831611 0 0.34057592936449049 0.33809639891542392 0 0.34269927497721508 0.34493512072036142 0 0.34474234507332802 0.33433591834825649 0 0.34057592936449049 0.33809639891542392 0 0.33946855119551672 0.33096103471374028 0 0.34514221143703899 0.32919058107390442 0 0.34474234507332802 0.33433591834825649 0 0.33946855119551672 0.33096103471374028 0 0.34057592936449049 0.33809639891542392 0 0.33946855119551672 0.33096103471374028 0 0.33283637980140879 0.33469331179832718 0 0.33946855119551672 0.33096103471374028 0 0.33283637980140879 0.33469331179832718 0 0.33464693517381472 0.32630086361949601 0 0.33283637980140879 0.33469331179832718 0 0.33464693517381472 0.32630086361949601 0 0.3250964778074269 0.32978689602061512 0 0.34057592936449049 0.33809639891542392 0 0.33283637980140879 0.33469331179832718 0 0.33318390910610529 0.34358855052096038 0 0.33283637980140879 0.33469331179832718 0 0.33318390910610529 0.34358855052096038 0 0.32611481079287369 0.33974729713420021 0 0.34480088275632298 0.31606258733578418 0 0.33769186663180051 0.31814262317354819 0 0.34192449374142192 0.30753297203612773 0 0.34480088275632298 0.31606258733578418 0 0.33769186663180051 0.31814262317354819 0 0.34284551192874652 0.32364904383841531 0 0.33946855119551672 0.33096103471374028 0 0.34284551192874652 0.32364904383841531 0 0.33464693517381472 0.32630086361949601 0 0.33769186663180051 0.31814262317354819 0 0.34284551192874652 0.32364904383841531 0 0.33464693517381472 0.32630086361949601 0 0.34514221143703899 0.32919058107390442 0 0.33946855119551672 0.33096103471374028 0 0.34284551192874652 0.32364904383841531 0 0.33769186663180051 0.31814262317354819 0 0.33464693517381472 0.32630086361949601 0 0.32994282367798861 0.32057227217232959 0 0.33464693517381472 0.32630086361949601 0 0.32994282367798861 0.32057227217232959 0 0.3250964778074269 0.32978689602061512 0 0.33769186663180051 0.31814262317354819 0 0.32994282367798861 0.32057227217232959 0 0.32867162081685902 0.31028670060733149 0 0.32176892132522322 0.32006025561378759 0 0.31440941436971798 0.31242774502049953 0 0.32867162081685902 0.31028670060733149 0 0.32994282367798861 0.32057227217232959 0 0.32176892132522322 0.32006025561378759 0 0.32867162081685902 0.31028670060733149 0 0.32176892132522322 0.32006025561378759 0 0.31484893044661 0.32778579360563193 0 0.3250964778074269 0.32978689602061512 0 0.32994282367798861 0.32057227217232959 0 0.32176892132522322 0.32006025561378759 0 0.3250964778074269 0.32978689602061512 0 0.32176892132522322 0.32006025561378759 0 0.31484893044661 0.32778579360563193 0 0.31440941436971798 0.31242774502049953 0 0.32611481079287369 0.33974729713420021 0 0.3250964778074269 0.32978689602061512 0 0.31767498628904178 0.33862919533695518 0 0.32611481079287369 0.33974729713420021 0 0.31767498628904178 0.33862919533695518 0 0.32336406622478242 0.34852958887145069 0 0.33283637980140879 0.33469331179832718 0 0.32611481079287369 0.33974729713420021 0 0.3250964778074269 0.32978689602061512 0 0.31484893044661 0.32778579360563193 0 0.31767498628904178 0.33862919533695518 0 0.30654896287530792 0.34033791233229299 0 0.31484893044661 0.32778579360563193 0 0.3250964778074269 0.32978689602061512 0 0.31767498628904178 0.33862919533695518 0 0.31767498628904178 0.33862919533695518 0 0.31315570067328902 0.3464643712977632 0 0.32336406622478242 0.34852958887145069 0 0.31315570067328902 0.3464643712977632 0 0.31355388928080707 0.35546570062290778 0 0.32336406622478242 0.34852958887145069 0 0.32336406622478242 0.34852958887145069 0 0.33442175170730049 0.35218858713626039 0 0.32437013183195901 0.3602157298059272 0 0.31355388928080707 0.35546570062290778 0 0.32336406622478242 0.34852958887145069 0 0.32437013183195901 0.3602157298059272 0 0.33318390910610529 0.34358855052096038 0 0.32611481079287369 0.33974729713420021 0 0.32336406622478242 0.34852958887145069 0 0.35030182712711511 0.35130594720886232 0 0.33442175170730049 0.35218858713626039 0 0.33389487655237682 0.3658352592629312 0 0.33318390910610529 0.34358855052096038 0 0.32336406622478242 0.34852958887145069 0 0.33442175170730049 0.35218858713626039 0 0.35030182712711511 0.35130594720886232 0 0.33442175170730049 0.35218858713626039 0 0.34269927497721508 0.34493512072036142 0 0.33318390910610529 0.34358855052096038 0 0.33442175170730049 0.35218858713626039 0 0.34269927497721508 0.34493512072036142 0 0.34270248502322931 0.38427053755298168 0 0.35268350372385993 0.36328223724825232 0 0.33389487655237682 0.3658352592629312 0 0.33442175170730049 0.35218858713626039 0 0.33389487655237682 0.3658352592629312 0 0.32437013183195901 0.3602157298059272 0 0.31661607539452802 0.37905951313608538 0 0.33389487655237682 0.3658352592629312 0 0.32437013183195901 0.3602157298059272 0 0.31661607539452802 0.37905951313608538 0 0.31355388928080707 0.35546570062290778 0 0.32437013183195901 0.3602157298059272 0 0.31661607539452802 0.37905951313608538 0 0.31355388928080707 0.35546570062290778 0 0.31661607539452802 0.37905951313608538 0 0.31355388928080707 0.35546570062290778 0 0.30541822204374358 0.36584678197342768 0 0.2987730087010142 0.37934426936791982 0 0.31661607539452802 0.37905951313608538 0 0.30541822204374358 0.36584678197342768 0 0.30541822204374358 0.36584678197342768 0 0.30393955747459928 0.35096595789874813 0 0.29215410451095353 0.36543341035917859 0 0.2987730087010142 0.37934426936791982 0 0.30541822204374358 0.36584678197342768 0 0.29215410451095353 0.36543341035917859 0 0.31315570067328902 0.3464643712977632 0 0.30393955747459928 0.35096595789874813 0 0.30654896287530792 0.34033791233229299 0 0.31315570067328902 0.3464643712977632 0 0.31355388928080707 0.35546570062290778 0 0.30393955747459928 0.35096595789874813 0 0.31355388928080707 0.35546570062290778 0 0.30541822204374358 0.36584678197342768 0 0.30393955747459928 0.35096595789874813 0 0.30393955747459928 0.35096595789874813 0 0.29215410451095353 0.36543341035917859 0 0.30393955747459928 0.35096595789874813 0 0.29720735802849829 0.34424744790442102 0 0.29027641861796738 0.35164951467646482 0 0.30393955747459928 0.35096595789874813 0 0.29720735802849829 0.34424744790442102 0 0.30654896287530792 0.34033791233229299 0 0.29720735802849829 0.34424744790442102 0 0.29027641861796738 0.35164951467646482 0 0.28998304713239348 0.34105976447064218 0 0.30393955747459928 0.35096595789874813 0 0.29027641861796738 0.35164951467646482 0 0.29215410451095353 0.36543341035917859 0 0.29027641861796738 0.35164951467646482 0 0.29215410451095353 0.36543341035917859 0 0.27920137084664282 0.3573603676334649 0 0.29027641861796738 0.35164951467646482 0 0.27920137084664282 0.3573603676334649 0 0.28068773357058369 0.34198453751068081 0 0.29027641861796738 0.35164951467646482 0 0.28068773357058369 0.34198453751068081 0 0.28998304713239348 0.34105976447064218 0 0.28036865154730628 0.37990086281960789 0 0.29215410451095353 0.36543341035917859 0 0.27920137084664282 0.3573603676334649 0 0.28036865154730628 0.37990086281960789 0 0.2987730087010142 0.37934426936791982 0 0.29215410451095353 0.36543341035917859 0 0.28036865154730628 0.37990086281960789 0 0.29215410451095353 0.36543341035917859 0 0.28036865154730628 0.37990086281960789 0 0.27920137084664282 0.3573603676334649 0 0.26173146881309822 0.35734024057335978 0 0.28036865154730628 0.37990086281960789 0 0.26173146881309822 0.35734024057335978 0 0.28036865154730628 0.37990086281960789 0 0.26173146881309822 0.35734024057335978 0 0.2641967246118288 0.36596915937278562 0 0.27920137084664282 0.3573603676334649 0 0.27030047393074008 0.3474963096498429 0 0.26173146881309822 0.35734024057335978 0 0.27920137084664282 0.3573603676334649 0 0.27030047393074008 0.3474963096498429 0 0.28068773357058369 0.34198453751068081 0 0.2430942860788903 0.33477961832711151 0 0.26173146881309822 0.35734024057335978 0 0.27030047393074008 0.3474963096498429 0 0.26173146881309822 0.35734024057335978 0 0.26240083601839698 0.33727672217147331 0 0.23816107804029091 0.35120524212074949 0 0.26173146881309822 0.35734024057335978 0 0.2641967246118288 0.36596915937278562 0 0.23816107804029091 0.35120524212074949 0 0.2641967246118288 0.36596915937278562 0 0.2492643002430574 0.365916522193315 0 0.24311907173897271 0.36013203008567057 0 0.2641967246118288 0.36596915937278562 0 0.2492643002430574 0.365916522193315 0 0.25710864090743918 0.37145542319719338 0 0.2641967246118288 0.36596915937278562 0 0.2492643002430574 0.365916522193315 0 0.25383912625151372 0.37755129754335942 0 0.25710864090743918 0.37145542319719338 0 0.26350653962281989 0.38010735630523079 0 0.25710864090743918 0.37145542319719338 0 0.2641967246118288 0.36596915937278562 0 0.2484846271056145 0.31037308609574782 0 0.25508783524565293 0.32209220201309929 0 0.26836904206483531 0.31075971332937607 0 0.25508783524565293 0.32209220201309929 0 0.26240083601839698 0.33727672217147331 0 0.26677092012209491 0.32204036282613252 0 0.25508783524565293 0.32209220201309929 0 0.26677092012209491 0.32204036282613252 0 0.26836904206483531 0.31075971332937607 0 0.2430942860788903 0.33477961832711151 0 0.25508783524565293 0.32209220201309929 0 0.26240083601839698 0.33727672217147331 0 0.2430942860788903 0.33477961832711151 0 0.26173146881309822 0.35734024057335978 0 0.26240083601839698 0.33727672217147331 0 0.26240083601839698 0.33727672217147331 0 0.27184092000699639 0.33891315949469752 0 0.27388917516664008 0.32964775149744319 0 0.26240083601839698 0.33727672217147331 0 0.27388917516664008 0.32964775149744319 0 0.26677092012209491 0.32204036282613252 0 0.27030047393074008 0.3474963096498429 0 0.26240083601839698 0.33727672217147331 0 0.27184092000699639 0.33891315949469752 0 0.27030047393074008 0.3474963096498429 0 0.27184092000699639 0.33891315949469752 0 0.28068773357058369 0.34198453751068081 0 0.27184092000699639 0.33891315949469752 0 0.28068773357058369 0.34198453751068081 0 0.27388917516664008 0.32964775149744319 0 0.28068773357058369 0.34198453751068081 0 0.27388917516664008 0.32964775149744319 0 0.28570907475377572 0.33188311037056872 0 0.27388917516664008 0.32964775149744319 0 0.26677092012209491 0.32204036282613252 0 0.28178409254690689 0.31684790712797722 0 0.27388917516664008 0.32964775149744319 0 0.28178409254690689 0.31684790712797722 0 0.28570907475377572 0.33188311037056872 0 0.26677092012209491 0.32204036282613252 0 0.28178409254690689 0.31684790712797722 0 0.26836904206483531 0.31075971332937607 0 0.28178409254690689 0.31684790712797722 0 0.29262159606390598 0.32453461147271162 0 0.29660332646403359 0.30785121346786842 0 0.28178409254690689 0.31684790712797722 0 0.29262159606390598 0.32453461147271162 0 0.28570907475377572 0.33188311037056872 0 0.28068773357058369 0.34198453751068081 0 0.28570907475377572 0.33188311037056872 0 0.28998304713239348 0.34105976447064218 0 0.29262159606390598 0.32453461147271162 0 0.28570907475377572 0.33188311037056872 0 0.29603465069114282 0.33553421189107618 0 0.29720735802849829 0.34424744790442102 0 0.29603465069114282 0.33553421189107618 0 0.28998304713239348 0.34105976447064218 0 0.28570907475377572 0.33188311037056872 0 0.29603465069114282 0.33553421189107618 0 0.28998304713239348 0.34105976447064218 0 0.29720735802849829 0.34424744790442102 0 0.29603465069114282 0.33553421189107618 0 0.30654896287530792 0.34033791233229299 0 0.29603465069114282 0.33553421189107618 0 0.30654896287530792 0.34033791233229299 0 0.30445412428221041 0.32558903425911379 0 0.29262159606390598 0.32453461147271162 0 0.29603465069114282 0.33553421189107618 0 0.30445412428221041 0.32558903425911379 0 0.31484893044661 0.32778579360563193 0 0.30654896287530792 0.34033791233229299 0 0.30445412428221041 0.32558903425911379 0 0.31767498628904178 0.33862919533695518 0 0.31315570067328902 0.3464643712977632 0 0.30654896287530792 0.34033791233229299 0 0.30445412428221041 0.32558903425911379 0 0.29660332646403359 0.30785121346786842 0 0.31440941436971798 0.31242774502049953 0 0.29262159606390598 0.32453461147271162 0 0.30445412428221041 0.32558903425911379 0 0.29660332646403359 0.30785121346786842 0 0.31484893044661 0.32778579360563193 0 0.30445412428221041 0.32558903425911379 0 0.31440941436971798 0.31242774502049953 0 0.30822946874662033 0.29998271616579031 0 0.29660332646403359 0.30785121346786842 0 0.31440941436971798 0.31242774502049953 0 0.30822946874662033 0.29998271616579031 0 0.30055108247350393 0.28416894361273021 0 0.29660332646403359 0.30785121346786842 0 0.30822946874662033 0.29998271616579031 0 0.30055108247350393 0.28416894361273021 0 0.32109763140443309 0.29547610107375327 0 0.30055108247350393 0.28416894361273021 0 0.29660332646403359 0.30785121346786842 0 0.27430616976337108 0.29100628718303567 0 0.30055108247350393 0.28416894361273021 0 0.27430616976337108 0.29100628718303567 0 0.28443506245096839 0.27205148705280008 0 0.30055108247350393 0.28416894361273021 0 0.27430616976337108 0.29100628718303567 0 0.28178409254690689 0.31684790712797722 0 0.29660332646403359 0.30785121346786842 0 0.27430616976337108 0.29100628718303567 0 0.28178409254690689 0.31684790712797722 0 0.26836904206483531 0.31075971332937607 0 0.27430616976337108 0.29100628718303567 0 0.28178409254690689 0.31684790712797722 0 0.27430616976337108 0.29100628718303567 0 0.27430616976337108 0.29100628718303567 0 0.25121587924780342 0.29702178630611242 0 0.27430616976337108 0.29100628718303567 0 0.25953152444998728 0.28294166139542631 0 0.25121587924780342 0.29702178630611242 0 0.26836904206483531 0.31075971332937607 0 0.27430616976337108 0.29100628718303567 0 0.25121587924780342 0.29702178630611242 0 0.26836904206483531 0.31075971332937607 0 0.25121587924780342 0.29702178630611242 0 0.2484846271056145 0.31037308609574782 0 0.26836904206483531 0.31075971332937607 0 0.25121587924780342 0.29702178630611242 0 0.25102838231212438 0.26850893423506528 0 0.26790857605335527 0.26889798384773289 0 0.26221447651104962 0.2479993693513689 0 0.26790857605335527 0.26889798384773289 0 0.26221447651104962 0.2479993693513689 0 0.25953152444998728 0.28294166139542631 0 0.25102838231212438 0.26850893423506528 0 0.26790857605335527 0.26889798384773289 0 0.27430616976337108 0.29100628718303567 0 0.26790857605335527 0.26889798384773289 0 0.28443506245096839 0.27205148705280008 0 0.27430616976337108 0.29100628718303567 0 0.25953152444998728 0.28294166139542631 0 0.26790857605335527 0.26889798384773289 0 0.27430616976337108 0.29100628718303567 0 0.26790857605335527 0.26889798384773289 0 0.26790857605335527 0.26889798384773289 0 0.28119448123381058 0.25405304303149878 0 0.26221447651104962 0.2479993693513689 0 0.26790857605335527 0.26889798384773289 0 0.28119448123381058 0.25405304303149878 0 0.28443506245096839 0.27205148705280008 0 0.28119448123381058 0.25405304303149878 0 0.28443506245096839 0.27205148705280008 0 0.2982150027308012 0.26213117758900317 0 0.28119448123381058 0.25405304303149878 0 0.2982150027308012 0.26213117758900317 0 0.30328699804120918 0.24394477185791469 0 0.30055108247350393 0.28416894361273021 0 0.28443506245096839 0.27205148705280008 0 0.2982150027308012 0.26213117758900317 0 0.30055108247350393 0.28416894361273021 0 0.2982150027308012 0.26213117758900317 0 0.31879452400631653 0.25919465198291952 0 0.2982150027308012 0.26213117758900317 0 0.31879452400631653 0.25919465198291952 0 0.30328699804120918 0.24394477185791469 0 0.31879452400631653 0.25919465198291952 0 0.33092809789354199 0.24744869965648561 0 0.31845456220733243 0.24449663650262579 0 0.31879452400631653 0.25919465198291952 0 0.33565265393095528 0.25675142138279861 0 0.33982225619875311 0.26765994074234428 0 0.31879452400631653 0.25919465198291952 0 0.33982225619875311 0.26765994074234428 0 0.31879452400631653 0.25919465198291952 0 0.33565265393095528 0.25675142138279861 0 0.33092809789354199 0.24744869965648561 0 0.33565265393095528 0.25675142138279861 0 0.33982225619875311 0.26765994074234428 0 0.34536281311255052 0.25941060478944128 0 0.33565265393095528 0.25675142138279861 0 0.3433555784436142 0.25004320974280247 0 0.33092809789354199 0.24744869965648561 0 0.33565265393095528 0.25675142138279861 0 0.3433555784436142 0.25004320974280247 0 0.34536281311255052 0.25941060478944128 0 0.31879452400631653 0.25919465198291952 0 0.33982225619875311 0.26765994074234428 0 0.32679599518363661 0.27733160004242491 0 0.33982225619875311 0.26765994074234428 0 0.32679599518363661 0.27733160004242491 0 0.34056182851336592 0.28206143899133118 0 0.30055108247350393 0.28416894361273021 0 0.32679599518363661 0.27733160004242491 0 0.30055108247350393 0.28416894361273021 0 0.31879452400631653 0.25919465198291952 0 0.32679599518363661 0.27733160004242491 0 0.32679599518363661 0.27733160004242491 0 0.32109763140443309 0.29547610107375327 0 0.33248404658197278 0.28876668272462419 0 0.30055108247350393 0.28416894361273021 0 0.32679599518363661 0.27733160004242491 0 0.32109763140443309 0.29547610107375327 0 0.32109763140443309 0.29547610107375327 0 0.31440941436971798 0.31242774502049953 0 0.32867162081685902 0.31028670060733149 0 0.30822946874662033 0.29998271616579031 0 0.32109763140443309 0.29547610107375327 0 0.31440941436971798 0.31242774502049953 0 0.32867162081685902 0.31028670060733149 0 0.33472549883669622 0.29791121211074773 0 0.34192449374142192 0.30753297203612773 0 0.32109763140443309 0.29547610107375327 0 0.32867162081685902 0.31028670060733149 0 0.33472549883669622 0.29791121211074773 0 0.33472549883669622 0.29791121211074773 0 0.34281583705185747 0.29966479619329672 0 0.34192449374142192 0.30753297203612773 0 0.33769186663180051 0.31814262317354819 0 0.32867162081685902 0.31028670060733149 0 0.34192449374142192 0.30753297203612773 0 0.32679599518363661 0.27733160004242491 0 0.33248404658197278 0.28876668272462419 0 0.34056182851336592 0.28206143899133118 0 0.32109763140443309 0.29547610107375327 0 0.33472549883669622 0.29791121211074773 0 0.33248404658197278 0.28876668272462419 0 0.33472549883669622 0.29791121211074773 0 0.33248404658197278 0.28876668272462419 0 0.34417327957572558 0.29277050597204329 0 0.33472549883669622 0.29791121211074773 0 0.34281583705185747 0.29966479619329672 0 0.34417327957572558 0.29277050597204329 0 0.33248404658197278 0.28876668272462419 0 0.34056182851336592 0.28206143899133118 0 0.34417327957572558 0.29277050597204329 0 0.34056182851336592 0.28206143899133118 0 0.34979868535227071 0.28728326233729501 0 0.34417327957572558 0.29277050597204329 0 0.34056182851336592 0.28206143899133118 0 0.34979868535227071 0.28728326233729501 0 0.35183199075491411 0.27966461044832719 0 0.34417327957572558 0.29277050597204329 0 0.35334053836337709 0.29410458558147129 0 0.34972900846361488 0.30172704795696642 0 0.34979868535227071 0.28728326233729501 0 0.34417327957572558 0.29277050597204329 0 0.35334053836337709 0.29410458558147129 0 0.34979868535227071 0.28728326233729501 0 0.35334053836337709 0.29410458558147129 0 0.35722235408413222 0.28831366276426512 0 0.35334053836337709 0.29410458558147129 0 0.35826071325737319 0.3003277240158499 0 0.36091512844171192 0.29433704443458902 0 0.35334053836337709 0.29410458558147129 0 0.35722235408413222 0.28831366276426512 0 0.36091512844171192 0.29433704443458902 0 0.34979868535227071 0.28728326233729501 0 0.35722235408413222 0.28831366276426512 0 0.35183199075491411 0.27966461044832719 0 0.35722235408413222 0.28831366276426512 0 0.36152496379752869 0.28359539021876212 0 0.35183199075491411 0.27966461044832719 0 0.34480088275632298 0.31606258733578418 0 0.34192449374142192 0.30753297203612773 0 0.35090510471213721 0.31152713165908658 0 0.34192449374142192 0.30753297203612773 0 0.35090510471213721 0.31152713165908658 0 0.34972900846361488 0.30172704795696642 0 0.34281583705185747 0.29966479619329672 0 0.34417327957572558 0.29277050597204329 0 0.34972900846361488 0.30172704795696642 0 0.34281583705185747 0.29966479619329672 0 0.34192449374142192 0.30753297203612773 0 0.34972900846361488 0.30172704795696642 0 0.34972900846361488 0.30172704795696642 0 0.35826071325737319 0.3003277240158499 0 0.35721607615581658 0.30656573559573969 0 0.35334053836337709 0.29410458558147129 0 0.34972900846361488 0.30172704795696642 0 0.35826071325737319 0.3003277240158499 0 0.35090510471213721 0.31152713165908658 0 0.34972900846361488 0.30172704795696642 0 0.35721607615581658 0.30656573559573969 0 0.35878641637012221 0.31305233625990619 0 0.35090510471213721 0.31152713165908658 0 0.35721607615581658 0.30656573559573969 0 0.37014896644917339 0.316543878568457 0 0.37763341047385651 0.29079382019339128 0 0.37014896644917339 0.316543878568457 0 0.37108481648816682 0.30013899891886681 0 0.36845835323010317 0.30596496181531441 0 0.37014896644917339 0.316543878568457 0 0.37763341047385651 0.29079382019339128 0 0.37695808612291098 0.31120865645681561 0 0.37014896644917339 0.316543878568457 0 0.37108481648816682 0.30013899891886681 0 0.37763341047385651 0.29079382019339128 0 0.36630954626425261 0.31087512405144152 0 0.36228941999803421 0.30896529616435242 0 0.36543096483439103 0.3064802843427199 0 0.36331333565659901 0.31283202127524651 0 0.36630954626425261 0.31087512405144152 0 0.36228941999803421 0.30896529616435242 0 0.36331333565659901 0.31283202127524651 0 0.35878641637012221 0.31305233625990619 0 0.36228941999803421 0.30896529616435242 0 0.35878641637012221 0.31305233625990619 0 0.35721607615581658 0.30656573559573969 0 0.36228941999803421 0.30896529616435242 0 0.35721607615581658 0.30656573559573969 0 0.36228941999803421 0.30896529616435242 0 0.36268018070702418 0.30398627546106088 0 0.36630954626425261 0.31087512405144152 0 0.36543096483439103 0.3064802843427199 0 0.36845835323010317 0.30596496181531441 0 0.36228941999803421 0.30896529616435242 0 0.36543096483439103 0.3064802843427199 0 0.36268018070702418 0.30398627546106088 0 0.36543096483439103 0.3064802843427199 0 0.36607900901995372 0.30349396637540749 0 0.36845835323010317 0.30596496181531441 0 0.36607900901995372 0.30349396637540749 0 0.36268018070702418 0.30398627546106088 0 0.36558719123160882 0.29969948119116269 0 0.36607900901995372 0.30349396637540749 0 0.36558719123160882 0.29969948119116269 0 0.36823835509664099 0.30133882906677939 0 0.36543096483439103 0.3064802843427199 0 0.36607900901995372 0.30349396637540749 0 0.36268018070702418 0.30398627546106088 0 0.35826071325737319 0.3003277240158499 0 0.35721607615581658 0.30656573559573969 0 0.36268018070702418 0.30398627546106088 0 0.35826071325737319 0.3003277240158499 0 0.36268018070702418 0.30398627546106088 0 0.36558719123160882 0.29969948119116269 0 0.35826071325737319 0.3003277240158499 0 0.36558719123160882 0.29969948119116269 0 0.36091512844171192 0.29433704443458902 0 0.36871223371641282 0.29817542324200702 0 0.37108481648816682 0.30013899891886681 0 0.37014933742706652 0.29575476169949788 0 0.36558719123160882 0.29969948119116269 0 0.36871223371641282 0.29817542324200702 0 0.36734652779664789 0.29411680932906442 0 0.36558719123160882 0.29969948119116269 0 0.36871223371641282 0.29817542324200702 0 0.36823835509664099 0.30133882906677939 0 0.36871223371641282 0.29817542324200702 0 0.37108481648816682 0.30013899891886681 0 0.36823835509664099 0.30133882906677939 0 0.37108481648816682 0.30013899891886681 0 0.36823835509664099 0.30133882906677939 0 0.36845835323010317 0.30596496181531441 0 0.36607900901995372 0.30349396637540749 0 0.36823835509664099 0.30133882906677939 0 0.36845835323010317 0.30596496181531441 0 0.37014896644917339 0.316543878568457 0 0.36630954626425261 0.31087512405144152 0 0.36845835323010317 0.30596496181531441 0 0.36812955944888692 0.28419813691800921 0 0.36084998839118931 0.2761252295017701 0 0.37969218042614078 0.28371066929036243 0 0.36152496379752869 0.28359539021876212 0 0.36812955944888692 0.28419813691800921 0 0.36084998839118931 0.2761252295017701 0 0.36414496955441777 0.28941104037434479 0 0.36911771796651938 0.28986917351547109 0 0.36812955944888692 0.28419813691800921 0 0.36152496379752869 0.28359539021876212 0 0.36414496955441777 0.28941104037434479 0 0.36812955944888692 0.28419813691800921 0 0.35722235408413222 0.28831366276426512 0 0.36152496379752869 0.28359539021876212 0 0.36414496955441777 0.28941104037434479 0 0.35722235408413222 0.28831366276426512 0 0.36091512844171192 0.29433704443458902 0 0.36414496955441777 0.28941104037434479 0 0.36558719123160882 0.29969948119116269 0 0.36091512844171192 0.29433704443458902 0 0.36734652779664789 0.29411680932906442 0 0.36091512844171192 0.29433704443458902 0 0.36414496955441777 0.28941104037434479 0 0.36734652779664789 0.29411680932906442 0 0.36414496955441777 0.28941104037434479 0 0.36911771796651938 0.28986917351547109 0 0.36734652779664789 0.29411680932906442 0 0.36911771796651938 0.28986917351547109 0 0.37026464520563152 0.29279186409727531 0 0.36734652779664789 0.29411680932906442 0 0.37108481648816682 0.30013899891886681 0 0.37306860395079622 0.29341917559567809 0 0.37763341047385651 0.29079382019339128 0 0.36911771796651938 0.28986917351547109 0 0.37026464520563152 0.29279186409727531 0 0.37237913536365119 0.29056320862162688 0 0.36871223371641282 0.29817542324200702 0 0.36734652779664789 0.29411680932906442 0 0.37014933742706652 0.29575476169949788 0 0.37026464520563152 0.29279186409727531 0 0.36734652779664789 0.29411680932906442 0 0.37014933742706652 0.29575476169949788 0 0.37108481648816682 0.30013899891886681 0 0.37014933742706652 0.29575476169949788 0 0.37306860395079622 0.29341917559567809 0 0.37026464520563152 0.29279186409727531 0 0.37014933742706652 0.29575476169949788 0 0.37306860395079622 0.29341917559567809 0 0.36911771796651938 0.28986917351547109 0 0.37237913536365119 0.29056320862162688 0 0.37333201972158658 0.2878654242033048 0 0.37306860395079622 0.29341917559567809 0 0.37237913536365119 0.29056320862162688 0 0.37763341047385651 0.29079382019339128 0 0.37237913536365119 0.29056320862162688 0 0.37333201972158658 0.2878654242033048 0 0.37763341047385651 0.29079382019339128 0 0.37026464520563152 0.29279186409727531 0 0.37306860395079622 0.29341917559567809 0 0.37237913536365119 0.29056320862162688 0 0.37333201972158658 0.2878654242033048 0 0.36812955944888692 0.28419813691800921 0 0.37969218042614078 0.28371066929036243 0 0.36911771796651938 0.28986917351547109 0 0.37333201972158658 0.2878654242033048 0 0.36812955944888692 0.28419813691800921 0 0.36084998839118931 0.2761252295017701 0 0.37969218042614078 0.28371066929036243 0 0.36084998839118931 0.2761252295017701 0 0.37017340450925651 0.266060206293324 0 0.3539366042426153 0.26554047293381039 0 0.36084998839118931 0.2761252295017701 0 0.38460708535355081 0.26680105137204091 0 0.36084998839118931 0.2761252295017701 0 0.37017340450925651 0.266060206293324 0 0.38460708535355081 0.26680105137204091 0 0.3539366042426153 0.26554047293381039 0 0.38129994004966872 0.25577407136566988 0 0.37169426656027921 0.24972740256563611 0 0.37017340450925651 0.266060206293324 0 0.3539366042426153 0.26554047293381039 0 0.38129994004966872 0.25577407136566988 0 0.3539366042426153 0.26554047293381039 0 0.37169426656027921 0.24972740256563611 0 0.36205361842742478 0.24882498742118489 0 0.3539366042426153 0.26554047293381039 0 0.38129994004966872 0.25577407136566988 0 0.3539366042426153 0.26554047293381039 0 0.35175757775775729 0.2532797976346674 0 0.36205361842742478 0.24882498742118489 0 0.3433555784436142 0.25004320974280247 0 0.35175757775775729 0.2532797976346674 0 0.34536281311255052 0.25941060478944128 0 0.33982225619875311 0.26765994074234428 0 0.3539366042426153 0.26554047293381039 0 0.34536281311255052 0.25941060478944128 0 0.3539366042426153 0.26554047293381039 0 0.35175757775775729 0.2532797976346674 0 0.34536281311255052 0.25941060478944128 0 0.33982225619875311 0.26765994074234428 0 0.36084998839118931 0.2761252295017701 0 0.33982225619875311 0.26765994074234428 0 0.36084998839118931 0.2761252295017701 0 0.3539366042426153 0.26554047293381039 0 0.33982225619875311 0.26765994074234428 0 0.36084998839118931 0.2761252295017701 0 0.35183199075491411 0.27966461044832719 0 0.33982225619875311 0.26765994074234428 0 0.34056182851336592 0.28206143899133118 0 0.35183199075491411 0.27966461044832719 0 0.36152496379752869 0.28359539021876212 0 0.36084998839118931 0.2761252295017701 0 0.35183199075491411 0.27966461044832719 0 0.36084998839118931 0.2761252295017701 0 0.35183199075491411 0.27966461044832719 0 0.39945440726228237 0.27350419034528239 0 0.38460708535355081 0.26680105137204091 0 0.40768566828284042 0.25774317622192677 0 0.39945440726228237 0.27350419034528239 0 0.4092682188351508 0.26816031590002881 0 0.40768566828284042 0.25774317622192677 0 0.39945440726228237 0.27350419034528239 0 0.38460708535355081 0.26680105137204091 0 0.3904751567012596 0.27530993325585928 0 0.39945440726228237 0.27350419034528239 0 0.3904751567012596 0.27530993325585928 0 0.39488150240831521 0.28173053148540511 0 0.39945440726228237 0.27350419034528239 0 0.40366985246608472 0.28285995447659418 0 0.40929088926209078 0.279020096056181 0 0.39945440726228237 0.27350419034528239 0 0.4092682188351508 0.26816031590002881 0 0.40929088926209078 0.279020096056181 0 0.39945440726228237 0.27350419034528239 0 0.39488150240831521 0.28173053148540511 0 0.40366985246608472 0.28285995447659418 0 0.38783836144724232 0.2556839199238965 0 0.38129994004966872 0.25577407136566988 0 0.40866327585672191 0.24600766979752939 0 0.38460708535355081 0.26680105137204091 0 0.40768566828284042 0.25774317622192677 0 0.38783836144724232 0.2556839199238965 0 0.40768566828284042 0.25774317622192677 0 0.40866327585672191 0.24600766979752939 0 0.38783836144724232 0.2556839199238965 0 0.38460708535355081 0.26680105137204091 0 0.40768566828284042 0.25774317622192677 0 0.38129994004966872 0.25577407136566988 0 0.40866327585672191 0.24600766979752939 0 0.38783836144724232 0.2556839199238965 0 0.38129994004966872 0.25577407136566988 0 0.38460708535355081 0.26680105137204091 0 0.38783836144724232 0.2556839199238965 0 0.38460708535355081 0.26680105137204091 0 0.38129994004966872 0.25577407136566988 0 0.37169426656027921 0.24972740256563611 0 0.38106847269238292 0.24536179082341181 0 0.37017340450925651 0.266060206293324 0 0.38129994004966872 0.25577407136566988 0 0.38460708535355081 0.26680105137204091 0 0.36084998839118931 0.2761252295017701 0 0.38460708535355081 0.26680105137204091 0 0.37969218042614078 0.28371066929036243 0 0.38460708535355081 0.26680105137204091 0 0.3904751567012596 0.27530993325585928 0 0.37969218042614078 0.28371066929036243 0 0.38460708535355081 0.26680105137204091 0 0.37969218042614078 0.28371066929036243 0 0.3904751567012596 0.27530993325585928 0 0.37969218042614078 0.28371066929036243 0 0.39488150240831521 0.28173053148540511 0 0.37969218042614078 0.28371066929036243 0 0.37763341047385651 0.29079382019339128 0 0.40259214502479168 0.29292967641552992 0 0.37763341047385651 0.29079382019339128 0 0.4027243230010164 0.30147339632314252 0 0.37969218042614078 0.28371066929036243 0 0.37763341047385651 0.29079382019339128 0 0.37333201972158658 0.2878654242033048 0 0.37969218042614078 0.28371066929036243 0 0.37763341047385651 0.29079382019339128 0 0.37763341047385651 0.29079382019339128 0 0.37695808612291098 0.31120865645681561 0 0.38599374742651271 0.30414296713942529 0 0.37763341047385651 0.29079382019339128 0 0.38599374742651271 0.30414296713942529 0 0.4027243230010164 0.30147339632314252 0 0.37695808612291098 0.31120865645681561 0 0.38599374742651271 0.30414296713942529 0 0.38754735899376969 0.31282171123814728 0 0.38599374742651271 0.30414296713942529 0 0.4027243230010164 0.30147339632314252 0 0.38754735899376969 0.31282171123814728 0 0.4027243230010164 0.30147339632314252 0 0.3956366020903157 0.32248231082130752 0 0.38754735899376969 0.31282171123814728 0 0.37969218042614078 0.28371066929036243 0 0.40259214502479168 0.29292967641552992 0 0.37969218042614078 0.28371066929036243 0 0.39488150240831521 0.28173053148540511 0 0.40259214502479168 0.29292967641552992 0 0.37763341047385651 0.29079382019339128 0 0.4027243230010164 0.30147339632314252 0 0.40259214502479168 0.29292967641552992 0 0.4027243230010164 0.30147339632314252 0 0.40259214502479168 0.29292967641552992 0 0.41139710839419091 0.29189735433941028 0 0.40259214502479168 0.29292967641552992 0 0.40366985246608472 0.28285995447659418 0 0.41139710839419091 0.29189735433941028 0 0.39488150240831521 0.28173053148540511 0 0.40259214502479168 0.29292967641552992 0 0.40366985246608472 0.28285995447659418 0 0.40366985246608472 0.28285995447659418 0 0.41139710839419091 0.29189735433941028 0 0.40929088926209078 0.279020096056181 0 0.41139710839419091 0.29189735433941028 0 0.42781523552817591 0.31215297245289481 0 0.42226183937510081 0.28327127115801121 0 0.41139710839419091 0.29189735433941028 0 0.42226183937510081 0.28327127115801121 0 0.40929088926209078 0.279020096056181 0 0.4027243230010164 0.30147339632314252 0 0.41139710839419091 0.29189735433941028 0 0.42781523552817591 0.31215297245289481 0 0.4027243230010164 0.30147339632314252 0 0.42781523552817591 0.31215297245289481 0 0.41357021602424721 0.32279281759874212 0 0.4027243230010164 0.30147339632314252 0 0.42781523552817591 0.31215297245289481 0 0.42781523552817591 0.31215297245289481 0 0.42226183937510081 0.28327127115801121 0 0.42781523552817591 0.31215297245289481 0 0.42226183937510081 0.28327127115801121 0 0.44120727567718632 0.28746005308771089 0 0.42226183937510081 0.28327127115801121 0 0.43023391716603732 0.27040224467912161 0 0.44120727567718632 0.28746005308771089 0 0.42226183937510081 0.28327127115801121 0 0.43023391716603732 0.27040224467912161 0 0.41664462513020523 0.25422696758609492 0 0.43023391716603732 0.27040224467912161 0 0.43692075095235122 0.26433370861442979 0 0.44373838257505849 0.27050131303512348 0 0.42226183937510081 0.28327127115801121 0 0.4092682188351508 0.26816031590002881 0 0.41664462513020523 0.25422696758609492 0 0.42226183937510081 0.28327127115801121 0 0.41664462513020523 0.25422696758609492 0 0.42226183937510081 0.28327127115801121 0 0.4092682188351508 0.26816031590002881 0 0.40929088926209078 0.279020096056181 0 0.40768566828284042 0.25774317622192677 0 0.41664462513020523 0.25422696758609492 0 0.40866327585672191 0.24600766979752939 0 0.40768566828284042 0.25774317622192677 0 0.41664462513020523 0.25422696758609492 0 0.4092682188351508 0.26816031590002881 0 0.40768566828284042 0.25774317622192677 0 0.41664462513020523 0.25422696758609492 0 0.42749544465446981 0.25699566217507153 0 0.45166362976964691 0.25106894999712381 0 0.43076425121212841 0.2486853010718087 0 0.41664462513020523 0.25422696758609492 0 0.42749544465446981 0.25699566217507153 0 0.43076425121212841 0.2486853010718087 0 0.43023391716603732 0.27040224467912161 0 0.41664462513020523 0.25422696758609492 0 0.42749544465446981 0.25699566217507153 0 0.41664462513020523 0.25422696758609492 0 0.43076425121212841 0.2486853010718087 0 0.42749544465446981 0.25699566217507153 0 0.43692075095235122 0.26433370861442979 0 0.44456450099631911 0.26043047377218492 0 0.43023391716603732 0.27040224467912161 0 0.42749544465446981 0.25699566217507153 0 0.43692075095235122 0.26433370861442979 0 0.42749544465446981 0.25699566217507153 0 0.45166362976964691 0.25106894999712381 0 0.42749544465446981 0.25699566217507153 0 0.44456450099631911 0.26043047377218492 0 0.45166362976964691 0.25106894999712381 0 0.43692075095235122 0.26433370861442979 0 0.44456450099631911 0.26043047377218492 0 0.44373838257505849 0.27050131303512348 0 0.44456450099631911 0.26043047377218492 0 0.44373838257505849 0.27050131303512348 0 0.45508065662597141 0.26402805921732958 0 0.44456450099631911 0.26043047377218492 0 0.45166362976964691 0.25106894999712381 0 0.45508065662597141 0.26402805921732958 0 0.44373838257505849 0.27050131303512348 0 0.45472874274978531 0.27586911806656422 0 0.44120727567718632 0.28746005308771089 0 0.43023391716603732 0.27040224467912161 0 0.44373838257505849 0.27050131303512348 0 0.44120727567718632 0.28746005308771089 0 0.44373838257505849 0.27050131303512348 0 0.45472874274978531 0.27586911806656422 0 0.45508065662597141 0.26402805921732958 0 0.45472874274978531 0.27586911806656422 0 0.46665275363318931 0.27127710252775639 0 0.46192346945889701 0.28817835066990299 0 0.45472874274978531 0.27586911806656422 0 0.46665275363318931 0.27127710252775639 0 0.45508065662597141 0.26402805921732958 0 0.45166362976964691 0.25106894999712381 0 0.46652816171208539 0.25830808769848879 0 0.47583181488482379 0.2451422378191761 0 0.45166362976964691 0.25106894999712381 0 0.45508065662597141 0.26402805921732958 0 0.46652816171208539 0.25830808769848879 0 0.46665275363318931 0.27127710252775639 0 0.45508065662597141 0.26402805921732958 0 0.46652816171208539 0.25830808769848879 0 0.46665275363318931 0.27127710252775639 0 0.46652816171208539 0.25830808769848879 0 0.48341195364679568 0.26002408893105827 0 0.46652816171208539 0.25830808769848879 0 0.48341195364679568 0.26002408893105827 0 0.47583181488482379 0.2451422378191761 0 0.46665275363318931 0.27127710252775639 0 0.48341195364679568 0.26002408893105827 0 0.48138518434246891 0.28130646820503019 0 0.46665275363318931 0.27127710252775639 0 0.48138518434246891 0.28130646820503019 0 0.46192346945889701 0.28817835066990299 0 0.5 0.26671351767664991 0 0.5 0.29421150971207138 0 0.48138518434246891 0.28130646820503019 0 0.48341195364679568 0.26002408893105827 0 0.5 0.26671351767664991 0 0.48138518434246891 0.28130646820503019 0 0.48341195364679568 0.26002408893105827 0 0.5 0.26671351767664991 0 0.50000000000000067 0.2392155256412283 0 0.5 0.29421150971207138 0 0.47556093647901088 0.30733800586058863 0 0.5 0.32170950174749302 0 0.5 0.29421150971207138 0 0.48138518434246891 0.28130646820503019 0 0.47556093647901088 0.30733800586058863 0 0.48138518434246891 0.28130646820503019 0 0.47556093647901088 0.30733800586058863 0 0.46192346945889701 0.28817835066990299 0 0.47556093647901088 0.30733800586058863 0 0.45214514511688908 0.30370412902975941 0 0.45421880844117613 0.32339126307769928 0 0.47556093647901088 0.30733800586058863 0 0.46192346945889701 0.28817835066990299 0 0.45214514511688908 0.30370412902975941 0 0.46192346945889701 0.28817835066990299 0 0.44120727567718632 0.28746005308771089 0 0.45214514511688908 0.30370412902975941 0 0.45472874274978531 0.27586911806656422 0 0.46192346945889701 0.28817835066990299 0 0.44120727567718632 0.28746005308771089 0 0.42781523552817591 0.31215297245289481 0 0.44120727567718632 0.28746005308771089 0 0.45214514511688908 0.30370412902975941 0 0.42781523552817591 0.31215297245289481 0 0.45421880844117613 0.32339126307769928 0 0.43298436918619881 0.33903622913929549 0 0.42781523552817591 0.31215297245289481 0 0.45214514511688908 0.30370412902975941 0 0.45421880844117613 0.32339126307769928 0 0.42781523552817591 0.31215297245289481 0 0.45421880844117613 0.32339126307769928 0 0.45421880844117613 0.32339126307769928 0 0.45970761232660212 0.34692044601787542 0 0.43298436918619881 0.33903622913929549 0 0.45421880844117613 0.32339126307769928 0 0.48062238135417568 0.33462955370250519 0 0.45421880844117613 0.32339126307769928 0 0.48062238135417568 0.33462955370250519 0 0.45970761232660212 0.34692044601787542 0 0.47556093647901088 0.30733800586058863 0 0.45421880844117613 0.32339126307769928 0 0.48062238135417568 0.33462955370250519 0 0.48062238135417568 0.33462955370250519 0 0.5 0.32170950174749302 0 0.5 0.34920749378291471 0 0.47556093647901088 0.30733800586058863 0 0.48062238135417568 0.33462955370250519 0 0.5 0.32170950174749302 0 0.5 0.34920749378291471 0 0.48254603458521478 0.3522402998402685 0 0.5 0.37670548581833618 0 0.48062238135417568 0.33462955370250519 0 0.5 0.34920749378291471 0 0.48254603458521478 0.3522402998402685 0 0.48254603458521478 0.3522402998402685 0 0.46972057754862501 0.36630584452178799 0 0.45970761232660212 0.34692044601787542 0 0.48062238135417568 0.33462955370250519 0 0.48254603458521478 0.3522402998402685 0 0.45970761232660212 0.34692044601787542 0 0.48254603458521478 0.3522402998402685 0 0.46972057754862501 0.36630584452178799 0 0.5 0.37670548581833618 0 0.46972057754862501 0.36630584452178799 0 0.43815350284422228 0.36591948582569622 0 0.45848938469160699 0.38276388730883248 0 0.46972057754862501 0.36630584452178799 0 0.45970761232660212 0.34692044601787542 0 0.43815350284422228 0.36591948582569622 0 0.45970761232660212 0.34692044601787542 0 0.43815350284422228 0.36591948582569622 0 0.43298436918619881 0.33903622913929549 0 0.43815350284422228 0.36591948582569622 0 0.4167242930516859 0.35972934744593471 0 0.42344095457037051 0.38268701701273461 0 0.4167242930516859 0.35972934744593471 0 0.40101385701800268 0.38518895784325291 0 0.4167242930516859 0.35972934744593471 0 0.40181680918128981 0.35947395412181382 0 0.40101385701800268 0.38518895784325291 0 0.4167242930516859 0.35972934744593471 0 0.40869055031553031 0.33881917925707022 0 0.40181680918128981 0.35947395412181382 0 0.4167242930516859 0.35972934744593471 0 0.43298436918619881 0.33903622913929549 0 0.40869055031553031 0.33881917925707022 0 0.43815350284422228 0.36591948582569622 0 0.4167242930516859 0.35972934744593471 0 0.43298436918619881 0.33903622913929549 0 0.43815350284422228 0.36591948582569622 0 0.43298436918619881 0.33903622913929549 0 0.42781523552817591 0.31215297245289481 0 0.43298436918619881 0.33903622913929549 0 0.42781523552817591 0.31215297245289481 0 0.43298436918619881 0.33903622913929549 0 0.41357021602424721 0.32279281759874212 0 0.43298436918619881 0.33903622913929549 0 0.41357021602424721 0.32279281759874212 0 0.40869055031553031 0.33881917925707022 0 0.40869055031553031 0.33881917925707022 0 0.39369601167170543 0.33564153172070438 0 0.39209274976778918 0.34814598654190299 0 0.40869055031553031 0.33881917925707022 0 0.39369601167170543 0.33564153172070438 0 0.3956366020903157 0.32248231082130752 0 0.39369601167170543 0.33564153172070438 0 0.3956366020903157 0.32248231082130752 0 0.38362385659697051 0.32926172455430031 0 0.39369601167170543 0.33564153172070438 0 0.38635485741833753 0.33883185827426582 0 0.39209274976778918 0.34814598654190299 0 0.41357021602424721 0.32279281759874212 0 0.40869055031553031 0.33881917925707022 0 0.3956366020903157 0.32248231082130752 0 0.4027243230010164 0.30147339632314252 0 0.41357021602424721 0.32279281759874212 0 0.3956366020903157 0.32248231082130752 0 0.3956366020903157 0.32248231082130752 0 0.38754735899376969 0.31282171123814728 0 0.38479800915553353 0.32074741934569512 0 0.38754735899376969 0.31282171123814728 0 0.38479800915553353 0.32074741934569512 0 0.37917338616632867 0.3168755173424983 0 0.3956366020903157 0.32248231082130752 0 0.38479800915553353 0.32074741934569512 0 0.38362385659697051 0.32926172455430031 0 0.38479800915553353 0.32074741934569512 0 0.37832625022041982 0.32264150287239662 0 0.38362385659697051 0.32926172455430031 0 0.37577016905582622 0.32787937856968757 0 0.37832625022041982 0.32264150287239662 0 0.38362385659697051 0.32926172455430031 0 0.37577016905582622 0.32787937856968757 0 0.37506056064123422 0.32471797871916308 0 0.37832625022041982 0.32264150287239662 0 0.37368960646642962 0.31911015363466272 0 0.37506056064123422 0.32471797871916308 0 0.37832625022041982 0.32264150287239662 0 0.37695808612291098 0.31120865645681561 0 0.38754735899376969 0.31282171123814728 0 0.37917338616632867 0.3168755173424983 0 0.38479800915553353 0.32074741934569512 0 0.37832625022041982 0.32264150287239662 0 0.37917338616632867 0.3168755173424983 0 0.37368960646642962 0.31911015363466272 0 0.37832625022041982 0.32264150287239662 0 0.37917338616632867 0.3168755173424983 0 0.37499251130121058 0.31593455150060828 0 0.37368960646642962 0.31911015363466272 0 0.37917338616632867 0.3168755173424983 0 0.37499251130121058 0.31593455150060828 0 0.37695808612291098 0.31120865645681561 0 0.37917338616632867 0.3168755173424983 0 0.38635485741833753 0.33883185827426582 0 0.3795813787571668 0.3363772241379393 0 0.38278029029805521 0.34473282441648212 0 0.39369601167170543 0.33564153172070438 0 0.38635485741833753 0.33883185827426582 0 0.38362385659697051 0.32926172455430031 0 0.38635485741833753 0.33883185827426582 0 0.38362385659697051 0.32926172455430031 0 0.3795813787571668 0.3363772241379393 0 0.37577016905582622 0.32787937856968757 0 0.38362385659697051 0.32926172455430031 0 0.37868435463470768 0.3315773541462857 0 0.38362385659697051 0.32926172455430031 0 0.37868435463470768 0.3315773541462857 0 0.3795813787571668 0.3363772241379393 0 0.37577016905582622 0.32787937856968757 0 0.37868435463470768 0.3315773541462857 0 0.375263113682131 0.33313320718557798 0 0.37868435463470768 0.3315773541462857 0 0.375263113682131 0.33313320718557798 0 0.3795813787571668 0.3363772241379393 0 0.37369311900952262 0.33836265764115908 0 0.3795813787571668 0.3363772241379393 0 0.37670219357667811 0.34177383067972761 0 0.3795813787571668 0.3363772241379393 0 0.37670219357667811 0.34177383067972761 0 0.38278029029805521 0.34473282441648212 0 0.37369311900952262 0.33836265764115908 0 0.375263113682131 0.33313320718557798 0 0.3795813787571668 0.3363772241379393 0 0.3809821990389497 0.35490418517770578 0 0.39056259575344082 0.36548629952090861 0 0.39209274976778918 0.34814598654190299 0 0.37486749369974542 0.34694596905823039 0 0.37670219357667811 0.34177383067972761 0 0.38278029029805521 0.34473282441648212 0 0.37486749369974542 0.34694596905823039 0 0.38278029029805521 0.34473282441648212 0 0.3809821990389497 0.35490418517770578 0 0.38278029029805521 0.34473282441648212 0 0.3809821990389497 0.35490418517770578 0 0.39209274976778918 0.34814598654190299 0 0.38635485741833753 0.33883185827426582 0 0.38278029029805521 0.34473282441648212 0 0.39209274976778918 0.34814598654190299 0 0.37228166628853332 0.35471301169251829 0 0.37486749369974542 0.34694596905823039 0 0.3809821990389497 0.35490418517770578 0 0.37414389550204002 0.36898578533419818 0 0.3809821990389497 0.35490418517770578 0 0.39056259575344082 0.36548629952090861 0 0.37414389550204002 0.36898578533419818 0 0.39056259575344082 0.36548629952090861 0 0.40101385701800268 0.38518895784325291 0 0.37414389550204002 0.36898578533419818 0 0.37228166628853332 0.35471301169251829 0 0.3809821990389497 0.35490418517770578 0 0.39056259575344082 0.36548629952090861 0 0.40181680918128981 0.35947395412181382 0 0.40101385701800268 0.38518895784325291 0 0.39056259575344082 0.36548629952090861 0 0.40181680918128981 0.35947395412181382 0 0.39209274976778918 0.34814598654190299 0 0.40869055031553031 0.33881917925707022 0 0.40181680918128981 0.35947395412181382 0 0.39209274976778918 0.34814598654190299 0 0.40101385701800268 0.38518895784325291 0 0.38530342098431941 0.41064856824057122 0 0.40101385701800268 0.38518895784325291 0 0.38530342098431941 0.41064856824057122 0 0.41521715527738928 0.40390661881175682 0 0.3736470799201031 0.39378130610698531 0 0.37414389550204002 0.36898578533419818 0 0.40101385701800268 0.38518895784325291 0 0.3736470799201031 0.39378130610698531 0 0.40101385701800268 0.38518895784325291 0 0.38530342098431941 0.41064856824057122 0 0.36959298495063608 0.43610817863788948 0 0.38530342098431941 0.41064856824057122 0 0.36959298495063608 0.43610817863788948 0 0.38530342098431941 0.41064856824057122 0 0.3889231515195431 0.43141286456833011 0 0.3889231515195431 0.43141286456833011 0 0.40362265567455102 0.42304679086704539 0 0.39942544658573009 0.43872588670818857 0 0.40362265567455102 0.42304679086704539 0 0.41248490446316177 0.43293377153942381 0 0.39942544658573009 0.43872588670818857 0 0.38530342098431941 0.41064856824057122 0 0.3889231515195431 0.43141286456833011 0 0.40362265567455102 0.42304679086704539 0 0.38530342098431941 0.41064856824057122 0 0.40362265567455102 0.42304679086704539 0 0.41521715527738928 0.40390661881175682 0 0.40362265567455102 0.42304679086704539 0 0.42233359500988371 0.42307221464191669 0 0.41521715527738928 0.40390661881175682 0 0.40362265567455102 0.42304679086704539 0 0.41248490446316177 0.43293377153942381 0 0.42233359500988371 0.42307221464191669 0 0.41248490446316177 0.43293377153942381 0 0.42233359500988371 0.42307221464191669 0 0.42326813014219627 0.43909650749986368 0 0.42233359500988371 0.42307221464191669 0 0.43681876433844857 0.43497208046478802 0 0.42326813014219627 0.43909650749986368 0 0.42233359500988371 0.42307221464191669 0 0.43681876433844857 0.43497208046478802 0 0.43655617137350622 0.42038510460191503 0 0.42233359500988371 0.42307221464191669 0 0.42830887421762198 0.41018013153495869 0 0.41521715527738928 0.40390661881175682 0 0.42233359500988371 0.42307221464191669 0 0.42830887421762198 0.41018013153495869 0 0.43655617137350622 0.42038510460191503 0 0.42830887421762198 0.41018013153495869 0 0.43655617137350622 0.42038510460191503 0 0.439625884597032 0.40642404903869822 0 0.42978568865087441 0.39901034440009059 0 0.42344095457037051 0.38268701701273461 0 0.4433226365022459 0.39280274251209668 0 0.42978568865087441 0.39901034440009059 0 0.41521715527738928 0.40390661881175682 0 0.42344095457037051 0.38268701701273461 0 0.42830887421762198 0.41018013153495869 0 0.42978568865087441 0.39901034440009059 0 0.439625884597032 0.40642404903869822 0 0.42830887421762198 0.41018013153495869 0 0.42978568865087441 0.39901034440009059 0 0.41521715527738928 0.40390661881175682 0 0.4167242930516859 0.35972934744593471 0 0.40101385701800268 0.38518895784325291 0 0.42344095457037051 0.38268701701273461 0 0.40101385701800268 0.38518895784325291 0 0.41521715527738928 0.40390661881175682 0 0.42344095457037051 0.38268701701273461 0 0.43815350284422228 0.36591948582569622 0 0.42344095457037051 0.38268701701273461 0 0.4433226365022459 0.39280274251209668 0 0.43815350284422228 0.36591948582569622 0 0.4433226365022459 0.39280274251209668 0 0.43815350284422228 0.36591948582569622 0 0.4433226365022459 0.39280274251209668 0 0.45848938469160699 0.38276388730883248 0 0.4433226365022459 0.39280274251209668 0 0.4587292321942566 0.40377894109977869 0 0.44849177016026981 0.41968599919849731 0 0.4433226365022459 0.39280274251209668 0 0.44849177016026981 0.41968599919849731 0 0.42978568865087441 0.39901034440009059 0 0.4433226365022459 0.39280274251209668 0 0.439625884597032 0.40642404903869822 0 0.4433226365022459 0.39280274251209668 0 0.4587292321942566 0.40377894109977869 0 0.45848938469160699 0.38276388730883248 0 0.4587292321942566 0.40377894109977869 0 0.45848938469160699 0.38276388730883248 0 0.47720201034463561 0.39055994944820821 0 0.46972057754862501 0.36630584452178799 0 0.45848938469160699 0.38276388730883248 0 0.47720201034463561 0.39055994944820821 0 0.46972057754862501 0.36630584452178799 0 0.47720201034463561 0.39055994944820821 0 0.5 0.37670548581833618 0 0.47720201034463561 0.39055994944820821 0 0.5 0.40420347785375749 0 0.47329291580914951 0.41490179660840648 0 0.4587292321942566 0.40377894109977869 0 0.47720201034463561 0.39055994944820821 0 0.47329291580914951 0.41490179660840648 0 0.47720201034463561 0.39055994944820821 0 0.5 0.40420347785375749 0 0.5 0.37670548581833618 0 0.48546521128148462 0.42572005307568972 0 0.49999999999999828 0.43170146988917901 0 0.48502495584706629 0.44181750450007778 0 0.49999999999999828 0.43170146988917901 0 0.48502495584706629 0.44181750450007778 0 0.5 0.40420347785375749 0 0.48546521128148462 0.42572005307568972 0 0.47329291580914951 0.41490179660840648 0 0.5 0.40420347785375749 0 0.48546521128148462 0.42572005307568972 0 0.49999999999999828 0.43170146988917901 0 0.48546521128148462 0.42572005307568972 0 0.47462076711180717 0.43403653248997731 0 0.48502495584706629 0.44181750450007778 0 0.47329291580914951 0.41490179660840648 0 0.47462076711180717 0.43403653248997731 0 0.45927084092720188 0.43580976915473651 0 0.48546521128148462 0.42572005307568972 0 0.47329291580914951 0.41490179660840648 0 0.47462076711180717 0.43403653248997731 0 0.45927084092720188 0.43580976915473651 0 0.44849177016026981 0.41968599919849731 0 0.47329291580914951 0.41490179660840648 0 0.45927084092720188 0.43580976915473651 0 0.44849177016026981 0.41968599919849731 0 0.45927084092720188 0.43580976915473651 0 0.44849177016026981 0.41968599919849731 0 0.45165089640657707 0.43611575462809582 0 0.4587292321942566 0.40377894109977869 0 0.47329291580914951 0.41490179660840648 0 0.44849177016026981 0.41968599919849731 0 0.4433226365022459 0.39280274251209668 0 0.44849177016026981 0.41968599919849731 0 0.439625884597032 0.40642404903869822 0 0.43655617137350622 0.42038510460191503 0 0.44849177016026981 0.41968599919849731 0 0.439625884597032 0.40642404903869822 0 0.44849177016026981 0.41968599919849731 0 0.439625884597032 0.40642404903869822 0 0.44849177016026981 0.41968599919849731 0 0.45165089640657707 0.43611575462809582 0 0.44386952542921521 0.4295111469185629 0 0.44849177016026981 0.41968599919849731 0 0.45165089640657707 0.43611575462809582 0 0.45165089640657707 0.43611575462809582 0 0.44386952542921521 0.4295111469185629 0 0.44519082659473158 0.43782150968735878 0 0.43655617137350622 0.42038510460191503 0 0.44849177016026981 0.41968599919849731 0 0.44386952542921521 0.4295111469185629 0 0.43681876433844857 0.43497208046478802 0 0.43655617137350622 0.42038510460191503 0 0.44386952542921521 0.4295111469185629 0 0.43681876433844857 0.43497208046478802 0 0.44386952542921521 0.4295111469185629 0 0.44519082659473158 0.43782150968735878 0 0.43681876433844857 0.43497208046478802 0 0.44519082659473158 0.43782150968735878 0 0.44362096681603608 0.44566090358066651 0 0.43681876433844857 0.43497208046478802 0 0.44362096681603608 0.44566090358066651 0 0.43343701099378978 0.44857281610427868 0 0.44362096681603608 0.44566090358066651 0 0.44110505044236059 0.45564825146568327 0 0.43343701099378978 0.44857281610427868 0 0.44362096681603608 0.44566090358066651 0 0.45255374853073171 0.45216262504332899 0 0.45221828903371142 0.44335246171580328 0 0.44362096681603608 0.44566090358066651 0 0.45255374853073171 0.45216262504332899 0 0.44110505044236059 0.45564825146568327 0 0.44519082659473158 0.43782150968735878 0 0.44362096681603608 0.44566090358066651 0 0.45221828903371142 0.44335246171580328 0 0.45165089640657707 0.43611575462809582 0 0.44519082659473158 0.43782150968735878 0 0.45221828903371142 0.44335246171580328 0 0.45255374853073171 0.45216262504332899 0 0.44518446721829791 0.46873079822848901 0 0.44110505044236059 0.45564825146568327 0 0.44518446721829791 0.46873079822848901 0 0.44110505044236059 0.45564825146568327 0 0.43072905865294731 0.46311411437165317 0 0.47284597636140308 0.45611600571247141 0 0.46302896313844299 0.47272331085799019 0 0.45255374853073171 0.45216262504332899 0 0.44518446721829791 0.46873079822848901 0 0.47004991169413368 0.45193353911097589 0 0.47004991169413368 0.45193353911097589 0 0.47284597636140308 0.45611600571247141 0 0.46302896313844299 0.47272331085799019 0 0.44518446721829791 0.46873079822848901 0 0.47004991169413368 0.45193353911097589 0 0.46302896313844299 0.47272331085799019 0 0.44518446721829791 0.46873079822848901 0 0.47004991169413368 0.45193353911097589 0 0.45927084092720188 0.43580976915473651 0 0.47004991169413368 0.45193353911097589 0 0.45927084092720188 0.43580976915473651 0 0.45930684530103161 0.44617181272829648 0 0.47004991169413368 0.45193353911097589 0 0.47462076711180717 0.43403653248997731 0 0.45927084092720188 0.43580976915473651 0 0.47004991169413368 0.45193353911097589 0 0.45255374853073171 0.45216262504332899 0 0.45930684530103161 0.44617181272829648 0 0.47004991169413368 0.45193353911097589 0 0.45927084092720188 0.43580976915473651 0 0.45221828903371142 0.44335246171580328 0 0.45930684530103161 0.44617181272829648 0 0.45927084092720188 0.43580976915473651 0 0.45165089640657707 0.43611575462809582 0 0.45221828903371142 0.44335246171580328 0 0.45255374853073171 0.45216262504332899 0 0.45221828903371142 0.44335246171580328 0 0.45930684530103161 0.44617181272829648 0 0.47462076711180717 0.43403653248997731 0 0.47004991169413368 0.45193353911097589 0 0.48502495584706629 0.44181750450007778 0 0.48189680466807888 0.45106209462173341 0 0.47450081081676521 0.45331654521044668 0 0.48502495584706629 0.44181750450007778 0 0.47004991169413368 0.45193353911097589 0 0.48502495584706629 0.44181750450007778 0 0.47004991169413368 0.45193353911097589 0 0.47450081081676521 0.45331654521044668 0 0.48502495584706629 0.44181750450007778 0 0.47284597636140308 0.45611600571247141 0 0.48050552008400071 0.46757346096286262 0 0.46302896313844299 0.47272331085799019 0 0.47004991169413368 0.45193353911097589 0 0.47284597636140308 0.45611600571247141 0 0.47004991169413368 0.45193353911097589 0 0.47450081081676521 0.45331654521044668 0 0.47284597636140308 0.45611600571247141 0 0.47450081081676521 0.45331654521044668 0 0.47284597636140308 0.45611600571247141 0 0.47951191807974908 0.45654698881850991 0 0.47450081081676521 0.45331654521044668 0 0.47284597636140308 0.45611600571247141 0 0.47284597636140308 0.45611600571247141 0 0.48050552008400071 0.46757346096286262 0 0.47284597636140308 0.45611600571247141 0 0.48050552008400071 0.46757346096286262 0 0.47951191807974908 0.45654698881850991 0 0.48189680466807888 0.45106209462173341 0 0.47951191807974908 0.45654698881850991 0 0.4878104784684959 0.4546668375850359 0 0.48050552008400071 0.46757346096286262 0 0.47951191807974908 0.45654698881850991 0 0.4878104784684959 0.4546668375850359 0 0.48189680466807888 0.45106209462173341 0 0.47450081081676521 0.45331654521044668 0 0.47951191807974908 0.45654698881850991 0 0.48050552008400071 0.46757346096286262 0 0.4878104784684959 0.4546668375850359 0 0.49999999999999928 0.46182898591187349 0 0.48050552008400071 0.46757346096286262 0 0.49999999999999928 0.46182898591187349 0 0.49999999999999828 0.43170146988917901 0 0.4878104784684959 0.4546668375850359 0 0.49999999999999928 0.46182898591187349 0 0.49999999999999828 0.43170146988917901 0 0.4878104784684959 0.4546668375850359 0 0.48502495584706629 0.44181750450007778 0 0.48189680466807888 0.45106209462173341 0 0.4878104784684959 0.4546668375850359 0 0.48502495584706629 0.44181750450007778 0 0.49999999999999928 0.46182898591187349 0 0.5 0.5 0 0.49753071700976492 0.4930404390193398 0 0.5 0.5 0 0.47501141284236448 0.48698608464618232 0 0.44690499747156931 0.4999999999999995 0 0.5 0.5 0 0.49753071700976492 0.4930404390193398 0 0.47501141284236448 0.48698608464618232 0 0.49753071700976492 0.4930404390193398 0 0.48901811854688337 0.4803069499911008 0 0.47501141284236448 0.48698608464618232 0 0.49753071700976492 0.4930404390193398 0 0.48901811854688337 0.4803069499911008 0 0.48050552008400071 0.46757346096286262 0 0.49999999999999928 0.46182898591187349 0 0.48901811854688337 0.4803069499911008 0 0.49999999999999928 0.46182898591187349 0 0.49753071700976492 0.4930404390193398 0 0.48901811854688337 0.4803069499911008 0 0.48050552008400071 0.46757346096286262 0 0.48901811854688337 0.4803069499911008 0 0.48050552008400071 0.46757346096286262 0 0.46302896313844299 0.47272331085799019 0 0.48901811854688337 0.4803069499911008 0 0.47689100365292297 0.47689745161453417 0 0.47501141284236448 0.48698608464618232 0 0.48050552008400071 0.46757346096286262 0 0.47689100365292297 0.47689745161453417 0 0.46302896313844299 0.47272331085799019 0 0.48050552008400071 0.46757346096286262 0 0.48901811854688337 0.4803069499911008 0 0.47689100365292297 0.47689745161453417 0 0.47689100365292297 0.47689745161453417 0 0.47501141284236448 0.48698608464618232 0 0.46302896313844299 0.47272331085799019 0 0.47501141284236448 0.48698608464618232 0 0.45496698030500621 0.48636165542899479 0 0.44690499747156931 0.4999999999999995 0 0.47501141284236448 0.48698608464618232 0 0.45496698030500621 0.48636165542899479 0 0.46302896313844299 0.47272331085799019 0 0.45496698030500621 0.48636165542899479 0 0.46302896313844299 0.47272331085799019 0 0.46302896313844299 0.47272331085799019 0 0.43620850627812668 0.48062654530969717 0 0.44518446721829791 0.46873079822848901 0 0.46302896313844299 0.47272331085799019 0 0.43620850627812668 0.48062654530969717 0 0.45496698030500621 0.48636165542899479 0 0.46302896313844299 0.47272331085799019 0 0.43620850627812668 0.48062654530969717 0 0.45496698030500621 0.48636165542899479 0 0.44690499747156931 0.4999999999999995 0 0.43620850627812668 0.48062654530969717 0 0.45496698030500621 0.48636165542899479 0 0.44690499747156931 0.4999999999999995 0 0.42031902274246069 0.48552805734600057 0 0.41743852268843429 0.5 0 0.43620850627812668 0.48062654530969717 0 0.44690499747156931 0.4999999999999995 0 0.41743852268843429 0.5 0 0.43620850627812668 0.48062654530969717 0 0.42031902274246069 0.48552805734600057 0 0.41743852268843429 0.5 0 0.40134209412993838 0.48520307466421098 0 0.42031902274246069 0.48552805734600057 0 0.40973563488985532 0.47579104778557152 0 0.40134209412993838 0.48520307466421098 0 0.42031902274246069 0.48552805734600057 0 0.40973563488985532 0.47579104778557152 0 0.41789473538963601 0.46705380048502582 0 0.44518446721829791 0.46873079822848901 0 0.42031902274246069 0.48552805734600057 0 0.43072905865294731 0.46311411437165317 0 0.44518446721829791 0.46873079822848901 0 0.42031902274246069 0.48552805734600057 0 0.43620850627812668 0.48062654530969717 0 0.44518446721829791 0.46873079822848901 0 0.42031902274246069 0.48552805734600057 0 0.42031902274246069 0.48552805734600057 0 0.43072905865294731 0.46311411437165317 0 0.41789473538963601 0.46705380048502582 0 0.44110505044236059 0.45564825146568327 0 0.43072905865294731 0.46311411437165317 0 0.43343701099378978 0.44857281610427868 0 0.43072905865294731 0.46311411437165317 0 0.43343701099378978 0.44857281610427868 0 0.42053980660522761 0.45341513910658388 0 0.43072905865294731 0.46311411437165317 0 0.41789473538963601 0.46705380048502582 0 0.42053980660522761 0.45341513910658388 0 0.43681876433844857 0.43497208046478802 0 0.43343701099378978 0.44857281610427868 0 0.42326813014219627 0.43909650749986368 0 0.43343701099378978 0.44857281610427868 0 0.42326813014219627 0.43909650749986368 0 0.42053980660522761 0.45341513910658388 0 0.41248490446316177 0.43293377153942381 0 0.42326813014219627 0.43909650749986368 0 0.41215324011006321 0.44426916471351768 0 0.42326813014219627 0.43909650749986368 0 0.41215324011006321 0.44426916471351768 0 0.42053980660522761 0.45341513910658388 0 0.41215324011006321 0.44426916471351768 0 0.42053980660522761 0.45341513910658388 0 0.40575666434273311 0.45838443146516472 0 0.41248490446316177 0.43293377153942381 0 0.41215324011006321 0.44426916471351768 0 0.39942544658573009 0.43872588670818857 0 0.40973563488985532 0.47579104778557152 0 0.41789473538963601 0.46705380048502582 0 0.40575666434273311 0.45838443146516472 0 0.41789473538963601 0.46705380048502582 0 0.42053980660522761 0.45341513910658388 0 0.40575666434273311 0.45838443146516472 0 0.40973563488985532 0.47579104778557152 0 0.40575666434273311 0.45838443146516472 0 0.39457326129307041 0.46924519202038539 0 0.40575666434273311 0.45838443146516472 0 0.38748492612950952 0.44892285829301931 0 0.39457326129307041 0.46924519202038539 0 0.40575666434273311 0.45838443146516472 0 0.39942544658573009 0.43872588670818857 0 0.38748492612950952 0.44892285829301931 0 0.3889231515195431 0.43141286456833011 0 0.39942544658573009 0.43872588670818857 0 0.38748492612950952 0.44892285829301931 0 0.41215324011006321 0.44426916471351768 0 0.40575666434273311 0.45838443146516472 0 0.39942544658573009 0.43872588670818857 0 0.36980735363827261 0.46050290225189661 0 0.36959298495063608 0.43610817863788948 0 0.38748492612950952 0.44892285829301931 0 0.36959298495063608 0.43610817863788948 0 0.3889231515195431 0.43141286456833011 0 0.38748492612950952 0.44892285829301931 0 0.36980735363827261 0.46050290225189661 0 0.38748492612950952 0.44892285829301931 0 0.39457326129307041 0.46924519202038539 0 0.36980735363827261 0.46050290225189661 0 0.37801407526051067 0.48065415083330842 0 0.39457326129307041 0.46924519202038539 0 0.37801407526051067 0.48065415083330842 0 0.38797204790529932 0.5 0 0.40134209412993838 0.48520307466421098 0 0.41743852268843429 0.5 0 0.38797204790529932 0.5 0 0.40134209412993838 0.48520307466421098 0 0.40973563488985532 0.47579104778557152 0 0.40134209412993838 0.48520307466421098 0 0.39457326129307041 0.46924519202038539 0 0.37801407526051067 0.48065415083330842 0 0.40134209412993838 0.48520307466421098 0 0.39457326129307041 0.46924519202038539 0 0.33471388977496319 0.083869725553476451 0 0.32003772732572838 0.080925826065863432 0 0.34163206045391592 0.099703108374672819 0 0.32003772732572838 0.080925826065863432 0 0.34163206045391592 0.099703108374672819 0 0.33471388977496319 0.083869725553476451 0 0.34163206045391592 0.099703108374672819 0 0.35085433501378249 0.086695181415402722 0 0.33471388977496319 0.083869725553476451 0 0.34209731100959018 0.06531632876058778 0 0.3490795063897344 0.076610282135673974 0 0.33471388977496319 0.083869725553476451 0 0.34209731100959018 0.06531632876058778 0 0.32721969837032222 0.069259436753723466 0 0.33471388977496319 0.083869725553476451 0 0.32721969837032222 0.069259436753723466 0 0.32003772732572838 0.080925826065863432 0 0.31518448171420999 0.065085558788002928 0 0.32721969837032222 0.069259436753723466 0 0.32003772732572838 0.080925826065863432 0 0.32003772732572838 0.080925826065863432 0 0.31657863646219547 0.093324099257994786 0 0.34163206045391592 0.099703108374672819 0 0.32003772732572838 0.080925826065863432 0 0.31657863646219547 0.093324099257994786 0 0.30227411453462139 0.089652133027170247 0 0.33471388977496319 0.083869725553476451 0 0.32003772732572838 0.080925826065863432 0 0.31657863646219547 0.093324099257994786 0 0.32025759602694659 0.1047776340902011 0 0.34163206045391592 0.099703108374672819 0 0.31657863646219547 0.093324099257994786 0 0.32025759602694659 0.1047776340902011 0 0.30640852481201453 0.1024735992044304 0 0.32025759602694659 0.1047776340902011 0 0.31114536757858358 0.11742006929579971 0 0.30640852481201453 0.1024735992044304 0 0.32606950933900308 0.1158177097477945 0 0.31114536757858358 0.11742006929579971 0 0.3195478300457561 0.1332621056988223 0 0.32025759602694659 0.1047776340902011 0 0.32606950933900308 0.1158177097477945 0 0.31114536757858358 0.11742006929579971 0 0.33761965874988609 0.1186889285033586 0 0.34163206045391592 0.099703108374672819 0 0.34956654336434939 0.1234914401014125 0 0.32606950933900308 0.1158177097477945 0 0.33761965874988609 0.1186889285033586 0 0.34163206045391592 0.099703108374672819 0 0.32606950933900308 0.1158177097477945 0 0.33761965874988609 0.1186889285033586 0 0.33436770153514289 0.13112975471366969 0 0.33761965874988609 0.1186889285033586 0 0.34956654336434939 0.1234914401014125 0 0.33436770153514289 0.13112975471366969 0 0.32025759602694659 0.1047776340902011 0 0.32606950933900308 0.1158177097477945 0 0.34163206045391592 0.099703108374672819 0 0.34163206045391592 0.099703108374672819 0 0.35755874922647762 0.098360434014750309 0 0.36322639358210312 0.11848039068348271 0 0.34163206045391592 0.099703108374672819 0 0.36322639358210312 0.11848039068348271 0 0.34163206045391592 0.099703108374672819 0 0.35755874922647762 0.098360434014750309 0 0.35085433501378249 0.086695181415402722 0 0.34163206045391592 0.099703108374672819 0 0.34956654336434939 0.1234914401014125 0 0.36322639358210312 0.11848039068348271 0 0.36322639358210312 0.11848039068348271 0 0.37045299287494049 0.09679375479102828 0 0.38005682511468147 0.12140739343396729 0 0.35755874922647762 0.098360434014750309 0 0.36322639358210312 0.11848039068348271 0 0.37045299287494049 0.09679375479102828 0 0.35755874922647762 0.098360434014750309 0 0.37045299287494049 0.09679375479102828 0 0.35979627253246887 0.087956112087811941 0 0.37045299287494049 0.09679375479102828 0 0.36986657419494789 0.075759843690150083 0 0.37682589963749002 0.081332762740894418 0 0.37045299287494049 0.09679375479102828 0 0.35979627253246887 0.087956112087811941 0 0.36084916063519962 0.072180116148089279 0 0.37045299287494049 0.09679375479102828 0 0.36084916063519962 0.072180116148089279 0 0.36986657419494789 0.075759843690150083 0 0.37045299287494049 0.09679375479102828 0 0.36084916063519962 0.072180116148089279 0 0.35755874922647762 0.098360434014750309 0 0.35979627253246887 0.087956112087811941 0 0.35085433501378249 0.086695181415402722 0 0.35979627253246887 0.087956112087811941 0 0.35560274156159061 0.081403828627082772 0 0.36084916063519962 0.072180116148089279 0 0.33471388977496319 0.083869725553476451 0 0.35085433501378249 0.086695181415402722 0 0.3490795063897344 0.076610282135673974 0 0.35979627253246887 0.087956112087811941 0 0.35560274156159061 0.081403828627082772 0 0.35085433501378249 0.086695181415402722 0 0.35560274156159061 0.081403828627082772 0 0.35085433501378249 0.086695181415402722 0 0.3490795063897344 0.076610282135673974 0 0.34209731100959018 0.06531632876058778 0 0.3490795063897344 0.076610282135673974 0 0.36084916063519962 0.072180116148089279 0 0.36448270712015302 0.068442951443566186 0 0.36084916063519962 0.072180116148089279 0 0.35124532839545858 0.047566477505150237 0 0.35560274156159061 0.081403828627082772 0 0.3490795063897344 0.076610282135673974 0 0.36084916063519962 0.072180116148089279 0 0.36448270712015302 0.068442951443566186 0 0.36084916063519962 0.072180116148089279 0 0.36986657419494789 0.075759843690150083 0 0.36986657419494789 0.075759843690150083 0 0.37596532967213542 0.069868995675824025 0 0.37682589963749002 0.081332762740894418 0 0.36448270712015302 0.068442951443566186 0 0.36986657419494789 0.075759843690150083 0 0.37084641292541748 0.06878424193773866 0 0.36986657419494789 0.075759843690150083 0 0.37084641292541748 0.06878424193773866 0 0.37596532967213542 0.069868995675824025 0 0.36448270712015302 0.068442951443566186 0 0.37084641292541748 0.06878424193773866 0 0.37307104071443398 0.061065176941414383 0 0.37084641292541748 0.06878424193773866 0 0.37307104071443398 0.061065176941414383 0 0.37596532967213542 0.069868995675824025 0 0.36448270712015302 0.068442951443566186 0 0.37307104071443398 0.061065176941414383 0 0.37146335928247548 0.04052602251159599 0 0.36448270712015302 0.068442951443566186 0 0.37146335928247548 0.04052602251159599 0 0.35124532839545858 0.047566477505150237 0 0.36448270712015302 0.068442951443566186 0 0.37146335928247548 0.04052602251159599 0 0.37146335928247548 0.04052602251159599 0 0.35572529983931911 0.032753521421585163 0 0.36312657459820519 0.022962182453169309 0 0.37146335928247548 0.04052602251159599 0 0.35572529983931911 0.032753521421585163 0 0.35124532839545858 0.047566477505150237 0 0.35572529983931911 0.032753521421585163 0 0.35124532839545858 0.047566477505150237 0 0.3321968515854315 0.028027004478648001 0 0.36084916063519962 0.072180116148089279 0 0.35124532839545858 0.047566477505150237 0 0.34209731100959018 0.06531632876058778 0 0.36084916063519962 0.072180116148089279 0 0.35124532839545858 0.047566477505150237 0 0.36312657459820519 0.022962182453169309 0 0.35936362748920009 0.0091271431172253586 0 0.37844401144479839 0.012609093579625891 0 0.35936362748920009 0.0091271431172253586 0 0.37844401144479839 0.012609093579625891 0 0.36665723294200347 -0.001883505129568449 0 0.35936362748920009 0.0091271431172253586 0 0.36665723294200347 -0.001883505129568449 0 0.35531676971978082 -0.0033532784323768001 0 0.37146335928247548 0.04052602251159599 0 0.36312657459820519 0.022962182453169309 0 0.37844401144479839 0.012609093579625891 0 0.37146335928247548 0.04052602251159599 0 0.37844401144479839 0.012609093579625891 0 0.35572529983931911 0.032753521421585163 0 0.35063657493523293 0.0197951316358141 0 0.3321968515854315 0.028027004478648001 0 0.35572529983931911 0.032753521421585163 0 0.36312657459820519 0.022962182453169309 0 0.35063657493523293 0.0197951316358141 0 0.36312657459820519 0.022962182453169309 0 0.35063657493523293 0.0197951316358141 0 0.35936362748920009 0.0091271431172253586 0 0.35936362748920009 0.0091271431172253586 0 0.33689267375143878 0.0039255003288513873 0 0.35531676971978082 -0.0033532784323768001 0 0.35063657493523293 0.0197951316358141 0 0.35936362748920009 0.0091271431172253586 0 0.33689267375143878 0.0039255003288513873 0 0.33689267375143878 0.0039255003288513873 0 0.3321968515854315 0.028027004478648001 0 0.30352242257352219 0.0039185454548519476 0 0.35063657493523293 0.0197951316358141 0 0.33689267375143878 0.0039255003288513873 0 0.3321968515854315 0.028027004478648001 0 0.3321968515854315 0.028027004478648001 0 0.32406508202711942 0.05109974460068676 0 0.30086563814790429 0.035038583275740692 0 0.34209731100959018 0.06531632876058778 0 0.32721969837032222 0.069259436753723466 0 0.32406508202711942 0.05109974460068676 0 0.34209731100959018 0.06531632876058778 0 0.35124532839545858 0.047566477505150237 0 0.32406508202711942 0.05109974460068676 0 0.35124532839545858 0.047566477505150237 0 0.3321968515854315 0.028027004478648001 0 0.32406508202711942 0.05109974460068676 0 0.31518448171420999 0.065085558788002928 0 0.32721969837032222 0.069259436753723466 0 0.32406508202711942 0.05109974460068676 0 0.31518448171420999 0.065085558788002928 0 0.32406508202711942 0.05109974460068676 0 0.29882370077581188 0.062479238108283437 0 0.32406508202711942 0.05109974460068676 0 0.29882370077581188 0.062479238108283437 0 0.30086563814790429 0.035038583275740692 0 0.32406508202711942 0.05109974460068676 0 0.30086563814790429 0.035038583275740692 0 0.30086563814790429 0.035038583275740692 0 0.28350496565293731 0.043820562147367653 0 0.27766619426868899 0.018977421950794569 0 0.29882370077581188 0.062479238108283437 0 0.30086563814790429 0.035038583275740692 0 0.28350496565293731 0.043820562147367653 0 0.29882370077581188 0.062479238108283437 0 0.28350496565293731 0.043820562147367653 0 0.28339325744793759 0.061338593161917712 0 0.3321968515854315 0.028027004478648001 0 0.30086563814790429 0.035038583275740692 0 0.30352242257352219 0.0039185454548519476 0 0.30086563814790429 0.035038583275740692 0 0.27766619426868899 0.018977421950794569 0 0.30086563814790429 0.035038583275740692 0 0.30352242257352219 0.0039185454548519476 0 0.27766619426868899 0.018977421950794569 0 0.30352242257352219 0.0039185454548519476 0 0.27766619426868899 0.018977421950794569 0 0.27708695819087842 -0.0025378708656911609 0 0.27766619426868899 0.018977421950794569 0 0.25446675038947358 0.0029162606258486688 0 0.27766619426868899 0.018977421950794569 0 0.26047117107291767 -0.0019720443344692288 0 0.27708695819087842 -0.0025378708656911609 0 0.27766619426868899 0.018977421950794569 0 0.2600935707136679 0.019574361616358959 0 0.26464981823601458 0.038183209123269009 0 0.2600935707136679 0.019574361616358959 0 0.26464981823601458 0.038183209123269009 0 0.25044211127373811 0.032849993626191502 0 0.27766619426868899 0.018977421950794569 0 0.2600935707136679 0.019574361616358959 0 0.25446675038947358 0.0029162606258486688 0 0.27766619426868899 0.018977421950794569 0 0.25446675038947358 0.0029162606258486688 0 0.26047117107291767 -0.0019720443344692288 0 0.25446675038947358 0.0029162606258486688 0 0.26047117107291767 -0.0019720443344692288 0 0.28339325744793759 0.061338593161917712 0 0.2699795556074106 0.054659435659755229 0 0.26514968559830832 0.069915803624621298 0 0.28350496565293731 0.043820562147367653 0 0.28339325744793759 0.061338593161917712 0 0.2699795556074106 0.054659435659755229 0 0.28350496565293731 0.043820562147367653 0 0.27766619426868899 0.018977421950794569 0 0.26464981823601458 0.038183209123269009 0 0.28350496565293731 0.043820562147367653 0 0.2699795556074106 0.054659435659755229 0 0.26464981823601458 0.038183209123269009 0 0.26464981823601458 0.038183209123269009 0 0.25174039047255609 0.044464402284776217 0 0.2585751734657834 0.052327775232976027 0 0.26464981823601458 0.038183209123269009 0 0.25044211127373811 0.032849993626191502 0 0.25174039047255609 0.044464402284776217 0 0.25174039047255609 0.044464402284776217 0 0.25102243244437311 0.053297338652025752 0 0.2585751734657834 0.052327775232976027 0 0.2699795556074106 0.054659435659755229 0 0.26464981823601458 0.038183209123269009 0 0.2585751734657834 0.052327775232976027 0 0.2699795556074106 0.054659435659755229 0 0.2585751734657834 0.052327775232976027 0 0.26000268679747079 0.061003988239662958 0 0.2699795556074106 0.054659435659755229 0 0.26000268679747079 0.061003988239662958 0 0.26514968559830832 0.069915803624621298 0 0.2585751734657834 0.052327775232976027 0 0.26000268679747079 0.061003988239662958 0 0.2530174900015254 0.0600809219264858 0 0.25102243244437311 0.053297338652025752 0 0.2585751734657834 0.052327775232976027 0 0.2530174900015254 0.0600809219264858 0 0.24751669685985911 0.059618880130872708 0 0.25102243244437311 0.053297338652025752 0 0.2530174900015254 0.0600809219264858 0 0.24853219730195361 0.063845178725116872 0 0.2530174900015254 0.0600809219264858 0 0.25274476311700622 0.067427493409812952 0 0.2530174900015254 0.0600809219264858 0 0.25274476311700622 0.067427493409812952 0 0.26000268679747079 0.061003988239662958 0 0.2530174900015254 0.0600809219264858 0 0.25274476311700622 0.067427493409812952 0 0.25274476311700622 0.067427493409812952 0 0.25243039498113262 0.075895774732197205 0 0.24842415088314279 0.069033451464499671 0 0.25274476311700622 0.067427493409812952 0 0.25243039498113262 0.075895774732197205 0 0.25274476311700622 0.067427493409812952 0 0.25243039498113262 0.075895774732197205 0 0.26514968559830832 0.069915803624621298 0 0.25243039498113262 0.075895774732197205 0 0.26514968559830832 0.069915803624621298 0 0.26417250328098718 0.085299079350852347 0 0.25243039498113262 0.075895774732197205 0 0.26514968559830832 0.069915803624621298 0 0.26000268679747079 0.061003988239662958 0 0.25274476311700622 0.067427493409812952 0 0.26514968559830832 0.069915803624621298 0 0.25274476311700622 0.067427493409812952 0 0.26514968559830832 0.069915803624621298 0 0.25243039498113262 0.075895774732197205 0 0.26417250328098718 0.085299079350852347 0 0.25158482098595109 0.098673396421397969 0 0.25243039498113262 0.075895774732197205 0 0.25158482098595109 0.098673396421397969 0 0.26417250328098718 0.085299079350852347 0 0.27563544099652842 0.091217529053328833 0 0.26597619666038957 0.098681263799979324 0 0.26417250328098718 0.085299079350852347 0 0.27658940398852799 0.081360569412953818 0 0.27563544099652842 0.091217529053328833 0 0.26514968559830832 0.069915803624621298 0 0.26417250328098718 0.085299079350852347 0 0.27658940398852799 0.081360569412953818 0 0.27658940398852799 0.081360569412953818 0 0.27563544099652842 0.091217529053328833 0 0.28742128170162778 0.087331448045782731 0 0.28339325744793759 0.061338593161917712 0 0.26514968559830832 0.069915803624621298 0 0.29259370646201821 0.075420814845242989 0 0.26514968559830832 0.069915803624621298 0 0.27658940398852799 0.081360569412953818 0 0.29259370646201821 0.075420814845242989 0 0.28339325744793759 0.061338593161917712 0 0.26514968559830832 0.069915803624621298 0 0.26514968559830832 0.069915803624621298 0 0.29259370646201821 0.075420814845242989 0 0.29882370077581188 0.062479238108283437 0 0.28339325744793759 0.061338593161917712 0 0.29259370646201821 0.075420814845242989 0 0.27658940398852799 0.081360569412953818 0 0.29259370646201821 0.075420814845242989 0 0.28742128170162778 0.087331448045782731 0 0.27563544099652842 0.091217529053328833 0 0.28742128170162778 0.087331448045782731 0 0.29001374252644291 0.099006193890217781 0 0.28742128170162778 0.087331448045782731 0 0.30227411453462139 0.089652133027170247 0 0.29001374252644291 0.099006193890217781 0 0.29259370646201821 0.075420814845242989 0 0.28742128170162778 0.087331448045782731 0 0.30227411453462139 0.089652133027170247 0 0.32003772732572838 0.080925826065863432 0 0.29259370646201821 0.075420814845242989 0 0.30227411453462139 0.089652133027170247 0 0.32003772732572838 0.080925826065863432 0 0.29259370646201821 0.075420814845242989 0 0.32003772732572838 0.080925826065863432 0 0.29882370077581188 0.062479238108283437 0 0.29259370646201821 0.075420814845242989 0 0.32003772732572838 0.080925826065863432 0 0.29882370077581188 0.062479238108283437 0 0.31518448171420999 0.065085558788002928 0 0.32003772732572838 0.080925826065863432 0 0.29882370077581188 0.062479238108283437 0 0.29818169174329712 0.11066146566519899 0 0.31114536757858358 0.11742006929579971 0 0.294250496481684 0.12267566802032639 0 0.31114536757858358 0.11742006929579971 0 0.294250496481684 0.12267566802032639 0 0.30313841955192899 0.13260249050964579 0 0.29818169174329712 0.11066146566519899 0 0.31114536757858358 0.11742006929579971 0 0.30640852481201453 0.1024735992044304 0 0.30227411453462139 0.089652133027170247 0 0.30640852481201453 0.1024735992044304 0 0.29001374252644291 0.099006193890217781 0 0.29818169174329712 0.11066146566519899 0 0.30640852481201453 0.1024735992044304 0 0.29001374252644291 0.099006193890217781 0 0.31657863646219547 0.093324099257994786 0 0.30227411453462139 0.089652133027170247 0 0.30640852481201453 0.1024735992044304 0 0.29818169174329712 0.11066146566519899 0 0.29001374252644291 0.099006193890217781 0 0.28729541733308872 0.1128284558108848 0 0.29001374252644291 0.099006193890217781 0 0.28729541733308872 0.1128284558108848 0 0.27577858748266387 0.1072301355245756 0 0.29818169174329712 0.11066146566519899 0 0.28729541733308872 0.1128284558108848 0 0.294250496481684 0.12267566802032639 0 0.28729541733308872 0.1128284558108848 0 0.294250496481684 0.12267566802032639 0 0.28067449336876182 0.1220521091494646 0 0.28067449336876182 0.1220521091494646 0 0.26956705708048567 0.1198361090660386 0 0.27577858748266387 0.1072301355245756 0 0.28729541733308872 0.1128284558108848 0 0.28067449336876182 0.1220521091494646 0 0.27577858748266387 0.1072301355245756 0 0.26956705708048567 0.1198361090660386 0 0.27577858748266387 0.1072301355245756 0 0.26270963055581759 0.11098617864974181 0 0.27563544099652842 0.091217529053328833 0 0.27577858748266387 0.1072301355245756 0 0.26597619666038957 0.098681263799979324 0 0.27563544099652842 0.091217529053328833 0 0.29001374252644291 0.099006193890217781 0 0.27577858748266387 0.1072301355245756 0 0.27577858748266387 0.1072301355245756 0 0.26597619666038957 0.098681263799979324 0 0.26270963055581759 0.11098617864974181 0 0.25158482098595109 0.098673396421397969 0 0.25094552198087999 0.11589449234768209 0 0.25158482098595109 0.098673396421397969 0 0.26270963055581759 0.11098617864974181 0 0.25094552198087999 0.11589449234768209 0 0.26417250328098718 0.085299079350852347 0 0.26597619666038957 0.098681263799979324 0 0.25158482098595109 0.098673396421397969 0 0.26597619666038957 0.098681263799979324 0 0.25158482098595109 0.098673396421397969 0 0.26270963055581759 0.11098617864974181 0 0.25158482098595109 0.098673396421397969 0 0.26270963055581759 0.11098617864974181 0 0.25094552198087999 0.11589449234768209 0 0.25030622297580962 0.13311558827396619 0 0.26022612795132161 0.12333036834530881 0 0.25094552198087999 0.11589449234768209 0 0.25030622297580962 0.13311558827396619 0 0.26956705708048567 0.1198361090660386 0 0.26022612795132161 0.12333036834530881 0 0.26270963055581759 0.11098617864974181 0 0.26022612795132161 0.12333036834530881 0 0.26270963055581759 0.11098617864974181 0 0.25094552198087999 0.11589449234768209 0 0.26956705708048567 0.1198361090660386 0 0.26022612795132161 0.12333036834530881 0 0.26675796828336718 0.1380571931171293 0 0.26022612795132161 0.12333036834530881 0 0.25030622297580962 0.13311558827396619 0 0.26675796828336718 0.1380571931171293 0 0.25030622297580962 0.13311558827396619 0 0.26675796828336718 0.1380571931171293 0 0.25030622297580962 0.13311558827396619 0 0.26675796828336718 0.1380571931171293 0 0.25638724149227848 0.14295410589973731 0 0.25004344172447263 0.14019424959050239 0 0.25030622297580962 0.13311558827396619 0 0.25638724149227848 0.14295410589973731 0 0.25004344172447263 0.14019424959050239 0 0.25030622297580962 0.13311558827396619 0 0.26675796828336718 0.1380571931171293 0 0.28320971359092417 0.1429987979602943 0 0.26675796828336718 0.1380571931171293 0 0.28666270206708028 0.1324408374186071 0 0.28320971359092417 0.1429987979602943 0 0.28067449336876182 0.1220521091494646 0 0.26956705708048567 0.1198361090660386 0 0.26675796828336718 0.1380571931171293 0 0.28067449336876182 0.1220521091494646 0 0.26675796828336718 0.1380571931171293 0 0.28666270206708028 0.1324408374186071 0 0.26675796828336718 0.1380571931171293 0 0.27436529468354132 0.15433220537778311 0 0.26010861073109098 0.15248373785575309 0 0.26675796828336718 0.1380571931171293 0 0.27436529468354132 0.15433220537778311 0 0.28320971359092417 0.1429987979602943 0 0.26675796828336718 0.1380571931171293 0 0.26010861073109098 0.15248373785575309 0 0.25638724149227848 0.14295410589973731 0 0.2496536413094039 0.15044712256699261 0 0.25004344172447263 0.14019424959050239 0 0.25638724149227848 0.14295410589973731 0 0.24653130607993951 0.16237692388552691 0 0.2496536413094039 0.15044712256699261 0 0.26010861073109098 0.15248373785575309 0 0.2496536413094039 0.15044712256699261 0 0.26010861073109098 0.15248373785575309 0 0.25638724149227848 0.14295410589973731 0 0.24653130607993951 0.16237692388552691 0 0.25292738168467233 0.17649485219682931 0 0.26638423851283249 0.16867758561061549 0 0.24653130607993951 0.16237692388552691 0 0.26010861073109098 0.15248373785575309 0 0.26638423851283249 0.16867758561061549 0 0.24528107816237801 0.1907036486386274 0 0.25292738168467233 0.17649485219682931 0 0.26633433714882182 0.18577592949096661 0 0.25292738168467233 0.17649485219682931 0 0.26633433714882182 0.18577592949096661 0 0.26638423851283249 0.16867758561061549 0 0.27723266788850742 0.181048228772968 0 0.26638423851283249 0.16867758561061549 0 0.28391425324491287 0.17071999404263091 0 0.26633433714882182 0.18577592949096661 0 0.27723266788850742 0.181048228772968 0 0.26638423851283249 0.16867758561061549 0 0.27436529468354132 0.15433220537778311 0 0.26010861073109098 0.15248373785575309 0 0.26638423851283249 0.16867758561061549 0 0.27436529468354132 0.15433220537778311 0 0.26638423851283249 0.16867758561061549 0 0.28391425324491287 0.17071999404263091 0 0.27436529468354132 0.15433220537778311 0 0.28391425324491287 0.17071999404263091 0 0.29097703849613438 0.15773848939083679 0 0.28391425324491287 0.17071999404263091 0 0.2931647794093819 0.16879209887591959 0 0.29097703849613438 0.15773848939083679 0 0.2931647794093819 0.16879209887591959 0 0.29097703849613438 0.15773848939083679 0 0.30040947706207388 0.16512632217721829 0 0.28391425324491287 0.17071999404263091 0 0.28743664533084129 0.187357279865842 0 0.29743995151898561 0.17866098634217961 0 0.27723266788850742 0.181048228772968 0 0.28391425324491287 0.17071999404263091 0 0.28743664533084129 0.187357279865842 0 0.28391425324491287 0.17071999404263091 0 0.2931647794093819 0.16879209887591959 0 0.29743995151898561 0.17866098634217961 0 0.28743664533084129 0.187357279865842 0 0.29743995151898561 0.17866098634217961 0 0.29971043857951379 0.19298806906372529 0 0.29743995151898561 0.17866098634217961 0 0.30929675685570829 0.1858318568065235 0 0.29971043857951379 0.19298806906372529 0 0.29743995151898561 0.17866098634217961 0 0.3101655001798202 0.17563615506282959 0 0.30040947706207388 0.16512632217721829 0 0.29743995151898561 0.17866098634217961 0 0.3101655001798202 0.17563615506282959 0 0.30929675685570829 0.1858318568065235 0 0.30040947706207388 0.16512632217721829 0 0.30453528129870422 0.15487579661148021 0 0.32848741365188411 0.1727716232507491 0 0.29097703849613438 0.15773848939083679 0 0.30040947706207388 0.16512632217721829 0 0.30453528129870422 0.15487579661148021 0 0.2931647794093819 0.16879209887591959 0 0.29743995151898561 0.17866098634217961 0 0.30040947706207388 0.16512632217721829 0 0.29097703849613438 0.15773848939083679 0 0.30453528129870422 0.15487579661148021 0 0.29618567382365713 0.14404403195872001 0 0.30453528129870422 0.15487579661148021 0 0.30873747279203018 0.14281046260302349 0 0.29618567382365713 0.14404403195872001 0 0.30453528129870422 0.15487579661148021 0 0.30873747279203018 0.14281046260302349 0 0.32007589174333823 0.14676000458717811 0 0.30873747279203018 0.14281046260302349 0 0.30313841955192899 0.13260249050964579 0 0.3195478300457561 0.1332621056988223 0 0.31114536757858358 0.11742006929579971 0 0.30313841955192899 0.13260249050964579 0 0.3195478300457561 0.1332621056988223 0 0.30873747279203018 0.14281046260302349 0 0.30313841955192899 0.13260249050964579 0 0.29618567382365713 0.14404403195872001 0 0.294250496481684 0.12267566802032639 0 0.30313841955192899 0.13260249050964579 0 0.28666270206708028 0.1324408374186071 0 0.30313841955192899 0.13260249050964579 0 0.28666270206708028 0.1324408374186071 0 0.29618567382365713 0.14404403195872001 0 0.294250496481684 0.12267566802032639 0 0.28067449336876182 0.1220521091494646 0 0.28666270206708028 0.1324408374186071 0 0.28666270206708028 0.1324408374186071 0 0.28320971359092417 0.1429987979602943 0 0.29618567382365713 0.14404403195872001 0 0.27436529468354132 0.15433220537778311 0 0.29097703849613438 0.15773848939083679 0 0.28320971359092417 0.1429987979602943 0 0.29097703849613438 0.15773848939083679 0 0.28320971359092417 0.1429987979602943 0 0.29618567382365713 0.14404403195872001 0 0.28119448123381058 0.25405304303149878 0 0.26221447651104962 0.2479993693513689 0 0.28440499104296979 0.23439140090611099 0 0.26221447651104962 0.2479993693513689 0 0.26853130556434218 0.23400660741274959 0 0.28440499104296979 0.23439140090611099 0 0.26221447651104962 0.2479993693513689 0 0.28440499104296979 0.23439140090611099 0 0.2457442494512444 0.24022391879071339 0 0.26221447651104962 0.2479993693513689 0 0.25511338863332461 0.22468137717712711 0 0.26221447651104962 0.2479993693513689 0 0.25511338863332461 0.22468137717712711 0 0.26853130556434218 0.23400660741274959 0 0.26221447651104962 0.2479993693513689 0 0.25511338863332461 0.22468137717712711 0 0.25511338863332461 0.22468137717712711 0 0.25242827713160498 0.21540237912569379 0 0.25511338863332461 0.22468137717712711 0 0.2794126892910288 0.21617120911671081 0 0.25511338863332461 0.22468137717712711 0 0.26853130556434218 0.23400660741274959 0 0.2794126892910288 0.21617120911671081 0 0.26853130556434218 0.23400660741274959 0 0.2794126892910288 0.21617120911671081 0 0.28440499104296979 0.23439140090611099 0 0.25511338863332461 0.22468137717712711 0 0.2794126892910288 0.21617120911671081 0 0.26644318031571418 0.20408753099865831 0 0.2794126892910288 0.21617120911671081 0 0.26644318031571418 0.20408753099865831 0 0.27722953884408802 0.19656269719262509 0 0.24528107816237801 0.1907036486386274 0 0.26644318031571418 0.20408753099865831 0 0.25242827713160498 0.21540237912569379 0 0.25511338863332461 0.22468137717712711 0 0.26644318031571418 0.20408753099865831 0 0.25242827713160498 0.21540237912569379 0 0.26644318031571418 0.20408753099865831 0 0.25242827713160498 0.21540237912569379 0 0.24528107816237801 0.1907036486386274 0 0.26633433714882182 0.18577592949096661 0 0.26644318031571418 0.20408753099865831 0 0.26633433714882182 0.18577592949096661 0 0.26644318031571418 0.20408753099865831 0 0.27722953884408802 0.19656269719262509 0 0.27723266788850742 0.181048228772968 0 0.28743664533084129 0.187357279865842 0 0.27722953884408802 0.19656269719262509 0 0.26633433714882182 0.18577592949096661 0 0.27723266788850742 0.181048228772968 0 0.27722953884408802 0.19656269719262509 0 0.28743664533084129 0.187357279865842 0 0.27722953884408802 0.19656269719262509 0 0.28939512316467059 0.2005252056429343 0 0.28743664533084129 0.187357279865842 0 0.28939512316467059 0.2005252056429343 0 0.29971043857951379 0.19298806906372529 0 0.30929675685570829 0.1858318568065235 0 0.29971043857951379 0.19298806906372529 0 0.31162694501442678 0.19735313208654229 0 0.29971043857951379 0.19298806906372529 0 0.31162694501442678 0.19735313208654229 0 0.30371198994873311 0.20766104105629449 0 0.28939512316467059 0.2005252056429343 0 0.29971043857951379 0.19298806906372529 0 0.30371198994873311 0.20766104105629449 0 0.2794126892910288 0.21617120911671081 0 0.30371198994873311 0.20766104105629449 0 0.2794126892910288 0.21617120911671081 0 0.30371198994873311 0.20766104105629449 0 0.30659550557489001 0.220783432460853 0 0.2794126892910288 0.21617120911671081 0 0.27722953884408802 0.19656269719262509 0 0.28939512316467059 0.2005252056429343 0 0.2794126892910288 0.21617120911671081 0 0.28939512316467059 0.2005252056429343 0 0.30371198994873311 0.20766104105629449 0 0.30659550557489001 0.220783432460853 0 0.28440499104296979 0.23439140090611099 0 0.2794126892910288 0.21617120911671081 0 0.30659550557489001 0.220783432460853 0 0.28440499104296979 0.23439140090611099 0 0.30659550557489001 0.220783432460853 0 0.30328699804120918 0.24394477185791469 0 0.28440499104296979 0.23439140090611099 0 0.30659550557489001 0.220783432460853 0 0.30328699804120918 0.24394477185791469 0 0.31607427666693672 0.2331905299380852 0 0.28119448123381058 0.25405304303149878 0 0.30328699804120918 0.24394477185791469 0 0.28440499104296979 0.23439140090611099 0 0.3433555784436142 0.25004320974280247 0 0.34183468199228573 0.23727684870966961 0 0.33092809789354199 0.24744869965648561 0 0.34183468199228573 0.23727684870966961 0 0.3288410404878227 0.2348757256337824 0 0.33092809789354199 0.24744869965648561 0 0.3288410404878227 0.2348757256337824 0 0.33092809789354199 0.24744869965648561 0 0.31845456220733243 0.24449663650262579 0 0.31879452400631653 0.25919465198291952 0 0.30328699804120918 0.24394477185791469 0 0.31845456220733243 0.24449663650262579 0 0.30328699804120918 0.24394477185791469 0 0.31845456220733243 0.24449663650262579 0 0.31607427666693672 0.2331905299380852 0 0.3288410404878227 0.2348757256337824 0 0.31845456220733243 0.24449663650262579 0 0.31607427666693672 0.2331905299380852 0 0.3288410404878227 0.2348757256337824 0 0.31607427666693672 0.2331905299380852 0 0.32372534117020862 0.22390137225637691 0 0.30659550557489001 0.220783432460853 0 0.31607427666693672 0.2331905299380852 0 0.32372534117020862 0.22390137225637691 0 0.3288410404878227 0.2348757256337824 0 0.32372534117020862 0.22390137225637691 0 0.33832986301458301 0.22348170923356889 0 0.34183468199228573 0.23727684870966961 0 0.3288410404878227 0.2348757256337824 0 0.33832986301458301 0.22348170923356889 0 0.32372534117020862 0.22390137225637691 0 0.33832986301458301 0.22348170923356889 0 0.32878602010681029 0.20717546401559489 0 0.33832986301458301 0.22348170923356889 0 0.32878602010681029 0.20717546401559489 0 0.35089693608391498 0.21212819010674691 0 0.32878602010681029 0.20717546401559489 0 0.35097653463873058 0.19356749557033681 0 0.35089693608391498 0.21212819010674691 0 0.30659550557489001 0.220783432460853 0 0.32372534117020862 0.22390137225637691 0 0.32878602010681029 0.20717546401559489 0 0.31162694501442678 0.19735313208654229 0 0.30371198994873311 0.20766104105629449 0 0.32878602010681029 0.20717546401559489 0 0.30371198994873311 0.20766104105629449 0 0.30659550557489001 0.220783432460853 0 0.32878602010681029 0.20717546401559489 0 0.30659550557489001 0.220783432460853 0 0.32878602010681029 0.20717546401559489 0 0.32878602010681029 0.20717546401559489 0 0.31972446529152482 0.19052244909679969 0 0.3336272658304279 0.18895925974375941 0 0.31162694501442678 0.19735313208654229 0 0.32878602010681029 0.20717546401559489 0 0.31972446529152482 0.19052244909679969 0 0.30929675685570829 0.1858318568065235 0 0.31162694501442678 0.19735313208654229 0 0.31972446529152482 0.19052244909679969 0 0.32878602010681029 0.20717546401559489 0 0.3336272658304279 0.18895925974375941 0 0.35097653463873058 0.19356749557033681 0 0.32878602010681029 0.20717546401559489 0 0.35097653463873058 0.19356749557033681 0 0.3336272658304279 0.18895925974375941 0 0.35097653463873058 0.19356749557033681 0 0.35656535024169428 0.1804169243242798 0 0.35097653463873058 0.19356749557033681 0 0.35896651107905142 0.20360726904620211 0 0.35089693608391498 0.21212819010674691 0 0.35097653463873058 0.19356749557033681 0 0.36405518175537521 0.19484170215684679 0 0.35896651107905142 0.20360726904620211 0 0.35097653463873058 0.19356749557033681 0 0.36405518175537521 0.19484170215684679 0 0.35656535024169428 0.1804169243242798 0 0.36405518175537521 0.19484170215684679 0 0.35656535024169428 0.1804169243242798 0 0.38464328683150451 0.18806222539781059 0 0.36405518175537521 0.19484170215684679 0 0.36923798170140371 0.20928007436804161 0 0.38464328683150451 0.18806222539781059 0 0.36405518175537521 0.19484170215684679 0 0.36923798170140371 0.20928007436804161 0 0.35896651107905142 0.20360726904620211 0 0.36923798170140371 0.20928007436804161 0 0.36132702422268731 0.21787493872225441 0 0.35896651107905142 0.20360726904620211 0 0.36923798170140371 0.20928007436804161 0 0.36132702422268731 0.21787493872225441 0 0.37292139258550783 0.22672254500020811 0 0.36132702422268731 0.21787493872225441 0 0.35896651107905142 0.20360726904620211 0 0.35089693608391498 0.21212819010674691 0 0.34183468199228573 0.23727684870966961 0 0.33832986301458301 0.22348170923356889 0 0.35524969613090918 0.22837961108452459 0 0.36132702422268731 0.21787493872225441 0 0.35089693608391498 0.21212819010674691 0 0.35524969613090918 0.22837961108452459 0 0.33832986301458301 0.22348170923356889 0 0.35089693608391498 0.21212819010674691 0 0.35524969613090918 0.22837961108452459 0 0.36132702422268731 0.21787493872225441 0 0.35524969613090918 0.22837961108452459 0 0.37292139258550783 0.22672254500020811 0 0.35524969613090918 0.22837961108452459 0 0.37292139258550783 0.22672254500020811 0 0.36587213359177301 0.2378375665458646 0 0.37292139258550783 0.22672254500020811 0 0.36587213359177301 0.2378375665458646 0 0.3757768555661396 0.240133652284411 0 0.36587213359177301 0.2378375665458646 0 0.37169426656027921 0.24972740256563611 0 0.3757768555661396 0.240133652284411 0 0.36587213359177301 0.2378375665458646 0 0.37169426656027921 0.24972740256563611 0 0.36205361842742478 0.24882498742118489 0 0.36587213359177301 0.2378375665458646 0 0.36205361842742478 0.24882498742118489 0 0.35356337405553911 0.24205426642971811 0 0.35175757775775729 0.2532797976346674 0 0.36205361842742478 0.24882498742118489 0 0.35356337405553911 0.24205426642971811 0 0.35524969613090918 0.22837961108452459 0 0.36587213359177301 0.2378375665458646 0 0.35356337405553911 0.24205426642971811 0 0.34183468199228573 0.23727684870966961 0 0.35524969613090918 0.22837961108452459 0 0.35356337405553911 0.24205426642971811 0 0.3433555784436142 0.25004320974280247 0 0.34183468199228573 0.23727684870966961 0 0.35356337405553911 0.24205426642971811 0 0.3433555784436142 0.25004320974280247 0 0.35175757775775729 0.2532797976346674 0 0.35356337405553911 0.24205426642971811 0 0.33379856680907583 0.1437068241164389 0 0.32007589174333823 0.14676000458717811 0 0.33365817402274128 0.15789089208148979 0 0.33379856680907583 0.1437068241164389 0 0.33365817402274128 0.15789089208148979 0 0.34780073530519279 0.14835628742565241 0 0.33379856680907583 0.1437068241164389 0 0.34780073530519279 0.14835628742565241 0 0.34586764947947463 0.1362539899128139 0 0.33379856680907583 0.1437068241164389 0 0.33436770153514289 0.13112975471366969 0 0.34586764947947463 0.1362539899128139 0 0.34956654336434939 0.1234914401014125 0 0.33436770153514289 0.13112975471366969 0 0.34586764947947463 0.1362539899128139 0 0.33379856680907583 0.1437068241164389 0 0.33436770153514289 0.13112975471366969 0 0.3195478300457561 0.1332621056988223 0 0.32606950933900308 0.1158177097477945 0 0.33436770153514289 0.13112975471366969 0 0.3195478300457561 0.1332621056988223 0 0.30873747279203018 0.14281046260302349 0 0.3195478300457561 0.1332621056988223 0 0.32007589174333823 0.14676000458717811 0 0.30453528129870422 0.15487579661148021 0 0.32007589174333823 0.14676000458717811 0 0.33365817402274128 0.15789089208148979 0 0.33379856680907583 0.1437068241164389 0 0.3195478300457561 0.1332621056988223 0 0.32007589174333823 0.14676000458717811 0 0.30453528129870422 0.15487579661148021 0 0.33365817402274128 0.15789089208148979 0 0.30453528129870422 0.15487579661148021 0 0.32848741365188411 0.1727716232507491 0 0.33365817402274128 0.15789089208148979 0 0.30040947706207388 0.16512632217721829 0 0.32848741365188411 0.1727716232507491 0 0.3101655001798202 0.17563615506282959 0 0.30040947706207388 0.16512632217721829 0 0.32848741365188411 0.1727716232507491 0 0.3101655001798202 0.17563615506282959 0 0.31983557186529732 0.18171103000860481 0 0.32848741365188411 0.1727716232507491 0 0.3336272658304279 0.18895925974375941 0 0.31983557186529732 0.18171103000860481 0 0.32848741365188411 0.1727716232507491 0 0.3101655001798202 0.17563615506282959 0 0.30929675685570829 0.1858318568065235 0 0.31983557186529732 0.18171103000860481 0 0.30929675685570829 0.1858318568065235 0 0.31972446529152482 0.19052244909679969 0 0.31983557186529732 0.18171103000860481 0 0.31972446529152482 0.19052244909679969 0 0.3336272658304279 0.18895925974375941 0 0.31983557186529732 0.18171103000860481 0 0.32848741365188411 0.1727716232507491 0 0.34507730906385942 0.16855187839241309 0 0.35656535024169428 0.1804169243242798 0 0.3336272658304279 0.18895925974375941 0 0.32848741365188411 0.1727716232507491 0 0.35656535024169428 0.1804169243242798 0 0.32848741365188411 0.1727716232507491 0 0.35656535024169428 0.1804169243242798 0 0.32848741365188411 0.1727716232507491 0 0.33365817402274128 0.15789089208148979 0 0.34507730906385942 0.16855187839241309 0 0.33365817402274128 0.15789089208148979 0 0.34507730906385942 0.16855187839241309 0 0.36278106674677829 0.1609059875514994 0 0.34507730906385942 0.16855187839241309 0 0.35656535024169428 0.1804169243242798 0 0.36278106674677829 0.1609059875514994 0 0.33365817402274128 0.15789089208148979 0 0.36278106674677829 0.1609059875514994 0 0.35656535024169428 0.1804169243242798 0 0.37356219856206202 0.1741215612114578 0 0.38464328683150451 0.18806222539781059 0 0.35656535024169428 0.1804169243242798 0 0.38464328683150451 0.18806222539781059 0 0.35656535024169428 0.1804169243242798 0 0.37356219856206202 0.1741215612114578 0 0.36278106674677829 0.1609059875514994 0 0.36278106674677829 0.1609059875514994 0 0.36531512046589693 0.1378839500987098 0 0.37680076681991098 0.15092733218095339 0 0.36278106674677829 0.1609059875514994 0 0.34780073530519279 0.14835628742565241 0 0.36531512046589693 0.1378839500987098 0 0.34780073530519279 0.14835628742565241 0 0.34586764947947463 0.1362539899128139 0 0.36531512046589693 0.1378839500987098 0 0.33365817402274128 0.15789089208148979 0 0.36278106674677829 0.1609059875514994 0 0.34780073530519279 0.14835628742565241 0 0.34956654336434939 0.1234914401014125 0 0.34586764947947463 0.1362539899128139 0 0.36531512046589693 0.1378839500987098 0 0.34956654336434939 0.1234914401014125 0 0.36322639358210312 0.11848039068348271 0 0.36531512046589693 0.1378839500987098 0 0.36322639358210312 0.11848039068348271 0 0.36531512046589693 0.1378839500987098 0 0.38482072671029011 0.13725767299229241 0 0.36322639358210312 0.11848039068348271 0 0.38482072671029011 0.13725767299229241 0 0.36322639358210312 0.11848039068348271 0 0.38482072671029011 0.13725767299229241 0 0.38005682511468147 0.12140739343396729 0 0.38482072671029011 0.13725767299229241 0 0.39398634319161102 0.12556361147638159 0 0.38005682511468147 0.12140739343396729 0 0.38482072671029011 0.13725767299229241 0 0.39398634319161102 0.12556361147638159 0 0.40386822996399702 0.1370092008917044 0 0.39398634319161102 0.12556361147638159 0 0.40386822996399702 0.1370092008917044 0 0.40630256149234217 0.12337914253670321 0 0.38482072671029011 0.13725767299229241 0 0.40641505983847698 0.15603495530110209 0 0.38482072671029011 0.13725767299229241 0 0.40386822996399702 0.1370092008917044 0 0.40641505983847698 0.15603495530110209 0 0.38482072671029011 0.13725767299229241 0 0.39190395947081519 0.16392108302150901 0 0.40641505983847698 0.15603495530110209 0 0.36531512046589693 0.1378839500987098 0 0.38482072671029011 0.13725767299229241 0 0.37680076681991098 0.15092733218095339 0 0.38482072671029011 0.13725767299229241 0 0.37680076681991098 0.15092733218095339 0 0.39190395947081519 0.16392108302150901 0 0.36278106674677829 0.1609059875514994 0 0.39190395947081519 0.16392108302150901 0 0.36278106674677829 0.1609059875514994 0 0.37680076681991098 0.15092733218095339 0 0.39190395947081519 0.16392108302150901 0 0.37356219856206202 0.1741215612114578 0 0.36278106674677829 0.1609059875514994 0 0.39190395947081519 0.16392108302150901 0 0.37356219856206202 0.1741215612114578 0 0.39190395947081519 0.16392108302150901 0 0.38464328683150451 0.18806222539781059 0 0.4059128807594603 0.17981630131623391 0 0.39190395947081519 0.16392108302150901 0 0.38464328683150451 0.18806222539781059 0 0.39190395947081519 0.16392108302150901 0 0.42102685219485209 0.16693617849151851 0 0.40641505983847698 0.15603495530110209 0 0.4059128807594603 0.17981630131623391 0 0.39190395947081519 0.16392108302150901 0 0.42102685219485209 0.16693617849151851 0 0.42102685219485209 0.16693617849151851 0 0.40641505983847698 0.15603495530110209 0 0.41490094777653419 0.14712571815411829 0 0.39190395947081519 0.16392108302150901 0 0.42102685219485209 0.16693617849151851 0 0.4059128807594603 0.17981630131623391 0 0.42102685219485209 0.16693617849151851 0 0.42759287120751482 0.1799189573059411 0 0.4059128807594603 0.17981630131623391 0 0.42759287120751482 0.1799189573059411 0 0.42045703890892938 0.19185412915784311 0 0.42102685219485209 0.16693617849151851 0 0.42759287120751482 0.1799189573059411 0 0.45014974491888898 0.16995127396152809 0 0.42759287120751482 0.1799189573059411 0 0.42045703890892938 0.19185412915784311 0 0.43799329450951457 0.1898848624547933 0 0.42102685219485209 0.16693617849151851 0 0.45014974491888898 0.16995127396152809 0 0.42102685219485209 0.16693617849151851 0 0.43641214087317609 0.15776157540708571 0 0.42820809332857229 0.14540676379554701 0 0.42102685219485209 0.16693617849151851 0 0.43641214087317609 0.15776157540708571 0 0.45014974491888898 0.16995127396152809 0 0.43641214087317609 0.15776157540708571 0 0.42820809332857229 0.14540676379554701 0 0.44305345270963392 0.14224085277467549 0 0.42820809332857229 0.14540676379554701 0 0.43267139290449452 0.12562392175117529 0 0.41815906511665779 0.13368892679480551 0 0.42820809332857229 0.14540676379554701 0 0.43267139290449452 0.12562392175117529 0 0.44305345270963392 0.14224085277467549 0 0.43267139290449452 0.12562392175117529 0 0.41815906511665779 0.13368892679480551 0 0.41840244549433692 0.1204435227777134 0 0.41815906511665779 0.13368892679480551 0 0.41840244549433692 0.1204435227777134 0 0.40630256149234217 0.12337914253670321 0 0.40386822996399702 0.1370092008917044 0 0.41815906511665779 0.13368892679480551 0 0.40630256149234217 0.12337914253670321 0 0.40386822996399702 0.1370092008917044 0 0.41815906511665779 0.13368892679480551 0 0.41490094777653419 0.14712571815411829 0 0.42102685219485209 0.16693617849151851 0 0.42820809332857229 0.14540676379554701 0 0.41490094777653419 0.14712571815411829 0 0.40386822996399702 0.1370092008917044 0 0.40641505983847698 0.15603495530110209 0 0.41490094777653419 0.14712571815411829 0 0.42820809332857229 0.14540676379554701 0 0.41815906511665779 0.13368892679480551 0 0.41490094777653419 0.14712571815411829 0 0.39196586341458151 0.242441409442547 0 0.40329821407583749 0.23025496453590971 0 0.40866327585672191 0.24600766979752939 0 0.38129994004966872 0.25577407136566988 0 0.39196586341458151 0.242441409442547 0 0.40866327585672191 0.24600766979752939 0 0.38129994004966872 0.25577407136566988 0 0.39196586341458151 0.242441409442547 0 0.38106847269238292 0.24536179082341181 0 0.37169426656027921 0.24972740256563611 0 0.38106847269238292 0.24536179082341181 0 0.3757768555661396 0.240133652284411 0 0.37292139258550783 0.22672254500020811 0 0.3757768555661396 0.240133652284411 0 0.38460543787124563 0.238732418458795 0 0.38106847269238292 0.24536179082341181 0 0.3757768555661396 0.240133652284411 0 0.38460543787124563 0.238732418458795 0 0.39196586341458151 0.242441409442547 0 0.38106847269238292 0.24536179082341181 0 0.38460543787124563 0.238732418458795 0 0.39196586341458151 0.242441409442547 0 0.38460543787124563 0.238732418458795 0 0.38844350160088592 0.2284985707660753 0 0.37292139258550783 0.22672254500020811 0 0.38460543787124563 0.238732418458795 0 0.38844350160088592 0.2284985707660753 0 0.37292139258550783 0.22672254500020811 0 0.38844350160088592 0.2284985707660753 0 0.38369130631537601 0.21297307403445409 0 0.38844350160088592 0.2284985707660753 0 0.39679964264504158 0.21937630878092959 0 0.38369130631537601 0.21297307403445409 0 0.38844350160088592 0.2284985707660753 0 0.39679964264504158 0.21937630878092959 0 0.40329821407583749 0.23025496453590971 0 0.39196586341458151 0.242441409442547 0 0.38844350160088592 0.2284985707660753 0 0.40329821407583749 0.23025496453590971 0 0.39679964264504158 0.21937630878092959 0 0.40329821407583749 0.23025496453590971 0 0.41066806580544729 0.2160617609406458 0 0.39598296716959969 0.20626700748070109 0 0.40513352984814438 0.19492560706685999 0 0.41066806580544729 0.2160617609406458 0 0.39679964264504158 0.21937630878092959 0 0.39598296716959969 0.20626700748070109 0 0.41066806580544729 0.2160617609406458 0 0.39679964264504158 0.21937630878092959 0 0.39598296716959969 0.20626700748070109 0 0.38369130631537601 0.21297307403445409 0 0.36923798170140371 0.20928007436804161 0 0.37292139258550783 0.22672254500020811 0 0.38369130631537601 0.21297307403445409 0 0.36923798170140371 0.20928007436804161 0 0.38369130631537601 0.21297307403445409 0 0.38464328683150451 0.18806222539781059 0 0.39598296716959969 0.20626700748070109 0 0.38369130631537601 0.21297307403445409 0 0.38464328683150451 0.18806222539781059 0 0.39598296716959969 0.20626700748070109 0 0.38464328683150451 0.18806222539781059 0 0.40513352984814438 0.19492560706685999 0 0.4059128807594603 0.17981630131623391 0 0.38464328683150451 0.18806222539781059 0 0.40513352984814438 0.19492560706685999 0 0.40513352984814438 0.19492560706685999 0 0.42045703890892938 0.19185412915784311 0 0.42444067869502011 0.20693424997503959 0 0.4059128807594603 0.17981630131623391 0 0.40513352984814438 0.19492560706685999 0 0.42045703890892938 0.19185412915784311 0 0.42045703890892938 0.19185412915784311 0 0.42444067869502011 0.20693424997503959 0 0.43799329450951457 0.1898848624547933 0 0.42444067869502011 0.20693424997503959 0 0.44184419378540352 0.2076794424592901 0 0.43799329450951457 0.1898848624547933 0 0.42444067869502011 0.20693424997503959 0 0.4302098735549707 0.2206458244329694 0 0.44184419378540352 0.2076794424592901 0 0.42444067869502011 0.20693424997503959 0 0.41066806580544729 0.2160617609406458 0 0.4302098735549707 0.2206458244329694 0 0.40513352984814438 0.19492560706685999 0 0.42444067869502011 0.20693424997503959 0 0.41066806580544729 0.2160617609406458 0 0.41066806580544729 0.2160617609406458 0 0.41777320819135039 0.22984229758728861 0 0.4302098735549707 0.2206458244329694 0 0.40329821407583749 0.23025496453590971 0 0.41066806580544729 0.2160617609406458 0 0.41777320819135039 0.22984229758728861 0 0.4302098735549707 0.2206458244329694 0 0.43602661166377499 0.2362412682293889 0 0.44584438813649652 0.2203436080528294 0 0.41777320819135039 0.22984229758728861 0 0.4302098735549707 0.2206458244329694 0 0.43602661166377499 0.2362412682293889 0 0.43602661166377499 0.2362412682293889 0 0.43076425121212841 0.2486853010718087 0 0.40866327585672191 0.24600766979752939 0 0.43602661166377499 0.2362412682293889 0 0.40866327585672191 0.24600766979752939 0 0.41777320819135039 0.22984229758728861 0 0.43602661166377499 0.2362412682293889 0 0.40866327585672191 0.24600766979752939 0 0.41664462513020523 0.25422696758609492 0 0.43076425121212841 0.2486853010718087 0 0.40866327585672191 0.24600766979752939 0 0.40329821407583749 0.23025496453590971 0 0.41777320819135039 0.22984229758728861 0 0.40866327585672191 0.24600766979752939 0 0.45166362976964691 0.25106894999712381 0 0.45384283414141641 0.23962742592169059 0 0.47583181488482379 0.2451422378191761 0 0.45166362976964691 0.25106894999712381 0 0.47583181488482379 0.2451422378191761 0 0.45384283414141641 0.23962742592169059 0 0.47692141707070451 0.23056955077157251 0 0.45166362976964691 0.25106894999712381 0 0.43076425121212841 0.2486853010718087 0 0.45384283414141641 0.23962742592169059 0 0.43602661166377499 0.2362412682293889 0 0.43076425121212841 0.2486853010718087 0 0.45384283414141641 0.23962742592169059 0 0.43076425121212841 0.2486853010718087 0 0.45384283414141641 0.23962742592169059 0 0.43602661166377499 0.2362412682293889 0 0.46338994747082818 0.22647486666124839 0 0.43602661166377499 0.2362412682293889 0 0.44584438813649652 0.2203436080528294 0 0.46338994747082818 0.22647486666124839 0 0.43602661166377499 0.2362412682293889 0 0.45384283414141641 0.23962742592169059 0 0.46338994747082818 0.22647486666124839 0 0.44584438813649652 0.2203436080528294 0 0.46338994747082818 0.22647486666124839 0 0.4574246187180494 0.20998202225832771 0 0.45384283414141641 0.23962742592169059 0 0.46338994747082818 0.22647486666124839 0 0.47692141707070451 0.23056955077157251 0 0.46338994747082818 0.22647486666124839 0 0.4574246187180494 0.20998202225832771 0 0.47311107537994651 0.21060674662752529 0 0.4574246187180494 0.20998202225832771 0 0.46861366351278472 0.19789432193598561 0 0.47311107537994651 0.21060674662752529 0 0.44584438813649652 0.2203436080528294 0 0.4574246187180494 0.20998202225832771 0 0.44184419378540352 0.2076794424592901 0 0.4302098735549707 0.2206458244329694 0 0.44584438813649652 0.2203436080528294 0 0.44184419378540352 0.2076794424592901 0 0.4574246187180494 0.20998202225832771 0 0.44184419378540352 0.2076794424592901 0 0.45120510308892831 0.19507838461398491 0 0.44184419378540352 0.2076794424592901 0 0.43799329450951457 0.1898848624547933 0 0.45120510308892831 0.19507838461398491 0 0.4574246187180494 0.20998202225832771 0 0.45120510308892831 0.19507838461398491 0 0.46861366351278472 0.19789432193598561 0 0.45120510308892831 0.19507838461398491 0 0.46861366351278472 0.19789432193598561 0 0.45014974491888898 0.16995127396152809 0 0.46861366351278472 0.19789432193598561 0 0.48377650321145821 0.20030440734603891 0 0.47890777313388699 0.17818810929941131 0 0.46861366351278472 0.19789432193598561 0 0.48377650321145821 0.20030440734603891 0 0.47311107537994651 0.21060674662752529 0 0.48377650321145821 0.20030440734603891 0 0.5 0.19442179120654851 0 0.47890777313388699 0.17818810929941131 0 0.48377650321145821 0.20030440734603891 0 0.5 0.19442179120654851 0 0.49075328327788142 0.2167084650931079 0 0.5 0.19442179120654851 0 0.49075328327788142 0.2167084650931079 0 0.49999999999999339 0.2215116756214566 0 0.48377650321145821 0.20030440734603891 0 0.49075328327788142 0.2167084650931079 0 0.47311107537994651 0.21060674662752529 0 0.46338994747082818 0.22647486666124839 0 0.49075328327788142 0.2167084650931079 0 0.47311107537994651 0.21060674662752529 0 0.46338994747082818 0.22647486666124839 0 0.49075328327788142 0.2167084650931079 0 0.46338994747082818 0.22647486666124839 0 0.49075328327788142 0.2167084650931079 0 0.47692141707070451 0.23056955077157251 0 0.47692141707070451 0.23056955077157251 0 0.49999999999999339 0.2215116756214566 0 0.50000000000000067 0.2392155256412283 0 0.49075328327788142 0.2167084650931079 0 0.47692141707070451 0.23056955077157251 0 0.49999999999999339 0.2215116756214566 0 0.47692141707070451 0.23056955077157251 0 0.49999999999999339 0.2215116756214566 0 0.50000000000000067 0.2392155256412283 0 0.47583181488482379 0.2451422378191761 0 0.48341195364679568 0.26002408893105827 0 0.50000000000000067 0.2392155256412283 0 0.47583181488482379 0.2451422378191761 0 0.47692141707070451 0.23056955077157251 0 0.50000000000000067 0.2392155256412283 0 0.47583181488482379 0.2451422378191761 0 0.45384283414141641 0.23962742592169059 0 0.47692141707070451 0.23056955077157251 0 0.47583181488482379 0.2451422378191761 0 0.46053260521531592 0.14091734283165991 0 0.45014974491888898 0.16995127396152809 0 0.47759274938693741 0.15337993901402261 0 0.46053260521531592 0.14091734283165991 0 0.47596637305353268 0.1236489788231635 0 0.45094723062946279 0.12208098845927939 0 0.46053260521531592 0.14091734283165991 0 0.44305345270963392 0.14224085277467549 0 0.45094723062946279 0.12208098845927939 0 0.43267139290449452 0.12562392175117529 0 0.44305345270963392 0.14224085277467549 0 0.45094723062946279 0.12208098845927939 0 0.46053260521531592 0.14091734283165991 0 0.44305345270963392 0.14224085277467549 0 0.45014974491888898 0.16995127396152809 0 0.43641214087317609 0.15776157540708571 0 0.44305345270963392 0.14224085277467549 0 0.45014974491888898 0.16995127396152809 0 0.42759287120751482 0.1799189573059411 0 0.43799329450951457 0.1898848624547933 0 0.45014974491888898 0.16995127396152809 0 0.43799329450951457 0.1898848624547933 0 0.45120510308892831 0.19507838461398491 0 0.45014974491888898 0.16995127396152809 0 0.46861366351278472 0.19789432193598561 0 0.45014974491888898 0.16995127396152809 0 0.47890777313388699 0.17818810929941131 0 0.45014974491888898 0.16995127396152809 0 0.47890777313388699 0.17818810929941131 0 0.47759274938693741 0.15337993901402261 0 0.5 0.19442179120654851 0 0.47890777313388699 0.17818810929941131 0 0.5 0.16733190679164031 0 0.47890777313388699 0.17818810929941131 0 0.5 0.16733190679164031 0 0.47759274938693741 0.15337993901402261 0 0.5 0.16733190679164031 0 0.47759274938693741 0.15337993901402261 0 0.5 0.14024202237673219 0 0.46053260521531592 0.14091734283165991 0 0.47759274938693741 0.15337993901402261 0 0.47596637305353268 0.1236489788231635 0 0.5 0.14024202237673219 0 0.5 0.11315213796182411 0 0.47596637305353268 0.1236489788231635 0 0.47759274938693741 0.15337993901402261 0 0.5 0.14024202237673219 0 0.47596637305353268 0.1236489788231635 0 0.5 0.11315213796182411 0 0.48146508414057748 0.097867616362435003 0 0.47596637305353268 0.1236489788231635 0 0.5 0.11315213796182411 0 0.48146508414057748 0.097867616362435003 0 0.5 0.08606225354691599 0 0.48146508414057748 0.097867616362435003 0 0.46684480345772023 0.083704774648097419 0 0.46085076100455152 0.1051260388446932 0 0.48146508414057748 0.097867616362435003 0 0.47596637305353268 0.1236489788231635 0 0.46085076100455152 0.1051260388446932 0 0.5 0.08606225354691599 0 0.48297411160829701 0.071419164250366693 0 0.5 0.058972369132007867 0 0.48146508414057748 0.097867616362435003 0 0.5 0.08606225354691599 0 0.48297411160829701 0.071419164250366693 0 0.48146508414057748 0.097867616362435003 0 0.48297411160829701 0.071419164250366693 0 0.46684480345772023 0.083704774648097419 0 0.48297411160829701 0.071419164250366693 0 0.46368779630991369 0.062884433647911922 0 0.46684480345772023 0.083704774648097419 0 0.46368779630991369 0.062884433647911922 0 0.4455316944648699 0.078385408113317706 0 0.46368779630991369 0.062884433647911922 0 0.46684480345772023 0.083704774648097419 0 0.4455316944648699 0.078385408113317706 0 0.46684480345772023 0.083704774648097419 0 0.4455316944648699 0.078385408113317706 0 0.46085076100455152 0.1051260388446932 0 0.4455316944648699 0.078385408113317706 0 0.46085076100455152 0.1051260388446932 0 0.43655847815144871 0.087567909291679069 0 0.4455316944648699 0.078385408113317706 0 0.43655847815144871 0.087567909291679069 0 0.43300293116684879 0.070359854062556224 0 0.4455316944648699 0.078385408113317706 0 0.43300293116684879 0.070359854062556224 0 0.44432728466234178 0.059795406129610977 0 0.46368779630991369 0.062884433647911922 0 0.4455316944648699 0.078385408113317706 0 0.44432728466234178 0.059795406129610977 0 0.47596637305353268 0.1236489788231635 0 0.46085076100455152 0.1051260388446932 0 0.45094723062946279 0.12208098845927939 0 0.46085076100455152 0.1051260388446932 0 0.43655847815144871 0.087567909291679069 0 0.46085076100455152 0.1051260388446932 0 0.43845481143497073 0.110031162788742 0 0.43302597451412722 0.09911942802672713 0 0.46085076100455152 0.1051260388446932 0 0.43302597451412722 0.09911942802672713 0 0.43655847815144871 0.087567909291679069 0 0.43267139290449452 0.12562392175117529 0 0.45094723062946279 0.12208098845927939 0 0.43845481143497073 0.110031162788742 0 0.46085076100455152 0.1051260388446932 0 0.45094723062946279 0.12208098845927939 0 0.43845481143497073 0.110031162788742 0 0.43267139290449452 0.12562392175117529 0 0.43845481143497073 0.110031162788742 0 0.42512360996164289 0.1101942667169049 0 0.43267139290449452 0.12562392175117529 0 0.42512360996164289 0.1101942667169049 0 0.41840244549433692 0.1204435227777134 0 0.42512360996164289 0.1101942667169049 0 0.41840244549433692 0.1204435227777134 0 0.41145911669595331 0.1096997076075869 0 0.41840244549433692 0.1204435227777134 0 0.41145911669595331 0.1096997076075869 0 0.40630256149234217 0.12337914253670321 0 0.41145911669595331 0.1096997076075869 0 0.41782870111656589 0.098086010242617663 0 0.40188519574572068 0.098349840232826835 0 0.41782870111656589 0.098086010242617663 0 0.41132824907511162 0.087668761689670915 0 0.40188519574572068 0.098349840232826835 0 0.42512360996164289 0.1101942667169049 0 0.41145911669595331 0.1096997076075869 0 0.41782870111656589 0.098086010242617663 0 0.41782870111656589 0.098086010242617663 0 0.43302597451412722 0.09911942802672713 0 0.42198136315300161 0.08812274721924529 0 0.42512360996164289 0.1101942667169049 0 0.41782870111656589 0.098086010242617663 0 0.43302597451412722 0.09911942802672713 0 0.43845481143497073 0.110031162788742 0 0.42512360996164289 0.1101942667169049 0 0.43302597451412722 0.09911942802672713 0 0.43655847815144871 0.087567909291679069 0 0.42198136315300161 0.08812274721924529 0 0.41226619529834591 0.070009779738664735 0 0.43655847815144871 0.087567909291679069 0 0.41226619529834591 0.070009779738664735 0 0.43302597451412722 0.09911942802672713 0 0.43655847815144871 0.087567909291679069 0 0.42198136315300161 0.08812274721924529 0 0.43300293116684879 0.070359854062556224 0 0.41226619529834591 0.070009779738664735 0 0.42739758089851382 0.054541393999090262 0 0.43655847815144871 0.087567909291679069 0 0.43300293116684879 0.070359854062556224 0 0.41226619529834591 0.070009779738664735 0 0.42198136315300161 0.08812274721924529 0 0.41226619529834591 0.070009779738664735 0 0.41132824907511162 0.087668761689670915 0 0.41226619529834591 0.070009779738664735 0 0.41132824907511162 0.087668761689670915 0 0.39992923875424519 0.082621500021195282 0 0.41782870111656589 0.098086010242617663 0 0.42198136315300161 0.08812274721924529 0 0.41132824907511162 0.087668761689670915 0 0.41132824907511162 0.087668761689670915 0 0.39992923875424519 0.082621500021195282 0 0.40188519574572068 0.098349840232826835 0 0.39992923875424519 0.082621500021195282 0 0.38759228221014619 0.095233220303727467 0 0.40188519574572068 0.098349840232826835 0 0.39992923875424519 0.082621500021195282 0 0.38759228221014619 0.095233220303727467 0 0.41226619529834591 0.070009779738664735 0 0.39707386889515511 0.070908779594843374 0 0.39683376059791597 0.058855427163935138 0 0.41226619529834591 0.070009779738664735 0 0.39683376059791597 0.058855427163935138 0 0.41226619529834591 0.070009779738664735 0 0.39992923875424519 0.082621500021195282 0 0.41226619529834591 0.070009779738664735 0 0.39992923875424519 0.082621500021195282 0 0.39707386889515511 0.070908779594843374 0 0.39992923875424519 0.082621500021195282 0 0.39707386889515511 0.070908779594843374 0 0.38583977896057609 0.075316135258006081 0 0.39707386889515511 0.070908779594843374 0 0.38282045226763678 0.060547433734587333 0 0.39683376059791597 0.058855427163935138 0 0.39707386889515511 0.070908779594843374 0 0.38583977896057609 0.075316135258006081 0 0.38282045226763678 0.060547433734587333 0 0.38583977896057609 0.075316135258006081 0 0.37596532967213542 0.069868995675824025 0 0.37682589963749002 0.081332762740894418 0 0.37307104071443398 0.061065176941414383 0 0.37596532967213542 0.069868995675824025 0 0.38282045226763678 0.060547433734587333 0 0.38583977896057609 0.075316135258006081 0 0.37596532967213542 0.069868995675824025 0 0.38282045226763678 0.060547433734587333 0 0.39992923875424519 0.082621500021195282 0 0.38412803848747967 0.086259474622970303 0 0.38759228221014619 0.095233220303727467 0 0.39992923875424519 0.082621500021195282 0 0.38583977896057609 0.075316135258006081 0 0.38412803848747967 0.086259474622970303 0 0.37045299287494049 0.09679375479102828 0 0.38412803848747967 0.086259474622970303 0 0.38759228221014619 0.095233220303727467 0 0.38583977896057609 0.075316135258006081 0 0.38412803848747967 0.086259474622970303 0 0.37682589963749002 0.081332762740894418 0 0.37045299287494049 0.09679375479102828 0 0.38412803848747967 0.086259474622970303 0 0.37682589963749002 0.081332762740894418 0 0.37045299287494049 0.09679375479102828 0 0.38005682511468147 0.12140739343396729 0 0.37045299287494049 0.09679375479102828 0 0.38759228221014619 0.095233220303727467 0 0.38890959528695412 0.1083938038889192 0 0.37045299287494049 0.09679375479102828 0 0.38890959528695412 0.1083938038889192 0 0.38005682511468147 0.12140739343396729 0 0.39398634319161102 0.12556361147638159 0 0.38890959528695412 0.1083938038889192 0 0.38005682511468147 0.12140739343396729 0 0.39398634319161102 0.12556361147638159 0 0.38890959528695412 0.1083938038889192 0 0.39948393258462489 0.11301500309558379 0 0.39398634319161102 0.12556361147638159 0 0.40630256149234217 0.12337914253670321 0 0.39948393258462489 0.11301500309558379 0 0.41145911669595331 0.1096997076075869 0 0.40630256149234217 0.12337914253670321 0 0.39948393258462489 0.11301500309558379 0 0.41145911669595331 0.1096997076075869 0 0.39948393258462489 0.11301500309558379 0 0.40188519574572068 0.098349840232826835 0 0.38759228221014619 0.095233220303727467 0 0.38890959528695412 0.1083938038889192 0 0.40188519574572068 0.098349840232826835 0 0.38890959528695412 0.1083938038889192 0 0.39948393258462489 0.11301500309558379 0 0.40188519574572068 0.098349840232826835 0 0.3912475249538237 0.025882868266216091 0 0.40325323122183843 0.024352223252143548 0 0.39536881189699241 0.01378873843063998 0 0.3912475249538237 0.025882868266216091 0 0.40325323122183843 0.024352223252143548 0 0.39805180056669343 0.032772735105760037 0 0.40325323122183843 0.024352223252143548 0 0.39805180056669343 0.032772735105760037 0 0.40655765028286611 0.035582104639029083 0 0.40325323122183843 0.024352223252143548 0 0.39536881189699241 0.01378873843063998 0 0.40720094273855439 0.01372602960598159 0 0.40060323373222451 0.0042547197705496897 0 0.39536881189699241 0.01378873843063998 0 0.40720094273855439 0.01372602960598159 0 0.40060323373222451 0.0042547197705496897 0 0.41081432206005303 0.0037114498956348132 0 0.4046584776842293 -0.0050702490882302163 0 0.40060323373222451 0.0042547197705496897 0 0.41081432206005303 0.0037114498956348132 0 0.40720094273855439 0.01372602960598159 0 0.40060323373222451 0.0042547197705496897 0 0.39025836247721268 0.0036292771787240202 0 0.39531848553630572 -0.0042569273994520467 0 0.40060323373222451 0.0042547197705496897 0 0.39536881189699241 0.01378873843063998 0 0.39025836247721268 0.0036292771787240202 0 0.37844401144479839 0.012609093579625891 0 0.38356146703633898 -0.0078565650350033434 0 0.37844401144479839 0.012609093579625891 0 0.39025836247721268 0.0036292771787240202 0 0.38356146703633898 -0.0078565650350033434 0 0.39536881189699241 0.01378873843063998 0 0.37844401144479839 0.012609093579625891 0 0.39025836247721268 0.0036292771787240202 0 0.3912475249538237 0.025882868266216091 0 0.37844401144479839 0.012609093579625891 0 0.38063223185621792 0.036578263657106522 0 0.37844401144479839 0.012609093579625891 0 0.38063223185621792 0.036578263657106522 0 0.37146335928247548 0.04052602251159599 0 0.37844401144479839 0.012609093579625891 0 0.38063223185621792 0.036578263657106522 0 0.3912475249538237 0.025882868266216091 0 0.39536881189699241 0.01378873843063998 0 0.37844401144479839 0.012609093579625891 0 0.37146335928247548 0.04052602251159599 0 0.38063223185621792 0.036578263657106522 0 0.38282045226763678 0.060547433734587333 0 0.3912475249538237 0.025882868266216091 0 0.38063223185621792 0.036578263657106522 0 0.3908528121234538 0.035995570554822158 0 0.38063223185621792 0.036578263657106522 0 0.38791705742610771 0.044539104287684539 0 0.3908528121234538 0.035995570554822158 0 0.38791705742610771 0.044539104287684539 0 0.38282045226763678 0.060547433734587333 0 0.39079668350586277 0.051215399393808793 0 0.37307104071443398 0.061065176941414383 0 0.37146335928247548 0.04052602251159599 0 0.38282045226763678 0.060547433734587333 0 0.38063223185621792 0.036578263657106522 0 0.38791705742610771 0.044539104287684539 0 0.38282045226763678 0.060547433734587333 0 0.38063223185621792 0.036578263657106522 0 0.38282045226763678 0.060547433734587333 0 0.38282045226763678 0.060547433734587333 0 0.39683376059791597 0.058855427163935138 0 0.39079668350586277 0.051215399393808793 0 0.41226619529834591 0.070009779738664735 0 0.39683376059791597 0.058855427163935138 0 0.40948896714378957 0.05055434744181983 0 0.39683376059791597 0.058855427163935138 0 0.39079668350586277 0.051215399393808793 0 0.39674782008621368 0.04348041067995833 0 0.39683376059791597 0.058855427163935138 0 0.39674782008621368 0.04348041067995833 0 0.40948896714378957 0.05055434744181983 0 0.3908528121234538 0.035995570554822158 0 0.39805180056669343 0.032772735105760037 0 0.39674782008621368 0.04348041067995833 0 0.3912475249538237 0.025882868266216091 0 0.3908528121234538 0.035995570554822158 0 0.39805180056669343 0.032772735105760037 0 0.38791705742610771 0.044539104287684539 0 0.3908528121234538 0.035995570554822158 0 0.39674782008621368 0.04348041067995833 0 0.38791705742610771 0.044539104287684539 0 0.39079668350586277 0.051215399393808793 0 0.39674782008621368 0.04348041067995833 0 0.39674782008621368 0.04348041067995833 0 0.40655765028286611 0.035582104639029083 0 0.40948896714378957 0.05055434744181983 0 0.39805180056669343 0.032772735105760037 0 0.39674782008621368 0.04348041067995833 0 0.40655765028286611 0.035582104639029083 0 0.40655765028286611 0.035582104639029083 0 0.41713079569888262 0.040856968430241461 0 0.41557099838193923 0.024039796491718179 0 0.41713079569888262 0.040856968430241461 0 0.42755741698364552 0.032815777208855347 0 0.41557099838193923 0.024039796491718179 0 0.40655765028286611 0.035582104639029083 0 0.41713079569888262 0.040856968430241461 0 0.40948896714378957 0.05055434744181983 0 0.41226619529834591 0.070009779738664735 0 0.40948896714378957 0.05055434744181983 0 0.42739758089851382 0.054541393999090262 0 0.41713079569888262 0.040856968430241461 0 0.40948896714378957 0.05055434744181983 0 0.42739758089851382 0.054541393999090262 0 0.41226619529834591 0.070009779738664735 0 0.42739758089851382 0.054541393999090262 0 0.43300293116684879 0.070359854062556224 0 0.42739758089851382 0.054541393999090262 0 0.44432728466234178 0.059795406129610977 0 0.41713079569888262 0.040856968430241461 0 0.42739758089851382 0.054541393999090262 0 0.42755741698364552 0.032815777208855347 0 0.42739758089851382 0.054541393999090262 0 0.42755741698364552 0.032815777208855347 0 0.44252896649868317 0.039073008259517338 0 0.42739758089851382 0.054541393999090262 0 0.44252896649868317 0.039073008259517338 0 0.42755741698364552 0.032815777208855347 0 0.4358194844604939 0.024219735287320941 0 0.44252896649868317 0.039073008259517338 0 0.42755741698364552 0.032815777208855347 0 0.41557099838193923 0.024039796491718179 0 0.4265644217351573 0.014684511896395219 0 0.4358194844604939 0.024219735287320941 0 0.4265644217351573 0.014684511896395219 0 0.44548351627008242 0.01642882659412407 0 0.42755741698364552 0.032815777208855347 0 0.4358194844604939 0.024219735287320941 0 0.4265644217351573 0.014684511896395219 0 0.41557099838193923 0.024039796491718179 0 0.4165272652869268 0.01155925859927168 0 0.4265644217351573 0.014684511896395219 0 0.41557099838193923 0.024039796491718179 0 0.40720094273855439 0.01372602960598159 0 0.4165272652869268 0.01155925859927168 0 0.40325323122183843 0.024352223252143548 0 0.41557099838193923 0.024039796491718179 0 0.40720094273855439 0.01372602960598159 0 0.40325323122183843 0.024352223252143548 0 0.40655765028286611 0.035582104639029083 0 0.41557099838193923 0.024039796491718179 0 0.41081432206005303 0.0037114498956348132 0 0.40720094273855439 0.01372602960598159 0 0.4165272652869268 0.01155925859927168 0 0.4165272652869268 0.01155925859927168 0 0.42248564151892998 0.0016345051066286029 0 0.4265644217351573 0.014684511896395219 0 0.41081432206005303 0.0037114498956348132 0 0.4165272652869268 0.01155925859927168 0 0.42248564151892998 0.0016345051066286029 0 0.42248564151892998 0.0016345051066286029 0 0.4265644217351573 0.014684511896395219 0 0.4382820622288856 -0.0014159552958160841 0 0.4265644217351573 0.014684511896395219 0 0.44548351627008242 0.01642882659412407 0 0.4382820622288856 -0.0014159552958160841 0 0.45100246047295739 0.0046664116742636159 0 0.44548351627008242 0.01642882659412407 0 0.4382820622288856 -0.0014159552958160841 0 0.45100246047295739 0.0046664116742636159 0 0.44548351627008242 0.01642882659412407 0 0.4580470330794123 0.0188547641718908 0 0.4358194844604939 0.024219735287320941 0 0.4514029071021442 0.02821869916314456 0 0.44548351627008242 0.01642882659412407 0 0.4358194844604939 0.024219735287320941 0 0.4514029071021442 0.02821869916314456 0 0.44252896649868317 0.039073008259517338 0 0.4514029071021442 0.02821869916314456 0 0.44548351627008242 0.01642882659412407 0 0.4580470330794123 0.0188547641718908 0 0.4514029071021442 0.02821869916314456 0 0.4580470330794123 0.0188547641718908 0 0.46553563141862692 0.027383902935855992 0 0.4580470330794123 0.0188547641718908 0 0.46553563141862692 0.027383902935855992 0 0.471035018561343 0.01684384088441979 0 0.4580470330794123 0.0188547641718908 0 0.4620271672997433 0.0081957990277541914 0 0.471035018561343 0.01684384088441979 0 0.4620271672997433 0.0081957990277541914 0 0.47207727543944228 0.0077163925679632076 0 0.45540766643685782 -0.0078732224449345398 0 0.4620271672997433 0.0081957990277541914 0 0.47207727543944228 0.0077163925679632076 0 0.471035018561343 0.01684384088441979 0 0.45100246047295739 0.0046664116742636159 0 0.4620271672997433 0.0081957990277541914 0 0.45540766643685782 -0.0078732224449345398 0 0.45100246047295739 0.0046664116742636159 0 0.4580470330794123 0.0188547641718908 0 0.4620271672997433 0.0081957990277541914 0 0.42739758089851382 0.054541393999090262 0 0.44432728466234178 0.059795406129610977 0 0.44252896649868317 0.039073008259517338 0 0.44432728466234178 0.059795406129610977 0 0.44252896649868317 0.039073008259517338 0 0.46100281088556699 0.043351957730158222 0 0.4514029071021442 0.02821869916314456 0 0.44252896649868317 0.039073008259517338 0 0.46100281088556699 0.043351957730158222 0 0.4514029071021442 0.02821869916314456 0 0.46553563141862692 0.027383902935855992 0 0.46100281088556699 0.043351957730158222 0 0.46553563141862692 0.027383902935855992 0 0.46100281088556699 0.043351957730158222 0 0.4764725540003833 0.035303178421407518 0 0.46368779630991369 0.062884433647911922 0 0.44432728466234178 0.059795406129610977 0 0.46100281088556699 0.043351957730158222 0 0.48297411160829701 0.071419164250366693 0 0.46368779630991369 0.062884433647911922 0 0.48184389815495748 0.047383459182506117 0 0.46368779630991369 0.062884433647911922 0 0.46100281088556699 0.043351957730158222 0 0.48184389815495748 0.047383459182506117 0 0.46368779630991369 0.062884433647911922 0 0.48184389815495748 0.047383459182506117 0 0.46100281088556699 0.043351957730158222 0 0.48184389815495748 0.047383459182506117 0 0.4764725540003833 0.035303178421407518 0 0.48184389815495748 0.047383459182506117 0 0.50000000000000089 0.031882484717099757 0 0.48184389815495748 0.047383459182506117 0 0.50000000000000089 0.031882484717099757 0 0.5 0.058972369132007867 0 0.48184389815495748 0.047383459182506117 0 0.4764725540003833 0.035303178421407518 0 0.50000000000000089 0.031882484717099757 0 0.48297411160829701 0.071419164250366693 0 0.48184389815495748 0.047383459182506117 0 0.5 0.058972369132007867 0 0.48173822001607031 0.002441982684480838 0 0.47207727543944228 0.0077163925679632076 0 0.45540766643685782 -0.0078732224449345398 0 0.48073089036299149 0.01447516008145705 0 0.48088876464914698 0.0066420825236524483 0 0.47207727543944228 0.0077163925679632076 0 0.48088876464914698 0.0066420825236524483 0 0.48173822001607031 0.002441982684480838 0 0.48944624590280772 0.014576472087587141 0 0.48073089036299149 0.01447516008145705 0 0.48088876464914698 0.0066420825236524483 0 0.48944624590280772 0.014576472087587141 0 0.48088876464914698 0.0066420825236524483 0 0.48173822001607031 0.002441982684480838 0 0.47207727543944228 0.0077163925679632076 0 0.48088876464914698 0.0066420825236524483 0 0.48173822001607031 0.002441982684480838 0 0.48073089036299149 0.01447516008145705 0 0.47207727543944228 0.0077163925679632076 0 0.471035018561343 0.01684384088441979 0 0.46553563141862692 0.027383902935855992 0 0.471035018561343 0.01684384088441979 0 0.48098968552297122 0.023479159592672289 0 0.46553563141862692 0.027383902935855992 0 0.4764725540003833 0.035303178421407518 0 0.48098968552297122 0.023479159592672289 0 0.48073089036299149 0.01447516008145705 0 0.471035018561343 0.01684384088441979 0 0.48098968552297122 0.023479159592672289 0 0.48073089036299149 0.01447516008145705 0 0.48098968552297122 0.023479159592672289 0 0.48944624590280772 0.014576472087587141 0 0.50000000000000089 0.031882484717099757 0 0.50000000000000044 0.0095961811708810997 0 0.48944624590280772 0.014576472087587141 0 0.4764725540003833 0.035303178421407518 0 0.50000000000000089 0.031882484717099757 0 0.48098968552297122 0.023479159592672289 0 0.50000000000000089 0.031882484717099757 0 0.48098968552297122 0.023479159592672289 0 0.48944624590280772 0.014576472087587141 0 0.48173822001607031 0.002441982684480838 0 0.50000000000000044 0.0095961811708810997 0 0.48944624590280772 0.014576472087587141 0 0.48173822001607031 0.002441982684480838 0 0.50000000000000044 0.0095961811708810997 0 0.48173822001607031 0.002441982684480838 0 0.50000000000000044 0.0095961811708810997 0 0.5 -0.01553848795347695 0 0.48173822001607031 0.002441982684480838 0 0.5 -0.01553848795347695 0 0.48723509010938909 -0.024737082977995831 0 0.48173822001607031 0.002441982684480838 0 0.48723509010938909 -0.024737082977995831 0 0.48173822001607031 0.002441982684480838 0 0.46944239540012012 -0.021901386132034111 0 0.45540766643685782 -0.0078732224449345398 0 0.48173822001607031 0.002441982684480838 0 0.46944239540012012 -0.021901386132034111 0 0.48723509010938909 -0.024737082977995831 0 0.46944239540012012 -0.021901386132034111 0 0.48723509010938909 -0.024737082977995831 0 0.47311684284700922 -0.039980301183512167 0 0.5 -0.01553848795347695 0 0.48723509010938909 -0.024737082977995831 0 0.5 -0.040673157077835087 0 0.48723509010938909 -0.024737082977995831 0 0.49273196020270971 -0.051916148640471983 0 0.48034048547664182 -0.050194577481915269 0 0.48723509010938909 -0.024737082977995831 0 0.49273196020270971 -0.051916148640471983 0 0.48723509010938909 -0.024737082977995831 0 0.5 -0.040673157077835087 0 0.49273196020270971 -0.051916148640471983 0 0.5 -0.040673157077835087 0 0.49273196020270971 -0.051916148640471983 0 0.5 -0.065807826202193331 0 0.49273196020270971 -0.051916148640471983 0 0.48384360039889979 -0.062204599920787272 0 0.48034048547664182 -0.050194577481915269 0 0.48034048547664182 -0.050194577481915269 0 0.47035120232490191 -0.060528185902064997 0 0.47311684284700922 -0.039980301183512167 0 0.47035120232490191 -0.060528185902064997 0 0.47311684284700922 -0.039980301183512167 0 0.48384360039889979 -0.062204599920787272 0 0.48034048547664182 -0.050194577481915269 0 0.47035120232490191 -0.060528185902064997 0 0.48723509010938909 -0.024737082977995831 0 0.48034048547664182 -0.050194577481915269 0 0.47311684284700922 -0.039980301183512167 0 0.46944239540012012 -0.021901386132034111 0 0.47311684284700922 -0.039980301183512167 0 0.44971415759127392 -0.039358306738208573 0 0.47035120232490191 -0.060528185902064997 0 0.47311684284700922 -0.039980301183512167 0 0.44971415759127392 -0.039358306738208573 0 0.47035120232490191 -0.060528185902064997 0 0.44971415759127392 -0.039358306738208573 0 0.47035120232490191 -0.060528185902064997 0 0.43963483674523918 -0.055334607978488382 0 0.44971415759127392 -0.039358306738208573 0 0.43963483674523918 -0.055334607978488382 0 0.44971415759127392 -0.039358306738208573 0 0.42419530264354072 -0.042652000491910397 0 0.46944239540012012 -0.021901386132034111 0 0.44971415759127392 -0.039358306738208573 0 0.45540766643685782 -0.0078732224449345398 0 0.44971415759127392 -0.039358306738208573 0 0.42907711285764621 -0.01818842757435184 0 0.44971415759127392 -0.039358306738208573 0 0.45540766643685782 -0.0078732224449345398 0 0.42907711285764621 -0.01818842757435184 0 0.45540766643685782 -0.0078732224449345398 0 0.42907711285764621 -0.01818842757435184 0 0.45100246047295739 0.0046664116742636159 0 0.4382820622288856 -0.0014159552958160841 0 0.45540766643685782 -0.0078732224449345398 0 0.4382820622288856 -0.0014159552958160841 0 0.45540766643685782 -0.0078732224449345398 0 0.42907711285764621 -0.01818842757435184 0 0.48173822001607031 0.002441982684480838 0 0.45540766643685782 -0.0078732224449345398 0 0.47129126618897188 -0.1223351355815797 0 0.47148248434309947 -0.114916285604633 0 0.48087269318342413 -0.1216818802472065 0 0.47148248434309947 -0.114916285604633 0 0.48087269318342413 -0.1216818802472065 0 0.47838814501791832 -0.1066654575105275 0 0.48087269318342413 -0.1216818802472065 0 0.48924328608656842 -0.1141618265083332 0 0.47838814501791832 -0.1066654575105275 0 0.5 -0.1122204549214597 0 0.48924328608656842 -0.1141618265083332 0 0.5 -0.13349841451636779 0 0.48087269318342413 -0.1216818802472065 0 0.48924328608656842 -0.1141618265083332 0 0.5 -0.13349841451636779 0 0.5 -0.1122204549214597 0 0.48924328608656842 -0.1141618265083332 0 0.48827073793524339 -0.097774102912636218 0 0.48924328608656842 -0.1141618265083332 0 0.48827073793524339 -0.097774102912636218 0 0.47838814501791832 -0.1066654575105275 0 0.5 -0.1122204549214597 0 0.48827073793524339 -0.097774102912636218 0 0.50000000000000266 -0.090942495326551576 0 0.47652975213937199 -0.091635549067057065 0 0.46683976751390588 -0.086617099886465918 0 0.46456669494636288 -0.10350535152343909 0 0.48827073793524339 -0.097774102912636218 0 0.47838814501791832 -0.1066654575105275 0 0.47652975213937199 -0.091635549067057065 0 0.47148248434309947 -0.114916285604633 0 0.47838814501791832 -0.1066654575105275 0 0.46456669494636288 -0.10350535152343909 0 0.47838814501791832 -0.1066654575105275 0 0.47652975213937199 -0.091635549067057065 0 0.46456669494636288 -0.10350535152343909 0 0.48827073793524339 -0.097774102912636218 0 0.47652975213937199 -0.091635549067057065 0 0.48517560116245317 -0.075735340614307423 0 0.47652975213937199 -0.091635549067057065 0 0.48517560116245317 -0.075735340614307423 0 0.46683976751390588 -0.086617099886465918 0 0.47652975213937199 -0.091635549067057065 0 0.46683976751390588 -0.086617099886465918 0 0.50000000000000266 -0.090942495326551576 0 0.49822883029603021 -0.079095214302948247 0 0.5 -0.065807826202193331 0 0.48827073793524339 -0.097774102912636218 0 0.50000000000000266 -0.090942495326551576 0 0.48517560116245317 -0.075735340614307423 0 0.50000000000000266 -0.090942495326551576 0 0.48517560116245317 -0.075735340614307423 0 0.50000000000000266 -0.090942495326551576 0 0.49822883029603021 -0.079095214302948247 0 0.48517560116245317 -0.075735340614307423 0 0.49273196020270971 -0.051916148640471983 0 0.49822883029603021 -0.079095214302948247 0 0.48384360039889979 -0.062204599920787272 0 0.49822883029603021 -0.079095214302948247 0 0.48517560116245317 -0.075735340614307423 0 0.49273196020270971 -0.051916148640471983 0 0.48384360039889979 -0.062204599920787272 0 0.49822883029603021 -0.079095214302948247 0 0.49273196020270971 -0.051916148640471983 0 0.49822883029603021 -0.079095214302948247 0 0.5 -0.065807826202193331 0 0.47035120232490191 -0.060528185902064997 0 0.48517560116245317 -0.075735340614307423 0 0.47035120232490191 -0.060528185902064997 0 0.48517560116245317 -0.075735340614307423 0 0.46683976751390588 -0.086617099886465918 0 0.48384360039889979 -0.062204599920787272 0 0.47035120232490191 -0.060528185902064997 0 0.48517560116245317 -0.075735340614307423 0 0.47035120232490191 -0.060528185902064997 0 0.46683976751390588 -0.086617099886465918 0 0.47035120232490191 -0.060528185902064997 0 0.44249197108241189 -0.074007360679063244 0 0.46683976751390588 -0.086617099886465918 0 0.47035120232490191 -0.060528185902064997 0 0.43963483674523918 -0.055334607978488382 0 0.44249197108241189 -0.074007360679063244 0 0.44249197108241189 -0.074007360679063244 0 0.46683976751390588 -0.086617099886465918 0 0.4490662803509099 -0.094083529251462475 0 0.44249197108241189 -0.074007360679063244 0 0.4490662803509099 -0.094083529251462475 0 0.42834270349958448 -0.099226311759436261 0 0.44249197108241189 -0.074007360679063244 0 0.46683976751390588 -0.086617099886465918 0 0.46683976751390588 -0.086617099886465918 0 0.46456669494636288 -0.10350535152343909 0 0.4490662803509099 -0.094083529251462475 0 0.46683976751390588 -0.086617099886465918 0 0.46456669494636288 -0.10350535152343909 0 0.46456669494636288 -0.10350535152343909 0 0.4490662803509099 -0.094083529251462475 0 0.44386094964032902 -0.11054798122052439 0 0.4490662803509099 -0.094083529251462475 0 0.44386094964032902 -0.11054798122052439 0 0.42834270349958448 -0.099226311759436261 0 0.44386094964032902 -0.11054798122052439 0 0.46257396642688631 -0.12529077885077469 0 0.45239247298790419 -0.125419693033265 0 0.44386094964032902 -0.11054798122052439 0 0.42916935431308728 -0.1205456085246996 0 0.4435038969132965 -0.12540022695152131 0 0.44386094964032902 -0.11054798122052439 0 0.45239247298790419 -0.125419693033265 0 0.4435038969132965 -0.12540022695152131 0 0.44386094964032902 -0.11054798122052439 0 0.46229362237882032 -0.1203936031604123 0 0.46257396642688631 -0.12529077885077469 0 0.46456669494636288 -0.10350535152343909 0 0.46229362237882032 -0.1203936031604123 0 0.46456669494636288 -0.10350535152343909 0 0.44386094964032902 -0.11054798122052439 0 0.46229362237882032 -0.1203936031604123 0 0.44386094964032902 -0.11054798122052439 0 0.46257396642688631 -0.12529077885077469 0 0.47148248434309947 -0.114916285604633 0 0.46456669494636288 -0.10350535152343909 0 0.46229362237882032 -0.1203936031604123 0 0.47129126618897188 -0.1223351355815797 0 0.46229362237882032 -0.1203936031604123 0 0.46257396642688631 -0.12529077885077469 0 0.47129126618897188 -0.1223351355815797 0 0.47148248434309947 -0.114916285604633 0 0.46229362237882032 -0.1203936031604123 0 0.44386094964032902 -0.11054798122052439 0 0.42916935431308728 -0.1205456085246996 0 0.42834270349958448 -0.099226311759436261 0 0.41143930547928681 -0.11934523636421419 0 0.42916935431308728 -0.1205456085246996 0 0.42834270349958448 -0.099226311759436261 0 0.41143930547928681 -0.11934523636421419 0 0.40555832972599831 -0.095826118330896617 0 0.41143930547928681 -0.11934523636421419 0 0.42834270349958448 -0.099226311759436261 0 0.40555832972599831 -0.095826118330896617 0 0.42834270349958448 -0.099226311759436261 0 0.41884290658632428 -0.080552882507727325 0 0.40555832972599831 -0.095826118330896617 0 0.41884290658632428 -0.080552882507727325 0 0.39967735397270959 -0.072307000297579083 0 0.40555832972599831 -0.095826118330896617 0 0.44249197108241189 -0.074007360679063244 0 0.42834270349958448 -0.099226311759436261 0 0.41884290658632428 -0.080552882507727325 0 0.44249197108241189 -0.074007360679063244 0 0.41814417465091752 -0.061397621471661459 0 0.43963483674523918 -0.055334607978488382 0 0.44249197108241189 -0.074007360679063244 0 0.41814417465091752 -0.061397621471661459 0 0.44249197108241189 -0.074007360679063244 0 0.41884290658632428 -0.080552882507727325 0 0.41814417465091752 -0.061397621471661459 0 0.41884290658632428 -0.080552882507727325 0 0.39967735397270959 -0.072307000297579083 0 0.41814417465091752 -0.061397621471661459 0 0.39967735397270959 -0.072307000297579083 0 0.38669795957132042 -0.057310603286660967 0 0.37240766699872252 -0.068318548019290964 0 0.39967735397270959 -0.072307000297579083 0 0.37781097748786241 -0.089314889372882261 0 0.37240766699872252 -0.068318548019290964 0 0.39967735397270959 -0.072307000297579083 0 0.37781097748786241 -0.089314889372882261 0 0.40555832972599831 -0.095826118330896617 0 0.39967735397270959 -0.072307000297579083 0 0.40555832972599831 -0.095826118330896617 0 0.40555832972599831 -0.095826118330896617 0 0.38953803654933628 -0.10754997095337659 0 0.39823574772599779 -0.11763079726210079 0 0.37781097748786241 -0.089314889372882261 0 0.40555832972599831 -0.095826118330896617 0 0.38953803654933628 -0.10754997095337659 0 0.37781097748786241 -0.089314889372882261 0 0.38953803654933628 -0.10754997095337659 0 0.37644505785585192 -0.1058120404938334 0 0.38953803654933628 -0.10754997095337659 0 0.37644505785585192 -0.1058120404938334 0 0.37720890243704291 -0.12310924361699779 0 0.38953803654933628 -0.10754997095337659 0 0.37720890243704291 -0.12310924361699779 0 0.38918813321375051 -0.12739880168557821 0 0.38953803654933628 -0.10754997095337659 0 0.39823574772599779 -0.11763079726210079 0 0.38918813321375051 -0.12739880168557821 0 0.41143930547928681 -0.11934523636421419 0 0.39823574772599779 -0.11763079726210079 0 0.40257569972698831 -0.13396225485532559 0 0.41143930547928681 -0.11934523636421419 0 0.40555832972599831 -0.095826118330896617 0 0.39823574772599779 -0.11763079726210079 0 0.42011428296152808 -0.02169968792975261 0 0.41401194260749391 -0.028450411104576211 0 0.41343304557213612 -0.018371446868227208 0 0.42011428296152808 -0.02169968792975261 0 0.41343304557213612 -0.018371446868227208 0 0.41928481904255338 -0.01548900553927589 0 0.42011428296152808 -0.02169968792975261 0 0.41928481904255338 -0.01548900553927589 0 0.42542521438275183 -0.0144422395697206 0 0.42011428296152808 -0.02169968792975261 0 0.41401194260749391 -0.028450411104576211 0 0.42742255973229643 -0.030069766767760062 0 0.41401194260749391 -0.028450411104576211 0 0.40522076275047969 -0.019933987949522329 0 0.40044964155059998 -0.029094842751199331 0 0.41401194260749391 -0.028450411104576211 0 0.41343304557213612 -0.018371446868227208 0 0.40522076275047969 -0.019933987949522329 0 0.41343304557213612 -0.018371446868227208 0 0.40806592415966281 -0.01253819616599721 0 0.40522076275047969 -0.019933987949522329 0 0.40806592415966281 -0.01253819616599721 0 0.4135204533098043 -0.0054466611181140526 0 0.41498054603746559 -0.011947546426581419 0 0.41343304557213612 -0.018371446868227208 0 0.40806592415966281 -0.01253819616599721 0 0.41498054603746559 -0.011947546426581419 0 0.41081432206005303 0.0037114498956348132 0 0.4135204533098043 -0.0054466611181140526 0 0.4046584776842293 -0.0050702490882302163 0 0.40806592415966281 -0.01253819616599721 0 0.4135204533098043 -0.0054466611181140526 0 0.4046584776842293 -0.0050702490882302163 0 0.41081432206005303 0.0037114498956348132 0 0.42248564151892998 0.0016345051066286029 0 0.4135204533098043 -0.0054466611181140526 0 0.42248564151892998 0.0016345051066286029 0 0.4135204533098043 -0.0054466611181140526 0 0.42119781252485211 -0.0083000839364812864 0 0.41343304557213612 -0.018371446868227208 0 0.41498054603746559 -0.011947546426581419 0 0.41928481904255338 -0.01548900553927589 0 0.4135204533098043 -0.0054466611181140526 0 0.41498054603746559 -0.011947546426581419 0 0.42119781252485211 -0.0083000839364812864 0 0.41498054603746559 -0.011947546426581419 0 0.42119781252485211 -0.0083000839364812864 0 0.41928481904255338 -0.01548900553927589 0 0.42542521438275183 -0.0144422395697206 0 0.42820760236351979 -0.0076976995852137747 0 0.42907711285764621 -0.01818842757435184 0 0.4382820622288856 -0.0014159552958160841 0 0.42820760236351979 -0.0076976995852137747 0 0.42907711285764621 -0.01818842757435184 0 0.42119781252485211 -0.0083000839364812864 0 0.41928481904255338 -0.01548900553927589 0 0.42542521438275183 -0.0144422395697206 0 0.42248564151892998 0.0016345051066286029 0 0.4382820622288856 -0.0014159552958160841 0 0.42820760236351979 -0.0076976995852137747 0 0.42119781252485211 -0.0083000839364812864 0 0.42542521438275183 -0.0144422395697206 0 0.42820760236351979 -0.0076976995852137747 0 0.42248564151892998 0.0016345051066286029 0 0.42119781252485211 -0.0083000839364812864 0 0.42820760236351979 -0.0076976995852137747 0 0.44971415759127392 -0.039358306738208573 0 0.42907711285764621 -0.01818842757435184 0 0.42742255973229643 -0.030069766767760062 0 0.42011428296152808 -0.02169968792975261 0 0.42907711285764621 -0.01818842757435184 0 0.42742255973229643 -0.030069766767760062 0 0.42011428296152808 -0.02169968792975261 0 0.42542521438275183 -0.0144422395697206 0 0.42907711285764621 -0.01818842757435184 0 0.42011428296152808 -0.02169968792975261 0 0.42907711285764621 -0.01818842757435184 0 0.42542521438275183 -0.0144422395697206 0 0.42907711285764621 -0.01818842757435184 0 0.44971415759127392 -0.039358306738208573 0 0.42742255973229643 -0.030069766767760062 0 0.42419530264354072 -0.042652000491910397 0 0.41401194260749391 -0.028450411104576211 0 0.42742255973229643 -0.030069766767760062 0 0.42419530264354072 -0.042652000491910397 0 0.43963483674523918 -0.055334607978488382 0 0.42419530264354072 -0.042652000491910397 0 0.41814417465091752 -0.061397621471661459 0 0.41814417465091752 -0.061397621471661459 0 0.41107184061272262 -0.047596707948501772 0 0.39379637821942232 -0.04878788226426127 0 0.42419530264354072 -0.042652000491910397 0 0.41814417465091752 -0.061397621471661459 0 0.41107184061272262 -0.047596707948501772 0 0.41401194260749391 -0.028450411104576211 0 0.42419530264354072 -0.042652000491910397 0 0.40815150693701141 -0.037549327566173699 0 0.42419530264354072 -0.042652000491910397 0 0.41107184061272262 -0.047596707948501772 0 0.40815150693701141 -0.037549327566173699 0 0.41401194260749391 -0.028450411104576211 0 0.40815150693701141 -0.037549327566173699 0 0.40044964155059998 -0.029094842751199331 0 0.41107184061272262 -0.047596707948501772 0 0.40815150693701141 -0.037549327566173699 0 0.39379637821942232 -0.04878788226426127 0 0.40815150693701141 -0.037549327566173699 0 0.39379637821942232 -0.04878788226426127 0 0.40044964155059998 -0.029094842751199331 0 0.39379637821942232 -0.04878788226426127 0 0.38867892262788012 -0.028322223649632432 0 0.39379637821942232 -0.04878788226426127 0 0.38867892262788012 -0.028322223649632432 0 0.40044964155059998 -0.029094842751199331 0 0.39967735397270959 -0.072307000297579083 0 0.39379637821942232 -0.04878788226426127 0 0.38669795957132042 -0.057310603286660967 0 0.41814417465091752 -0.061397621471661459 0 0.39379637821942232 -0.04878788226426127 0 0.39967735397270959 -0.072307000297579083 0 0.39379637821942232 -0.04878788226426127 0 0.39967735397270959 -0.072307000297579083 0 0.41814417465091752 -0.061397621471661459 0 0.39379637821942232 -0.04878788226426127 0 0.39379637821942232 -0.04878788226426127 0 0.38896036142985008 -0.046283306103098283 0 0.38669795957132042 -0.057310603286660967 0 0.37839056082150663 -0.050608978831784571 0 0.37240766699872252 -0.068318548019290964 0 0.38669795957132042 -0.057310603286660967 0 0.37839056082150663 -0.050608978831784571 0 0.38896036142985008 -0.046283306103098283 0 0.39379637821942232 -0.04878788226426127 0 0.38669795957132042 -0.057310603286660967 0 0.38896036142985008 -0.046283306103098283 0 0.39379637821942232 -0.04878788226426127 0 0.38896036142985008 -0.046283306103098283 0 0.38867892262788012 -0.028322223649632432 0 0.3834615598562825 -0.037386722635115492 0 0.38896036142985008 -0.046283306103098283 0 0.38867892262788012 -0.028322223649632432 0 0.37839056082150663 -0.050608978831784571 0 0.3834615598562825 -0.037386722635115492 0 0.38896036142985008 -0.046283306103098283 0 0.37839056082150663 -0.050608978831784571 0 0.3834615598562825 -0.037386722635115492 0 0.37356965880113402 -0.040783236975350308 0 0.38867892262788012 -0.028322223649632432 0 0.38356146703633898 -0.0078565650350033434 0 0.3834615598562825 -0.037386722635115492 0 0.37600683512296651 -0.014087071697862221 0 0.37356965880113402 -0.040783236975350308 0 0.3834615598562825 -0.037386722635115492 0 0.38867892262788012 -0.028322223649632432 0 0.37600683512296651 -0.014087071697862221 0 0.38867892262788012 -0.028322223649632432 0 0.37600683512296651 -0.014087071697862221 0 0.38356146703633898 -0.0078565650350033434 0 0.38867892262788012 -0.028322223649632432 0 0.39658225960386179 -0.014459285545308009 0 0.38356146703633898 -0.0078565650350033434 0 0.38867892262788012 -0.028322223649632432 0 0.40044964155059998 -0.029094842751199331 0 0.39658225960386179 -0.014459285545308009 0 0.40522076275047969 -0.019933987949522329 0 0.40044964155059998 -0.029094842751199331 0 0.39658225960386179 -0.014459285545308009 0 0.40806592415966281 -0.01253819616599721 0 0.40522076275047969 -0.019933987949522329 0 0.39658225960386179 -0.014459285545308009 0 0.40060323373222451 0.0042547197705496897 0 0.4046584776842293 -0.0050702490882302163 0 0.39531848553630572 -0.0042569273994520467 0 0.40806592415966281 -0.01253819616599721 0 0.4046584776842293 -0.0050702490882302163 0 0.39658225960386179 -0.014459285545308009 0 0.4046584776842293 -0.0050702490882302163 0 0.39658225960386179 -0.014459285545308009 0 0.39531848553630572 -0.0042569273994520467 0 0.39658225960386179 -0.014459285545308009 0 0.39531848553630572 -0.0042569273994520467 0 0.38356146703633898 -0.0078565650350033434 0 0.39025836247721268 0.0036292771787240202 0 0.39531848553630572 -0.0042569273994520467 0 0.38356146703633898 -0.0078565650350033434 0 0.37844401144479839 0.012609093579625891 0 0.37600683512296651 -0.014087071697862221 0 0.37844401144479839 0.012609093579625891 0 0.37600683512296651 -0.014087071697862221 0 0.38356146703633898 -0.0078565650350033434 0 0.37600683512296651 -0.014087071697862221 0 0.36665723294200347 -0.001883505129568449 0 0.35850646790810559 -0.01395473468271459 0 0.37844401144479839 0.012609093579625891 0 0.37600683512296651 -0.014087071697862221 0 0.36665723294200347 -0.001883505129568449 0 0.36665723294200347 -0.001883505129568449 0 0.35531676971978082 -0.0033532784323768001 0 0.35850646790810559 -0.01395473468271459 0 0.37600683512296651 -0.014087071697862221 0 0.37356965880113402 -0.040783236975350308 0 0.37600683512296651 -0.014087071697862221 0 0.36404947753274258 -0.026706798856440471 0 0.35850646790810559 -0.01395473468271459 0 0.37600683512296651 -0.014087071697862221 0 0.36404947753274258 -0.026706798856440471 0 0.37356965880113402 -0.040783236975350308 0 0.34748556133762742 -0.02738266599094942 0 0.35850646790810559 -0.01395473468271459 0 0.34370628527030811 -0.0115647124322744 0 0.36404947753274258 -0.026706798856440471 0 0.34748556133762742 -0.02738266599094942 0 0.35850646790810559 -0.01395473468271459 0 0.36404947753274258 -0.026706798856440471 0 0.34748556133762742 -0.02738266599094942 0 0.36012817770438982 -0.039413746555128387 0 0.33689267375143878 0.0039255003288513873 0 0.35531676971978082 -0.0033532784323768001 0 0.34370628527030811 -0.0115647124322744 0 0.35531676971978082 -0.0033532784323768001 0 0.35850646790810559 -0.01395473468271459 0 0.34370628527030811 -0.0115647124322744 0 0.33689267375143878 0.0039255003288513873 0 0.34370628527030811 -0.0115647124322744 0 0.32469666258817742 -0.019557632270551 0 0.33689267375143878 0.0039255003288513873 0 0.30352242257352219 0.0039185454548519476 0 0.32469666258817742 -0.019557632270551 0 0.34748556133762742 -0.02738266599094942 0 0.34370628527030811 -0.0115647124322744 0 0.32469666258817742 -0.019557632270551 0 0.34748556133762742 -0.02738266599094942 0 0.32469666258817742 -0.019557632270551 0 0.33457477032001748 -0.043965109755099818 0 0.31326255248553708 -0.043768501277314603 0 0.32924913997341337 -0.063603686862235317 0 0.31014365419524398 -0.06072536978512106 0 0.31326255248553708 -0.043768501277314603 0 0.32924913997341337 -0.063603686862235317 0 0.31326255248553708 -0.043768501277314603 0 0.33457477032001748 -0.043965109755099818 0 0.32924913997341337 -0.063603686862235317 0 0.32469666258817742 -0.019557632270551 0 0.31326255248553708 -0.043768501277314603 0 0.33457477032001748 -0.043965109755099818 0 0.33457477032001748 -0.043965109755099818 0 0.34313363496153881 -0.061193084728204693 0 0.35029003257871461 -0.048624574981710279 0 0.33457477032001748 -0.043965109755099818 0 0.34313363496153881 -0.061193084728204693 0 0.32924913997341337 -0.063603686862235317 0 0.35029003257871461 -0.048624574981710279 0 0.36524615827173029 -0.053571455971191423 0 0.35631850447425872 -0.066333179594821989 0 0.34313363496153881 -0.061193084728204693 0 0.35029003257871461 -0.048624574981710279 0 0.35631850447425872 -0.066333179594821989 0 0.35029003257871461 -0.048624574981710279 0 0.36012817770438982 -0.039413746555128387 0 0.36524615827173029 -0.053571455971191423 0 0.34748556133762742 -0.02738266599094942 0 0.33457477032001748 -0.043965109755099818 0 0.35029003257871461 -0.048624574981710279 0 0.34748556133762742 -0.02738266599094942 0 0.35029003257871461 -0.048624574981710279 0 0.36012817770438982 -0.039413746555128387 0 0.36404947753274258 -0.026706798856440471 0 0.36012817770438982 -0.039413746555128387 0 0.37356965880113402 -0.040783236975350308 0 0.36012817770438982 -0.039413746555128387 0 0.37356965880113402 -0.040783236975350308 0 0.36524615827173029 -0.053571455971191423 0 0.37839056082150663 -0.050608978831784571 0 0.36524615827173029 -0.053571455971191423 0 0.37240766699872252 -0.068318548019290964 0 0.37839056082150663 -0.050608978831784571 0 0.37356965880113402 -0.040783236975350308 0 0.36524615827173029 -0.053571455971191423 0 0.36524615827173029 -0.053571455971191423 0 0.37240766699872252 -0.068318548019290964 0 0.35631850447425872 -0.066333179594821989 0 0.37240766699872252 -0.068318548019290964 0 0.36259903827425999 -0.08213590949324566 0 0.35631850447425872 -0.066333179594821989 0 0.37781097748786241 -0.089314889372882261 0 0.37240766699872252 -0.068318548019290964 0 0.36259903827425999 -0.08213590949324566 0 0.37781097748786241 -0.089314889372882261 0 0.36259903827425999 -0.08213590949324566 0 0.3612223149491664 -0.1032740580320769 0 0.34523572746128989 -0.083438872447156087 0 0.3612223149491664 -0.1032740580320769 0 0.36259903827425999 -0.08213590949324566 0 0.34523572746128989 -0.083438872447156087 0 0.3612223149491664 -0.1032740580320769 0 0.34313363496153881 -0.061193084728204693 0 0.34523572746128989 -0.083438872447156087 0 0.35631850447425872 -0.066333179594821989 0 0.36259903827425999 -0.08213590949324566 0 0.34523572746128989 -0.083438872447156087 0 0.35631850447425872 -0.066333179594821989 0 0.37720890243704291 -0.12310924361699779 0 0.36253108037134668 -0.1248744885805331 0 0.3612223149491664 -0.1032740580320769 0 0.37644505785585192 -0.1058120404938334 0 0.37720890243704291 -0.12310924361699779 0 0.3612223149491664 -0.1032740580320769 0 0.37720890243704291 -0.12310924361699779 0 0.3612223149491664 -0.1032740580320769 0 0.37781097748786241 -0.089314889372882261 0 0.37644505785585192 -0.1058120404938334 0 0.3612223149491664 -0.1032740580320769 0 0.34523572746128989 -0.083438872447156087 0 0.3612223149491664 -0.1032740580320769 0 0.33932087337301742 -0.1007066993955318 0 0.3612223149491664 -0.1032740580320769 0 0.34941185211170689 -0.1127717253903176 0 0.33932087337301742 -0.1007066993955318 0 0.36253108037134668 -0.1248744885805331 0 0.33587402752894302 -0.122350175475488 0 0.36253108037134668 -0.1248744885805331 0 0.34941185211170689 -0.1127717253903176 0 0.33587402752894302 -0.122350175475488 0 0.36253108037134668 -0.1248744885805331 0 0.3612223149491664 -0.1032740580320769 0 0.34941185211170689 -0.1127717253903176 0 0.34941185211170689 -0.1127717253903176 0 0.33587402752894302 -0.122350175475488 0 0.33932087337301742 -0.1007066993955318 0 0.33587402752894302 -0.122350175475488 0 0.33932087337301742 -0.1007066993955318 0 0.31943204723016899 -0.10139701157958859 0 0.33932087337301742 -0.1007066993955318 0 0.31943204723016899 -0.10139701157958859 0 0.32474927095682959 -0.081008353448563344 0 0.33587402752894302 -0.122350175475488 0 0.31943204723016899 -0.10139701157958859 0 0.3092169746865393 -0.1198258623704429 0 0.33587402752894302 -0.122350175475488 0 0.3092169746865393 -0.1198258623704429 0 0.34523572746128989 -0.083438872447156087 0 0.32924913997341337 -0.063603686862235317 0 0.32474927095682959 -0.081008353448563344 0 0.34523572746128989 -0.083438872447156087 0 0.32924913997341337 -0.063603686862235317 0 0.34313363496153881 -0.061193084728204693 0 0.34523572746128989 -0.083438872447156087 0 0.32924913997341337 -0.063603686862235317 0 0.34523572746128989 -0.083438872447156087 0 0.33932087337301742 -0.1007066993955318 0 0.32474927095682959 -0.081008353448563344 0 0.31943204723016899 -0.10139701157958859 0 0.32474927095682959 -0.081008353448563344 0 0.31117343018006932 -0.08835554327446378 0 0.32474927095682959 -0.081008353448563344 0 0.30201438303726968 -0.075929904193525521 0 0.32474927095682959 -0.081008353448563344 0 0.30201438303726968 -0.075929904193525521 0 0.31117343018006932 -0.08835554327446378 0 0.32924913997341337 -0.063603686862235317 0 0.32474927095682959 -0.081008353448563344 0 0.31014365419524398 -0.06072536978512106 0 0.32474927095682959 -0.081008353448563344 0 0.30201438303726968 -0.075929904193525521 0 0.31014365419524398 -0.06072536978512106 0 0.30201438303726968 -0.075929904193525521 0 0.31014365419524398 -0.06072536978512106 0 0.29222542489931519 -0.060978945333093171 0 0.31117343018006932 -0.08835554327446378 0 0.29442961060618023 -0.089764156713605506 0 0.30306705175182019 -0.101009202806625 0 0.30201438303726968 -0.075929904193525521 0 0.31117343018006932 -0.08835554327446378 0 0.29442961060618023 -0.089764156713605506 0 0.29442961060618023 -0.089764156713605506 0 0.28691460331806928 -0.079185378374353493 0 0.27734124638624891 -0.089737863242296378 0 0.30201438303726968 -0.075929904193525521 0 0.29442961060618023 -0.089764156713605506 0 0.28691460331806928 -0.079185378374353493 0 0.30201438303726968 -0.075929904193525521 0 0.27927949511770961 -0.070851454938488739 0 0.29222542489931519 -0.060978945333093171 0 0.30201438303726968 -0.075929904193525521 0 0.27927949511770961 -0.070851454938488739 0 0.30201438303726968 -0.075929904193525521 0 0.28691460331806928 -0.079185378374353493 0 0.27927949511770961 -0.070851454938488739 0 0.28691460331806928 -0.079185378374353493 0 0.27927949511770961 -0.070851454938488739 0 0.27809334201771629 -0.079209584513290715 0 0.28691460331806928 -0.079185378374353493 0 0.27927949511770961 -0.070851454938488739 0 0.27927949511770961 -0.070851454938488739 0 0.27868582307562201 -0.055886184139343542 0 0.29222542489931519 -0.060978945333093171 0 0.31943204723016899 -0.10139701157958859 0 0.3092169746865393 -0.1198258623704429 0 0.30306705175182019 -0.101009202806625 0 0.3092169746865393 -0.1198258623704429 0 0.30306705175182019 -0.101009202806625 0 0.28879183359809052 -0.10393054527906551 0 0.31943204723016899 -0.10139701157958859 0 0.31117343018006932 -0.08835554327446378 0 0.30306705175182019 -0.101009202806625 0 0.28879183359809052 -0.10393054527906551 0 0.28255992184413548 -0.11730154926539781 0 0.27267591943638608 -0.1048970298088977 0 0.29442961060618023 -0.089764156713605506 0 0.28879183359809052 -0.10393054527906551 0 0.27734124638624891 -0.089737863242296378 0 0.29442961060618023 -0.089764156713605506 0 0.30306705175182019 -0.101009202806625 0 0.28879183359809052 -0.10393054527906551 0 0.3092169746865393 -0.1198258623704429 0 0.28255992184413548 -0.11730154926539781 0 0.3092169746865393 -0.1198258623704429 0 0.28879183359809052 -0.10393054527906551 0 0.28255992184413548 -0.11730154926539781 0 0.3092169746865393 -0.1198258623704429 0 0.28255992184413548 -0.11730154926539781 0 0.28721398294742878 -0.13035474923543569 0 0.28255992184413548 -0.11730154926539781 0 0.26776517015272971 -0.1222840496799191 0 0.28721398294742878 -0.13035474923543569 0 0.28255992184413548 -0.11730154926539781 0 0.26776517015272971 -0.1222840496799191 0 0.27267591943638608 -0.1048970298088977 0 0.26776517015272971 -0.1222840496799191 0 0.27267591943638608 -0.1048970298088977 0 0.26047800574605201 -0.11084537767631369 0 0.28879183359809052 -0.10393054527906551 0 0.27267591943638608 -0.1048970298088977 0 0.27734124638624891 -0.089737863242296378 0 0.27267591943638608 -0.1048970298088977 0 0.27734124638624891 -0.089737863242296378 0 0.26256105175446781 -0.092679464148907056 0 0.25771864553297669 -0.099620140202181948 0 0.26047800574605201 -0.11084537767631369 0 0.24375228786211539 -0.116580291014256 0 0.27267591943638608 -0.1048970298088977 0 0.25771864553297669 -0.099620140202181948 0 0.26256105175446781 -0.092679464148907056 0 0.25771864553297669 -0.099620140202181948 0 0.25304747237378489 -0.090741332181114118 0 0.24292322406264641 -0.096552741650977186 0 0.25771864553297669 -0.099620140202181948 0 0.26256105175446781 -0.092679464148907056 0 0.25304747237378489 -0.090741332181114118 0 0.27267591943638608 -0.1048970298088977 0 0.25771864553297669 -0.099620140202181948 0 0.26047800574605201 -0.11084537767631369 0 0.26776517015272971 -0.1222840496799191 0 0.26153006621115998 -0.13421007507225571 0 0.24375228786211539 -0.116580291014256 0 0.26776517015272971 -0.1222840496799191 0 0.24375228786211539 -0.116580291014256 0 0.26776517015272971 -0.1222840496799191 0 0.26047800574605201 -0.11084537767631369 0 0.24375228786211539 -0.116580291014256 0 0.27927949511770961 -0.070851454938488739 0 0.25811154610651499 -0.066123023671663908 0 0.26329678137076351 -0.053405898285071182 0 0.27927949511770961 -0.070851454938488739 0 0.25811154610651499 -0.066123023671663908 0 0.26883802324883782 -0.077063641498024305 0 0.27927949511770961 -0.070851454938488739 0 0.25811154610651499 -0.066123023671663908 0 0.26883802324883782 -0.077063641498024305 0 0.27927949511770961 -0.070851454938488739 0 0.27809334201771629 -0.079209584513290715 0 0.26883802324883782 -0.077063641498024305 0 0.27809334201771629 -0.079209584513290715 0 0.27734124638624891 -0.089737863242296378 0 0.26883802324883782 -0.077063641498024305 0 0.27734124638624891 -0.089737863242296378 0 0.25202197504294188 -0.078400955310045109 0 0.28691460331806928 -0.079185378374353493 0 0.27809334201771629 -0.079209584513290715 0 0.27734124638624891 -0.089737863242296378 0 0.27734124638624891 -0.089737863242296378 0 0.26256105175446781 -0.092679464148907056 0 0.25202197504294188 -0.078400955310045109 0 0.27734124638624891 -0.089737863242296378 0 0.25202197504294188 -0.078400955310045109 0 0.26256105175446781 -0.092679464148907056 0 0.25304747237378489 -0.090741332181114118 0 0.25202197504294188 -0.078400955310045109 0 0.25304747237378489 -0.090741332181114118 0 0.25202197504294188 -0.078400955310045109 0 0.24624903761231479 -0.086847438891893419 0 0.26883802324883782 -0.077063641498024305 0 0.25202197504294188 -0.078400955310045109 0 0.25811154610651499 -0.066123023671663908 0 0.25811154610651499 -0.066123023671663908 0 0.26329678137076351 -0.053405898285071182 0 0.24870160087168189 -0.052882304334001928 0 0.26329678137076351 -0.053405898285071182 0 0.24870160087168189 -0.052882304334001928 0 0.24731406762381819 -0.035960341631652723 0 0.27927949511770961 -0.070851454938488739 0 0.26329678137076351 -0.053405898285071182 0 0.27868582307562201 -0.055886184139343542 0 0.27927949511770961 -0.070851454938488739 0 0.26329678137076351 -0.053405898285071182 0 0.26329678137076351 -0.053405898285071182 0 0.27868582307562201 -0.055886184139343542 0 0.27337213238318842 -0.044040078526876879 0 0.27868582307562201 -0.055886184139343542 0 0.27337213238318842 -0.044040078526876879 0 0.28525528160713332 -0.050154543613187753 0 0.26329678137076351 -0.053405898285071182 0 0.27337213238318842 -0.044040078526876879 0 0.26311483972878968 -0.036713614733010089 0 0.27337213238318842 -0.044040078526876879 0 0.27217486102646721 -0.027861542379398439 0 0.28494473946257981 -0.034556038004921102 0 0.27337213238318842 -0.044040078526876879 0 0.26311483972878968 -0.036713614733010089 0 0.27217486102646721 -0.027861542379398439 0 0.27337213238318842 -0.044040078526876879 0 0.28525528160713332 -0.050154543613187753 0 0.28494473946257981 -0.034556038004921102 0 0.26311483972878968 -0.036713614733010089 0 0.25941635623971138 -0.02230021284205122 0 0.24731406762381819 -0.035960341631652723 0 0.26329678137076351 -0.053405898285071182 0 0.24731406762381819 -0.035960341631652723 0 0.26329678137076351 -0.053405898285071182 0 0.26311483972878968 -0.036713614733010089 0 0.24731406762381819 -0.035960341631652723 0 0.25941635623971138 -0.02230021284205122 0 0.24731406762381819 -0.035960341631652723 0 0.2482857443068576 -0.021714794414400052 0 0.25941635623971138 -0.02230021284205122 0 0.25508119948702751 -0.010083838205662381 0 0.2482857443068576 -0.021714794414400052 0 0.26311483972878968 -0.036713614733010089 0 0.25941635623971138 -0.02230021284205122 0 0.27217486102646721 -0.027861542379398439 0 0.2541426920980116 -0.0036136263454906951 0 0.25508119948702751 -0.010083838205662381 0 0.24138147174972829 -0.0061427828714447699 0 0.2541426920980116 -0.0036136263454906951 0 0.25508119948702751 -0.010083838205662381 0 0.26047117107291767 -0.0019720443344692288 0 0.25446675038947358 0.0029162606258486688 0 0.2541426920980116 -0.0036136263454906951 0 0.26047117107291767 -0.0019720443344692288 0 0.25941635623971138 -0.02230021284205122 0 0.25508119948702751 -0.010083838205662381 0 0.26474460583379889 -0.01023883548432745 0 0.25941635623971138 -0.02230021284205122 0 0.26474460583379889 -0.01023883548432745 0 0.27166734417845928 -0.01430021117376327 0 0.25508119948702751 -0.010083838205662381 0 0.26474460583379889 -0.01023883548432745 0 0.26047117107291767 -0.0019720443344692288 0 0.26474460583379889 -0.01023883548432745 0 0.26047117107291767 -0.0019720443344692288 0 0.27708695819087842 -0.0025378708656911609 0 0.26474460583379889 -0.01023883548432745 0 0.27166734417845928 -0.01430021117376327 0 0.27708695819087842 -0.0025378708656911609 0 0.27166734417845928 -0.01430021117376327 0 0.27708695819087842 -0.0025378708656911609 0 0.28469269166600031 -0.01545933141113482 0 0.27217486102646721 -0.027861542379398439 0 0.28469269166600031 -0.01545933141113482 0 0.28494473946257981 -0.034556038004921102 0 0.25941635623971138 -0.02230021284205122 0 0.27166734417845928 -0.01430021117376327 0 0.27217486102646721 -0.027861542379398439 0 0.27166734417845928 -0.01430021117376327 0 0.27217486102646721 -0.027861542379398439 0 0.28469269166600031 -0.01545933141113482 0 0.28469269166600031 -0.01545933141113482 0 0.29727596499766062 -0.023933315692393788 0 0.28494473946257981 -0.034556038004921102 0 0.30352242257352219 0.0039185454548519476 0 0.28469269166600031 -0.01545933141113482 0 0.29727596499766062 -0.023933315692393788 0 0.30352242257352219 0.0039185454548519476 0 0.27708695819087842 -0.0025378708656911609 0 0.28469269166600031 -0.01545933141113482 0 0.30352242257352219 0.0039185454548519476 0 0.32469666258817742 -0.019557632270551 0 0.29727596499766062 -0.023933315692393788 0 0.32469666258817742 -0.019557632270551 0 0.31326255248553708 -0.043768501277314603 0 0.29727596499766062 -0.023933315692393788 0 0.31326255248553708 -0.043768501277314603 0 0.29727596499766062 -0.023933315692393788 0 0.2968975050950291 -0.045887416406534938 0 0.31326255248553708 -0.043768501277314603 0 0.29727596499766062 -0.023933315692393788 0 0.31326255248553708 -0.043768501277314603 0 0.2968975050950291 -0.045887416406534938 0 0.31014365419524398 -0.06072536978512106 0 0.2968975050950291 -0.045887416406534938 0 0.31014365419524398 -0.06072536978512106 0 0.29222542489931519 -0.060978945333093171 0 0.2968975050950291 -0.045887416406534938 0 0.29222542489931519 -0.060978945333093171 0 0.28525528160713332 -0.050154543613187753 0 0.27868582307562201 -0.055886184139343542 0 0.29222542489931519 -0.060978945333093171 0 0.28525528160713332 -0.050154543613187753 0 0.2968975050950291 -0.045887416406534938 0 0.28525528160713332 -0.050154543613187753 0 0.28494473946257981 -0.034556038004921102 0 0.29727596499766062 -0.023933315692393788 0 0.2968975050950291 -0.045887416406534938 0 0.28494473946257981 -0.034556038004921102 0 0.29579617193404978 -0.19432558104056491 0 0.30588539897632072 -0.22256652654210629 0 0.2776594049058328 -0.2175861504380624 0 0.29579617193404978 -0.19432558104056491 0 0.2776594049058328 -0.2175861504380624 0 0.2764107852420567 -0.19644220614923899 0 0.29579617193404978 -0.19432558104056491 0 0.2764107852420567 -0.19644220614923899 0 0.2792899687438003 -0.18116405860585089 0 0.29579617193404978 -0.19432558104056491 0 0.31045946319455608 -0.20263901644370941 0 0.31057073564158039 -0.17760626025882659 0 0.29579617193404978 -0.19432558104056491 0 0.30588539897632072 -0.22256652654210629 0 0.31045946319455608 -0.20263901644370941 0 0.30588539897632072 -0.22256652654210629 0 0.32020032842118662 -0.2136972324735969 0 0.29579617193404978 -0.19432558104056491 0 0.31045946319455608 -0.20263901644370941 0 0.30588539897632072 -0.22256652654210629 0 0.29681701546221179 -0.23419681124085551 0 0.31597462601859122 -0.25080747204364812 0 0.30111904597271899 -0.2536098058489899 0 0.30588539897632072 -0.22256652654210629 0 0.29681701546221179 -0.23419681124085551 0 0.31597462601859122 -0.25080747204364812 0 0.30588539897632072 -0.22256652654210629 0 0.31597462601859122 -0.25080747204364812 0 0.29681701546221179 -0.23419681124085551 0 0.31597462601859122 -0.25080747204364812 0 0.29681701546221179 -0.23419681124085551 0 0.30111904597271899 -0.2536098058489899 0 0.28456511698073272 -0.25518130134833977 0 0.29681701546221179 -0.23419681124085551 0 0.27830026498091959 -0.23745462562099759 0 0.28456511698073272 -0.25518130134833977 0 0.30588539897632072 -0.22256652654210629 0 0.29681701546221179 -0.23419681124085551 0 0.2776594049058328 -0.2175861504380624 0 0.29681701546221179 -0.23419681124085551 0 0.27830026498091959 -0.23745462562099759 0 0.2776594049058328 -0.2175861504380624 0 0.29681701546221179 -0.23419681124085551 0 0.2776594049058328 -0.2175861504380624 0 0.26584409390649738 -0.23415831621220631 0 0.27830026498091959 -0.23745462562099759 0 0.2776594049058328 -0.2175861504380624 0 0.26584409390649738 -0.23415831621220631 0 0.25658827463044448 -0.2222138965281123 0 0.2776594049058328 -0.2175861504380624 0 0.27830026498091959 -0.23745462562099759 0 0.28456511698073272 -0.25518130134833977 0 0.26629969424128969 -0.25192769388052821 0 0.26584409390649738 -0.23415831621220631 0 0.27830026498091959 -0.23745462562099759 0 0.26629969424128969 -0.25192769388052821 0 0.26584409390649738 -0.23415831621220631 0 0.25037283077400019 -0.2416092145933311 0 0.26629969424128969 -0.25192769388052821 0 0.25037283077400019 -0.2416092145933311 0 0.25658827463044448 -0.2222138965281123 0 0.2446094219978813 -0.2276121794933563 0 0.26584409390649738 -0.23415831621220631 0 0.25037283077400019 -0.2416092145933311 0 0.25658827463044448 -0.2222138965281123 0 0.25658827463044448 -0.2222138965281123 0 0.2776594049058328 -0.2175861504380624 0 0.25850179434945381 -0.20097548963526929 0 0.25658827463044448 -0.2222138965281123 0 0.25850179434945381 -0.20097548963526929 0 0.23907695871134879 -0.21289681242661959 0 0.2776594049058328 -0.2175861504380624 0 0.25850179434945381 -0.20097548963526929 0 0.2776594049058328 -0.2175861504380624 0 0.2764107852420567 -0.19644220614923899 0 0.25850179434945381 -0.20097548963526929 0 0.2764107852420567 -0.19644220614923899 0 0.25850179434945381 -0.20097548963526929 0 0.26539786460737957 -0.18100391429238191 0 0.25850179434945381 -0.20097548963526929 0 0.26539786460737957 -0.18100391429238191 0 0.23934418379307471 -0.18436482883247621 0 0.26539786460737957 -0.18100391429238191 0 0.25449645062408999 -0.16331052089379791 0 0.23934418379307471 -0.18436482883247621 0 0.26539786460737957 -0.18100391429238191 0 0.25449645062408999 -0.16331052089379791 0 0.27043371620885309 -0.16438603764101259 0 0.25449645062408999 -0.16331052089379791 0 0.27043371620885309 -0.16438603764101259 0 0.2633734196266177 -0.15149826902969399 0 0.27043371620885309 -0.16438603764101259 0 0.2792899687438003 -0.18116405860585089 0 0.28570694489177878 -0.1660846355390232 0 0.27043371620885309 -0.16438603764101259 0 0.27930784456020519 -0.15183985913025491 0 0.28570694489177878 -0.1660846355390232 0 0.26539786460737957 -0.18100391429238191 0 0.27043371620885309 -0.16438603764101259 0 0.2792899687438003 -0.18116405860585089 0 0.2764107852420567 -0.19644220614923899 0 0.26539786460737957 -0.18100391429238191 0 0.2792899687438003 -0.18116405860585089 0 0.26153006621115998 -0.13421007507225571 0 0.24375228786211539 -0.116580291014256 0 0.24955680073527009 -0.143898101237383 0 0.26153006621115998 -0.13421007507225571 0 0.24375228786211539 -0.116580291014256 0 0.25449645062408999 -0.16331052089379791 0 0.2633734196266177 -0.15149826902969399 0 0.24955680073527009 -0.143898101237383 0 0.26153006621115998 -0.13421007507225571 0 0.2633734196266177 -0.15149826902969399 0 0.24955680073527009 -0.143898101237383 0 0.27043371620885309 -0.16438603764101259 0 0.2633734196266177 -0.15149826902969399 0 0.27930784456020519 -0.15183985913025491 0 0.27561771784950778 -0.13784369003748159 0 0.28570694489177878 -0.1660846355390232 0 0.26153006621115998 -0.13421007507225571 0 0.27930784456020519 -0.15183985913025491 0 0.27561771784950778 -0.13784369003748159 0 0.27930784456020519 -0.15183985913025491 0 0.27561771784950778 -0.13784369003748159 0 0.28570694489177878 -0.1660846355390232 0 0.26153006621115998 -0.13421007507225571 0 0.2633734196266177 -0.15149826902969399 0 0.27930784456020519 -0.15183985913025491 0 0.26153006621115998 -0.13421007507225571 0 0.27930784456020519 -0.15183985913025491 0 0.26776517015272971 -0.1222840496799191 0 0.27561771784950778 -0.13784369003748159 0 0.28721398294742878 -0.13035474923543569 0 0.26776517015272971 -0.1222840496799191 0 0.26153006621115998 -0.13421007507225571 0 0.27561771784950778 -0.13784369003748159 0 0.27561771784950778 -0.13784369003748159 0 0.28721398294742878 -0.13035474923543569 0 0.28891568690104508 -0.14625428249578579 0 0.28721398294742878 -0.13035474923543569 0 0.28891568690104508 -0.14625428249578579 0 0.29920842625061578 -0.1386190615635868 0 0.28891568690104508 -0.14625428249578579 0 0.29920842625061578 -0.1386190615635868 0 0.29789574789403661 -0.15876522012859751 0 0.27561771784950778 -0.13784369003748159 0 0.28891568690104508 -0.14625428249578579 0 0.28570694489177878 -0.1660846355390232 0 0.30985117626407932 -0.1486491484402036 0 0.29920842625061578 -0.1386190615635868 0 0.29789574789403661 -0.15876522012859751 0 0.30985117626407932 -0.1486491484402036 0 0.29789574789403661 -0.15876522012859751 0 0.3134799250960158 -0.16133035304856411 0 0.30985117626407932 -0.1486491484402036 0 0.29920842625061578 -0.1386190615635868 0 0.31980994510895661 -0.13408045692276491 0 0.3092169746865393 -0.1198258623704429 0 0.28721398294742878 -0.13035474923543569 0 0.29920842625061578 -0.1386190615635868 0 0.3092169746865393 -0.1198258623704429 0 0.29920842625061578 -0.1386190615635868 0 0.31980994510895661 -0.13408045692276491 0 0.29579617193404978 -0.19432558104056491 0 0.2792899687438003 -0.18116405860585089 0 0.28570694489177878 -0.1660846355390232 0 0.29579617193404978 -0.19432558104056491 0 0.28570694489177878 -0.1660846355390232 0 0.29579617193404978 -0.19432558104056491 0 0.28570694489177878 -0.1660846355390232 0 0.29784246694311001 -0.17248502473641619 0 0.28891568690104508 -0.14625428249578579 0 0.28570694489177878 -0.1660846355390232 0 0.29789574789403661 -0.15876522012859751 0 0.28570694489177878 -0.1660846355390232 0 0.29789574789403661 -0.15876522012859751 0 0.29784246694311001 -0.17248502473641619 0 0.29789574789403661 -0.15876522012859751 0 0.31057073564158039 -0.17760626025882659 0 0.3134799250960158 -0.16133035304856411 0 0.29789574789403661 -0.15876522012859751 0 0.31057073564158039 -0.17760626025882659 0 0.29784246694311001 -0.17248502473641619 0 0.29789574789403661 -0.15876522012859751 0 0.31057073564158039 -0.17760626025882659 0 0.29579617193404978 -0.19432558104056491 0 0.31057073564158039 -0.17760626025882659 0 0.29784246694311001 -0.17248502473641619 0 0.31057073564158039 -0.17760626025882659 0 0.33117051957001492 -0.16690810347740409 0 0.33960500058918919 -0.18923554211963439 0 0.31057073564158039 -0.17760626025882659 0 0.32324572338912438 -0.19644730038905581 0 0.3134799250960158 -0.16133035304856411 0 0.33117051957001492 -0.16690810347740409 0 0.32297156368297691 -0.15191279281852399 0 0.31057073564158039 -0.17760626025882659 0 0.3134799250960158 -0.16133035304856411 0 0.33117051957001492 -0.16690810347740409 0 0.33117051957001492 -0.16690810347740409 0 0.34312821131240068 -0.1490342399984359 0 0.35150112372442083 -0.17432517416681301 0 0.33117051957001492 -0.16690810347740409 0 0.35150112372442083 -0.17432517416681301 0 0.33960500058918919 -0.18923554211963439 0 0.33587402752894302 -0.122350175475488 0 0.3092169746865393 -0.1198258623704429 0 0.31980994510895661 -0.13408045692276491 0 0.30985117626407932 -0.1486491484402036 0 0.31980994510895661 -0.13408045692276491 0 0.32297156368297691 -0.15191279281852399 0 0.30985117626407932 -0.1486491484402036 0 0.3134799250960158 -0.16133035304856411 0 0.32297156368297691 -0.15191279281852399 0 0.33117051957001492 -0.16690810347740409 0 0.32297156368297691 -0.15191279281852399 0 0.34312821131240068 -0.1490342399984359 0 0.31980994510895661 -0.13408045692276491 0 0.32297156368297691 -0.15191279281852399 0 0.34312821131240068 -0.1490342399984359 0 0.33587402752894302 -0.122350175475488 0 0.31980994510895661 -0.13408045692276491 0 0.34312821131240068 -0.1490342399984359 0 0.36253108037134668 -0.1248744885805331 0 0.33587402752894302 -0.122350175475488 0 0.3555623608711499 -0.1359942506039106 0 0.33587402752894302 -0.122350175475488 0 0.34312821131240068 -0.1490342399984359 0 0.3555623608711499 -0.1359942506039106 0 0.34312821131240068 -0.1490342399984359 0 0.3555623608711499 -0.1359942506039106 0 0.36858459771950869 -0.15733985743645959 0 0.3555623608711499 -0.1359942506039106 0 0.36652086356581781 -0.12946943863695781 0 0.36858459771950869 -0.15733985743645959 0 0.36652086356581781 -0.12946943863695781 0 0.36858459771950869 -0.15733985743645959 0 0.36652086356581781 -0.12946943863695781 0 0.36858459771950869 -0.15733985743645959 0 0.3787995421462832 -0.1425544525875144 0 0.36652086356581781 -0.12946943863695781 0 0.37808333446084269 -0.1309391893982525 0 0.3787995421462832 -0.1425544525875144 0 0.36253108037134668 -0.1248744885805331 0 0.36652086356581781 -0.12946943863695781 0 0.37808333446084269 -0.1309391893982525 0 0.36253108037134668 -0.1248744885805331 0 0.3555623608711499 -0.1359942506039106 0 0.36652086356581781 -0.12946943863695781 0 0.35150112372442083 -0.17432517416681301 0 0.37064833187319962 -0.1852102762359614 0 0.35587008128221181 -0.19822302573298239 0 0.35150112372442083 -0.17432517416681301 0 0.35587008128221181 -0.19822302573298239 0 0.33960500058918919 -0.18923554211963439 0 0.34312821131240068 -0.1490342399984359 0 0.35150112372442083 -0.17432517416681301 0 0.36858459771950869 -0.15733985743645959 0 0.36858459771950869 -0.15733985743645959 0 0.37064833187319962 -0.1852102762359614 0 0.35150112372442083 -0.17432517416681301 0 0.36858459771950869 -0.15733985743645959 0 0.37064833187319962 -0.1852102762359614 0 0.36858459771950869 -0.15733985743645959 0 0.37064833187319962 -0.1852102762359614 0 0.3834788620725188 -0.17954848884060079 0 0.37064833187319962 -0.1852102762359614 0 0.37271206602689039 -0.21308069503546309 0 0.38139900114097952 -0.20469292352659629 0 0.37064833187319962 -0.1852102762359614 0 0.37271206602689039 -0.21308069503546309 0 0.37064833187319962 -0.1852102762359614 0 0.37271206602689039 -0.21308069503546309 0 0.35587008128221181 -0.19822302573298239 0 0.37271206602689039 -0.21308069503546309 0 0.35603419272415182 -0.2169366224123114 0 0.35587008128221181 -0.19822302573298239 0 0.35603419272415182 -0.2169366224123114 0 0.35587008128221181 -0.19822302573298239 0 0.33592071113666833 -0.21528834051928489 0 0.35587008128221181 -0.19822302573298239 0 0.33960500058918919 -0.18923554211963439 0 0.33592071113666833 -0.21528834051928489 0 0.33960500058918919 -0.18923554211963439 0 0.33592071113666833 -0.21528834051928489 0 0.32324572338912438 -0.19644730038905581 0 0.33592071113666833 -0.21528834051928489 0 0.32324572338912438 -0.19644730038905581 0 0.33592071113666833 -0.21528834051928489 0 0.32020032842118662 -0.2136972324735969 0 0.32324572338912438 -0.19644730038905581 0 0.31045946319455608 -0.20263901644370941 0 0.32020032842118662 -0.2136972324735969 0 0.32324572338912438 -0.19644730038905581 0 0.31057073564158039 -0.17760626025882659 0 0.33960500058918919 -0.18923554211963439 0 0.32324572338912438 -0.19644730038905581 0 0.31045946319455608 -0.20263901644370941 0 0.31057073564158039 -0.17760626025882659 0 0.32324572338912438 -0.19644730038905581 0 0.32549034540926353 -0.23154497847382799 0 0.33517615116993849 -0.24743488902137309 0 0.31597462601859122 -0.25080747204364812 0 0.30588539897632072 -0.22256652654210629 0 0.32549034540926353 -0.23154497847382799 0 0.31597462601859122 -0.25080747204364812 0 0.30588539897632072 -0.22256652654210629 0 0.32020032842118662 -0.2136972324735969 0 0.32549034540926353 -0.23154497847382799 0 0.33592071113666833 -0.21528834051928489 0 0.32020032842118662 -0.2136972324735969 0 0.32549034540926353 -0.23154497847382799 0 0.33592071113666833 -0.21528834051928489 0 0.32549034540926353 -0.23154497847382799 0 0.34859569888421221 -0.23412938064951411 0 0.33592071113666833 -0.21528834051928489 0 0.34859569888421221 -0.23412938064951411 0 0.32549034540926353 -0.23154497847382799 0 0.33517615116993849 -0.24743488902137309 0 0.34859569888421221 -0.23412938064951411 0 0.33517615116993849 -0.24743488902137309 0 0.34859569888421221 -0.23412938064951411 0 0.35185333732921159 -0.25428502110151557 0 0.34859569888421221 -0.23412938064951411 0 0.36075586336603621 -0.2426037127049111 0 0.35185333732921159 -0.25428502110151557 0 0.34859569888421221 -0.23412938064951411 0 0.36291464790978972 -0.22902601310760301 0 0.36075586336603621 -0.2426037127049111 0 0.35603419272415182 -0.2169366224123114 0 0.34859569888421221 -0.23412938064951411 0 0.36291464790978972 -0.22902601310760301 0 0.35603419272415182 -0.2169366224123114 0 0.33592071113666833 -0.21528834051928489 0 0.34859569888421221 -0.23412938064951411 0 0.37271206602689039 -0.21308069503546309 0 0.35603419272415182 -0.2169366224123114 0 0.36291464790978972 -0.22902601310760301 0 0.37271206602689039 -0.21308069503546309 0 0.37477580018058132 -0.24095111383496479 0 0.37555308153547928 -0.22286467051027881 0 0.37271206602689039 -0.21308069503546309 0 0.37477580018058132 -0.24095111383496479 0 0.37271206602689039 -0.21308069503546309 0 0.36291464790978972 -0.22902601310760301 0 0.37477580018058132 -0.24095111383496479 0 0.36075586336603621 -0.2426037127049111 0 0.37477580018058132 -0.24095111383496479 0 0.36563983252638571 -0.25462703483095822 0 0.36291464790978972 -0.22902601310760301 0 0.36075586336603621 -0.2426037127049111 0 0.37477580018058132 -0.24095111383496479 0 0.37477580018058132 -0.24095111383496479 0 0.39321551516580561 -0.23618023300957031 0 0.38725375881062551 -0.25185160038302579 0 0.39321551516580561 -0.23618023300957031 0 0.41087794879613182 -0.2494957955088617 0 0.40741230325918792 -0.23450562481703699 0 0.39321551516580561 -0.23618023300957031 0 0.41087794879613182 -0.2494957955088617 0 0.39321551516580561 -0.23618023300957031 0 0.38725375881062551 -0.25185160038302579 0 0.39640803358832022 -0.25154779433757402 0 0.39321551516580561 -0.23618023300957031 0 0.41087794879613182 -0.2494957955088617 0 0.39640803358832022 -0.25154779433757402 0 0.4055308246994358 -0.22407667781788709 0 0.39424069285124719 -0.22310079746779379 0 0.40434357831770951 -0.21487406561090469 0 0.4055308246994358 -0.22407667781788709 0 0.39424069285124719 -0.22310079746779379 0 0.40741230325918792 -0.23450562481703699 0 0.39321551516580561 -0.23618023300957031 0 0.39424069285124719 -0.22310079746779379 0 0.40741230325918792 -0.23450562481703699 0 0.37477580018058132 -0.24095111383496479 0 0.39321551516580561 -0.23618023300957031 0 0.37555308153547928 -0.22286467051027881 0 0.39424069285124719 -0.22310079746779379 0 0.37555308153547928 -0.22286467051027881 0 0.38300691860546521 -0.21527996176244341 0 0.39321551516580561 -0.23618023300957031 0 0.37555308153547928 -0.22286467051027881 0 0.39321551516580561 -0.23618023300957031 0 0.39424069285124719 -0.22310079746779379 0 0.37555308153547928 -0.22286467051027881 0 0.37271206602689039 -0.21308069503546309 0 0.37555308153547928 -0.22286467051027881 0 0.38300691860546521 -0.21527996176244341 0 0.37271206602689039 -0.21308069503546309 0 0.38139900114097952 -0.20469292352659629 0 0.38300691860546521 -0.21527996176244341 0 0.38139900114097952 -0.20469292352659629 0 0.39078770323730427 -0.19674260859680251 0 0.39112975147272949 -0.2126607222720846 0 0.38139900114097952 -0.20469292352659629 0 0.38300691860546521 -0.21527996176244341 0 0.39112975147272949 -0.2126607222720846 0 0.39424069285124719 -0.22310079746779379 0 0.38300691860546521 -0.21527996176244341 0 0.39112975147272949 -0.2126607222720846 0 0.37064833187319962 -0.1852102762359614 0 0.38139900114097952 -0.20469292352659629 0 0.39078770323730427 -0.19674260859680251 0 0.39078770323730427 -0.19674260859680251 0 0.40475141021500721 -0.1910589369573561 0 0.39510197637232292 -0.1839605883432579 0 0.39078770323730427 -0.19674260859680251 0 0.40426546228868082 -0.20108352786525729 0 0.397631623829106 -0.20634023108626229 0 0.39078770323730427 -0.19674260859680251 0 0.40426546228868082 -0.20108352786525729 0 0.40475141021500721 -0.1910589369573561 0 0.39078770323730427 -0.19674260859680251 0 0.39112975147272949 -0.2126607222720846 0 0.397631623829106 -0.20634023108626229 0 0.39112975147272949 -0.2126607222720846 0 0.397631623829106 -0.20634023108626229 0 0.40434357831770951 -0.21487406561090469 0 0.39424069285124719 -0.22310079746779379 0 0.39112975147272949 -0.2126607222720846 0 0.40434357831770951 -0.21487406561090469 0 0.40426546228868082 -0.20108352786525729 0 0.397631623829106 -0.20634023108626229 0 0.40434357831770951 -0.21487406561090469 0 0.40434357831770951 -0.21487406561090469 0 0.41713092845542321 -0.20900944133272009 0 0.41612672436959858 -0.22382622337581301 0 0.40426546228868082 -0.20108352786525729 0 0.40434357831770951 -0.21487406561090469 0 0.41713092845542321 -0.20900944133272009 0 0.41713092845542321 -0.20900944133272009 0 0.42330136258736267 -0.2174116668913772 0 0.41612672436959858 -0.22382622337581301 0 0.40475141021500721 -0.1910589369573561 0 0.41487892771890261 -0.19826025474908979 0 0.4146572714410397 -0.186958864794112 0 0.40426546228868082 -0.20108352786525729 0 0.41713092845542321 -0.20900944133272009 0 0.41487892771890261 -0.19826025474908979 0 0.40426546228868082 -0.20108352786525729 0 0.40475141021500721 -0.1910589369573561 0 0.41487892771890261 -0.19826025474908979 0 0.41713092845542321 -0.20900944133272009 0 0.41487892771890261 -0.19826025474908979 0 0.42701217502226602 -0.19751647228806199 0 0.41487892771890261 -0.19826025474908979 0 0.42053294087941678 -0.1923617771039739 0 0.42701217502226602 -0.19751647228806199 0 0.42053294087941678 -0.1923617771039739 0 0.4146572714410397 -0.186958864794112 0 0.42558338933545942 -0.1867115165846317 0 0.41487892771890261 -0.19826025474908979 0 0.42053294087941678 -0.1923617771039739 0 0.4146572714410397 -0.186958864794112 0 0.42701217502226602 -0.19751647228806199 0 0.43844209377108118 -0.18689286854296691 0 0.44355474576021348 -0.2050869029196882 0 0.42053294087941678 -0.1923617771039739 0 0.42701217502226602 -0.19751647228806199 0 0.42558338933545942 -0.1867115165846317 0 0.42701217502226602 -0.19751647228806199 0 0.42558338933545942 -0.1867115165846317 0 0.43844209377108118 -0.18689286854296691 0 0.42701217502226602 -0.19751647228806199 0 0.43006687167525981 -0.21185300334864521 0 0.44355474576021348 -0.2050869029196882 0 0.41713092845542321 -0.20900944133272009 0 0.42330136258736267 -0.2174116668913772 0 0.43006687167525981 -0.21185300334864521 0 0.42330136258736267 -0.2174116668913772 0 0.43006687167525981 -0.21185300334864521 0 0.42988092584916948 -0.2249579995083304 0 0.41713092845542321 -0.20900944133272009 0 0.42701217502226602 -0.19751647228806199 0 0.43006687167525981 -0.21185300334864521 0 0.43006687167525981 -0.21185300334864521 0 0.42988092584916948 -0.2249579995083304 0 0.44009267276725389 -0.2176624614444449 0 0.42330136258736267 -0.2174116668913772 0 0.42988092584916948 -0.2249579995083304 0 0.41612672436959858 -0.22382622337581301 0 0.42988092584916948 -0.2249579995083304 0 0.43458399188612801 -0.2397076170126072 0 0.42159465327244361 -0.23640953485310751 0 0.42988092584916948 -0.2249579995083304 0 0.42159465327244361 -0.23640953485310751 0 0.41612672436959858 -0.22382622337581301 0 0.42988092584916948 -0.2249579995083304 0 0.43458399188612801 -0.2397076170126072 0 0.44416109061426973 -0.22983272991065171 0 0.43458399188612801 -0.2397076170126072 0 0.42656562700980838 -0.24831468624349931 0 0.4372088962240912 -0.25169219704383999 0 0.43458399188612801 -0.2397076170126072 0 0.42656562700980838 -0.24831468624349931 0 0.42159465327244361 -0.23640953485310751 0 0.42656562700980838 -0.24831468624349931 0 0.42159465327244361 -0.23640953485310751 0 0.41087794879613182 -0.2494957955088617 0 0.42159465327244361 -0.23640953485310751 0 0.41087794879613182 -0.2494957955088617 0 0.40741230325918792 -0.23450562481703699 0 0.4055308246994358 -0.22407667781788709 0 0.40741230325918792 -0.23450562481703699 0 0.41612672436959858 -0.22382622337581301 0 0.4055308246994358 -0.22407667781788709 0 0.40434357831770951 -0.21487406561090469 0 0.41612672436959858 -0.22382622337581301 0 0.42159465327244361 -0.23640953485310751 0 0.40741230325918792 -0.23450562481703699 0 0.41612672436959858 -0.22382622337581301 0 0.39823574772599779 -0.11763079726210079 0 0.40257569972698831 -0.13396225485532559 0 0.38918813321375051 -0.12739880168557821 0 0.40257569972698831 -0.13396225485532559 0 0.38918813321375051 -0.12739880168557821 0 0.39017348084279901 -0.13955387731924049 0 0.38918813321375051 -0.12739880168557821 0 0.37808333446084269 -0.1309391893982525 0 0.39017348084279901 -0.13955387731924049 0 0.37720890243704291 -0.12310924361699779 0 0.36253108037134668 -0.1248744885805331 0 0.38918813321375051 -0.12739880168557821 0 0.36253108037134668 -0.1248744885805331 0 0.38918813321375051 -0.12739880168557821 0 0.37808333446084269 -0.1309391893982525 0 0.36253108037134668 -0.1248744885805331 0 0.38918813321375051 -0.12739880168557821 0 0.37808333446084269 -0.1309391893982525 0 0.39017348084279901 -0.13955387731924049 0 0.3787995421462832 -0.1425544525875144 0 0.36858459771950869 -0.15733985743645959 0 0.3787995421462832 -0.1425544525875144 0 0.38535727780346091 -0.1527557998392445 0 0.39017348084279901 -0.13955387731924049 0 0.3787995421462832 -0.1425544525875144 0 0.38535727780346091 -0.1527557998392445 0 0.40257569972698831 -0.13396225485532559 0 0.39822107621443897 -0.1501202070538992 0 0.41732028123257531 -0.14286435439753159 0 0.40257569972698831 -0.13396225485532559 0 0.39017348084279901 -0.13955387731924049 0 0.39822107621443897 -0.1501202070538992 0 0.39017348084279901 -0.13955387731924049 0 0.38535727780346091 -0.1527557998392445 0 0.39822107621443897 -0.1501202070538992 0 0.39822107621443897 -0.1501202070538992 0 0.39107178753907162 -0.16851380255406381 0 0.40713652226246821 -0.16744863749245631 0 0.39107178753907162 -0.16851380255406381 0 0.40713652226246821 -0.16744863749245631 0 0.38535727780346091 -0.1527557998392445 0 0.39822107621443897 -0.1501202070538992 0 0.39107178753907162 -0.16851380255406381 0 0.39107178753907162 -0.16851380255406381 0 0.40460499843718001 -0.17902112385493851 0 0.40713652226246821 -0.16744863749245631 0 0.36858459771950869 -0.15733985743645959 0 0.38535727780346091 -0.1527557998392445 0 0.39107178753907162 -0.16851380255406381 0 0.36858459771950869 -0.15733985743645959 0 0.39107178753907162 -0.16851380255406381 0 0.3834788620725188 -0.17954848884060079 0 0.39107178753907162 -0.16851380255406381 0 0.3834788620725188 -0.17954848884060079 0 0.39510197637232292 -0.1839605883432579 0 0.39078770323730427 -0.19674260859680251 0 0.3834788620725188 -0.17954848884060079 0 0.39510197637232292 -0.1839605883432579 0 0.37064833187319962 -0.1852102762359614 0 0.39078770323730427 -0.19674260859680251 0 0.3834788620725188 -0.17954848884060079 0 0.39107178753907162 -0.16851380255406381 0 0.39510197637232292 -0.1839605883432579 0 0.40460499843718001 -0.17902112385493851 0 0.40475141021500721 -0.1910589369573561 0 0.39510197637232292 -0.1839605883432579 0 0.40460499843718001 -0.17902112385493851 0 0.40475141021500721 -0.1910589369573561 0 0.40460499843718001 -0.17902112385493851 0 0.4146572714410397 -0.186958864794112 0 0.40460499843718001 -0.17902112385493851 0 0.41491102279317088 -0.17618591298838529 0 0.4146572714410397 -0.186958864794112 0 0.40460499843718001 -0.17902112385493851 0 0.41491102279317088 -0.17618591298838529 0 0.40713652226246821 -0.16744863749245631 0 0.41491102279317088 -0.17618591298838529 0 0.42527009306055918 -0.1746571334479238 0 0.4232012569858648 -0.16638347243084889 0 0.41491102279317088 -0.17618591298838529 0 0.42095079563492938 -0.18072636251124541 0 0.42527009306055918 -0.1746571334479238 0 0.41491102279317088 -0.17618591298838529 0 0.42095079563492938 -0.18072636251124541 0 0.4146572714410397 -0.186958864794112 0 0.42095079563492938 -0.18072636251124541 0 0.4146572714410397 -0.186958864794112 0 0.42558338933545942 -0.1867115165846317 0 0.43180268423531071 -0.1802632517690351 0 0.42527009306055918 -0.1746571334479238 0 0.44880083799057491 -0.164686103644653 0 0.42095079563492938 -0.18072636251124541 0 0.42558338933545942 -0.1867115165846317 0 0.43180268423531071 -0.1802632517690351 0 0.42558338933545942 -0.1867115165846317 0 0.43180268423531071 -0.1802632517690351 0 0.43844209377108118 -0.18689286854296691 0 0.42095079563492938 -0.18072636251124541 0 0.43180268423531071 -0.1802632517690351 0 0.42527009306055918 -0.1746571334479238 0 0.42527009306055918 -0.1746571334479238 0 0.4232012569858648 -0.16638347243084889 0 0.44880083799057491 -0.164686103644653 0 0.4232012569858648 -0.16638347243084889 0 0.43334283997313311 -0.15135273030925811 0 0.44880083799057491 -0.164686103644653 0 0.4232012569858648 -0.16638347243084889 0 0.44880083799057491 -0.164686103644653 0 0.42527009306055918 -0.1746571334479238 0 0.4232012569858648 -0.16638347243084889 0 0.4232012569858648 -0.16638347243084889 0 0.40713652226246821 -0.16744863749245631 0 0.41732028123257531 -0.14286435439753159 0 0.41491102279317088 -0.17618591298838529 0 0.4232012569858648 -0.16638347243084889 0 0.40713652226246821 -0.16744863749245631 0 0.4232012569858648 -0.16638347243084889 0 0.40713652226246821 -0.16744863749245631 0 0.4232012569858648 -0.16638347243084889 0 0.41732028123257531 -0.14286435439753159 0 0.39822107621443897 -0.1501202070538992 0 0.40713652226246821 -0.16744863749245631 0 0.41732028123257531 -0.14286435439753159 0 0.41732028123257531 -0.14286435439753159 0 0.43334283997313311 -0.15135273030925811 0 0.43763345530417341 -0.13584027725706749 0 0.4232012569858648 -0.16638347243084889 0 0.41732028123257531 -0.14286435439753159 0 0.43334283997313311 -0.15135273030925811 0 0.42916935431308728 -0.1205456085246996 0 0.41732028123257531 -0.14286435439753159 0 0.43763345530417341 -0.13584027725706749 0 0.42916935431308728 -0.1205456085246996 0 0.4435038969132965 -0.12540022695152131 0 0.43763345530417341 -0.13584027725706749 0 0.41143930547928681 -0.11934523636421419 0 0.42916935431308728 -0.1205456085246996 0 0.41732028123257531 -0.14286435439753159 0 0.41143930547928681 -0.11934523636421419 0 0.40257569972698831 -0.13396225485532559 0 0.41732028123257531 -0.14286435439753159 0 0.41143930547928681 -0.11934523636421419 0 0.41732028123257531 -0.14286435439753159 0 0.46257396642688631 -0.12529077885077469 0 0.46381730130484328 -0.1363472541609663 0 0.4585659370706795 -0.1308283620105129 0 0.46381730130484328 -0.1363472541609663 0 0.4585659370706795 -0.1308283620105129 0 0.45274550479158487 -0.1345999168850856 0 0.46381730130484328 -0.1363472541609663 0 0.45274550479158487 -0.1345999168850856 0 0.46138481906560302 -0.14686228775601681 0 0.46257396642688631 -0.12529077885077469 0 0.4585659370706795 -0.1308283620105129 0 0.45239247298790419 -0.125419693033265 0 0.4585659370706795 -0.1308283620105129 0 0.45239247298790419 -0.125419693033265 0 0.45274550479158487 -0.1345999168850856 0 0.45239247298790419 -0.125419693033265 0 0.4435038969132965 -0.12540022695152131 0 0.45274550479158487 -0.1345999168850856 0 0.4435038969132965 -0.12540022695152131 0 0.43763345530417341 -0.13584027725706749 0 0.45274550479158487 -0.1345999168850856 0 0.43763345530417341 -0.13584027725706749 0 0.45274550479158487 -0.1345999168850856 0 0.44678149142501389 -0.1466682631704162 0 0.43334283997313311 -0.15135273030925811 0 0.44678149142501389 -0.1466682631704162 0 0.44880083799057491 -0.164686103644653 0 0.44678149142501389 -0.1466682631704162 0 0.46138481906560302 -0.14686228775601681 0 0.44880083799057491 -0.164686103644653 0 0.43334283997313311 -0.15135273030925811 0 0.43763345530417341 -0.13584027725706749 0 0.44678149142501389 -0.1466682631704162 0 0.45274550479158487 -0.1345999168850856 0 0.44678149142501389 -0.1466682631704162 0 0.46138481906560302 -0.14686228775601681 0 0.46138481906560302 -0.14686228775601681 0 0.44880083799057491 -0.164686103644653 0 0.47440041899528501 -0.16298873485845719 0 0.44880083799057491 -0.164686103644653 0 0.46834799031954211 -0.17915452781490099 0 0.47440041899528501 -0.16298873485845719 0 0.44880083799057491 -0.164686103644653 0 0.47440041899528501 -0.16298873485845719 0 0.43180268423531071 -0.1802632517690351 0 0.44880083799057491 -0.164686103644653 0 0.43844209377108118 -0.18689286854296691 0 0.44880083799057491 -0.164686103644653 0 0.43844209377108118 -0.18689286854296691 0 0.45508032593701309 -0.1914137801830845 0 0.44880083799057491 -0.164686103644653 0 0.46834799031954211 -0.17915452781490099 0 0.45508032593701309 -0.1914137801830845 0 0.46834799031954211 -0.17915452781490099 0 0.48419704391512092 -0.17843144908975531 0 0.47440041899528501 -0.16298873485845719 0 0.46834799031954211 -0.17915452781490099 0 0.48419704391512092 -0.17843144908975531 0 0.47823681026078202 -0.19812675643970101 0 0.48419704391512092 -0.17843144908975531 0 0.49999999999999523 -0.16129136607226169 0 0.5 -0.1905958602634561 0 0.49999999999999523 -0.16129136607226169 0 0.47440041899528501 -0.16298873485845719 0 0.50000000000000067 -0.1547763741112759 0 0.48419704391512092 -0.17843144908975531 0 0.49999999999999523 -0.16129136607226169 0 0.47440041899528501 -0.16298873485845719 0 0.49999999999999523 -0.16129136607226169 0 0.47440041899528501 -0.16298873485845719 0 0.46138481906560302 -0.14686228775601681 0 0.47440041899528501 -0.16298873485845719 0 0.48128698321344371 -0.14003357648102521 0 0.46381730130484328 -0.1363472541609663 0 0.46138481906560302 -0.14686228775601681 0 0.48128698321344371 -0.14003357648102521 0 0.50000000000000067 -0.1547763741112759 0 0.48128698321344371 -0.14003357648102521 0 0.50000000000000067 -0.1547763741112759 0 0.5 -0.13349841451636779 0 0.48128698321344371 -0.14003357648102521 0 0.47440041899528501 -0.16298873485845719 0 0.50000000000000067 -0.1547763741112759 0 0.48128698321344371 -0.14003357648102521 0 0.48087269318342413 -0.1216818802472065 0 0.5 -0.13349841451636779 0 0.48128698321344371 -0.14003357648102521 0 0.46257396642688631 -0.12529077885077469 0 0.48128698321344371 -0.14003357648102521 0 0.46257396642688631 -0.12529077885077469 0 0.46381730130484328 -0.1363472541609663 0 0.48128698321344371 -0.14003357648102521 0 0.47129126618897188 -0.1223351355815797 0 0.48087269318342413 -0.1216818802472065 0 0.48128698321344371 -0.14003357648102521 0 0.47129126618897188 -0.1223351355815797 0 0.46257396642688631 -0.12529077885077469 0 0.48128698321344371 -0.14003357648102521 0 0.46029750420545162 -0.23134667767863379 0 0.45079963313025367 -0.219495204315066 0 0.46126535540865482 -0.21094244298034759 0 0.46029750420545162 -0.23134667767863379 0 0.46126535540865482 -0.21094244298034759 0 0.47937109712497578 -0.22608105856418539 0 0.46029750420545162 -0.23134667767863379 0 0.44856132313442931 -0.24393079079591279 0 0.47387431588802909 -0.25499376211151131 0 0.46029750420545162 -0.23134667767863379 0 0.44856132313442931 -0.24393079079591279 0 0.44416109061426973 -0.22983272991065171 0 0.43458399188612801 -0.2397076170126072 0 0.44856132313442931 -0.24393079079591279 0 0.4372088962240912 -0.25169219704383999 0 0.43458399188612801 -0.2397076170126072 0 0.44856132313442931 -0.24393079079591279 0 0.44416109061426973 -0.22983272991065171 0 0.46029750420545162 -0.23134667767863379 0 0.44416109061426973 -0.22983272991065171 0 0.45079963313025367 -0.219495204315066 0 0.44416109061426973 -0.22983272991065171 0 0.45079963313025367 -0.219495204315066 0 0.44009267276725389 -0.2176624614444449 0 0.42988092584916948 -0.2249579995083304 0 0.44416109061426973 -0.22983272991065171 0 0.44009267276725389 -0.2176624614444449 0 0.45079963313025367 -0.219495204315066 0 0.44355474576021348 -0.2050869029196882 0 0.46126535540865482 -0.21094244298034759 0 0.43006687167525981 -0.21185300334864521 0 0.44009267276725389 -0.2176624614444449 0 0.44355474576021348 -0.2050869029196882 0 0.45079963313025367 -0.219495204315066 0 0.44009267276725389 -0.2176624614444449 0 0.44355474576021348 -0.2050869029196882 0 0.43844209377108118 -0.18689286854296691 0 0.44355474576021348 -0.2050869029196882 0 0.45508032593701309 -0.1914137801830845 0 0.46834799031954211 -0.17915452781490099 0 0.45508032593701309 -0.1914137801830845 0 0.47823681026078202 -0.19812675643970101 0 0.44355474576021348 -0.2050869029196882 0 0.45508032593701309 -0.1914137801830845 0 0.46126535540865482 -0.21094244298034759 0 0.45508032593701309 -0.1914137801830845 0 0.46126535540865482 -0.21094244298034759 0 0.47823681026078202 -0.19812675643970101 0 0.46126535540865482 -0.21094244298034759 0 0.47823681026078202 -0.19812675643970101 0 0.47937109712497578 -0.22608105856418539 0 0.48419704391512092 -0.17843144908975531 0 0.47823681026078202 -0.19812675643970101 0 0.5 -0.1905958602634561 0 0.47823681026078202 -0.19812675643970101 0 0.5 -0.1905958602634561 0 0.5 -0.21990035445465039 0 0.47823681026078202 -0.19812675643970101 0 0.5 -0.21990035445465039 0 0.47937109712497578 -0.22608105856418539 0 0.5 -0.21990035445465039 0 0.47937109712497578 -0.22608105856418539 0 0.50000000000000444 -0.24920484864584491 0 0.46029750420545162 -0.23134667767863379 0 0.47937109712497578 -0.22608105856418539 0 0.47387431588802909 -0.25499376211151131 0 0.47937109712497578 -0.22608105856418539 0 0.50000000000000444 -0.24920484864584491 0 0.47387431588802909 -0.25499376211151131 0 0.50000000000000444 -0.24920484864584491 0 0.4915669900217115 -0.25615479242606781 0 0.5 -0.27170772691138367 0 0.50000000000000444 -0.24920484864584491 0 0.4915669900217115 -0.25615479242606781 0 0.47387431588802909 -0.25499376211151131 0 0.50000000000000444 -0.24920484864584491 0 0.47387431588802909 -0.25499376211151131 0 0.4915669900217115 -0.25615479242606781 0 0.48280749151585822 -0.27129304150170008 0 0.47954864786353962 -0.26301133191085868 0 0.4915669900217115 -0.25615479242606781 0 0.5 -0.27170772691138367 0 0.48280749151585822 -0.27129304150170008 0 0.5 -0.27170772691138367 0 0.48280749151585822 -0.27129304150170008 0 0.48951500520952212 -0.28458010338455908 0 0.48280749151585822 -0.27129304150170008 0 0.47474596181800061 -0.28621450290334632 0 0.48951500520952212 -0.28458010338455908 0 0.48280749151585822 -0.27129304150170008 0 0.47416229901770612 -0.26612875971404459 0 0.47954864786353962 -0.26301133191085868 0 0.48280749151585822 -0.27129304150170008 0 0.47416229901770612 -0.26612875971404459 0 0.47052118473631321 -0.27447720361836658 0 0.47416229901770612 -0.26612875971404459 0 0.47052118473631321 -0.27447720361836658 0 0.46319689217890331 -0.26835660325056299 0 0.48280749151585822 -0.27129304150170008 0 0.47052118473631321 -0.27447720361836658 0 0.47474596181800061 -0.28621450290334632 0 0.4915669900217115 -0.25615479242606781 0 0.46965781089888248 -0.25846873400162218 0 0.4915669900217115 -0.25615479242606781 0 0.47387431588802909 -0.25499376211151131 0 0.46965781089888248 -0.25846873400162218 0 0.4915669900217115 -0.25615479242606781 0 0.47954864786353962 -0.26301133191085868 0 0.46965781089888248 -0.25846873400162218 0 0.47416229901770612 -0.26612875971404459 0 0.47954864786353962 -0.26301133191085868 0 0.46965781089888248 -0.25846873400162218 0 0.47416229901770612 -0.26612875971404459 0 0.46965781089888248 -0.25846873400162218 0 0.46319689217890331 -0.26835660325056299 0 0.46965781089888248 -0.25846873400162218 0 0.46319689217890331 -0.26835660325056299 0 0.4477486317760534 -0.26078267557717671 0 0.44856132313442931 -0.24393079079591279 0 0.47387431588802909 -0.25499376211151131 0 0.4477486317760534 -0.26078267557717671 0 0.47387431588802909 -0.25499376211151131 0 0.4477486317760534 -0.26078267557717671 0 0.46965781089888248 -0.25846873400162218 0 0.4477486317760534 -0.26078267557717671 0 0.47387431588802909 -0.25499376211151131 0 0.46965781089888248 -0.25846873400162218 0 0.4477486317760534 -0.26078267557717671 0 0.47052118473631321 -0.27447720361836658 0 0.45389453446556111 -0.28192564334160541 0 0.47474596181800061 -0.28621450290334632 0 0.47052118473631321 -0.27447720361836658 0 0.46319689217890331 -0.26835660325056299 0 0.45389453446556111 -0.28192564334160541 0 0.46319689217890331 -0.26835660325056299 0 0.4477486317760534 -0.26078267557717671 0 0.45389453446556111 -0.28192564334160541 0 0.45389453446556111 -0.28192564334160541 0 0.430823863629894 -0.26453285558412298 0 0.45389453446556111 -0.28192564334160541 0 0.430823863629894 -0.26453285558412298 0 0.43570592202634773 -0.28205449164250063 0 0.4477486317760534 -0.26078267557717671 0 0.45389453446556111 -0.28192564334160541 0 0.430823863629894 -0.26453285558412298 0 0.4477486317760534 -0.26078267557717671 0 0.42854038242645709 -0.26281135800815408 0 0.44856132313442931 -0.24393079079591279 0 0.4477486317760534 -0.26078267557717671 0 0.4372088962240912 -0.25169219704383999 0 0.4477486317760534 -0.26078267557717671 0 0.42854038242645709 -0.26281135800815408 0 0.4372088962240912 -0.25169219704383999 0 0.4477486317760534 -0.26078267557717671 0 0.430823863629894 -0.26453285558412298 0 0.44815314542162782 -0.30273998798419938 0 0.44271266904340639 -0.31513600928105973 0 0.43092107089682352 -0.30573631325696571 0 0.44815314542162782 -0.30273998798419938 0 0.43874415768382158 -0.29310671547163403 0 0.43092107089682352 -0.30573631325696571 0 0.43874415768382158 -0.29310671547163403 0 0.45389453446556111 -0.28192564334160541 0 0.43570592202634773 -0.28205449164250063 0 0.44815314542162782 -0.30273998798419938 0 0.43874415768382158 -0.29310671547163403 0 0.45389453446556111 -0.28192564334160541 0 0.45389453446556111 -0.28192564334160541 0 0.46668010371271101 -0.29937682325086112 0 0.47474596181800061 -0.28621450290334632 0 0.44815314542162782 -0.30273998798419938 0 0.45389453446556111 -0.28192564334160541 0 0.46668010371271101 -0.29937682325086112 0 0.46668010371271101 -0.29937682325086112 0 0.45907432653114449 -0.32014896664993769 0 0.44815314542162782 -0.30273998798419938 0 0.46668010371271101 -0.29937682325086112 0 0.45907432653114449 -0.32014896664993769 0 0.46668010371271101 -0.29937682325086112 0 0.48375110351916628 -0.30725513966339157 0 0.45907432653114449 -0.32014896664993769 0 0.46668010371271101 -0.29937682325086112 0 0.48375110351916628 -0.30725513966339157 0 0.47474596181800061 -0.28621450290334632 0 0.48375110351916628 -0.30725513966339157 0 0.47474596181800061 -0.28621450290334632 0 0.48951500520952212 -0.28458010338455908 0 0.48375110351916628 -0.30725513966339157 0 0.5 -0.29421060517692271 0 0.48951500520952212 -0.28458010338455908 0 0.5 -0.27170772691138367 0 0.5 -0.29421060517692271 0 0.48951500520952212 -0.28458010338455908 0 0.48375110351916628 -0.30725513966339157 0 0.5 -0.29421060517692271 0 0.49999999999999972 -0.31671348344246159 0 0.48375110351916628 -0.30725513966339157 0 0.49999999999999972 -0.31671348344246159 0 0.48658745812515303 -0.32591538654610069 0 0.49999999999999972 -0.31671348344246159 0 0.49107839048707969 -0.33844651150006611 0 0.49999999999999972 -0.31671348344246159 0 0.48658745812515303 -0.32591538654610069 0 0.49107839048707969 -0.33844651150006611 0 0.49999999999999972 -0.31671348344246159 0 0.5 -0.34354646621870782 0 0.49107839048707969 -0.33844651150006611 0 0.48658745812515303 -0.32591538654610069 0 0.49107839048707969 -0.33844651150006611 0 0.48013111160135669 -0.33592777501669763 0 0.48658745812515303 -0.32591538654610069 0 0.48013111160135669 -0.33592777501669763 0 0.47588582758327369 -0.32632043512378739 0 0.48013111160135669 -0.33592777501669763 0 0.46883970942210401 -0.33989811375075968 0 0.47588582758327369 -0.32632043512378739 0 0.48375110351916628 -0.30725513966339157 0 0.48658745812515303 -0.32591538654610069 0 0.47588582758327369 -0.32632043512378739 0 0.48375110351916628 -0.30725513966339157 0 0.47588582758327369 -0.32632043512378739 0 0.45907432653114449 -0.32014896664993769 0 0.5 -0.37037944899495368 0 0.48466784746851571 -0.3739080713738358 0 0.48215678097416009 -0.36017953955767068 0 0.5 -0.34354646621870782 0 0.49107839048707969 -0.33844651150006611 0 0.48215678097416009 -0.36017953955767068 0 0.49107839048707969 -0.33844651150006611 0 0.48013111160135669 -0.33592777501669763 0 0.48215678097416009 -0.36017953955767068 0 0.5 -0.34354646621870782 0 0.5 -0.37037944899495368 0 0.48215678097416009 -0.36017953955767068 0 0.49107839048707969 -0.33844651150006611 0 0.48215678097416009 -0.36017953955767068 0 0.48013111160135669 -0.33592777501669763 0 0.46883970942210401 -0.33989811375075968 0 0.48215678097416009 -0.36017953955767068 0 0.46883970942210401 -0.33989811375075968 0 0.48215678097416009 -0.36017953955767068 0 0.46166172922915721 -0.35810144835948332 0 0.48215678097416009 -0.36017953955767068 0 0.47323517146124039 -0.38191256761527542 0 0.48215678097416009 -0.36017953955767068 0 0.4671179630262795 -0.37324494563770522 0 0.47323517146124039 -0.38191256761527542 0 0.48466784746851571 -0.3739080713738358 0 0.48215678097416009 -0.36017953955767068 0 0.47323517146124039 -0.38191256761527542 0 0.48215678097416009 -0.36017953955767068 0 0.4671179630262795 -0.37324494563770522 0 0.46166172922915721 -0.35810144835948332 0 0.45652460043480969 -0.37267172771365881 0 0.46166172922915721 -0.35810144835948332 0 0.44386277216801179 -0.36169325344809122 0 0.45652460043480969 -0.37267172771365881 0 0.4671179630262795 -0.37324494563770522 0 0.46166172922915721 -0.35810144835948332 0 0.46883970942210401 -0.33989811375075968 0 0.46166172922915721 -0.35810144835948332 0 0.45146854934957792 -0.34092111004901438 0 0.43963091224731599 -0.34751792105314822 0 0.44386277216801179 -0.36169325344809122 0 0.45146854934957792 -0.34092111004901438 0 0.44386277216801179 -0.36169325344809122 0 0.45146854934957792 -0.34092111004901438 0 0.46166172922915721 -0.35810144835948332 0 0.44386277216801179 -0.36169325344809122 0 0.45146854934957792 -0.34092111004901438 0 0.44386277216801179 -0.36169325344809122 0 0.43376943787959182 -0.36708850497004442 0 0.43808065797110041 -0.37748478958974491 0 0.45652460043480969 -0.37267172771365881 0 0.44386277216801179 -0.36169325344809122 0 0.44783900322824399 -0.38008781189722518 0 0.44386277216801179 -0.36169325344809122 0 0.43808065797110041 -0.37748478958974491 0 0.44386277216801179 -0.36169325344809122 0 0.43808065797110041 -0.37748478958974491 0 0.44783900322824399 -0.38008781189722518 0 0.45652460043480969 -0.37267172771365881 0 0.44386277216801179 -0.36169325344809122 0 0.46883970942210401 -0.33989811375075968 0 0.45907432653114449 -0.32014896664993769 0 0.45146854934957792 -0.34092111004901438 0 0.45907432653114449 -0.32014896664993769 0 0.45146854934957792 -0.34092111004901438 0 0.46883970942210401 -0.33989811375075968 0 0.47588582758327369 -0.32632043512378739 0 0.45907432653114449 -0.32014896664993769 0 0.43963091224731599 -0.34751792105314822 0 0.45146854934957792 -0.34092111004901438 0 0.43565299676263758 -0.3352386806192425 0 0.45146854934957792 -0.34092111004901438 0 0.44493724809618768 -0.32603283426431229 0 0.43565299676263758 -0.3352386806192425 0 0.45907432653114449 -0.32014896664993769 0 0.45146854934957792 -0.34092111004901438 0 0.44493724809618768 -0.32603283426431229 0 0.45907432653114449 -0.32014896664993769 0 0.44493724809618768 -0.32603283426431229 0 0.44271266904340639 -0.31513600928105973 0 0.44493724809618768 -0.32603283426431229 0 0.44271266904340639 -0.31513600928105973 0 0.43047755427124879 -0.32102194424988317 0 0.44815314542162782 -0.30273998798419938 0 0.45907432653114449 -0.32014896664993769 0 0.44271266904340639 -0.31513600928105973 0 0.44271266904340639 -0.31513600928105973 0 0.43047755427124879 -0.32102194424988317 0 0.43092107089682352 -0.30573631325696571 0 0.43047755427124879 -0.32102194424988317 0 0.41919911313656122 -0.31385112706466711 0 0.41739686236043672 -0.32199345155319897 0 0.43047755427124879 -0.32102194424988317 0 0.41919911313656122 -0.31385112706466711 0 0.43092107089682352 -0.30573631325696571 0 0.43047755427124879 -0.32102194424988317 0 0.42053718701310799 -0.32957674384091618 0 0.41739686236043672 -0.32199345155319897 0 0.44493724809618768 -0.32603283426431229 0 0.43047755427124879 -0.32102194424988317 0 0.43565299676263758 -0.3352386806192425 0 0.43565299676263758 -0.3352386806192425 0 0.42053718701310799 -0.32957674384091618 0 0.4250793590774925 -0.34540704162396091 0 0.43963091224731599 -0.34751792105314822 0 0.43565299676263758 -0.3352386806192425 0 0.4250793590774925 -0.34540704162396091 0 0.43047755427124879 -0.32102194424988317 0 0.43565299676263758 -0.3352386806192425 0 0.42053718701310799 -0.32957674384091618 0 0.4062959459869725 -0.32912082979983148 0 0.4250793590774925 -0.34540704162396091 0 0.41055923831377589 -0.34398547157316572 0 0.42053718701310799 -0.32957674384091618 0 0.4062959459869725 -0.32912082979983148 0 0.4250793590774925 -0.34540704162396091 0 0.4062959459869725 -0.32912082979983148 0 0.4250793590774925 -0.34540704162396091 0 0.42053718701310799 -0.32957674384091618 0 0.4062959459869725 -0.32912082979983148 0 0.40802480504278882 -0.32457497099322458 0 0.4062959459869725 -0.32912082979983148 0 0.40802480504278882 -0.32457497099322458 0 0.4062959459869725 -0.32912082979983148 0 0.40802480504278882 -0.32457497099322458 0 0.40572459905769331 -0.31910551143285631 0 0.40802480504278882 -0.32457497099322458 0 0.4119015194344513 -0.31818912214386269 0 0.41739686236043672 -0.32199345155319897 0 0.40802480504278882 -0.32457497099322458 0 0.4119015194344513 -0.31818912214386269 0 0.40572459905769331 -0.31910551143285631 0 0.4119015194344513 -0.31818912214386269 0 0.41919911313656122 -0.31385112706466711 0 0.40916221757477672 -0.31142054967536659 0 0.4119015194344513 -0.31818912214386269 0 0.40572459905769331 -0.31910551143285631 0 0.40916221757477672 -0.31142054967536659 0 0.4119015194344513 -0.31818912214386269 0 0.41919911313656122 -0.31385112706466711 0 0.41739686236043672 -0.32199345155319897 0 0.42053718701310799 -0.32957674384091618 0 0.40802480504278882 -0.32457497099322458 0 0.41739686236043672 -0.32199345155319897 0 0.44386277216801179 -0.36169325344809122 0 0.43376943787959182 -0.36708850497004442 0 0.42728564025893462 -0.35958684797927032 0 0.42489657602010461 -0.37065940299189432 0 0.43376943787959182 -0.36708850497004442 0 0.43808065797110041 -0.37748478958974491 0 0.42489657602010461 -0.37065940299189432 0 0.43376943787959182 -0.36708850497004442 0 0.42728564025893462 -0.35958684797927032 0 0.44386277216801179 -0.36169325344809122 0 0.4250793590774925 -0.34540704162396091 0 0.43963091224731599 -0.34751792105314822 0 0.44386277216801179 -0.36169325344809122 0 0.4250793590774925 -0.34540704162396091 0 0.44386277216801179 -0.36169325344809122 0 0.42728564025893462 -0.35958684797927032 0 0.4250793590774925 -0.34540704162396091 0 0.42728564025893462 -0.35958684797927032 0 0.4250793590774925 -0.34540704162396091 0 0.41069622259092692 -0.35617360609135817 0 0.4250793590774925 -0.34540704162396091 0 0.41055923831377589 -0.34398547157316572 0 0.41069622259092692 -0.35617360609135817 0 0.41055923831377589 -0.34398547157316572 0 0.41069622259092692 -0.35617360609135817 0 0.40016542559971202 -0.34524040877751239 0 0.42489657602010461 -0.37065940299189432 0 0.42728564025893462 -0.35958684797927032 0 0.41069622259092692 -0.35617360609135817 0 0.42489657602010461 -0.37065940299189432 0 0.41069622259092692 -0.35617360609135817 0 0.4070765621089808 -0.37107032214525337 0 0.42489657602010461 -0.37065940299189432 0 0.41069622259092692 -0.35617360609135817 0 0.39585190457779329 -0.37201308858561799 0 0.3940349052124521 -0.36135998775519362 0 0.38601585554704992 -0.38244526212700758 0 0.41069622259092692 -0.35617360609135817 0 0.4070765621089808 -0.37107032214525337 0 0.3940349052124521 -0.36135998775519362 0 0.4070765621089808 -0.37107032214525337 0 0.39585190457779329 -0.37201308858561799 0 0.3940349052124521 -0.36135998775519362 0 0.39585190457779329 -0.37201308858561799 0 0.3940349052124521 -0.36135998775519362 0 0.3940349052124521 -0.36135998775519362 0 0.40016542559971202 -0.34524040877751239 0 0.38974443050024338 -0.33620485529262373 0 0.3940349052124521 -0.36135998775519362 0 0.38974443050024338 -0.33620485529262373 0 0.3940349052124521 -0.36135998775519362 0 0.40016542559971202 -0.34524040877751239 0 0.41069622259092692 -0.35617360609135817 0 0.3940349052124521 -0.36135998775519362 0 0.40016542559971202 -0.34524040877751239 0 0.3940349052124521 -0.36135998775519362 0 0.38974443050024338 -0.33620485529262373 0 0.37368731816096312 -0.34897020548070451 0 0.3940349052124521 -0.36135998775519362 0 0.38601585554704992 -0.38244526212700758 0 0.3940349052124521 -0.36135998775519362 0 0.38601585554704992 -0.38244526212700758 0 0.3689120952668708 -0.37284951495870189 0 0.3940349052124521 -0.36135998775519362 0 0.3689120952668708 -0.37284951495870189 0 0.37368731816096312 -0.34897020548070451 0 0.4062959459869725 -0.32912082979983148 0 0.40572459905769331 -0.31910551143285631 0 0.39816778062817881 -0.31191488097197773 0 0.4062959459869725 -0.32912082979983148 0 0.38974443050024338 -0.33620485529262373 0 0.38545395578803499 -0.31104972283005378 0 0.4062959459869725 -0.32912082979983148 0 0.38545395578803499 -0.31104972283005378 0 0.4062959459869725 -0.32912082979983148 0 0.38545395578803499 -0.31104972283005378 0 0.39816778062817881 -0.31191488097197773 0 0.40572459905769331 -0.31910551143285631 0 0.39816778062817881 -0.31191488097197773 0 0.40916221757477672 -0.31142054967536659 0 0.4062959459869725 -0.32912082979983148 0 0.40016542559971202 -0.34524040877751239 0 0.38974443050024338 -0.33620485529262373 0 0.4062959459869725 -0.32912082979983148 0 0.40016542559971202 -0.34524040877751239 0 0.4062959459869725 -0.32912082979983148 0 0.41055923831377589 -0.34398547157316572 0 0.40016542559971202 -0.34524040877751239 0 0.38974443050024338 -0.33620485529262373 0 0.36945761595668469 -0.32738841673247931 0 0.37368731816096312 -0.34897020548070451 0 0.38974443050024338 -0.33620485529262373 0 0.38545395578803499 -0.31104972283005378 0 0.36945761595668469 -0.32738841673247931 0 0.38974443050024338 -0.33620485529262373 0 0.38545395578803499 -0.31104972283005378 0 0.38545395578803499 -0.31104972283005378 0 0.38245755150739558 -0.29348174920317632 0 0.37101427446782781 -0.29852975601036341 0 0.38545395578803499 -0.31104972283005378 0 0.38245755150739558 -0.29348174920317632 0 0.38545395578803499 -0.31104972283005378 0 0.37101427446782781 -0.29852975601036341 0 0.38545395578803499 -0.31104972283005378 0 0.39567659353887108 -0.29306988619604551 0 0.38245755150739558 -0.29348174920317632 0 0.39816778062817881 -0.31191488097197773 0 0.40563314249086863 -0.30155395497769039 0 0.39567659353887108 -0.29306988619604551 0 0.38545395578803499 -0.31104972283005378 0 0.39816778062817881 -0.31191488097197773 0 0.39567659353887108 -0.29306988619604551 0 0.39816778062817881 -0.31191488097197773 0 0.40563314249086863 -0.30155395497769039 0 0.40916221757477672 -0.31142054967536659 0 0.39567659353887108 -0.29306988619604551 0 0.40514250542832608 -0.27022331558021301 0 0.41160024963212011 -0.28933460066763711 0 0.40563314249086863 -0.30155395497769039 0 0.39567659353887108 -0.29306988619604551 0 0.41160024963212011 -0.28933460066763711 0 0.38245755150739558 -0.29348174920317632 0 0.37946114722675722 -0.27591377557629859 0 0.39567659353887108 -0.29306988619604551 0 0.38245755150739558 -0.29348174920317632 0 0.37946114722675722 -0.27591377557629859 0 0.38245755150739558 -0.29348174920317632 0 0.37795999762798671 -0.28395322059410122 0 0.37946114722675722 -0.27591377557629859 0 0.37519981906117678 -0.29055939022370142 0 0.38245755150739558 -0.29348174920317632 0 0.37101427446782781 -0.29852975601036341 0 0.37519981906117678 -0.29055939022370142 0 0.38245755150739558 -0.29348174920317632 0 0.37795999762798671 -0.28395322059410122 0 0.37795999762798671 -0.28395322059410122 0 0.37946114722675722 -0.27591377557629859 0 0.37739853904771847 -0.27637080706343392 0 0.37739853904771847 -0.27637080706343392 0 0.37683953433427181 -0.26882153263446662 0 0.37273728942595791 -0.27740364396778311 0 0.37795999762798671 -0.28395322059410122 0 0.37739853904771847 -0.27637080706343392 0 0.37273728942595791 -0.27740364396778311 0 0.37946114722675722 -0.27591377557629859 0 0.38774772661347989 -0.26664574742688191 0 0.3964002279028962 -0.26984905957103239 0 0.37946114722675722 -0.27591377557629859 0 0.3964002279028962 -0.26984905957103239 0 0.37795999762798671 -0.28395322059410122 0 0.37739853904771847 -0.27637080706343392 0 0.37739853904771847 -0.27637080706343392 0 0.37273728942595791 -0.27740364396778311 0 0.37946114722675722 -0.27591377557629859 0 0.37739853904771847 -0.27637080706343392 0 0.37683953433427181 -0.26882153263446662 0 0.37946114722675722 -0.27591377557629859 0 0.37739853904771847 -0.27637080706343392 0 0.37946114722675722 -0.27591377557629859 0 0.37843581040967561 -0.26746760801825881 0 0.38284686623937531 -0.26497045393317709 0 0.37946114722675722 -0.27591377557629859 0 0.37683953433427181 -0.26882153263446662 0 0.37843581040967561 -0.26746760801825881 0 0.37739853904771847 -0.27637080706343392 0 0.37683953433427181 -0.26882153263446662 0 0.37683953433427181 -0.26882153263446662 0 0.37843581040967561 -0.26746760801825881 0 0.37946114722675722 -0.27591377557629859 0 0.38774772661347989 -0.26664574742688191 0 0.38284686623937531 -0.26497045393317709 0 0.37477580018058132 -0.24095111383496479 0 0.37683953433427181 -0.26882153263446662 0 0.38107906364546162 -0.25934379353391329 0 0.37477580018058132 -0.24095111383496479 0 0.37683953433427181 -0.26882153263446662 0 0.37477580018058132 -0.24095111383496479 0 0.38107906364546162 -0.25934379353391329 0 0.38725375881062551 -0.25185160038302579 0 0.37843581040967561 -0.26746760801825881 0 0.38107906364546162 -0.25934379353391329 0 0.38284686623937531 -0.26497045393317709 0 0.37683953433427181 -0.26882153263446662 0 0.37843581040967561 -0.26746760801825881 0 0.38107906364546162 -0.25934379353391329 0 0.38107906364546162 -0.25934379353391329 0 0.38632261189823958 -0.26200045239958702 0 0.38284686623937531 -0.26497045393317709 0 0.38774772661347989 -0.26664574742688191 0 0.38632261189823958 -0.26200045239958702 0 0.38284686623937531 -0.26497045393317709 0 0.38774772661347989 -0.26664574742688191 0 0.38955528694719099 -0.2630172622662057 0 0.39295554709344072 -0.26445586107842978 0 0.38774772661347989 -0.26664574742688191 0 0.38632261189823958 -0.26200045239958702 0 0.38955528694719099 -0.2630172622662057 0 0.38632261189823958 -0.26200045239958702 0 0.38955528694719099 -0.2630172622662057 0 0.39119526218360401 -0.25896698815992442 0 0.38632261189823958 -0.26200045239958702 0 0.38725375881062551 -0.25185160038302579 0 0.39119526218360401 -0.25896698815992442 0 0.38107906364546162 -0.25934379353391329 0 0.38632261189823958 -0.26200045239958702 0 0.38725375881062551 -0.25185160038302579 0 0.40314688718896508 -0.2619981766022052 0 0.39707581272688741 -0.26613449373937459 0 0.41345304600685079 -0.26440480953867462 0 0.39707581272688741 -0.26613449373937459 0 0.41345304600685079 -0.26440480953867462 0 0.38725375881062551 -0.25185160038302579 0 0.39640803358832022 -0.25154779433757402 0 0.39119526218360401 -0.25896698815992442 0 0.39640803358832022 -0.25154779433757402 0 0.39702034872720737 -0.26014738253762237 0 0.39119526218360401 -0.25896698815992442 0 0.39702034872720737 -0.26014738253762237 0 0.39119526218360401 -0.25896698815992442 0 0.39295554709344072 -0.26445586107842978 0 0.38955528694719099 -0.2630172622662057 0 0.39119526218360401 -0.25896698815992442 0 0.39295554709344072 -0.26445586107842978 0 0.39702034872720737 -0.26014738253762237 0 0.39295554709344072 -0.26445586107842978 0 0.39707581272688741 -0.26613449373937459 0 0.39702034872720737 -0.26014738253762237 0 0.40314688718896508 -0.2619981766022052 0 0.39707581272688741 -0.26613449373937459 0 0.40314688718896508 -0.2619981766022052 0 0.40257909468765629 -0.25704117102420471 0 0.40998094690083942 -0.2590606397541646 0 0.39702034872720737 -0.26014738253762237 0 0.40314688718896508 -0.2619981766022052 0 0.40257909468765629 -0.25704117102420471 0 0.39640803358832022 -0.25154779433757402 0 0.39702034872720737 -0.26014738253762237 0 0.40257909468765629 -0.25704117102420471 0 0.41087794879613182 -0.2494957955088617 0 0.39640803358832022 -0.25154779433757402 0 0.40257909468765629 -0.25704117102420471 0 0.40514250542832608 -0.27022331558021301 0 0.3964002279028962 -0.26984905957103239 0 0.41345304600685079 -0.26440480953867462 0 0.37946114722675722 -0.27591377557629859 0 0.40514250542832608 -0.27022331558021301 0 0.3964002279028962 -0.26984905957103239 0 0.39707581272688741 -0.26613449373937459 0 0.3964002279028962 -0.26984905957103239 0 0.41345304600685079 -0.26440480953867462 0 0.37946114722675722 -0.27591377557629859 0 0.40514250542832608 -0.27022331558021301 0 0.3964002279028962 -0.26984905957103239 0 0.41345304600685079 -0.26440480953867462 0 0.39567659353887108 -0.29306988619604551 0 0.37946114722675722 -0.27591377557629859 0 0.40514250542832608 -0.27022331558021301 0 0.38774772661347989 -0.26664574742688191 0 0.39295554709344072 -0.26445586107842978 0 0.3964002279028962 -0.26984905957103239 0 0.39295554709344072 -0.26445586107842978 0 0.39707581272688741 -0.26613449373937459 0 0.3964002279028962 -0.26984905957103239 0 0.40514250542832608 -0.27022331558021301 0 0.41345304600685079 -0.26440480953867462 0 0.430823863629894 -0.26453285558412298 0 0.40514250542832608 -0.27022331558021301 0 0.430823863629894 -0.26453285558412298 0 0.40514250542832608 -0.27022331558021301 0 0.42166373126508722 -0.27984448092147479 0 0.41160024963212011 -0.28933460066763711 0 0.40514250542832608 -0.27022331558021301 0 0.42166373126508722 -0.27984448092147479 0 0.430823863629894 -0.26453285558412298 0 0.41087794879613182 -0.2494957955088617 0 0.41984775782459283 -0.2623632460968765 0 0.42854038242645709 -0.26281135800815408 0 0.41087794879613182 -0.2494957955088617 0 0.42854038242645709 -0.26281135800815408 0 0.41087794879613182 -0.2494957955088617 0 0.40257909468765629 -0.25704117102420471 0 0.40998094690083942 -0.2590606397541646 0 0.41087794879613182 -0.2494957955088617 0 0.40998094690083942 -0.2590606397541646 0 0.41984775782459283 -0.2623632460968765 0 0.40314688718896508 -0.2619981766022052 0 0.40998094690083942 -0.2590606397541646 0 0.41345304600685079 -0.26440480953867462 0 0.41345304600685079 -0.26440480953867462 0 0.41984775782459283 -0.2623632460968765 0 0.42854038242645709 -0.26281135800815408 0 0.40998094690083942 -0.2590606397541646 0 0.41345304600685079 -0.26440480953867462 0 0.41984775782459283 -0.2623632460968765 0 0.41345304600685079 -0.26440480953867462 0 0.42854038242645709 -0.26281135800815408 0 0.41345304600685079 -0.26440480953867462 0 0.41984775782459283 -0.2623632460968765 0 0.42656562700980838 -0.24831468624349931 0 0.41087794879613182 -0.2494957955088617 0 0.42854038242645709 -0.26281135800815408 0 0.4477486317760534 -0.26078267557717671 0 0.42854038242645709 -0.26281135800815408 0 0.430823863629894 -0.26453285558412298 0 0.41345304600685079 -0.26440480953867462 0 0.42854038242645709 -0.26281135800815408 0 0.430823863629894 -0.26453285558412298 0 0.42854038242645709 -0.26281135800815408 0 0.430823863629894 -0.26453285558412298 0 0.42656562700980838 -0.24831468624349931 0 0.42854038242645709 -0.26281135800815408 0 0.4372088962240912 -0.25169219704383999 0 0.42166373126508722 -0.27984448092147479 0 0.430823863629894 -0.26453285558412298 0 0.43570592202634773 -0.28205449164250063 0 0.42166373126508722 -0.27984448092147479 0 0.43570592202634773 -0.28205449164250063 0 0.42504611560874761 -0.29307714113289868 0 0.43874415768382158 -0.29310671547163403 0 0.43570592202634773 -0.28205449164250063 0 0.42504611560874761 -0.29307714113289868 0 0.43874415768382158 -0.29310671547163403 0 0.42504611560874761 -0.29307714113289868 0 0.43092107089682352 -0.30573631325696571 0 0.41919911313656122 -0.31385112706466711 0 0.43092107089682352 -0.30573631325696571 0 0.41692698488998292 -0.30249561446253759 0 0.42504611560874761 -0.29307714113289868 0 0.43092107089682352 -0.30573631325696571 0 0.41692698488998292 -0.30249561446253759 0 0.41919911313656122 -0.31385112706466711 0 0.41692698488998292 -0.30249561446253759 0 0.40916221757477672 -0.31142054967536659 0 0.40563314249086863 -0.30155395497769039 0 0.41692698488998292 -0.30249561446253759 0 0.40916221757477672 -0.31142054967536659 0 0.40563314249086863 -0.30155395497769039 0 0.41692698488998292 -0.30249561446253759 0 0.41160024963212011 -0.28933460066763711 0 0.42166373126508722 -0.27984448092147479 0 0.42504611560874761 -0.29307714113289868 0 0.41160024963212011 -0.28933460066763711 0 0.42504611560874761 -0.29307714113289868 0 0.41692698488998292 -0.30249561446253759 0 0.41160024963212011 -0.28933460066763711 0 0.5 -0.5 0 0.47532784176218862 -0.47257481327436679 0 0.43264288253940292 -0.48275234633568048 0 0.5 -0.5 0 0.41749257905485199 -0.50000000000000033 0 0.43264288253940292 -0.48275234633568048 0 0.47532784176218862 -0.47257481327436679 0 0.44779318602395363 -0.46550469267136052 0 0.43264288253940292 -0.48275234633568048 0 0.44779318602395363 -0.46550469267136052 0 0.43264288253940292 -0.48275234633568048 0 0.5 -0.5 0 0.47532784176218862 -0.47257481327436679 0 0.49999999999999828 -0.44642064777577001 0 0.47532784176218862 -0.47257481327436679 0 0.47918453573141367 -0.4495963838019249 0 0.46294348950850428 -0.44825703900704061 0 0.47532784176218862 -0.47257481327436679 0 0.49999999999999828 -0.44642064777577001 0 0.47918453573141367 -0.4495963838019249 0 0.49999999999999828 -0.44642064777577001 0 0.47846681165496419 -0.4311330351505217 0 0.49999999999999828 -0.44642064777577001 0 0.47918453573141367 -0.4495963838019249 0 0.47846681165496419 -0.4311330351505217 0 0.47918453573141367 -0.4495963838019249 0 0.46294348950850428 -0.44825703900704061 0 0.47846681165496419 -0.4311330351505217 0 0.46294348950850428 -0.44825703900704061 0 0.44442683605218691 -0.44583817528272968 0 0.45721208074107311 -0.43281318479414382 0 0.46294348950850428 -0.44825703900704061 0 0.44779318602395363 -0.46550469267136052 0 0.47532784176218862 -0.47257481327436679 0 0.46294348950850428 -0.44825703900704061 0 0.44779318602395363 -0.46550469267136052 0 0.44779318602395363 -0.46550469267136052 0 0.44442683605218691 -0.44583817528272968 0 0.43057418754349119 -0.46211781715143319 0 0.46294348950850428 -0.44825703900704061 0 0.44779318602395363 -0.46550469267136052 0 0.44442683605218691 -0.44583817528272968 0 0.44442683605218691 -0.44583817528272968 0 0.44324354583686831 -0.42153379012121539 0 0.45721208074107311 -0.43281318479414382 0 0.44442683605218691 -0.44583817528272968 0 0.44324354583686831 -0.42153379012121539 0 0.42653452723640378 -0.44279137365393179 0 0.44324354583686831 -0.42153379012121539 0 0.45693362330993059 -0.41584542252527262 0 0.45721208074107311 -0.43281318479414382 0 0.45693362330993059 -0.41584542252527262 0 0.4354004349648965 -0.40055780990002432 0 0.44324354583686831 -0.42153379012121539 0 0.45693362330993059 -0.41584542252527262 0 0.4354004349648965 -0.40055780990002432 0 0.45693362330993059 -0.41584542252527262 0 0.46461049463358839 -0.41117161714406408 0 0.47846681165496419 -0.4311330351505217 0 0.45693362330993059 -0.41584542252527262 0 0.46461049463358839 -0.41117161714406408 0 0.45329728287846061 -0.39963099679296588 0 0.46294348950850428 -0.44825703900704061 0 0.45721208074107311 -0.43281318479414382 0 0.47846681165496419 -0.4311330351505217 0 0.45693362330993059 -0.41584542252527262 0 0.45721208074107311 -0.43281318479414382 0 0.47846681165496419 -0.4311330351505217 0 0.45693362330993059 -0.41584542252527262 0 0.47846681165496419 -0.4311330351505217 0 0.49999999999999828 -0.44642064777577001 0 0.47846681165496419 -0.4311330351505217 0 0.5 -0.42181653977348488 0 0.5 -0.42181653977348488 0 0.48394518954555588 -0.41195106762427058 0 0.49999999999999789 -0.3972124317711998 0 0.47846681165496419 -0.4311330351505217 0 0.5 -0.42181653977348488 0 0.48394518954555588 -0.41195106762427058 0 0.46461049463358839 -0.41117161714406408 0 0.47846681165496419 -0.4311330351505217 0 0.48394518954555588 -0.41195106762427058 0 0.46461049463358839 -0.41117161714406408 0 0.48394518954555588 -0.41195106762427058 0 0.47664864143922919 -0.39842171428208217 0 0.47664864143922919 -0.39842171428208217 0 0.47975395238035062 -0.3854291032725421 0 0.46812846895096999 -0.38912968091376021 0 0.47664864143922919 -0.39842171428208217 0 0.49999999999999789 -0.3972124317711998 0 0.48779058149940679 -0.38751051868815611 0 0.48394518954555588 -0.41195106762427058 0 0.47664864143922919 -0.39842171428208217 0 0.49999999999999789 -0.3972124317711998 0 0.47664864143922919 -0.39842171428208217 0 0.49999999999999789 -0.3972124317711998 0 0.5 -0.37037944899495368 0 0.49999999999999789 -0.3972124317711998 0 0.48779058149940679 -0.38751051868815611 0 0.5 -0.37037944899495368 0 0.48466784746851571 -0.3739080713738358 0 0.48779058149940679 -0.38751051868815611 0 0.48466784746851571 -0.3739080713738358 0 0.47975395238035062 -0.3854291032725421 0 0.47323517146124039 -0.38191256761527542 0 0.48466784746851571 -0.3739080713738358 0 0.48779058149940679 -0.38751051868815611 0 0.47975395238035062 -0.3854291032725421 0 0.47664864143922919 -0.39842171428208217 0 0.48779058149940679 -0.38751051868815611 0 0.47975395238035062 -0.3854291032725421 0 0.47975395238035062 -0.3854291032725421 0 0.47323517146124039 -0.38191256761527542 0 0.46812846895096999 -0.38912968091376021 0 0.46918642870160698 -0.38365020197922722 0 0.47323517146124039 -0.38191256761527542 0 0.46812846895096999 -0.38912968091376021 0 0.4671179630262795 -0.37324494563770522 0 0.46918642870160698 -0.38365020197922722 0 0.47323517146124039 -0.38191256761527542 0 0.45652460043480969 -0.37267172771365881 0 0.4671179630262795 -0.37324494563770522 0 0.46918642870160698 -0.38365020197922722 0 0.45652460043480969 -0.37267172771365881 0 0.46918642870160698 -0.38365020197922722 0 0.45652460043480969 -0.37267172771365881 0 0.45606522570456098 -0.38599652494351028 0 0.44783900322824399 -0.38008781189722518 0 0.45652460043480969 -0.37267172771365881 0 0.46918642870160698 -0.38365020197922722 0 0.45606522570456098 -0.38599652494351028 0 0.46918642870160698 -0.38365020197922722 0 0.45606522570456098 -0.38599652494351028 0 0.46812846895096999 -0.38912968091376021 0 0.46461049463358839 -0.41117161714406408 0 0.47664864143922919 -0.39842171428208217 0 0.45329728287846061 -0.39963099679296588 0 0.47664864143922919 -0.39842171428208217 0 0.45329728287846061 -0.39963099679296588 0 0.47664864143922919 -0.39842171428208217 0 0.46812846895096999 -0.38912968091376021 0 0.45329728287846061 -0.39963099679296588 0 0.46461049463358839 -0.41117161714406408 0 0.45329728287846061 -0.39963099679296588 0 0.45606522570456098 -0.38599652494351028 0 0.46812846895096999 -0.38912968091376021 0 0.45329728287846061 -0.39963099679296588 0 0.45693362330993059 -0.41584542252527262 0 0.45329728287846061 -0.39963099679296588 0 0.4354004349648965 -0.40055780990002432 0 0.45329728287846061 -0.39963099679296588 0 0.4354004349648965 -0.40055780990002432 0 0.45329728287846061 -0.39963099679296588 0 0.4390969294492823 -0.3851451998924304 0 0.4354004349648965 -0.40055780990002432 0 0.45329728287846061 -0.39963099679296588 0 0.4390969294492823 -0.3851451998924304 0 0.45606522570456098 -0.38599652494351028 0 0.4390969294492823 -0.3851451998924304 0 0.44783900322824399 -0.38008781189722518 0 0.45606522570456098 -0.38599652494351028 0 0.45329728287846061 -0.39963099679296588 0 0.4390969294492823 -0.3851451998924304 0 0.4390969294492823 -0.3851451998924304 0 0.43808065797110041 -0.37748478958974491 0 0.44783900322824399 -0.38008781189722518 0 0.42782015831496062 -0.38505662608606978 0 0.4354004349648965 -0.40055780990002432 0 0.41188669282555868 -0.38386409155992901 0 0.42489657602010461 -0.37065940299189432 0 0.4390969294492823 -0.3851451998924304 0 0.42782015831496062 -0.38505662608606978 0 0.42489657602010461 -0.37065940299189432 0 0.4390969294492823 -0.3851451998924304 0 0.43808065797110041 -0.37748478958974491 0 0.42489657602010461 -0.37065940299189432 0 0.4390969294492823 -0.3851451998924304 0 0.4390969294492823 -0.3851451998924304 0 0.42782015831496062 -0.38505662608606978 0 0.4354004349648965 -0.40055780990002432 0 0.4354004349648965 -0.40055780990002432 0 0.41188669282555868 -0.38386409155992901 0 0.4354004349648965 -0.40055780990002432 0 0.40669862042327182 -0.40204417319942209 0 0.4354004349648965 -0.40055780990002432 0 0.40669862042327182 -0.40204417319942209 0 0.41188669282555868 -0.38386409155992901 0 0.42489657602010461 -0.37065940299189432 0 0.42782015831496062 -0.38505662608606978 0 0.41188669282555868 -0.38386409155992901 0 0.42489657602010461 -0.37065940299189432 0 0.4070765621089808 -0.37107032214525337 0 0.41188669282555868 -0.38386409155992901 0 0.4070765621089808 -0.37107032214525337 0 0.39585190457779329 -0.37201308858561799 0 0.39886607975096749 -0.38470810625682389 0 0.40669862042327182 -0.40204417319942209 0 0.41188669282555868 -0.38386409155992901 0 0.39886607975096749 -0.38470810625682389 0 0.4070765621089808 -0.37107032214525337 0 0.41188669282555868 -0.38386409155992901 0 0.39886607975096749 -0.38470810625682389 0 0.39585190457779329 -0.37201308858561799 0 0.39886607975096749 -0.38470810625682389 0 0.38601585554704992 -0.38244526212700758 0 0.39886607975096749 -0.38470810625682389 0 0.38601585554704992 -0.38244526212700758 0 0.37799680588164719 -0.40353053649882148 0 0.38601585554704992 -0.38244526212700758 0 0.37799680588164719 -0.40353053649882148 0 0.38601585554704992 -0.38244526212700758 0 0.37799680588164719 -0.40353053649882148 0 0.36816388811638329 -0.39545065246060412 0 0.37799680588164719 -0.40353053649882148 0 0.37635446215448021 -0.40784891206015261 0 0.37799680588164719 -0.40353053649882148 0 0.37505152225636262 -0.40368306209891941 0 0.37635446215448021 -0.40784891206015261 0 0.37799680588164719 -0.40353053649882148 0 0.37505152225636262 -0.40368306209891941 0 0.40669862042327182 -0.40204417319942209 0 0.39886607975096749 -0.38470810625682389 0 0.37799680588164719 -0.40353053649882148 0 0.40669862042327182 -0.40204417319942209 0 0.37799680588164719 -0.40353053649882148 0 0.40669862042327182 -0.40204417319942209 0 0.38553791301154328 -0.41840677215457472 0 0.40567792500840172 -0.4277251834563135 0 0.40669862042327182 -0.40204417319942209 0 0.37799680588164719 -0.40353053649882148 0 0.38553791301154328 -0.41840677215457472 0 0.38553791301154328 -0.41840677215457472 0 0.36905142820508552 -0.42917232846767789 0 0.37241381966677689 -0.417360225696081 0 0.38553791301154328 -0.41840677215457472 0 0.37635446215448021 -0.40784891206015261 0 0.37241381966677689 -0.417360225696081 0 0.37799680588164719 -0.40353053649882148 0 0.38553791301154328 -0.41840677215457472 0 0.37635446215448021 -0.40784891206015261 0 0.38553791301154328 -0.41840677215457472 0 0.38807715457860831 -0.4388905332329941 0 0.36905142820508552 -0.42917232846767789 0 0.38553791301154328 -0.41840677215457472 0 0.40567792500840172 -0.4277251834563135 0 0.38807715457860831 -0.4388905332329941 0 0.40567792500840172 -0.4277251834563135 0 0.42351101069396863 -0.41893046606618117 0 0.42653452723640378 -0.44279137365393179 0 0.4354004349648965 -0.40055780990002432 0 0.40669862042327182 -0.40204417319942209 0 0.42351101069396863 -0.41893046606618117 0 0.40669862042327182 -0.40204417319942209 0 0.40567792500840172 -0.4277251834563135 0 0.42351101069396863 -0.41893046606618117 0 0.44324354583686831 -0.42153379012121539 0 0.4354004349648965 -0.40055780990002432 0 0.42351101069396863 -0.41893046606618117 0 0.44324354583686831 -0.42153379012121539 0 0.42653452723640378 -0.44279137365393179 0 0.44324354583686831 -0.42153379012121539 0 0.42351101069396863 -0.41893046606618117 0 0.42653452723640378 -0.44279137365393179 0 0.44442683605218691 -0.44583817528272968 0 0.42653452723640378 -0.44279137365393179 0 0.43057418754349119 -0.46211781715143319 0 0.42653452723640378 -0.44279137365393179 0 0.43057418754349119 -0.46211781715143319 0 0.40982550863593931 -0.46404895718664829 0 0.42653452723640378 -0.44279137365393179 0 0.40982550863593931 -0.46404895718664829 0 0.42653452723640378 -0.44279137365393179 0 0.40982550863593931 -0.46404895718664829 0 0.4036378289262339 -0.44671034290208689 0 0.40567792500840172 -0.4277251834563135 0 0.42653452723640378 -0.44279137365393179 0 0.4036378289262339 -0.44671034290208689 0 0.40567792500840172 -0.4277251834563135 0 0.4036378289262339 -0.44671034290208689 0 0.38807715457860831 -0.4388905332329941 0 0.4036378289262339 -0.44671034290208689 0 0.38807715457860831 -0.4388905332329941 0 0.38807402917181633 -0.46009566698054732 0 0.38807715457860831 -0.4388905332329941 0 0.3733961412993268 -0.45022493016754961 0 0.36905142820508552 -0.42917232846767789 0 0.38807715457860831 -0.4388905332329941 0 0.38807402917181633 -0.46009566698054732 0 0.3733961412993268 -0.45022493016754961 0 0.38807402917181633 -0.46009566698054732 0 0.36593927904035028 -0.47432204071884282 0 0.3733961412993268 -0.45022493016754961 0 0.40982550863593931 -0.46404895718664829 0 0.4036378289262339 -0.44671034290208689 0 0.38807402917181633 -0.46009566698054732 0 0.40982550863593931 -0.46404895718664829 0 0.39311649003547477 -0.48530654071936469 0 0.40982550863593931 -0.46404895718664829 0 0.38807402917181633 -0.46009566698054732 0 0.39311649003547477 -0.48530654071936469 0 0.38807402917181633 -0.46009566698054732 0 0.39311649003547477 -0.48530654071936469 0 0.36593927904035028 -0.47432204071884282 0 0.37603974257992701 -0.49999999999999978 0 0.39311649003547477 -0.48530654071936469 0 0.36593927904035028 -0.47432204071884282 0 0.37603974257992701 -0.49999999999999978 0 0.39676616081738958 -0.5 0 0.39311649003547477 -0.48530654071936469 0 0.39676616081738958 -0.5 0 0.39311649003547477 -0.48530654071936469 0 0.41749257905485199 -0.50000000000000033 0 0.40982550863593931 -0.46404895718664829 0 0.41749257905485199 -0.50000000000000033 0 0.43264288253940292 -0.48275234633568048 0 0.40982550863593931 -0.46404895718664829 0 0.39311649003547477 -0.48530654071936469 0 0.41749257905485199 -0.50000000000000033 0 0.43057418754349119 -0.46211781715143319 0 0.40982550863593931 -0.46404895718664829 0 0.43264288253940292 -0.48275234633568048 0 0.44779318602395363 -0.46550469267136052 0 0.43057418754349119 -0.46211781715143319 0 0.43264288253940292 -0.48275234633568048 0 0.41749257905485199 -0.50000000000000033 0 0.43264288253940292 -0.48275234633568048 0 0.32215468257820618 -0.5 0 0.33760568703239408 -0.47417818032706111 0 0.31005432530219129 -0.48106067464861729 0 0.33760568703239408 -0.47417818032706111 0 0.3189449745883719 -0.46117016543644002 0 0.31005432530219129 -0.48106067464861729 0 0.32215468257820618 -0.5 0 0.33760568703239408 -0.47417818032706111 0 0.34909721257906662 -0.5 0 0.37603974257992701 -0.49999999999999978 0 0.34909721257906662 -0.5 0 0.36593927904035028 -0.47432204071884282 0 0.37603974257992701 -0.49999999999999978 0 0.36593927904035028 -0.47432204071884282 0 0.33760568703239408 -0.47417818032706111 0 0.34909721257906662 -0.5 0 0.36593927904035028 -0.47432204071884282 0 0.33760568703239408 -0.47417818032706111 0 0.36593927904035028 -0.47432204071884282 0 0.35583881550077368 -0.44864408143768569 0 0.36593927904035028 -0.47432204071884282 0 0.35583881550077368 -0.44864408143768569 0 0.36593927904035028 -0.47432204071884282 0 0.3733961412993268 -0.45022493016754961 0 0.35583881550077368 -0.44864408143768569 0 0.3733961412993268 -0.45022493016754961 0 0.35583881550077368 -0.44864408143768569 0 0.36905142820508552 -0.42917232846767789 0 0.35583881550077368 -0.44864408143768569 0 0.33540415989768779 -0.44905252560006492 0 0.34573835196119679 -0.42296612215652868 0 0.33760568703239408 -0.47417818032706111 0 0.35583881550077368 -0.44864408143768569 0 0.33540415989768779 -0.44905252560006492 0 0.33760568703239408 -0.47417818032706111 0 0.33540415989768779 -0.44905252560006492 0 0.3189449745883719 -0.46117016543644002 0 0.33540415989768779 -0.44905252560006492 0 0.3189449745883719 -0.46117016543644002 0 0.32126124445813709 -0.43429719032362252 0 0.3189449745883719 -0.46117016543644002 0 0.32126124445813709 -0.43429719032362252 0 0.30480654487456732 -0.44641521679941309 0 0.32126124445813709 -0.43429719032362252 0 0.3193156137706864 -0.40941365839269389 0 0.29937418247959258 -0.41817563384508599 0 0.3193156137706864 -0.40941365839269389 0 0.34573835196119679 -0.42296612215652868 0 0.33563788842162012 -0.39728816287537172 0 0.34573835196119679 -0.42296612215652868 0 0.33563788842162012 -0.39728816287537172 0 0.33540415989768779 -0.44905252560006492 0 0.32126124445813709 -0.43429719032362252 0 0.34573835196119679 -0.42296612215652868 0 0.32126124445813709 -0.43429719032362252 0 0.3193156137706864 -0.40941365839269389 0 0.34573835196119679 -0.42296612215652868 0 0.35583881550077368 -0.44864408143768569 0 0.34573835196119679 -0.42296612215652868 0 0.36905142820508552 -0.42917232846767789 0 0.35583881550077368 -0.44864408143768569 0 0.34573835196119679 -0.42296612215652868 0 0.36905142820508552 -0.42917232846767789 0 0.37241381966677689 -0.417360225696081 0 0.36195200988480669 -0.41065981681110758 0 0.36990343230398692 -0.40830781576793279 0 0.37241381966677689 -0.417360225696081 0 0.36195200988480669 -0.41065981681110758 0 0.37635446215448021 -0.40784891206015261 0 0.36990343230398692 -0.40830781576793279 0 0.37241381966677689 -0.417360225696081 0 0.37505152225636262 -0.40368306209891941 0 0.37635446215448021 -0.40784891206015261 0 0.36990343230398692 -0.40830781576793279 0 0.36990343230398692 -0.40830781576793279 0 0.36195200988480669 -0.41065981681110758 0 0.36876771314038492 -0.40452533678464098 0 0.34573835196119679 -0.42296612215652868 0 0.36195200988480669 -0.41065981681110758 0 0.35211107663302149 -0.40015425695529971 0 0.34573835196119679 -0.42296612215652868 0 0.36905142820508552 -0.42917232846767789 0 0.36195200988480669 -0.41065981681110758 0 0.34573835196119679 -0.42296612215652868 0 0.35211107663302149 -0.40015425695529971 0 0.33563788842162012 -0.39728816287537172 0 0.35211107663302149 -0.40015425695529971 0 0.35352794608594401 -0.38791341326287138 0 0.33563788842162012 -0.39728816287537172 0 0.35211107663302149 -0.40015425695529971 0 0.36816388811638329 -0.39545065246060412 0 0.35352794608594401 -0.38791341326287138 0 0.36195200988480669 -0.41065981681110758 0 0.36816388811638329 -0.39545065246060412 0 0.36876771314038492 -0.40452533678464098 0 0.36195200988480669 -0.41065981681110758 0 0.35211107663302149 -0.40015425695529971 0 0.36816388811638329 -0.39545065246060412 0 0.37505152225636262 -0.40368306209891941 0 0.36816388811638329 -0.39545065246060412 0 0.36876771314038492 -0.40452533678464098 0 0.37799680588164719 -0.40353053649882148 0 0.37505152225636262 -0.40368306209891941 0 0.36816388811638329 -0.39545065246060412 0 0.37505152225636262 -0.40368306209891941 0 0.36990343230398692 -0.40830781576793279 0 0.36876771314038492 -0.40452533678464098 0 0.38601585554704992 -0.38244526212700758 0 0.36816388811638329 -0.39545065246060412 0 0.3689120952668708 -0.37284951495870189 0 0.36816388811638329 -0.39545065246060412 0 0.35352794608594401 -0.38791341326287138 0 0.3689120952668708 -0.37284951495870189 0 0.35352794608594401 -0.38791341326287138 0 0.33563788842162012 -0.39728816287537172 0 0.34467783115022588 -0.37252705130409253 0 0.35352794608594401 -0.38791341326287138 0 0.3689120952668708 -0.37284951495870189 0 0.34467783115022588 -0.37252705130409253 0 0.33563788842162012 -0.39728816287537172 0 0.3255374248820434 -0.37161020359421471 0 0.33563788842162012 -0.39728816287537172 0 0.34467783115022588 -0.37252705130409253 0 0.3255374248820434 -0.37161020359421471 0 0.3193156137706864 -0.40941365839269389 0 0.33563788842162012 -0.39728816287537172 0 0.30534853388527528 -0.38930881101125692 0 0.33563788842162012 -0.39728816287537172 0 0.30534853388527528 -0.38930881101125692 0 0.3255374248820434 -0.37161020359421471 0 0.30534853388527528 -0.38930881101125692 0 0.3255374248820434 -0.37161020359421471 0 0.30525369772634148 -0.37164386163485291 0 0.30534853388527528 -0.38930881101125692 0 0.28783989868818821 -0.37644057584389279 0 0.30525369772634148 -0.37164386163485291 0 0.3193156137706864 -0.40941365839269389 0 0.30534853388527528 -0.38930881101125692 0 0.29937418247959258 -0.41817563384508599 0 0.30534853388527528 -0.38930881101125692 0 0.28922044672054198 -0.39637746652331562 0 0.29937418247959258 -0.41817563384508599 0 0.28922044672054198 -0.39637746652331562 0 0.27510086349567708 -0.39798721671617321 0 0.28320928432356041 -0.41012407252970262 0 0.28922044672054198 -0.39637746652331562 0 0.28783989868818821 -0.37644057584389279 0 0.27924907625512951 -0.38731579260330862 0 0.30534853388527528 -0.38930881101125692 0 0.28922044672054198 -0.39637746652331562 0 0.28783989868818821 -0.37644057584389279 0 0.30534853388527528 -0.38930881101125692 0 0.28783989868818821 -0.37644057584389279 0 0.28783989868818821 -0.37644057584389279 0 0.27447250226623809 -0.37821124143188289 0 0.27924907625512951 -0.38731579260330862 0 0.27447250226623809 -0.37821124143188289 0 0.27924907625512951 -0.38731579260330862 0 0.26961167010500181 -0.38756246250127813 0 0.27447250226623809 -0.37821124143188289 0 0.26961167010500181 -0.38756246250127813 0 0.26423397132697279 -0.37890457124200982 0 0.26961167010500181 -0.38756246250127813 0 0.26423397132697279 -0.37890457124200982 0 0.25687819372407023 -0.38903915957053298 0 0.26423397132697279 -0.37890457124200982 0 0.25687819372407023 -0.38903915957053298 0 0.24987622704845311 -0.37613765202982719 0 0.25108303853213881 -0.40002667887407228 0 0.26390234922262928 -0.39930308446362528 0 0.256136481120742 -0.41447562176841068 0 0.25687819372407023 -0.38903915957053298 0 0.25108303853213881 -0.40002667887407228 0 0.24309899287842279 -0.39271330151873202 0 0.25687819372407023 -0.38903915957053298 0 0.25108303853213881 -0.40002667887407228 0 0.26390234922262928 -0.39930308446362528 0 0.26961167010500181 -0.38756246250127813 0 0.25687819372407023 -0.38903915957053298 0 0.26390234922262928 -0.39930308446362528 0 0.26390234922262928 -0.39930308446362528 0 0.27510086349567708 -0.39798721671617321 0 0.2708804648698091 -0.41009655218672442 0 0.26961167010500181 -0.38756246250127813 0 0.26390234922262928 -0.39930308446362528 0 0.27510086349567708 -0.39798721671617321 0 0.28922044672054198 -0.39637746652331562 0 0.27924907625512951 -0.38731579260330862 0 0.27510086349567708 -0.39798721671617321 0 0.27924907625512951 -0.38731579260330862 0 0.26961167010500181 -0.38756246250127813 0 0.27510086349567708 -0.39798721671617321 0 0.27510086349567708 -0.39798721671617321 0 0.2708804648698091 -0.41009655218672442 0 0.28320928432356041 -0.41012407252970262 0 0.2708804648698091 -0.41009655218672442 0 0.256136481120742 -0.41447562176841068 0 0.27433621812851161 -0.42550461519375637 0 0.2708804648698091 -0.41009655218672442 0 0.27433621812851161 -0.42550461519375637 0 0.28320928432356041 -0.41012407252970262 0 0.26390234922262928 -0.39930308446362528 0 0.2708804648698091 -0.41009655218672442 0 0.256136481120742 -0.41447562176841068 0 0.25108303853213881 -0.40002667887407228 0 0.256136481120742 -0.41447562176841068 0 0.24629253832767661 -0.41022035877505542 0 0.256136481120742 -0.41447562176841068 0 0.25513396950241118 -0.43290986753561628 0 0.2453827316299185 -0.42192330194190181 0 0.256136481120742 -0.41447562176841068 0 0.25513396950241118 -0.43290986753561628 0 0.27433621812851161 -0.42550461519375637 0 0.25513396950241118 -0.43290986753561628 0 0.27433621812851161 -0.42550461519375637 0 0.26752346795397081 -0.44788636482661331 0 0.27433621812851161 -0.42550461519375637 0 0.29937418247959258 -0.41817563384508599 0 0.28546596250580908 -0.44246723239800262 0 0.29937418247959258 -0.41817563384508599 0 0.30480654487456732 -0.44641521679941309 0 0.28546596250580908 -0.44246723239800262 0 0.28922044672054198 -0.39637746652331562 0 0.28320928432356041 -0.41012407252970262 0 0.29937418247959258 -0.41817563384508599 0 0.27433621812851161 -0.42550461519375637 0 0.28320928432356041 -0.41012407252970262 0 0.29937418247959258 -0.41817563384508599 0 0.32126124445813709 -0.43429719032362252 0 0.29937418247959258 -0.41817563384508599 0 0.30480654487456732 -0.44641521679941309 0 0.3189449745883719 -0.46117016543644002 0 0.30480654487456732 -0.44641521679941309 0 0.28880919487484108 -0.4658549053918814 0 0.30480654487456732 -0.44641521679941309 0 0.28880919487484108 -0.4658549053918814 0 0.28546596250580908 -0.44246723239800262 0 0.27433621812851161 -0.42550461519375637 0 0.28546596250580908 -0.44246723239800262 0 0.26752346795397081 -0.44788636482661331 0 0.28880919487484108 -0.4658549053918814 0 0.28546596250580908 -0.44246723239800262 0 0.26752346795397081 -0.44788636482661331 0 0.25513396950241118 -0.43290986753561628 0 0.26752346795397081 -0.44788636482661331 0 0.24480843210435321 -0.45079661158300749 0 0.26752346795397081 -0.44788636482661331 0 0.2588368117714554 -0.46700690363883102 0 0.24480843210435321 -0.45079661158300749 0 0.28880919487484108 -0.4658549053918814 0 0.26752346795397081 -0.44788636482661331 0 0.2588368117714554 -0.46700690363883102 0 0.28880919487484108 -0.4658549053918814 0 0.2588368117714554 -0.46700690363883102 0 0.27227655507569209 -0.48076744006000099 0 0.2588368117714554 -0.46700690363883102 0 0.27227655507569209 -0.48076744006000099 0 0.25270961841775552 -0.48460016746525392 0 0.2588368117714554 -0.46700690363883102 0 0.25270961841775552 -0.48460016746525392 0 0.23949561189523169 -0.47426551941090739 0 0.25270961841775552 -0.48460016746525392 0 0.26826962257648529 -0.5 0 0.2413270925756249 -0.5 0 0.27227655507569209 -0.48076744006000099 0 0.25270961841775552 -0.48460016746525392 0 0.26826962257648529 -0.5 0 0.27227655507569209 -0.48076744006000099 0 0.26826962257648529 -0.5 0 0.29521215257734579 -0.5 0 0.28880919487484108 -0.4658549053918814 0 0.27227655507569209 -0.48076744006000099 0 0.29521215257734579 -0.5 0 0.28880919487484108 -0.4658549053918814 0 0.29521215257734579 -0.5 0 0.31005432530219129 -0.48106067464861729 0 0.3189449745883719 -0.46117016543644002 0 0.28880919487484108 -0.4658549053918814 0 0.31005432530219129 -0.48106067464861729 0 0.32215468257820618 -0.5 0 0.29521215257734579 -0.5 0 0.31005432530219129 -0.48106067464861729 0 0.33463237856908817 -0.28956894479377399 0 0.33485830675890288 -0.30442904333306592 0 0.35657459314761941 -0.2860097891906741 0 0.33463237856908817 -0.28956894479377399 0 0.32894302133540282 -0.28710755170783531 0 0.35195887039823659 -0.28200771363307098 0 0.32894302133540282 -0.28710755170783531 0 0.35195887039823659 -0.28200771363307098 0 0.32894302133540282 -0.28710755170783531 0 0.33255663915089151 -0.29722249741805129 0 0.33463237856908817 -0.28956894479377399 0 0.32894302133540282 -0.28710755170783531 0 0.33255663915089151 -0.29722249741805129 0 0.32894302133540282 -0.28710755170783531 0 0.33255663915089151 -0.29722249741805129 0 0.32301709761150521 -0.2972128627914089 0 0.33485830675890288 -0.30442904333306592 0 0.34824447571033601 -0.30253517369681238 0 0.34533870308018377 -0.31598934501886372 0 0.33485830675890288 -0.30442904333306592 0 0.33255663915089151 -0.29722249741805129 0 0.32434770264142349 -0.30499280498860082 0 0.33463237856908817 -0.28956894479377399 0 0.33485830675890288 -0.30442904333306592 0 0.33255663915089151 -0.29722249741805129 0 0.32301709761150521 -0.2972128627914089 0 0.32434770264142349 -0.30499280498860082 0 0.3171485971304504 -0.30589952111326829 0 0.32434770264142349 -0.30499280498860082 0 0.3171485971304504 -0.30589952111326829 0 0.31314202037018413 -0.32284829747545468 0 0.33485830675890288 -0.30442904333306592 0 0.32434770264142349 -0.30499280498860082 0 0.31314202037018413 -0.32284829747545468 0 0.33255663915089151 -0.29722249741805129 0 0.32301709761150521 -0.2972128627914089 0 0.32434770264142349 -0.30499280498860082 0 0.3171485971304504 -0.30589952111326829 0 0.31208952779935789 -0.2908419387292881 0 0.30833746379913463 -0.30503745501229762 0 0.32301709761150521 -0.2972128627914089 0 0.3171485971304504 -0.30589952111326829 0 0.31208952779935789 -0.2908419387292881 0 0.32894302133540282 -0.28710755170783531 0 0.31611371382327402 -0.28007222207304999 0 0.31208952779935789 -0.2908419387292881 0 0.32894302133540282 -0.28710755170783531 0 0.32301709761150521 -0.2972128627914089 0 0.31208952779935789 -0.2908419387292881 0 0.32894302133540282 -0.28710755170783531 0 0.31208952779935789 -0.2908419387292881 0 0.32894302133540282 -0.28710755170783531 0 0.32245882367699719 -0.26895751187574157 0 0.32894302133540282 -0.28710755170783531 0 0.31611371382327402 -0.28007222207304999 0 0.32245882367699719 -0.26895751187574157 0 0.31611371382327402 -0.28007222207304999 0 0.32245882367699719 -0.26895751187574157 0 0.30706455279928557 -0.27339796693147528 0 0.32245882367699719 -0.26895751187574157 0 0.30981211567343969 -0.26250129009931661 0 0.30706455279928557 -0.27339796693147528 0 0.32245882367699719 -0.26895751187574157 0 0.31597462601859122 -0.25080747204364812 0 0.32245882367699719 -0.26895751187574157 0 0.31597462601859122 -0.25080747204364812 0 0.30981211567343969 -0.26250129009931661 0 0.32245882367699719 -0.26895751187574157 0 0.31597462601859122 -0.25080747204364812 0 0.33396674820841349 -0.26640759283836002 0 0.31597462601859122 -0.25080747204364812 0 0.33396674820841349 -0.26640759283836002 0 0.33517615116993849 -0.24743488902137309 0 0.33396674820841349 -0.26640759283836002 0 0.35185333732921159 -0.25428502110151557 0 0.33517615116993849 -0.24743488902137309 0 0.31597462601859122 -0.25080747204364812 0 0.33396674820841349 -0.26640759283836002 0 0.32894302133540282 -0.28710755170783531 0 0.32245882367699719 -0.26895751187574157 0 0.33396674820841349 -0.26640759283836002 0 0.33396674820841349 -0.26640759283836002 0 0.35195887039823659 -0.28200771363307098 0 0.32894302133540282 -0.28710755170783531 0 0.33396674820841349 -0.26640759283836002 0 0.35195887039823659 -0.28200771363307098 0 0.33396674820841349 -0.26640759283836002 0 0.35159414215374007 -0.26901089914998932 0 0.35195887039823659 -0.28200771363307098 0 0.35159414215374007 -0.26901089914998932 0 0.36459381448795669 -0.2792080702757721 0 0.35195887039823659 -0.28200771363307098 0 0.36459381448795669 -0.2792080702757721 0 0.35195887039823659 -0.28200771363307098 0 0.33396674820841349 -0.26640759283836002 0 0.35159414215374007 -0.26901089914998932 0 0.35185333732921159 -0.25428502110151557 0 0.35159414215374007 -0.26901089914998932 0 0.35185333732921159 -0.25428502110151557 0 0.36435388824524378 -0.26651308148643732 0 0.37477580018058132 -0.24095111383496479 0 0.37683953433427181 -0.26882153263446662 0 0.36563983252638571 -0.25462703483095822 0 0.36075586336603621 -0.2426037127049111 0 0.35185333732921159 -0.25428502110151557 0 0.36563983252638571 -0.25462703483095822 0 0.35185333732921159 -0.25428502110151557 0 0.36563983252638571 -0.25462703483095822 0 0.36435388824524378 -0.26651308148643732 0 0.37683953433427181 -0.26882153263446662 0 0.36563983252638571 -0.25462703483095822 0 0.36435388824524378 -0.26651308148643732 0 0.36459381448795669 -0.2792080702757721 0 0.36308990924476459 -0.28048364807874221 0 0.35195887039823659 -0.28200771363307098 0 0.36459381448795669 -0.2792080702757721 0 0.36308990924476459 -0.28048364807874221 0 0.37273728942595791 -0.27740364396778311 0 0.36459381448795669 -0.2792080702757721 0 0.36308990924476459 -0.28048364807874221 0 0.35159414215374007 -0.26901089914998932 0 0.36459381448795669 -0.2792080702757721 0 0.36435388824524378 -0.26651308148643732 0 0.37683953433427181 -0.26882153263446662 0 0.36459381448795669 -0.2792080702757721 0 0.36435388824524378 -0.26651308148643732 0 0.36459381448795669 -0.2792080702757721 0 0.37273728942595791 -0.27740364396778311 0 0.37683953433427181 -0.26882153263446662 0 0.36459381448795669 -0.2792080702757721 0 0.37273728942595791 -0.27740364396778311 0 0.37683953433427181 -0.26882153263446662 0 0.36459381448795669 -0.2792080702757721 0 0.36308990924476459 -0.28048364807874221 0 0.37273728942595791 -0.27740364396778311 0 0.37795999762798671 -0.28395322059410122 0 0.37273728942595791 -0.27740364396778311 0 0.36936745264149701 -0.28627283508716472 0 0.35657459314761941 -0.2860097891906741 0 0.35620629985463748 -0.30371251724464648 0 0.37101427446782781 -0.29852975601036341 0 0.36308990924476459 -0.28048364807874221 0 0.37273728942595791 -0.27740364396778311 0 0.36936745264149701 -0.28627283508716472 0 0.37519981906117678 -0.29055939022370142 0 0.37795999762798671 -0.28395322059410122 0 0.36936745264149701 -0.28627283508716472 0 0.37519981906117678 -0.29055939022370142 0 0.36936745264149701 -0.28627283508716472 0 0.37101427446782781 -0.29852975601036341 0 0.36936745264149701 -0.28627283508716472 0 0.35657459314761941 -0.2860097891906741 0 0.37101427446782781 -0.29852975601036341 0 0.35657459314761941 -0.2860097891906741 0 0.37101427446782781 -0.29852975601036341 0 0.36308990924476459 -0.28048364807874221 0 0.36936745264149701 -0.28627283508716472 0 0.35657459314761941 -0.2860097891906741 0 0.36308990924476459 -0.28048364807874221 0 0.35657459314761941 -0.2860097891906741 0 0.36308990924476459 -0.28048364807874221 0 0.35366972758071469 -0.28349111722646431 0 0.33463237856908817 -0.28956894479377399 0 0.35366972758071469 -0.28349111722646431 0 0.33463237856908817 -0.28956894479377399 0 0.35366972758071469 -0.28349111722646431 0 0.35195887039823659 -0.28200771363307098 0 0.36308990924476459 -0.28048364807874221 0 0.35366972758071469 -0.28349111722646431 0 0.35195887039823659 -0.28200771363307098 0 0.33485830675890288 -0.30442904333306592 0 0.35657459314761941 -0.2860097891906741 0 0.36308990924476459 -0.28048364807874221 0 0.35366972758071469 -0.28349111722646431 0 0.35657459314761941 -0.2860097891906741 0 0.33463237856908817 -0.28956894479377399 0 0.35366972758071469 -0.28349111722646431 0 0.35657459314761941 -0.2860097891906741 0 0.35366972758071469 -0.28349111722646431 0 0.35657459314761941 -0.2860097891906741 0 0.35366972758071469 -0.28349111722646431 0 0.35195887039823659 -0.28200771363307098 0 0.35620629985463748 -0.30371251724464648 0 0.36380134767337091 -0.31365371592763602 0 0.34533870308018377 -0.31598934501886372 0 0.35657459314761941 -0.2860097891906741 0 0.34824447571033601 -0.30253517369681238 0 0.35620629985463748 -0.30371251724464648 0 0.33485830675890288 -0.30442904333306592 0 0.35657459314761941 -0.2860097891906741 0 0.34824447571033601 -0.30253517369681238 0 0.34824447571033601 -0.30253517369681238 0 0.35620629985463748 -0.30371251724464648 0 0.34533870308018377 -0.31598934501886372 0 0.38545395578803499 -0.31104972283005378 0 0.37101427446782781 -0.29852975601036341 0 0.36380134767337091 -0.31365371592763602 0 0.35620629985463748 -0.30371251724464648 0 0.37101427446782781 -0.29852975601036341 0 0.36380134767337091 -0.31365371592763602 0 0.38545395578803499 -0.31104972283005378 0 0.36380134767337091 -0.31365371592763602 0 0.36945761595668469 -0.32738841673247931 0 0.36380134767337091 -0.31365371592763602 0 0.36945761595668469 -0.32738841673247931 0 0.35533723689285712 -0.32525253772940937 0 0.36945761595668469 -0.32738841673247931 0 0.35618710249729552 -0.34088690244721892 0 0.35533723689285712 -0.32525253772940937 0 0.36945761595668469 -0.32738841673247931 0 0.35618710249729552 -0.34088690244721892 0 0.37368731816096312 -0.34897020548070451 0 0.35618710249729552 -0.34088690244721892 0 0.33810128782584858 -0.35072533414536311 0 0.34064131712366241 -0.33181983138849169 0 0.35618710249729552 -0.34088690244721892 0 0.35533723689285712 -0.32525253772940937 0 0.34064131712366241 -0.33181983138849169 0 0.34533870308018377 -0.31598934501886372 0 0.35533723689285712 -0.32525253772940937 0 0.34064131712366241 -0.33181983138849169 0 0.36380134767337091 -0.31365371592763602 0 0.34533870308018377 -0.31598934501886372 0 0.35533723689285712 -0.32525253772940937 0 0.3689120952668708 -0.37284951495870189 0 0.37368731816096312 -0.34897020548070451 0 0.35738528973841999 -0.35772904562383351 0 0.35618710249729552 -0.34088690244721892 0 0.37368731816096312 -0.34897020548070451 0 0.35738528973841999 -0.35772904562383351 0 0.35618710249729552 -0.34088690244721892 0 0.35738528973841999 -0.35772904562383351 0 0.33810128782584858 -0.35072533414536311 0 0.35738528973841999 -0.35772904562383351 0 0.34467783115022588 -0.37252705130409253 0 0.33810128782584858 -0.35072533414536311 0 0.3689120952668708 -0.37284951495870189 0 0.35738528973841999 -0.35772904562383351 0 0.34467783115022588 -0.37252705130409253 0 0.34467783115022588 -0.37252705130409253 0 0.33810128782584858 -0.35072533414536311 0 0.3255374248820434 -0.37161020359421471 0 0.31543696134246668 -0.34593224431305769 0 0.3255374248820434 -0.37161020359421471 0 0.30900602422585888 -0.35865430802761772 0 0.31543696134246668 -0.34593224431305769 0 0.3255374248820434 -0.37161020359421471 0 0.33810128782584858 -0.35072533414536311 0 0.31543696134246668 -0.34593224431305769 0 0.3255374248820434 -0.37161020359421471 0 0.3255374248820434 -0.37161020359421471 0 0.30525369772634148 -0.37164386163485291 0 0.30900602422585888 -0.35865430802761772 0 0.34533870308018377 -0.31598934501886372 0 0.33130220335757699 -0.32186248444176119 0 0.34064131712366241 -0.33181983138849169 0 0.33485830675890288 -0.30442904333306592 0 0.34533870308018377 -0.31598934501886372 0 0.33130220335757699 -0.32186248444176119 0 0.33810128782584858 -0.35072533414536311 0 0.34064131712366241 -0.33181983138849169 0 0.3268430880468266 -0.33457206034663262 0 0.33130220335757699 -0.32186248444176119 0 0.34064131712366241 -0.33181983138849169 0 0.3268430880468266 -0.33457206034663262 0 0.31543696134246668 -0.34593224431305769 0 0.3268430880468266 -0.33457206034663262 0 0.31314202037018413 -0.32284829747545468 0 0.33810128782584858 -0.35072533414536311 0 0.31543696134246668 -0.34593224431305769 0 0.3268430880468266 -0.33457206034663262 0 0.33130220335757699 -0.32186248444176119 0 0.3268430880468266 -0.33457206034663262 0 0.31314202037018413 -0.32284829747545468 0 0.33485830675890288 -0.30442904333306592 0 0.31314202037018413 -0.32284829747545468 0 0.3171485971304504 -0.30589952111326829 0 0.31314202037018413 -0.32284829747545468 0 0.3109911447756647 -0.31350988965823029 0 0.33485830675890288 -0.30442904333306592 0 0.33130220335757699 -0.32186248444176119 0 0.31314202037018413 -0.32284829747545468 0 0.31314202037018413 -0.32284829747545468 0 0.30533649780288991 -0.32025428503190068 0 0.3109911447756647 -0.31350988965823029 0 0.30533649780288991 -0.32025428503190068 0 0.3109911447756647 -0.31350988965823029 0 0.30833746379913463 -0.30503745501229762 0 0.31543696134246668 -0.34593224431305769 0 0.30533649780288991 -0.32025428503190068 0 0.30314188851555429 -0.3464145030398364 0 0.30533649780288991 -0.32025428503190068 0 0.29792146783109758 -0.32077626486014349 0 0.30314188851555429 -0.3464145030398364 0 0.31543696134246668 -0.34593224431305769 0 0.31314202037018413 -0.32284829747545468 0 0.30533649780288991 -0.32025428503190068 0 0.29792146783109758 -0.32077626486014349 0 0.30314188851555429 -0.3464145030398364 0 0.31543696134246668 -0.34593224431305769 0 0.30533649780288991 -0.32025428503190068 0 0.29792146783109758 -0.32077626486014349 0 0.29422135484035322 -0.33366994296298719 0 0.30314188851555429 -0.3464145030398364 0 0.29422135484035322 -0.33366994296298719 0 0.29546103181119637 -0.34185893253319311 0 0.30314188851555429 -0.3464145030398364 0 0.29422135484035322 -0.33366994296298719 0 0.29546103181119637 -0.34185893253319311 0 0.28827175492889229 -0.34275780055790278 0 0.29546103181119637 -0.34185893253319311 0 0.28827175492889229 -0.34275780055790278 0 0.29811044553331972 -0.34650788457159087 0 0.29422135484035322 -0.33366994296298719 0 0.28827175492889229 -0.34275780055790278 0 0.27955848846152698 -0.33666113426449551 0 0.29422135484035322 -0.33366994296298719 0 0.28744860979629389 -0.32474860906702402 0 0.27955848846152698 -0.33666113426449551 0 0.28744860979629389 -0.32474860906702402 0 0.29019889155513462 -0.31620785207956748 0 0.28097437988070417 -0.31138482246715898 0 0.29792146783109758 -0.32077626486014349 0 0.29019889155513462 -0.31620785207956748 0 0.29244758100571983 -0.32385066724243061 0 0.29422135484035322 -0.33366994296298719 0 0.28744860979629389 -0.32474860906702402 0 0.29244758100571983 -0.32385066724243061 0 0.29792146783109758 -0.32077626486014349 0 0.29422135484035322 -0.33366994296298719 0 0.29244758100571983 -0.32385066724243061 0 0.28744860979629389 -0.32474860906702402 0 0.29019889155513462 -0.31620785207956748 0 0.29244758100571983 -0.32385066724243061 0 0.30525369772634148 -0.37164386163485291 0 0.30031449930387721 -0.36082981960256849 0 0.30900602422585888 -0.35865430802761772 0 0.30525369772634148 -0.37164386163485291 0 0.30031449930387721 -0.36082981960256849 0 0.29483415024835152 -0.36747827247447862 0 0.30080593951138668 -0.35381036279877531 0 0.30900602422585888 -0.35865430802761772 0 0.30314188851555429 -0.3464145030398364 0 0.30080593951138668 -0.35381036279877531 0 0.29811044553331972 -0.34650788457159087 0 0.29345683997832372 -0.35664529875226292 0 0.30031449930387721 -0.36082981960256849 0 0.30080593951138668 -0.35381036279877531 0 0.30900602422585888 -0.35865430802761772 0 0.30031449930387721 -0.36082981960256849 0 0.30080593951138668 -0.35381036279877531 0 0.29345683997832372 -0.35664529875226292 0 0.31543696134246668 -0.34593224431305769 0 0.30900602422585888 -0.35865430802761772 0 0.30314188851555429 -0.3464145030398364 0 0.30080593951138668 -0.35381036279877531 0 0.30314188851555429 -0.3464145030398364 0 0.29811044553331972 -0.34650788457159087 0 0.29546103181119637 -0.34185893253319311 0 0.30314188851555429 -0.3464145030398364 0 0.29811044553331972 -0.34650788457159087 0 0.29811044553331972 -0.34650788457159087 0 0.29345683997832372 -0.35664529875226292 0 0.28122462644821988 -0.35688066365974619 0 0.28827175492889229 -0.34275780055790278 0 0.29811044553331972 -0.34650788457159087 0 0.28122462644821988 -0.35688066365974619 0 0.28827175492889229 -0.34275780055790278 0 0.28122462644821988 -0.35688066365974619 0 0.27955848846152698 -0.33666113426449551 0 0.29811044553331972 -0.34650788457159087 0 0.28122462644821988 -0.35688066365974619 0 0.29345683997832372 -0.35664529875226292 0 0.28676543400443838 -0.36101512068260139 0 0.28122462644821988 -0.35688066365974619 0 0.28676543400443838 -0.36101512068260139 0 0.28122462644821988 -0.35688066365974619 0 0.28783989868818821 -0.37644057584389279 0 0.30525369772634148 -0.37164386163485291 0 0.29483415024835152 -0.36747827247447862 0 0.28783989868818821 -0.37644057584389279 0 0.28676543400443838 -0.36101512068260139 0 0.27033126349110148 -0.36357234067652822 0 0.29357505063040601 -0.36145191270551408 0 0.28676543400443838 -0.36101512068260139 0 0.29483415024835152 -0.36747827247447862 0 0.30031449930387721 -0.36082981960256849 0 0.29357505063040601 -0.36145191270551408 0 0.29483415024835152 -0.36747827247447862 0 0.30031449930387721 -0.36082981960256849 0 0.29345683997832372 -0.35664529875226292 0 0.29357505063040601 -0.36145191270551408 0 0.29345683997832372 -0.35664529875226292 0 0.29357505063040601 -0.36145191270551408 0 0.28676543400443838 -0.36101512068260139 0 0.28783989868818821 -0.37644057584389279 0 0.28676543400443838 -0.36101512068260139 0 0.29483415024835152 -0.36747827247447862 0 0.28783989868818821 -0.37644057584389279 0 0.27033126349110148 -0.36357234067652822 0 0.28783989868818821 -0.37644057584389279 0 0.27447250226623809 -0.37821124143188289 0 0.27033126349110148 -0.36357234067652822 0 0.28676543400443838 -0.36101512068260139 0 0.27033126349110148 -0.36357234067652822 0 0.28122462644821988 -0.35688066365974619 0 0.27447250226623809 -0.37821124143188289 0 0.26423397132697279 -0.37890457124200982 0 0.27033126349110148 -0.36357234067652822 0 0.27033126349110148 -0.36357234067652822 0 0.28122462644821988 -0.35688066365974619 0 0.28122462644821988 -0.35688066365974619 0 0.26082083375001269 -0.34165569813656432 0 0.27033126349110148 -0.36357234067652822 0 0.28122462644821988 -0.35688066365974619 0 0.26082083375001269 -0.34165569813656432 0 0.28122462644821988 -0.35688066365974619 0 0.27955848846152698 -0.33666113426449551 0 0.26082083375001269 -0.34165569813656432 0 0.27033126349110148 -0.36357234067652822 0 0.25099839141978419 -0.34936335514031408 0 0.27033126349110148 -0.36357234067652822 0 0.25099839141978419 -0.34936335514031408 0 0.26082083375001269 -0.34165569813656432 0 0.27033126349110148 -0.36357234067652822 0 0.25099839141978419 -0.34936335514031408 0 0.24534349961555019 -0.36253701182870851 0 0.26423397132697279 -0.37890457124200982 0 0.27033126349110148 -0.36357234067652822 0 0.24987622704845311 -0.37613765202982719 0 0.27033126349110148 -0.36357234067652822 0 0.24534349961555019 -0.36253701182870851 0 0.24987622704845311 -0.37613765202982719 0 0.27033126349110148 -0.36357234067652822 0 0.24987622704845311 -0.37613765202982719 0 0.28744860979629389 -0.32474860906702402 0 0.26598899428458778 -0.32103793389256657 0 0.27955848846152698 -0.33666113426449551 0 0.28744860979629389 -0.32474860906702402 0 0.26598899428458778 -0.32103793389256657 0 0.28097437988070417 -0.31138482246715898 0 0.26598899428458778 -0.32103793389256657 0 0.27955848846152698 -0.33666113426449551 0 0.26082083375001269 -0.34165569813656432 0 0.26082083375001269 -0.34165569813656432 0 0.2404170410518052 -0.32643073261338312 0 0.26598899428458778 -0.32103793389256657 0 0.26082083375001269 -0.34165569813656432 0 0.2404170410518052 -0.32643073261338312 0 0.25099839141978419 -0.34936335514031408 0 0.26082083375001269 -0.34165569813656432 0 0.2404170410518052 -0.32643073261338312 0 0.26598899428458778 -0.32103793389256657 0 0.24423538898563429 -0.30587701823941071 0 0.2404170410518052 -0.32643073261338312 0 0.26846821806613752 -0.30050752245993012 0 0.24423538898563429 -0.30587701823941071 0 0.25301376652256202 -0.2892367573709661 0 0.26846821806613752 -0.30050752245993012 0 0.24423538898563429 -0.30587701823941071 0 0.26598899428458778 -0.32103793389256657 0 0.26846821806613752 -0.30050752245993012 0 0.24423538898563429 -0.30587701823941071 0 0.25301376652256202 -0.2892367573709661 0 0.26500420865911251 -0.28331687632378699 0 0.26846821806613752 -0.30050752245993012 0 0.25301376652256202 -0.2892367573709661 0 0.26500420865911251 -0.28331687632378699 0 0.2507153324002197 -0.27704953531328702 0 0.26500420865911251 -0.28331687632378699 0 0.27805302037335089 -0.28584974436810762 0 0.26846821806613752 -0.30050752245993012 0 0.27805302037335089 -0.28584974436810762 0 0.26846821806613752 -0.30050752245993012 0 0.29270104714664102 -0.29513802668045069 0 0.26500420865911251 -0.28331687632378699 0 0.27805302037335089 -0.28584974436810762 0 0.27342558025451552 -0.27498979272208851 0 0.26598899428458778 -0.32103793389256657 0 0.26846821806613752 -0.30050752245993012 0 0.28097437988070417 -0.31138482246715898 0 0.26846821806613752 -0.30050752245993012 0 0.28097437988070417 -0.31138482246715898 0 0.29270104714664102 -0.29513802668045069 0 0.26846821806613752 -0.30050752245993012 0 0.29270104714664102 -0.29513802668045069 0 0.29792146783109758 -0.32077626486014349 0 0.29270104714664102 -0.29513802668045069 0 0.29019889155513462 -0.31620785207956748 0 0.28097437988070417 -0.31138482246715898 0 0.29270104714664102 -0.29513802668045069 0 0.29792146783109758 -0.32077626486014349 0 0.29019889155513462 -0.31620785207956748 0 0.29270104714664102 -0.29513802668045069 0 0.29792146783109758 -0.32077626486014349 0 0.29270104714664102 -0.29513802668045069 0 0.29523603426331357 -0.29457632575074338 0 0.27805302037335089 -0.28584974436810762 0 0.29026987947112831 -0.28319821192468808 0 0.29270104714664102 -0.29513802668045069 0 0.27805302037335089 -0.28584974436810762 0 0.29026987947112831 -0.28319821192468808 0 0.28863308206368682 -0.27515966401439529 0 0.29026987947112831 -0.28319821192468808 0 0.29523603426331357 -0.29457632575074338 0 0.29026987947112831 -0.28319821192468808 0 0.29523603426331357 -0.29457632575074338 0 0.30320790951940702 -0.28313078900162059 0 0.29026987947112831 -0.28319821192468808 0 0.29270104714664102 -0.29513802668045069 0 0.29523603426331357 -0.29457632575074338 0 0.29026987947112831 -0.28319821192468808 0 0.29270104714664102 -0.29513802668045069 0 0.29270104714664102 -0.29513802668045069 0 0.29523603426331357 -0.29457632575074338 0 0.29523603426331357 -0.29457632575074338 0 0.31208952779935789 -0.2908419387292881 0 0.29523603426331357 -0.29457632575074338 0 0.30320790951940702 -0.28313078900162059 0 0.31208952779935789 -0.2908419387292881 0 0.29523603426331357 -0.29457632575074338 0 0.31208952779935789 -0.2908419387292881 0 0.30833746379913463 -0.30503745501229762 0 0.31611371382327402 -0.28007222207304999 0 0.30320790951940702 -0.28313078900162059 0 0.31208952779935789 -0.2908419387292881 0 0.30533649780288991 -0.32025428503190068 0 0.29523603426331357 -0.29457632575074338 0 0.30833746379913463 -0.30503745501229762 0 0.30533649780288991 -0.32025428503190068 0 0.29792146783109758 -0.32077626486014349 0 0.29523603426331357 -0.29457632575074338 0 0.30533649780288991 -0.32025428503190068 0 0.29523603426331357 -0.29457632575074338 0 0.3171485971304504 -0.30589952111326829 0 0.3109911447756647 -0.31350988965823029 0 0.30833746379913463 -0.30503745501229762 0 0.29812220868357159 -0.26533402464574418 0 0.30111904597271899 -0.2536098058489899 0 0.30981211567343969 -0.26250129009931661 0 0.31597462601859122 -0.25080747204364812 0 0.30111904597271899 -0.2536098058489899 0 0.30981211567343969 -0.26250129009931661 0 0.29812220868357159 -0.26533402464574418 0 0.30981211567343969 -0.26250129009931661 0 0.30706455279928557 -0.27339796693147528 0 0.31611371382327402 -0.28007222207304999 0 0.30320790951940702 -0.28313078900162059 0 0.30706455279928557 -0.27339796693147528 0 0.29026987947112831 -0.28319821192468808 0 0.30320790951940702 -0.28313078900162059 0 0.29755036247591721 -0.27602563541609298 0 0.30320790951940702 -0.28313078900162059 0 0.30706455279928557 -0.27339796693147528 0 0.29755036247591721 -0.27602563541609298 0 0.29812220868357159 -0.26533402464574418 0 0.30706455279928557 -0.27339796693147528 0 0.29755036247591721 -0.27602563541609298 0 0.29812220868357159 -0.26533402464574418 0 0.29755036247591721 -0.27602563541609298 0 0.28863308206368682 -0.27515966401439529 0 0.29026987947112831 -0.28319821192468808 0 0.28863308206368682 -0.27515966401439529 0 0.29026987947112831 -0.28319821192468808 0 0.29755036247591721 -0.27602563541609298 0 0.28863308206368682 -0.27515966401439529 0 0.28863308206368682 -0.27515966401439529 0 0.28456511698073272 -0.25518130134833977 0 0.29812220868357159 -0.26533402464574418 0 0.28863308206368682 -0.27515966401439529 0 0.28456511698073272 -0.25518130134833977 0 0.29812220868357159 -0.26533402464574418 0 0.30111904597271899 -0.2536098058489899 0 0.28456511698073272 -0.25518130134833977 0 0.28863308206368682 -0.27515966401439529 0 0.28456511698073272 -0.25518130134833977 0 0.27223885194073971 -0.26265851400849172 0 0.28456511698073272 -0.25518130134833977 0 0.27223885194073971 -0.26265851400849172 0 0.26629969424128969 -0.25192769388052821 0 0.27223885194073971 -0.26265851400849172 0 0.26629969424128969 -0.25192769388052821 0 0.2629172406837702 -0.26740365320709081 0 0.26500420865911251 -0.28331687632378699 0 0.27342558025451552 -0.27498979272208851 0 0.2629172406837702 -0.26740365320709081 0 0.28863308206368682 -0.27515966401439529 0 0.27223885194073971 -0.26265851400849172 0 0.27342558025451552 -0.27498979272208851 0 0.27805302037335089 -0.28584974436810762 0 0.28863308206368682 -0.27515966401439529 0 0.27342558025451552 -0.27498979272208851 0 0.27223885194073971 -0.26265851400849172 0 0.27342558025451552 -0.27498979272208851 0 0.2629172406837702 -0.26740365320709081 0 0.26500420865911251 -0.28331687632378699 0 0.2629172406837702 -0.26740365320709081 0 0.2507153324002197 -0.27704953531328702 0 0.2629172406837702 -0.26740365320709081 0 0.2507153324002197 -0.27704953531328702 0 0.2466218950091964 -0.26012473444713258 0 0.25037283077400019 -0.2416092145933311 0 0.26629969424128969 -0.25192769388052821 0 0.2466218950091964 -0.26012473444713258 0 0.26629969424128969 -0.25192769388052821 0 0.2629172406837702 -0.26740365320709081 0 0.2466218950091964 -0.26012473444713258 0 0.25037283077400019 -0.2416092145933311 0 0.2466218950091964 -0.26012473444713258 0 0.2339549802858914 -0.24933471903745599 0 0.2466218950091964 -0.26012473444713258 0 0.22717476572977791 -0.26325637954660608 0 0.2339549802858914 -0.24933471903745599 0 0.2466218950091964 -0.26012473444713258 0 0.23628574795648369 -0.27498419313581679 0 0.22717476572977791 -0.26325637954660608 0 0.2507153324002197 -0.27704953531328702 0 0.2466218950091964 -0.26012473444713258 0 0.23628574795648369 -0.27498419313581679 0 0.2507153324002197 -0.27704953531328702 0 0.23628574795648369 -0.27498419313581679 0 0.24044913557019401 -0.28723099739492908 0 0.2247339410531527 -0.27667652802353632 0 0.21554844428562811 -0.26491471108287651 0 0.21653111649902579 -0.28712771180040292 0 0.23628574795648369 -0.27498419313581679 0 0.2247339410531527 -0.27667652802353632 0 0.22717476572977791 -0.26325637954660608 0 0.2247339410531527 -0.27667652802353632 0 0.22717476572977791 -0.26325637954660608 0 0.21554844428562811 -0.26491471108287651 0 0.22717476572977791 -0.26325637954660608 0 0.22331750647786899 -0.25281133177650322 0 0.2339549802858914 -0.24933471903745599 0 0.22717476572977791 -0.26325637954660608 0 0.22331750647786899 -0.25281133177650322 0 0.21554844428562811 -0.26491471108287651 0 0.2084475354763706 -0.25511513831035743 0 0.21554844428562811 -0.26491471108287651 0 0.1982966667633215 -0.26354120971092698 0 0.21554844428562811 -0.26491471108287651 0 0.21456577207223029 -0.24270171036535029 0 0.22331750647786899 -0.25281133177650322 0 0.21554844428562811 -0.26491471108287651 0 0.21456577207223029 -0.24270171036535029 0 0.2084475354763706 -0.25511513831035743 0 0.21554844428562811 -0.26491471108287651 0 0.21336353465090491 -0.24693864317134839 0 0.21554844428562811 -0.26491471108287651 0 0.21336353465090491 -0.24693864317134839 0 0.21456577207223029 -0.24270171036535029 0 0.2084475354763706 -0.25511513831035743 0 0.1982966667633215 -0.26354120971092698 0 0.2080714594183444 -0.2424179483002232 0 0.1982966667633215 -0.26354120971092698 0 0.2080714594183444 -0.2424179483002232 0 0.21554844428562811 -0.26491471108287651 0 0.21653111649902579 -0.28712771180040292 0 0.21554844428562811 -0.26491471108287651 0 0.20859607852913339 -0.28093905456482821 0 0.21653111649902579 -0.28712771180040292 0 0.21554844428562811 -0.26491471108287651 0 0.20859607852913339 -0.28093905456482821 0 0.2011380539128553 -0.27767933622792518 0 0.21554844428562811 -0.26491471108287651 0 0.2011380539128553 -0.27767933622792518 0 0.1982966667633215 -0.26354120971092698 0 0.1982966667633215 -0.26354120971092698 0 0.18852187410829821 -0.28466447112163068 0 0.1982966667633215 -0.26354120971092698 0 0.18852187410829821 -0.28466447112163068 0 0.1845366839674035 -0.26640487959885623 0 0.2011380539128553 -0.27767933622792518 0 0.1982966667633215 -0.26354120971092698 0 0.18852187410829821 -0.28466447112163068 0 0.1982966667633215 -0.26354120971092698 0 0.2080714594183444 -0.2424179483002232 0 0.19254414318066221 -0.24961624770678509 0 0.1982966667633215 -0.26354120971092698 0 0.18706352147094041 -0.25756661524031438 0 0.1845366839674035 -0.26640487959885623 0 0.1982966667633215 -0.26354120971092698 0 0.18706352147094041 -0.25756661524031438 0 0.19254414318066221 -0.24961624770678509 0 0.18706352147094041 -0.25756661524031438 0 0.19254414318066221 -0.24961624770678509 0 0.18399505531774341 -0.24981832115951039 0 0.20249447748908611 -0.29813355613580778 0 0.1976485991634879 -0.30796138879627621 0 0.19462594870140809 -0.30164723750547567 0 0.20249447748908611 -0.29813355613580778 0 0.19462594870140809 -0.30164723750547567 0 0.19392418081794471 -0.29575522021664652 0 0.20249447748908611 -0.29813355613580778 0 0.1976485991634879 -0.30796138879627621 0 0.20782414549410869 -0.30817847155873718 0 0.1976485991634879 -0.30796138879627621 0 0.20782414549410869 -0.30817847155873718 0 0.20282381327660201 -0.31505297042611552 0 0.1976485991634879 -0.30796138879627621 0 0.19009702279388629 -0.3064242775921906 0 0.18802618722583669 -0.31833181955932999 0 0.1976485991634879 -0.30796138879627621 0 0.19009702279388629 -0.3064242775921906 0 0.19462594870140809 -0.30164723750547567 0 0.19009702279388629 -0.3064242775921906 0 0.19462594870140809 -0.30164723750547567 0 0.1880606218677118 -0.30022154946313712 0 0.19462594870140809 -0.30164723750547567 0 0.19110113081553529 -0.29631368747161629 0 0.19392418081794471 -0.29575522021664652 0 0.1880606218677118 -0.30022154946313712 0 0.19110113081553529 -0.29631368747161629 0 0.18734834214976739 -0.29514628785519947 0 0.19462594870140809 -0.30164723750547567 0 0.1880606218677118 -0.30022154946313712 0 0.19110113081553529 -0.29631368747161629 0 0.20249447748908611 -0.29813355613580778 0 0.18747516626574931 -0.28692639975368628 0 0.20249447748908611 -0.29813355613580778 0 0.19392418081794471 -0.29575522021664652 0 0.18747516626574931 -0.28692639975368628 0 0.19110113081553529 -0.29631368747161629 0 0.19392418081794471 -0.29575522021664652 0 0.18747516626574931 -0.28692639975368628 0 0.19110113081553529 -0.29631368747161629 0 0.18747516626574931 -0.28692639975368628 0 0.18734834214976739 -0.29514628785519947 0 0.18852187410829821 -0.28466447112163068 0 0.19787122383615691 -0.29172525818392958 0 0.18852187410829821 -0.28466447112163068 0 0.19731262536099689 -0.28481999283041842 0 0.19787122383615691 -0.29172525818392958 0 0.18852187410829821 -0.28466447112163068 0 0.19787122383615691 -0.29172525818392958 0 0.18747516626574931 -0.28692639975368628 0 0.18852187410829821 -0.28466447112163068 0 0.18747516626574931 -0.28692639975368628 0 0.2011380539128553 -0.27767933622792518 0 0.18852187410829821 -0.28466447112163068 0 0.19731262536099689 -0.28481999283041842 0 0.201719349586677 -0.2852109057881882 0 0.19787122383615691 -0.29172525818392958 0 0.206049533411369 -0.28982701925762389 0 0.19731262536099689 -0.28481999283041842 0 0.201719349586677 -0.2852109057881882 0 0.19787122383615691 -0.29172525818392958 0 0.2011380539128553 -0.27767933622792518 0 0.19731262536099689 -0.28481999283041842 0 0.201719349586677 -0.2852109057881882 0 0.20249447748908611 -0.29813355613580778 0 0.19787122383615691 -0.29172525818392958 0 0.18747516626574931 -0.28692639975368628 0 0.20249447748908611 -0.29813355613580778 0 0.19787122383615691 -0.29172525818392958 0 0.206049533411369 -0.28982701925762389 0 0.20249447748908611 -0.29813355613580778 0 0.206049533411369 -0.28982701925762389 0 0.20903552332543929 -0.29406903275804652 0 0.206049533411369 -0.28982701925762389 0 0.20903552332543929 -0.29406903275804652 0 0.21653111649902579 -0.28712771180040292 0 0.20249447748908611 -0.29813355613580778 0 0.20903552332543929 -0.29406903275804652 0 0.2123558614978226 -0.29827812898856709 0 0.20859607852913339 -0.28093905456482821 0 0.206049533411369 -0.28982701925762389 0 0.21653111649902579 -0.28712771180040292 0 0.20859607852913339 -0.28093905456482821 0 0.201719349586677 -0.2852109057881882 0 0.206049533411369 -0.28982701925762389 0 0.20859607852913339 -0.28093905456482821 0 0.2011380539128553 -0.27767933622792518 0 0.201719349586677 -0.2852109057881882 0 0.20903552332543929 -0.29406903275804652 0 0.21653111649902579 -0.28712771180040292 0 0.2123558614978226 -0.29827812898856709 0 0.21653111649902579 -0.28712771180040292 0 0.2175137887124228 -0.30934071251792922 0 0.21653111649902579 -0.28712771180040292 0 0.2123558614978226 -0.29827812898856709 0 0.2175137887124228 -0.30934071251792922 0 0.20249447748908611 -0.29813355613580778 0 0.2123558614978226 -0.29827812898856709 0 0.2175137887124228 -0.30934071251792922 0 0.20249447748908611 -0.29813355613580778 0 0.2175137887124228 -0.30934071251792922 0 0.20782414549410869 -0.30817847155873718 0 0.2176214393273678 -0.31177412129290383 0 0.20282381327660201 -0.31505297042611552 0 0.20249447748908611 -0.29813355613580778 0 0.20782414549410869 -0.30817847155873718 0 0.2175137887124228 -0.30934071251792922 0 0.20782414549410869 -0.30817847155873718 0 0.2175137887124228 -0.30934071251792922 0 0.2176214393273678 -0.31177412129290383 0 0.2175137887124228 -0.30934071251792922 0 0.2176214393273678 -0.31177412129290383 0 0.2175137887124228 -0.30934071251792922 0 0.2176214393273678 -0.31177412129290383 0 0.21999804566891551 -0.31122614102315033 0 0.21999804566891551 -0.31122614102315033 0 0.24423538898563429 -0.30587701823941071 0 0.2175137887124228 -0.30934071251792922 0 0.21999804566891551 -0.31122614102315033 0 0.22812963079484819 -0.29309964455197901 0 0.21999804566891551 -0.31122614102315033 0 0.22812963079484819 -0.29309964455197901 0 0.21999804566891551 -0.31122614102315033 0 0.22812963079484819 -0.29309964455197901 0 0.24423538898563429 -0.30587701823941071 0 0.2176214393273678 -0.31177412129290383 0 0.21999804566891551 -0.31122614102315033 0 0.2175137887124228 -0.30934071251792922 0 0.21999804566891551 -0.31122614102315033 0 0.23628574795648369 -0.27498419313581679 0 0.22812963079484819 -0.29309964455197901 0 0.2247339410531527 -0.27667652802353632 0 0.21653111649902579 -0.28712771180040292 0 0.22812963079484819 -0.29309964455197901 0 0.23628574795648369 -0.27498419313581679 0 0.2247339410531527 -0.27667652802353632 0 0.22812963079484819 -0.29309964455197901 0 0.21653111649902579 -0.28712771180040292 0 0.2175137887124228 -0.30934071251792922 0 0.22812963079484819 -0.29309964455197901 0 0.23628574795648369 -0.27498419313581679 0 0.22812963079484819 -0.29309964455197901 0 0.24044913557019401 -0.28723099739492908 0 0.25301376652256202 -0.2892367573709661 0 0.24044913557019401 -0.28723099739492908 0 0.24423538898563429 -0.30587701823941071 0 0.22812963079484819 -0.29309964455197901 0 0.24044913557019401 -0.28723099739492908 0 0.24423538898563429 -0.30587701823941071 0 0.25301376652256202 -0.2892367573709661 0 0.2507153324002197 -0.27704953531328702 0 0.24044913557019401 -0.28723099739492908 0 0.21999804566891551 -0.31122614102315033 0 0.24423538898563429 -0.30587701823941071 0 0.2404170410518052 -0.32643073261338312 0 0.25099839141978419 -0.34936335514031408 0 0.2316655193484673 -0.33515436960409939 0 0.25099839141978419 -0.34936335514031408 0 0.2404170410518052 -0.32643073261338312 0 0.2316655193484673 -0.33515436960409939 0 0.2404170410518052 -0.32643073261338312 0 0.2316655193484673 -0.33515436960409939 0 0.2247705650129608 -0.32491873692320528 0 0.2316655193484673 -0.33515436960409939 0 0.22208049410379579 -0.34309390150507102 0 0.22867514261462599 -0.34782526071452929 0 0.2316655193484673 -0.33515436960409939 0 0.22208049410379579 -0.34309390150507102 0 0.220555537226792 -0.33578323097752499 0 0.22208049410379579 -0.34309390150507102 0 0.220555537226792 -0.33578323097752499 0 0.21451162402718699 -0.34512658597487872 0 0.220555537226792 -0.33578323097752499 0 0.2247705650129608 -0.32491873692320528 0 0.21820242441149371 -0.32490710899175251 0 0.2316655193484673 -0.33515436960409939 0 0.220555537226792 -0.33578323097752499 0 0.2247705650129608 -0.32491873692320528 0 0.21999804566891551 -0.31122614102315033 0 0.2404170410518052 -0.32643073261338312 0 0.2247705650129608 -0.32491873692320528 0 0.21999804566891551 -0.31122614102315033 0 0.2404170410518052 -0.32643073261338312 0 0.2247705650129608 -0.32491873692320528 0 0.21780935440599439 -0.31602188338433101 0 0.21820242441149371 -0.32490710899175251 0 0.21999804566891551 -0.31122614102315033 0 0.2247705650129608 -0.32491873692320528 0 0.21780935440599439 -0.31602188338433101 0 0.21999804566891551 -0.31122614102315033 0 0.21780935440599439 -0.31602188338433101 0 0.23679608458568241 -0.3713456781615978 0 0.24534349961555019 -0.36253701182870851 0 0.24987622704845311 -0.37613765202982719 0 0.23679608458568241 -0.3713456781615978 0 0.24534349961555019 -0.36253701182870851 0 0.23133102347449649 -0.35950822589080189 0 0.25099839141978419 -0.34936335514031408 0 0.2316655193484673 -0.33515436960409939 0 0.23760271529458479 -0.35087764463569071 0 0.24534349961555019 -0.36253701182870851 0 0.23760271529458479 -0.35087764463569071 0 0.23133102347449649 -0.35950822589080189 0 0.25099839141978419 -0.34936335514031408 0 0.24534349961555019 -0.36253701182870851 0 0.23760271529458479 -0.35087764463569071 0 0.2316655193484673 -0.33515436960409939 0 0.23760271529458479 -0.35087764463569071 0 0.22867514261462599 -0.34782526071452929 0 0.22208049410379579 -0.34309390150507102 0 0.22076837523631451 -0.35267920974236072 0 0.21451162402718699 -0.34512658597487872 0 0.22208049410379579 -0.34309390150507102 0 0.22867514261462599 -0.34782526071452929 0 0.22076837523631451 -0.35267920974236072 0 0.22076837523631451 -0.35267920974236072 0 0.22341137818785181 -0.36337688942730773 0 0.21609027172906259 -0.36087537471117581 0 0.22076837523631451 -0.35267920974236072 0 0.23133102347449649 -0.35950822589080189 0 0.22341137818785181 -0.36337688942730773 0 0.22867514261462599 -0.34782526071452929 0 0.22076837523631451 -0.35267920974236072 0 0.23133102347449649 -0.35950822589080189 0 0.23760271529458479 -0.35087764463569071 0 0.22867514261462599 -0.34782526071452929 0 0.23133102347449649 -0.35950822589080189 0 0.23133102347449649 -0.35950822589080189 0 0.22341137818785181 -0.36337688942730773 0 0.22699371624108439 -0.37103399677892651 0 0.22341137818785181 -0.36337688942730773 0 0.22699371624108439 -0.37103399677892651 0 0.21663927632257499 -0.37152038636996992 0 0.22699371624108439 -0.37103399677892651 0 0.21663927632257499 -0.37152038636996992 0 0.22189277223980711 -0.38054577212349588 0 0.23679608458568241 -0.3713456781615978 0 0.22699371624108439 -0.37103399677892651 0 0.23010576568282681 -0.37607478874810818 0 0.23679608458568241 -0.3713456781615978 0 0.23133102347449649 -0.35950822589080189 0 0.22699371624108439 -0.37103399677892651 0 0.21663927632257499 -0.37152038636996992 0 0.20683644217058031 -0.36558797855932218 0 0.20576161095015591 -0.37595213443190167 0 0.22341137818785181 -0.36337688942730773 0 0.21663927632257499 -0.37152038636996992 0 0.21609027172906259 -0.36087537471117581 0 0.21609027172906259 -0.36087537471117581 0 0.20683644217058031 -0.36558797855932218 0 0.21089823393406021 -0.35324530101306001 0 0.21663927632257499 -0.37152038636996992 0 0.21609027172906259 -0.36087537471117581 0 0.20683644217058031 -0.36558797855932218 0 0.19940837682496099 -0.35689206815154528 0 0.20777431361625601 -0.33831058893907762 0 0.21089823393406021 -0.35324530101306001 0 0.19940837682496099 -0.35689206815154528 0 0.20777431361625601 -0.33831058893907762 0 0.20683644217058031 -0.36558797855932218 0 0.21089823393406021 -0.35324530101306001 0 0.19940837682496099 -0.35689206815154528 0 0.22076837523631451 -0.35267920974236072 0 0.21609027172906259 -0.36087537471117581 0 0.21089823393406021 -0.35324530101306001 0 0.21089823393406021 -0.35324530101306001 0 0.21451162402718699 -0.34512658597487872 0 0.20777431361625601 -0.33831058893907762 0 0.22076837523631451 -0.35267920974236072 0 0.21089823393406021 -0.35324530101306001 0 0.21451162402718699 -0.34512658597487872 0 0.1971616983813648 -0.34495631128618592 0 0.19940837682496099 -0.35689206815154528 0 0.20777431361625601 -0.33831058893907762 0 0.1971616983813648 -0.34495631128618592 0 0.18787137947787569 -0.35180034780069419 0 0.18864170350563411 -0.33720407153827198 0 0.1971616983813648 -0.34495631128618592 0 0.18787137947787569 -0.35180034780069419 0 0.19940837682496099 -0.35689206815154528 0 0.20683644217058031 -0.36558797855932218 0 0.20576161095015591 -0.37595213443190167 0 0.1910424400336663 -0.37547354736401328 0 0.18787137947787569 -0.35180034780069419 0 0.19940837682496099 -0.35689206815154528 0 0.1910424400336663 -0.37547354736401328 0 0.19940837682496099 -0.35689206815154528 0 0.1910424400336663 -0.37547354736401328 0 0.20683644217058031 -0.36558797855932218 0 0.19940837682496099 -0.35689206815154528 0 0.1910424400336663 -0.37547354736401328 0 0.21780935440599439 -0.31602188338433101 0 0.20777431361625601 -0.33831058893907762 0 0.21780935440599439 -0.31602188338433101 0 0.20777431361625601 -0.33831058893907762 0 0.20282381327660201 -0.31505297042611552 0 0.21780935440599439 -0.31602188338433101 0 0.21820242441149371 -0.32490710899175251 0 0.20777431361625601 -0.33831058893907762 0 0.2176214393273678 -0.31177412129290383 0 0.20282381327660201 -0.31505297042611552 0 0.2176214393273678 -0.31177412129290383 0 0.21780935440599439 -0.31602188338433101 0 0.20282381327660201 -0.31505297042611552 0 0.2176214393273678 -0.31177412129290383 0 0.21780935440599439 -0.31602188338433101 0 0.2176214393273678 -0.31177412129290383 0 0.21999804566891551 -0.31122614102315033 0 0.21780935440599439 -0.31602188338433101 0 0.21780935440599439 -0.31602188338433101 0 0.21820242441149371 -0.32490710899175251 0 0.220555537226792 -0.33578323097752499 0 0.21820242441149371 -0.32490710899175251 0 0.20777431361625601 -0.33831058893907762 0 0.220555537226792 -0.33578323097752499 0 0.21451162402718699 -0.34512658597487872 0 0.20777431361625601 -0.33831058893907762 0 0.21451162402718699 -0.34512658597487872 0 0.20777431361625601 -0.33831058893907762 0 0.1971616983813648 -0.34495631128618592 0 0.20777431361625601 -0.33831058893907762 0 0.18864170350563411 -0.33720407153827198 0 0.20777431361625601 -0.33831058893907762 0 0.18802618722583669 -0.31833181955932999 0 0.20777431361625601 -0.33831058893907762 0 0.18864170350563411 -0.33720407153827198 0 0.18802618722583669 -0.31833181955932999 0 0.20777431361625601 -0.33831058893907762 0 0.20282381327660201 -0.31505297042611552 0 0.18802618722583669 -0.31833181955932999 0 0.20282381327660201 -0.31505297042611552 0 0.18802618722583669 -0.31833181955932999 0 0.1976485991634879 -0.30796138879627621 0 0.20282381327660201 -0.31505297042611552 0 0.18802618722583669 -0.31833181955932999 0 0.18802618722583669 -0.31833181955932999 0 0.1791507244663583 -0.32983729973660558 0 0.16791254130802971 -0.3227885891963716 0 0.18802618722583669 -0.31833181955932999 0 0.17151825735526699 -0.31325416760549368 0 0.16791254130802971 -0.3227885891963716 0 0.18802618722583669 -0.31833181955932999 0 0.16791254130802971 -0.3227885891963716 0 0.18864170350563411 -0.33720407153827198 0 0.18802618722583669 -0.31833181955932999 0 0.1791507244663583 -0.32983729973660558 0 0.17202246582593331 -0.34102471865244838 0 0.1791507244663583 -0.32983729973660558 0 0.16791254130802971 -0.3227885891963716 0 0.18787137947787569 -0.35180034780069419 0 0.18864170350563411 -0.33720407153827198 0 0.17202246582593331 -0.34102471865244838 0 0.18864170350563411 -0.33720407153827198 0 0.17202246582593331 -0.34102471865244838 0 0.1791507244663583 -0.32983729973660558 0 0.17202246582593331 -0.34102471865244838 0 0.1546435437787094 -0.34381338892778002 0 0.1557586906108582 -0.32786840018592928 0 0.17202246582593331 -0.34102471865244838 0 0.16791254130802971 -0.3227885891963716 0 0.1557586906108582 -0.32786840018592928 0 0.16791254130802971 -0.3227885891963716 0 0.1557586906108582 -0.32786840018592928 0 0.1602411687519314 -0.31190927739118429 0 0.17151825735526699 -0.31325416760549368 0 0.16791254130802971 -0.3227885891963716 0 0.1602411687519314 -0.31190927739118429 0 0.18787137947787569 -0.35180034780069419 0 0.17662324672053431 -0.35795823269279659 0 0.1910424400336663 -0.37547354736401328 0 0.17662324672053431 -0.35795823269279659 0 0.17035242753357599 -0.36877211446365682 0 0.1910424400336663 -0.37547354736401328 0 0.17035242753357599 -0.36877211446365682 0 0.1910424400336663 -0.37547354736401328 0 0.1737051017910701 -0.38004230502140057 0 0.18787137947787569 -0.35180034780069419 0 0.17202246582593331 -0.34102471865244838 0 0.17662324672053431 -0.35795823269279659 0 0.17202246582593331 -0.34102471865244838 0 0.17662324672053431 -0.35795823269279659 0 0.16265844046108829 -0.35526087104265458 0 0.17202246582593331 -0.34102471865244838 0 0.16265844046108829 -0.35526087104265458 0 0.1546435437787094 -0.34381338892778002 0 0.17662324672053431 -0.35795823269279659 0 0.16265844046108829 -0.35526087104265458 0 0.17035242753357599 -0.36877211446365682 0 0.16265844046108829 -0.35526087104265458 0 0.1569593121701936 -0.36832063090657668 0 0.17035242753357599 -0.36877211446365682 0 0.1569593121701936 -0.36832063090657668 0 0.17035242753357599 -0.36877211446365682 0 0.16307541855137739 -0.37743582412871929 0 0.14536400873927011 -0.3681220756701501 0 0.1426630499740982 -0.35652090160864008 0 0.13524945632583441 -0.37311377610700652 0 0.16265844046108829 -0.35526087104265458 0 0.1569593121701936 -0.36832063090657668 0 0.1426630499740982 -0.35652090160864008 0 0.14536400873927011 -0.3681220756701501 0 0.13524945632583441 -0.37311377610700652 0 0.14973869037300869 -0.38096853745143089 0 0.1569593121701936 -0.36832063090657668 0 0.14536400873927011 -0.3681220756701501 0 0.14973869037300869 -0.38096853745143089 0 0.1569593121701936 -0.36832063090657668 0 0.14536400873927011 -0.3681220756701501 0 0.1426630499740982 -0.35652090160864008 0 0.1546435437787094 -0.34381338892778002 0 0.1426630499740982 -0.35652090160864008 0 0.1424354920479888 -0.33775294740649747 0 0.16265844046108829 -0.35526087104265458 0 0.1546435437787094 -0.34381338892778002 0 0.1426630499740982 -0.35652090160864008 0 0.13449730155472761 -0.34743155680512378 0 0.12784456261830821 -0.36308533366748658 0 0.123981461538115 -0.35128285539313481 0 0.1426630499740982 -0.35652090160864008 0 0.13449730155472761 -0.34743155680512378 0 0.1424354920479888 -0.33775294740649747 0 0.1426630499740982 -0.35652090160864008 0 0.13449730155472761 -0.34743155680512378 0 0.12784456261830821 -0.36308533366748658 0 0.13449730155472761 -0.34743155680512378 0 0.13051916655351839 -0.33696304048325831 0 0.123981461538115 -0.35128285539313481 0 0.1426630499740982 -0.35652090160864008 0 0.12784456261830821 -0.36308533366748658 0 0.13524945632583441 -0.37311377610700652 0 0.12784456261830821 -0.36308533366748658 0 0.13524945632583441 -0.37311377610700652 0 0.12609635470998201 -0.38402791619100712 0 0.14855409589738661 -0.31441038212804873 0 0.1557586906108582 -0.32786840018592928 0 0.1602411687519314 -0.31190927739118429 0 0.1445015266660287 -0.32337949759917511 0 0.14855409589738661 -0.31441038212804873 0 0.13871327718005111 -0.31332369293528212 0 0.1445015266660287 -0.32337949759917511 0 0.14855409589738661 -0.31441038212804873 0 0.1557586906108582 -0.32786840018592928 0 0.1546435437787094 -0.34381338892778002 0 0.1557586906108582 -0.32786840018592928 0 0.1424354920479888 -0.33775294740649747 0 0.1445015266660287 -0.32337949759917511 0 0.1557586906108582 -0.32786840018592928 0 0.1424354920479888 -0.33775294740649747 0 0.1445015266660287 -0.32337949759917511 0 0.1424354920479888 -0.33775294740649747 0 0.13219802669416811 -0.32498852212276208 0 0.1424354920479888 -0.33775294740649747 0 0.13051916655351839 -0.33696304048325831 0 0.13219802669416811 -0.32498852212276208 0 0.13449730155472761 -0.34743155680512378 0 0.1424354920479888 -0.33775294740649747 0 0.13051916655351839 -0.33696304048325831 0 0.13051916655351839 -0.33696304048325831 0 0.13219802669416811 -0.32498852212276208 0 0.12260601330919629 -0.33072698382653798 0 0.1445015266660287 -0.32337949759917511 0 0.13219802669416811 -0.32498852212276208 0 0.13871327718005111 -0.31332369293528212 0 0.13219802669416811 -0.32498852212276208 0 0.1265219532001009 -0.3124330460259736 0 0.1192961391526948 -0.32261879728377291 0 0.13219802669416811 -0.32498852212276208 0 0.13871327718005111 -0.31332369293528212 0 0.1265219532001009 -0.3124330460259736 0 0.1265219532001009 -0.3124330460259736 0 0.1332586495603032 -0.30031372317270688 0 0.1198701537204314 -0.30089140532399938 0 0.1332586495603032 -0.30031372317270688 0 0.1242383748246253 -0.29131174999725179 0 0.1198701537204314 -0.30089140532399938 0 0.13871327718005111 -0.31332369293528212 0 0.1265219532001009 -0.3124330460259736 0 0.1332586495603032 -0.30031372317270688 0 0.13871327718005111 -0.31332369293528212 0 0.1332586495603032 -0.30031372317270688 0 0.147245411062319 -0.30441698656302629 0 0.14855409589738661 -0.31441038212804873 0 0.13871327718005111 -0.31332369293528212 0 0.147245411062319 -0.30441698656302629 0 0.147245411062319 -0.30441698656302629 0 0.15432967412725099 -0.29846298066074151 0 0.14327492933615671 -0.29425024746867751 0 0.1332586495603032 -0.30031372317270688 0 0.147245411062319 -0.30441698656302629 0 0.14327492933615671 -0.29425024746867751 0 0.147245411062319 -0.30441698656302629 0 0.15432967412725099 -0.29846298066074151 0 0.1602411687519314 -0.31190927739118429 0 0.14855409589738661 -0.31441038212804873 0 0.147245411062319 -0.30441698656302629 0 0.1602411687519314 -0.31190927739118429 0 0.15432967412725099 -0.29846298066074151 0 0.1517600770447052 -0.28164214899084639 0 0.14327492933615671 -0.29425024746867751 0 0.1517600770447052 -0.28164214899084639 0 0.14327492933615671 -0.29425024746867751 0 0.13646338677899769 -0.28546266283427663 0 0.1332586495603032 -0.30031372317270688 0 0.14327492933615671 -0.29425024746867751 0 0.13646338677899769 -0.28546266283427663 0 0.1332586495603032 -0.30031372317270688 0 0.13646338677899769 -0.28546266283427663 0 0.1242383748246253 -0.29131174999725179 0 0.13646338677899769 -0.28546266283427663 0 0.1233023238440631 -0.28097148456094378 0 0.1242383748246253 -0.29131174999725179 0 0.1517600770447052 -0.28164214899084639 0 0.13646338677899769 -0.28546266283427663 0 0.1311170075682456 -0.27142576198599933 0 0.1517600770447052 -0.28164214899084639 0 0.1311170075682456 -0.27142576198599933 0 0.1364827709165429 -0.26618641562940759 0 0.13646338677899769 -0.28546266283427663 0 0.1311170075682456 -0.27142576198599933 0 0.1233023238440631 -0.28097148456094378 0 0.1311170075682456 -0.27142576198599933 0 0.1364827709165429 -0.26618641562940759 0 0.1212054647883809 -0.25073068226796852 0 0.1364827709165429 -0.26618641562940759 0 0.13217397618885759 -0.25462043987800831 0 0.1212054647883809 -0.25073068226796852 0 0.1364827709165429 -0.26618641562940759 0 0.1212054647883809 -0.25073068226796852 0 0.1364827709165429 -0.26618641562940759 0 0.13217397618885759 -0.25462043987800831 0 0.14275904560399111 -0.25945725309375861 0 0.13217397618885759 -0.25462043987800831 0 0.1429630926125974 -0.2502577086919005 0 0.14275904560399111 -0.25945725309375861 0 0.1429630926125974 -0.2502577086919005 0 0.16574248336044761 -0.26746108990676593 0 0.1429630926125974 -0.2502577086919005 0 0.15128247879849499 -0.26292486595599002 0 0.16574248336044761 -0.26746108990676593 0 0.1429630926125974 -0.2502577086919005 0 0.16574248336044761 -0.26746108990676593 0 0.16001236861667459 -0.2513654190734112 0 0.1429630926125974 -0.2502577086919005 0 0.14275904560399111 -0.25945725309375861 0 0.15128247879849499 -0.26292486595599002 0 0.1364827709165429 -0.26618641562940759 0 0.14275904560399111 -0.25945725309375861 0 0.15128247879849499 -0.26292486595599002 0 0.1517600770447052 -0.28164214899084639 0 0.1364827709165429 -0.26618641562940759 0 0.15128247879849499 -0.26292486595599002 0 0.1517600770447052 -0.28164214899084639 0 0.15128247879849499 -0.26292486595599002 0 0.15776774232478771 -0.26956647822523339 0 0.1517600770447052 -0.28164214899084639 0 0.1311170075682456 -0.27142576198599933 0 0.1517600770447052 -0.28164214899084639 0 0.1364827709165429 -0.26618641562940759 0 0.1517600770447052 -0.28164214899084639 0 0.16209364730358741 -0.27452888323759039 0 0.16594555478614451 -0.28284233368471318 0 0.1517600770447052 -0.28164214899084639 0 0.16209364730358741 -0.27452888323759039 0 0.15776774232478771 -0.26956647822523339 0 0.16209364730358741 -0.27452888323759039 0 0.15776774232478771 -0.26956647822523339 0 0.16574248336044761 -0.26746108990676593 0 0.15128247879849499 -0.26292486595599002 0 0.15776774232478771 -0.26956647822523339 0 0.16574248336044761 -0.26746108990676593 0 0.16209364730358741 -0.27452888323759039 0 0.16574248336044761 -0.26746108990676593 0 0.16920230535812411 -0.27329149954452342 0 0.16209364730358741 -0.27452888323759039 0 0.16920230535812411 -0.27329149954452342 0 0.16594555478614451 -0.28284233368471318 0 0.16920230535812411 -0.27329149954452342 0 0.1710222018321049 -0.28124575318360368 0 0.16594555478614451 -0.28284233368471318 0 0.16574248336044761 -0.26746108990676593 0 0.16001236861667459 -0.2513654190734112 0 0.16988601458932601 -0.2589500224365659 0 0.16574248336044761 -0.26746108990676593 0 0.16988601458932601 -0.2589500224365659 0 0.17628584543496439 -0.26683535894776161 0 0.16001236861667459 -0.2513654190734112 0 0.16988601458932601 -0.2589500224365659 0 0.16978669848249819 -0.25098739912941831 0 0.1767458594742066 -0.25730285456071711 0 0.17619278994504239 -0.24587918172992959 0 0.18399505531774341 -0.24981832115951039 0 0.16978669848249819 -0.25098739912941831 0 0.1767458594742066 -0.25730285456071711 0 0.17619278994504239 -0.24587918172992959 0 0.16988601458932601 -0.2589500224365659 0 0.16978669848249819 -0.25098739912941831 0 0.1767458594742066 -0.25730285456071711 0 0.16988601458932601 -0.2589500224365659 0 0.1767458594742066 -0.25730285456071711 0 0.17628584543496439 -0.26683535894776161 0 0.1767458594742066 -0.25730285456071711 0 0.17628584543496439 -0.26683535894776161 0 0.1845366839674035 -0.26640487959885623 0 0.1767458594742066 -0.25730285456071711 0 0.18706352147094041 -0.25756661524031438 0 0.1845366839674035 -0.26640487959885623 0 0.1767458594742066 -0.25730285456071711 0 0.18706352147094041 -0.25756661524031438 0 0.18399505531774341 -0.24981832115951039 0 0.18852187410829821 -0.28466447112163068 0 0.17628584543496439 -0.26683535894776161 0 0.1845366839674035 -0.26640487959885623 0 0.18852187410829821 -0.28466447112163068 0 0.16574248336044761 -0.26746108990676593 0 0.18852187410829821 -0.28466447112163068 0 0.16574248336044761 -0.26746108990676593 0 0.17628584543496439 -0.26683535894776161 0 0.16920230535812411 -0.27329149954452342 0 0.18747516626574931 -0.28692639975368628 0 0.17602993407772211 -0.2832030986568283 0 0.18852187410829821 -0.28466447112163068 0 0.16574248336044761 -0.26746108990676593 0 0.16920230535812411 -0.27329149954452342 0 0.16920230535812411 -0.27329149954452342 0 0.18747516626574931 -0.28692639975368628 0 0.16920230535812411 -0.27329149954452342 0 0.1710222018321049 -0.28124575318360368 0 0.17602993407772211 -0.2832030986568283 0 0.18747516626574931 -0.28692639975368628 0 0.1806905449634813 -0.28832929748571318 0 0.17602993407772211 -0.2832030986568283 0 0.18852187410829821 -0.28466447112163068 0 0.16920230535812411 -0.27329149954452342 0 0.18747516626574931 -0.28692639975368628 0 0.18747516626574931 -0.28692639975368628 0 0.1806905449634813 -0.28832929748571318 0 0.18301660310609241 -0.29114958545392738 0 0.17291101310642881 -0.28564608084835003 0 0.17864991096044419 -0.29495009963706692 0 0.16594555478614451 -0.28284233368471318 0 0.1806905449634813 -0.28832929748571318 0 0.17602993407772211 -0.2832030986568283 0 0.17673138357400531 -0.28840876668861409 0 0.17602993407772211 -0.2832030986568283 0 0.17673138357400531 -0.28840876668861409 0 0.17291101310642881 -0.28564608084835003 0 0.1710222018321049 -0.28124575318360368 0 0.17602993407772211 -0.2832030986568283 0 0.17291101310642881 -0.28564608084835003 0 0.17673138357400531 -0.28840876668861409 0 0.17291101310642881 -0.28564608084835003 0 0.17864991096044419 -0.29495009963706692 0 0.17673138357400531 -0.28840876668861409 0 0.17909088347012619 -0.29088019083727579 0 0.17864991096044419 -0.29495009963706692 0 0.1806905449634813 -0.28832929748571318 0 0.17673138357400531 -0.28840876668861409 0 0.17909088347012619 -0.29088019083727579 0 0.17909088347012619 -0.29088019083727579 0 0.17864991096044419 -0.29495009963706692 0 0.18114425154506539 -0.29221912984395187 0 0.18747516626574931 -0.28692639975368628 0 0.18734834214976739 -0.29514628785519947 0 0.1827564496500734 -0.29712351473235832 0 0.18747516626574931 -0.28692639975368628 0 0.18301660310609241 -0.29114958545392738 0 0.1827564496500734 -0.29712351473235832 0 0.18114425154506539 -0.29221912984395187 0 0.18301660310609241 -0.29114958545392738 0 0.1827564496500734 -0.29712351473235832 0 0.17864991096044419 -0.29495009963706692 0 0.18114425154506539 -0.29221912984395187 0 0.1827564496500734 -0.29712351473235832 0 0.18747516626574931 -0.28692639975368628 0 0.1827564496500734 -0.29712351473235832 0 0.1806905449634813 -0.28832929748571318 0 0.18114425154506539 -0.29221912984395187 0 0.18301660310609241 -0.29114958545392738 0 0.1806905449634813 -0.28832929748571318 0 0.17909088347012619 -0.29088019083727579 0 0.18114425154506539 -0.29221912984395187 0 0.18802618722583669 -0.31833181955932999 0 0.18221347423979239 -0.30458962683289892 0 0.1698931321352706 -0.29998698427508858 0 0.1880606218677118 -0.30022154946313712 0 0.18734834214976739 -0.29514628785519947 0 0.1827564496500734 -0.29712351473235832 0 0.19009702279388629 -0.3064242775921906 0 0.1880606218677118 -0.30022154946313712 0 0.18221347423979239 -0.30458962683289892 0 0.18802618722583669 -0.31833181955932999 0 0.17151825735526699 -0.31325416760549368 0 0.1698931321352706 -0.29998698427508858 0 0.1880606218677118 -0.30022154946313712 0 0.18221347423979239 -0.30458962683289892 0 0.1827564496500734 -0.29712351473235832 0 0.18802618722583669 -0.31833181955932999 0 0.1698931321352706 -0.29998698427508858 0 0.17864991096044419 -0.29495009963706692 0 0.1827564496500734 -0.29712351473235832 0 0.17837824174639511 -0.29916255636935318 0 0.18221347423979239 -0.30458962683289892 0 0.1827564496500734 -0.29712351473235832 0 0.17837824174639511 -0.29916255636935318 0 0.19009702279388629 -0.3064242775921906 0 0.18802618722583669 -0.31833181955932999 0 0.18221347423979239 -0.30458962683289892 0 0.18221347423979239 -0.30458962683289892 0 0.17837824174639511 -0.29916255636935318 0 0.1698931321352706 -0.29998698427508858 0 0.17864991096044419 -0.29495009963706692 0 0.17837824174639511 -0.29916255636935318 0 0.1698931321352706 -0.29998698427508858 0 0.17151825735526699 -0.31325416760549368 0 0.1698931321352706 -0.29998698427508858 0 0.1602411687519314 -0.31190927739118429 0 0.15432967412725099 -0.29846298066074151 0 0.1698931321352706 -0.29998698427508858 0 0.1602411687519314 -0.31190927739118429 0 0.1517600770447052 -0.28164214899084639 0 0.17864991096044419 -0.29495009963706692 0 0.1698931321352706 -0.29998698427508858 0 0.1517600770447052 -0.28164214899084639 0 0.1698931321352706 -0.29998698427508858 0 0.15432967412725099 -0.29846298066074151 0 0.1517600770447052 -0.28164214899084639 0 0.1698931321352706 -0.29998698427508858 0 0.1517600770447052 -0.28164214899084639 0 0.17864991096044419 -0.29495009963706692 0 0.1517600770447052 -0.28164214899084639 0 0.17864991096044419 -0.29495009963706692 0 0.16594555478614451 -0.28284233368471318 0 0.1710222018321049 -0.28124575318360368 0 0.17291101310642881 -0.28564608084835003 0 0.16594555478614451 -0.28284233368471318 0 0.21438456257476449 -0.5 0 0.2048745361024723 -0.48472171768082351 0 0.18744203257390391 -0.5 0 0.19122796324104871 -0.48466606029959602 0 0.2048745361024723 -0.48472171768082351 0 0.18744203257390391 -0.5 0 0.19122796324104871 -0.48466606029959602 0 0.20365346230900849 -0.47086657296764728 0 0.1938641377332887 -0.4633108835168005 0 0.19122796324104871 -0.48466606029959602 0 0.20365346230900849 -0.47086657296764728 0 0.2048745361024723 -0.48472171768082351 0 0.21766866328091511 -0.47157360957620892 0 0.2048745361024723 -0.48472171768082351 0 0.22288060450936709 -0.48400008360299168 0 0.20365346230900849 -0.47086657296764728 0 0.21766866328091511 -0.47157360957620892 0 0.2048745361024723 -0.48472171768082351 0 0.21438456257476449 -0.5 0 0.2048745361024723 -0.48472171768082351 0 0.22288060450936709 -0.48400008360299168 0 0.21438456257476449 -0.5 0 0.23633351028628971 -0.48712361601618398 0 0.2413270925756249 -0.5 0 0.21438456257476449 -0.5 0 0.23633351028628971 -0.48712361601618398 0 0.22288060450936709 -0.48400008360299168 0 0.25270961841775552 -0.48460016746525392 0 0.23633351028628971 -0.48712361601618398 0 0.2413270925756249 -0.5 0 0.25270961841775552 -0.48460016746525392 0 0.23633351028628971 -0.48712361601618398 0 0.23949561189523169 -0.47426551941090739 0 0.23949561189523169 -0.47426551941090739 0 0.22288060450936709 -0.48400008360299168 0 0.22545312399173489 -0.46028769725088831 0 0.21766866328091511 -0.47157360957620892 0 0.22288060450936709 -0.48400008360299168 0 0.22545312399173489 -0.46028769725088831 0 0.23633351028628971 -0.48712361601618398 0 0.23949561189523169 -0.47426551941090739 0 0.22288060450936709 -0.48400008360299168 0 0.22288060450936709 -0.48400008360299168 0 0.22545312399173489 -0.46028769725088831 0 0.21766866328091511 -0.47157360957620892 0 0.22545312399173489 -0.46028769725088831 0 0.2186728293425339 -0.44755637628226819 0 0.2588368117714554 -0.46700690363883102 0 0.23949561189523169 -0.47426551941090739 0 0.2409729068143365 -0.46262444708906358 0 0.22545312399173489 -0.46028769725088831 0 0.2409729068143365 -0.46262444708906358 0 0.24480843210435321 -0.45079661158300749 0 0.2588368117714554 -0.46700690363883102 0 0.2409729068143365 -0.46262444708906358 0 0.24480843210435321 -0.45079661158300749 0 0.23949561189523169 -0.47426551941090739 0 0.22545312399173489 -0.46028769725088831 0 0.2409729068143365 -0.46262444708906358 0 0.24480843210435321 -0.45079661158300749 0 0.22802564347410281 -0.43657531089878487 0 0.2418992233321238 -0.43333026798624508 0 0.25513396950241118 -0.43290986753561628 0 0.24480843210435321 -0.45079661158300749 0 0.2418992233321238 -0.43333026798624508 0 0.22545312399173489 -0.46028769725088831 0 0.22802564347410281 -0.43657531089878487 0 0.2186728293425339 -0.44755637628226819 0 0.21246462128442831 -0.43168381348743168 0 0.22802564347410281 -0.43657531089878487 0 0.22545312399173489 -0.46028769725088831 0 0.2186728293425339 -0.44755637628226819 0 0.22802564347410281 -0.43657531089878487 0 0.22545312399173489 -0.46028769725088831 0 0.24480843210435321 -0.45079661158300749 0 0.22802564347410281 -0.43657531089878487 0 0.20442019459899149 -0.44533796874460208 0 0.2186728293425339 -0.44755637628226819 0 0.21246462128442831 -0.43168381348743168 0 0.21766866328091511 -0.47157360957620892 0 0.20442019459899149 -0.44533796874460208 0 0.21766866328091511 -0.47157360957620892 0 0.20442019459899149 -0.44533796874460208 0 0.2186728293425339 -0.44755637628226819 0 0.20365346230900849 -0.47086657296764728 0 0.21766866328091511 -0.47157360957620892 0 0.20442019459899149 -0.44533796874460208 0 0.20365346230900849 -0.47086657296764728 0 0.20442019459899149 -0.44533796874460208 0 0.1938641377332887 -0.4633108835168005 0 0.20442019459899149 -0.44533796874460208 0 0.18484232774876749 -0.43033534366960768 0 0.18590039067086719 -0.44115637567916172 0 0.20442019459899149 -0.44533796874460208 0 0.18923595964957429 -0.45067509688328122 0 0.18590039067086719 -0.44115637567916172 0 0.20442019459899149 -0.44533796874460208 0 0.1938641377332887 -0.4633108835168005 0 0.18923595964957429 -0.45067509688328122 0 0.20442019459899149 -0.44533796874460208 0 0.1911717259170673 -0.41910232791299562 0 0.20473537155931409 -0.42802668409371708 0 0.20442019459899149 -0.44533796874460208 0 0.1911717259170673 -0.41910232791299562 0 0.20442019459899149 -0.44533796874460208 0 0.1911717259170673 -0.41910232791299562 0 0.18484232774876749 -0.43033534366960768 0 0.1911717259170673 -0.41910232791299562 0 0.21088494443676881 -0.41598262622983972 0 0.20473537155931409 -0.42802668409371708 0 0.18851111772050869 -0.41383358608972459 0 0.208966154163157 -0.40126827473642579 0 0.1911717259170673 -0.41910232791299562 0 0.21088494443676881 -0.41598262622983972 0 0.1911717259170673 -0.41910232791299562 0 0.18851111772050869 -0.41383358608972459 0 0.21088494443676881 -0.41598262622983972 0 0.18851111772050869 -0.41383358608972459 0 0.21088494443676881 -0.41598262622983972 0 0.208966154163157 -0.40126827473642579 0 0.1911717259170673 -0.41910232791299562 0 0.18851111772050869 -0.41383358608972459 0 0.21088494443676881 -0.41598262622983972 0 0.22155668588658281 -0.40529615173032069 0 0.208966154163157 -0.40126827473642579 0 0.21088494443676881 -0.41598262622983972 0 0.20473537155931409 -0.42802668409371708 0 0.21246462128442831 -0.43168381348743168 0 0.21088494443676881 -0.41598262622983972 0 0.21246462128442831 -0.43168381348743168 0 0.21959695705502991 -0.42408781639437282 0 0.20442019459899149 -0.44533796874460208 0 0.20473537155931409 -0.42802668409371708 0 0.21246462128442831 -0.43168381348743168 0 0.21246462128442831 -0.43168381348743168 0 0.21959695705502991 -0.42408781639437282 0 0.22802564347410281 -0.43657531089878487 0 0.22802564347410281 -0.43657531089878487 0 0.23614533994983331 -0.4244462479719151 0 0.23059816295646979 -0.4128629245466815 0 0.22802564347410281 -0.43657531089878487 0 0.23059816295646979 -0.4128629245466815 0 0.21959695705502991 -0.42408781639437282 0 0.22802564347410281 -0.43657531089878487 0 0.23059816295646979 -0.4128629245466815 0 0.22802564347410281 -0.43657531089878487 0 0.2418992233321238 -0.43333026798624508 0 0.23614533994983331 -0.4244462479719151 0 0.2418992233321238 -0.43333026798624508 0 0.23614533994983331 -0.4244462479719151 0 0.2453827316299185 -0.42192330194190181 0 0.25513396950241118 -0.43290986753561628 0 0.2418992233321238 -0.43333026798624508 0 0.2453827316299185 -0.42192330194190181 0 0.256136481120742 -0.41447562176841068 0 0.2453827316299185 -0.42192330194190181 0 0.24629253832767661 -0.41022035877505542 0 0.2453827316299185 -0.42192330194190181 0 0.24629253832767661 -0.41022035877505542 0 0.2366098857920339 -0.41191154353144788 0 0.23614533994983331 -0.4244462479719151 0 0.2366098857920339 -0.41191154353144788 0 0.23059816295646979 -0.4128629245466815 0 0.23614533994983331 -0.4244462479719151 0 0.2453827316299185 -0.42192330194190181 0 0.2366098857920339 -0.41191154353144788 0 0.24629253832767661 -0.41022035877505542 0 0.2366098857920339 -0.41191154353144788 0 0.2422505545635501 -0.40276464775944387 0 0.21088494443676881 -0.41598262622983972 0 0.23059816295646979 -0.4128629245466815 0 0.2366098857920339 -0.41191154353144788 0 0.23059816295646979 -0.4128629245466815 0 0.23156745731421779 -0.4039283829592023 0 0.23059816295646979 -0.4128629245466815 0 0.22155668588658281 -0.40529615173032069 0 0.23156745731421779 -0.4039283829592023 0 0.23059816295646979 -0.4128629245466815 0 0.23156745731421779 -0.4039283829592023 0 0.21088494443676881 -0.41598262622983972 0 0.23059816295646979 -0.4128629245466815 0 0.22155668588658281 -0.40529615173032069 0 0.21088494443676881 -0.41598262622983972 0 0.21959695705502991 -0.42408781639437282 0 0.23059816295646979 -0.4128629245466815 0 0.2366098857920339 -0.41191154353144788 0 0.23059816295646979 -0.4128629245466815 0 0.22155668588658281 -0.40529615173032069 0 0.22942119060580499 -0.38870296338312649 0 0.208966154163157 -0.40126827473642579 0 0.22155668588658281 -0.40529615173032069 0 0.23156745731421779 -0.4039283829592023 0 0.22942119060580499 -0.38870296338312649 0 0.22942119060580499 -0.38870296338312649 0 0.208966154163157 -0.40126827473642579 0 0.23156745731421779 -0.4039283829592023 0 0.24309899287842279 -0.39271330151873202 0 0.2422505545635501 -0.40276464775944387 0 0.2366098857920339 -0.41191154353144788 0 0.23156745731421779 -0.4039283829592023 0 0.2422505545635501 -0.40276464775944387 0 0.23156745731421779 -0.4039283829592023 0 0.24309899287842279 -0.39271330151873202 0 0.22942119060580499 -0.38870296338312649 0 0.25108303853213881 -0.40002667887407228 0 0.24629253832767661 -0.41022035877505542 0 0.2422505545635501 -0.40276464775944387 0 0.25108303853213881 -0.40002667887407228 0 0.24309899287842279 -0.39271330151873202 0 0.2422505545635501 -0.40276464775944387 0 0.24987622704845311 -0.37613765202982719 0 0.22942119060580499 -0.38870296338312649 0 0.24309899287842279 -0.39271330151873202 0 0.24987622704845311 -0.37613765202982719 0 0.22942119060580499 -0.38870296338312649 0 0.24987622704845311 -0.37613765202982719 0 0.23474048966473349 -0.38137370792841258 0 0.22942119060580499 -0.38870296338312649 0 0.25687819372407023 -0.38903915957053298 0 0.24309899287842279 -0.39271330151873202 0 0.24987622704845311 -0.37613765202982719 0 0.23679608458568241 -0.3713456781615978 0 0.24987622704845311 -0.37613765202982719 0 0.23474048966473349 -0.38137370792841258 0 0.23474048966473349 -0.38137370792841258 0 0.23010576568282681 -0.37607478874810818 0 0.22189277223980711 -0.38054577212349588 0 0.23474048966473349 -0.38137370792841258 0 0.22189277223980711 -0.38054577212349588 0 0.20961824525516401 -0.3936281247522696 0 0.23474048966473349 -0.38137370792841258 0 0.22942119060580499 -0.38870296338312649 0 0.20961824525516401 -0.3936281247522696 0 0.23679608458568241 -0.3713456781615978 0 0.23474048966473349 -0.38137370792841258 0 0.23010576568282681 -0.37607478874810818 0 0.23474048966473349 -0.38137370792841258 0 0.20961824525516401 -0.3936281247522696 0 0.22699371624108439 -0.37103399677892651 0 0.23010576568282681 -0.37607478874810818 0 0.22189277223980711 -0.38054577212349588 0 0.21663927632257499 -0.37152038636996992 0 0.22189277223980711 -0.38054577212349588 0 0.21119602619295649 -0.38157571206759561 0 0.21663927632257499 -0.37152038636996992 0 0.21119602619295649 -0.38157571206759561 0 0.20576161095015591 -0.37595213443190167 0 0.21119602619295649 -0.38157571206759561 0 0.20576161095015591 -0.37595213443190167 0 0.20229958674085519 -0.38616776423662919 0 0.21119602619295649 -0.38157571206759561 0 0.20961824525516401 -0.3936281247522696 0 0.20229958674085519 -0.38616776423662919 0 0.22189277223980711 -0.38054577212349588 0 0.21119602619295649 -0.38157571206759561 0 0.20961824525516401 -0.3936281247522696 0 0.22942119060580499 -0.38870296338312649 0 0.208966154163157 -0.40126827473642579 0 0.20961824525516401 -0.3936281247522696 0 0.20961824525516401 -0.3936281247522696 0 0.18449600084559339 -0.40588254157612419 0 0.20961824525516401 -0.3936281247522696 0 0.19262774622386039 -0.39991289132556063 0 0.20229958674085519 -0.38616776423662919 0 0.18851111772050869 -0.41383358608972459 0 0.20961824525516401 -0.3936281247522696 0 0.18449600084559339 -0.40588254157612419 0 0.19262774622386039 -0.39991289132556063 0 0.193172237845981 -0.38760648281860499 0 0.20229958674085519 -0.38616776423662919 0 0.20961824525516401 -0.3936281247522696 0 0.19262774622386039 -0.39991289132556063 0 0.18449600084559339 -0.40588254157612419 0 0.18851111772050869 -0.41383358608972459 0 0.208966154163157 -0.40126827473642579 0 0.20961824525516401 -0.3936281247522696 0 0.19262774622386039 -0.39991289132556063 0 0.18963514604776821 -0.39361523539988952 0 0.193172237845981 -0.38760648281860499 0 0.19262774622386039 -0.39991289132556063 0 0.18963514604776821 -0.39361523539988952 0 0.18221634088723479 -0.40136818287387582 0 0.18963514604776821 -0.39361523539988952 0 0.193172237845981 -0.38760648281860499 0 0.18267650324237161 -0.39405502657648112 0 0.193172237845981 -0.38760648281860499 0 0.1910424400336663 -0.37547354736401328 0 0.18267650324237161 -0.39405502657648112 0 0.20576161095015591 -0.37595213443190167 0 0.1910424400336663 -0.37547354736401328 0 0.20229958674085519 -0.38616776423662919 0 0.193172237845981 -0.38760648281860499 0 0.1910424400336663 -0.37547354736401328 0 0.20229958674085519 -0.38616776423662919 0 0.1910424400336663 -0.37547354736401328 0 0.17822948803450961 -0.38676940160015832 0 0.1737051017910701 -0.38004230502140057 0 0.1910424400336663 -0.37547354736401328 0 0.18267650324237161 -0.39405502657648112 0 0.1910424400336663 -0.37547354736401328 0 0.17822948803450961 -0.38676940160015832 0 0.18267650324237161 -0.39405502657648112 0 0.17822948803450961 -0.38676940160015832 0 0.17910183421640119 -0.39520059623836468 0 0.1646215608890387 -0.38907553280053181 0 0.17822948803450961 -0.38676940160015832 0 0.1737051017910701 -0.38004230502140057 0 0.1646215608890387 -0.38907553280053181 0 0.17822948803450961 -0.38676940160015832 0 0.18267650324237161 -0.39405502657648112 0 0.17910183421640119 -0.39520059623836468 0 0.18221634088723479 -0.40136818287387582 0 0.17910183421640119 -0.39520059623836468 0 0.15805845094365739 -0.40474493864538458 0 0.18963514604776821 -0.39361523539988952 0 0.18267650324237161 -0.39405502657648112 0 0.18221634088723479 -0.40136818287387582 0 0.18267650324237161 -0.39405502657648112 0 0.18221634088723479 -0.40136818287387582 0 0.17910183421640119 -0.39520059623836468 0 0.18221634088723479 -0.40136818287387582 0 0.17910183421640119 -0.39520059623836468 0 0.19262774622386039 -0.39991289132556063 0 0.18221634088723479 -0.40136818287387582 0 0.19262774622386039 -0.39991289132556063 0 0.18449600084559339 -0.40588254157612419 0 0.18221634088723479 -0.40136818287387582 0 0.18449600084559339 -0.40588254157612419 0 0.18221634088723479 -0.40136818287387582 0 0.17910183421640119 -0.39520059623836468 0 0.15805845094365739 -0.40474493864538458 0 0.1646215608890387 -0.38907553280053181 0 0.18221634088723479 -0.40136818287387582 0 0.15805845094365739 -0.40474493864538458 0 0.15805845094365739 -0.40474493864538458 0 0.1646215608890387 -0.38907553280053181 0 0.14706277844018539 -0.39464292458295508 0 0.1737051017910701 -0.38004230502140057 0 0.1646215608890387 -0.38907553280053181 0 0.16307541855137739 -0.37743582412871929 0 0.17035242753357599 -0.36877211446365682 0 0.1737051017910701 -0.38004230502140057 0 0.16307541855137739 -0.37743582412871929 0 0.1569593121701936 -0.36832063090657668 0 0.16307541855137739 -0.37743582412871929 0 0.14973869037300869 -0.38096853745143089 0 0.1646215608890387 -0.38907553280053181 0 0.16307541855137739 -0.37743582412871929 0 0.14973869037300869 -0.38096853745143089 0 0.1646215608890387 -0.38907553280053181 0 0.14973869037300869 -0.38096853745143089 0 0.14706277844018539 -0.39464292458295508 0 0.14973869037300869 -0.38096853745143089 0 0.1375772795987745 -0.38493757303029391 0 0.14706277844018539 -0.39464292458295508 0 0.13524945632583441 -0.37311377610700652 0 0.14973869037300869 -0.38096853745143089 0 0.1375772795987745 -0.38493757303029391 0 0.13524945632583441 -0.37311377610700652 0 0.1375772795987745 -0.38493757303029391 0 0.12609635470998201 -0.38402791619100712 0 0.1375772795987745 -0.38493757303029391 0 0.12609635470998201 -0.38402791619100712 0 0.13569313113510631 -0.39589912548093298 0 0.12645644117523869 -0.39722706905544619 0 0.13569313113510631 -0.39589912548093298 0 0.1339005610000801 -0.40812169441689322 0 0.12645644117523869 -0.39722706905544619 0 0.1339005610000801 -0.40812169441689322 0 0.1250254850364893 -0.40936224001308058 0 0.12609635470998201 -0.38402791619100712 0 0.12645644117523869 -0.39722706905544619 0 0.13569313113510631 -0.39589912548093298 0 0.1375772795987745 -0.38493757303029391 0 0.13569313113510631 -0.39589912548093298 0 0.14706277844018539 -0.39464292458295508 0 0.13569313113510631 -0.39589912548093298 0 0.14706277844018539 -0.39464292458295508 0 0.1339005610000801 -0.40812169441689322 0 0.13569313113510631 -0.39589912548093298 0 0.1339005610000801 -0.40812169441689322 0 0.15805845094365739 -0.40474493864538458 0 0.14706277844018539 -0.39464292458295508 0 0.1339005610000801 -0.40812169441689322 0 0.15805845094365739 -0.40474493864538458 0 0.1339005610000801 -0.40812169441689322 0 0.15805845094365739 -0.40474493864538458 0 0.15398562739609989 -0.414436145328195 0 0.14500783119440661 -0.41410657591589572 0 0.15805845094365739 -0.40474493864538458 0 0.14500783119440661 -0.41410657591589572 0 0.1339005610000801 -0.40812169441689322 0 0.15398562739609989 -0.414436145328195 0 0.15088002640467921 -0.42009116626417142 0 0.14500783119440661 -0.41410657591589572 0 0.15088002640467921 -0.42009116626417142 0 0.15979138776423191 -0.42406840149736191 0 0.15636365466176849 -0.41960526040447821 0 0.15398562739609989 -0.414436145328195 0 0.15088002640467921 -0.42009116626417142 0 0.15636365466176849 -0.41960526040447821 0 0.15088002640467921 -0.42009116626417142 0 0.14500783119440661 -0.41410657591589572 0 0.14354831806896931 -0.42663893719234869 0 0.14500783119440661 -0.41410657591589572 0 0.1339005610000801 -0.40812169441689322 0 0.13212255532719441 -0.42024495614079282 0 0.14500783119440661 -0.41410657591589572 0 0.13212255532719441 -0.42024495614079282 0 0.14354831806896931 -0.42663893719234869 0 0.1339005610000801 -0.40812169441689322 0 0.13212255532719441 -0.42024495614079282 0 0.13212255532719441 -0.42024495614079282 0 0.1250254850364893 -0.40936224001308058 0 0.117866085899093 -0.41583132647739651 0 0.13212255532719441 -0.42024495614079282 0 0.1250254850364893 -0.40936224001308058 0 0.1339005610000801 -0.40812169441689322 0 0.13212255532719441 -0.42024495614079282 0 0.1250254850364893 -0.40936224001308058 0 0.1339005610000801 -0.40812169441689322 0 0.1250254850364893 -0.40936224001308058 0 0.13212255532719441 -0.42024495614079282 0 0.14354831806896931 -0.42663893719234869 0 0.1460535583969573 -0.44160689079445481 0 0.13212255532719441 -0.42024495614079282 0 0.128223579302082 -0.44682997076052833 0 0.13212255532719441 -0.42024495614079282 0 0.128223579302082 -0.44682997076052833 0 0.1159996351348133 -0.43474120747525058 0 0.13212255532719441 -0.42024495614079282 0 0.1460535583969573 -0.44160689079445481 0 0.13212255532719441 -0.42024495614079282 0 0.1460535583969573 -0.44160689079445481 0 0.128223579302082 -0.44682997076052833 0 0.15088002640467921 -0.42009116626417142 0 0.14354831806896931 -0.42663893719234869 0 0.15979138776423191 -0.42406840149736191 0 0.14354831806896931 -0.42663893719234869 0 0.15979138776423191 -0.42406840149736191 0 0.14354831806896931 -0.42663893719234869 0 0.15423293294423909 -0.43386412417913311 0 0.1460535583969573 -0.44160689079445481 0 0.14354831806896931 -0.42663893719234869 0 0.15423293294423909 -0.43386412417913311 0 0.15979138776423191 -0.42406840149736191 0 0.15423293294423909 -0.43386412417913311 0 0.16088991666547389 -0.43196094602310392 0 0.16557730454712019 -0.44172028084172121 0 0.1713980071398 -0.42434598792645378 0 0.15979138776423191 -0.42406840149736191 0 0.1760344574594947 -0.42149786580237669 0 0.15423293294423909 -0.43386412417913311 0 0.16088991666547389 -0.43196094602310392 0 0.15979138776423191 -0.42406840149736191 0 0.15979138776423191 -0.42406840149736191 0 0.1760344574594947 -0.42149786580237669 0 0.16626302434537371 -0.43076979168845952 0 0.17509911994716071 -0.43336510097506958 0 0.16557730454712019 -0.44172028084172121 0 0.16088991666547389 -0.43196094602310392 0 0.16626302434537371 -0.43076979168845952 0 0.16557730454712019 -0.44172028084172121 0 0.16626302434537371 -0.43076979168845952 0 0.1713980071398 -0.42434598792645378 0 0.17509911994716071 -0.43336510097506958 0 0.16626302434537371 -0.43076979168845952 0 0.1713980071398 -0.42434598792645378 0 0.15979138776423191 -0.42406840149736191 0 0.16088991666547389 -0.43196094602310392 0 0.16626302434537371 -0.43076979168845952 0 0.15979138776423191 -0.42406840149736191 0 0.15636365466176849 -0.41960526040447821 0 0.16176651730702801 -0.41283252991975622 0 0.17042982775368151 -0.41274390099030239 0 0.18221634088723479 -0.40136818287387582 0 0.15805845094365739 -0.40474493864538458 0 0.17042982775368151 -0.41274390099030239 0 0.15979138776423191 -0.42406840149736191 0 0.15636365466176849 -0.41960526040447821 0 0.17042982775368151 -0.41274390099030239 0 0.15636365466176849 -0.41960526040447821 0 0.17042982775368151 -0.41274390099030239 0 0.15979138776423191 -0.42406840149736191 0 0.17042982775368151 -0.41274390099030239 0 0.1760344574594947 -0.42149786580237669 0 0.15398562739609989 -0.414436145328195 0 0.15636365466176849 -0.41960526040447821 0 0.16176651730702801 -0.41283252991975622 0 0.15805845094365739 -0.40474493864538458 0 0.15398562739609989 -0.414436145328195 0 0.16176651730702801 -0.41283252991975622 0 0.15805845094365739 -0.40474493864538458 0 0.16176651730702801 -0.41283252991975622 0 0.17042982775368151 -0.41274390099030239 0 0.17042982775368151 -0.41274390099030239 0 0.1760344574594947 -0.42149786580237669 0 0.17986785094481991 -0.4134894736146324 0 0.18449600084559339 -0.40588254157612419 0 0.17042982775368151 -0.41274390099030239 0 0.18449600084559339 -0.40588254157612419 0 0.18221634088723479 -0.40136818287387582 0 0.17042982775368151 -0.41274390099030239 0 0.18449600084559339 -0.40588254157612419 0 0.17042982775368151 -0.41274390099030239 0 0.17986785094481991 -0.4134894736146324 0 0.18851111772050869 -0.41383358608972459 0 0.18449600084559339 -0.40588254157612419 0 0.18851111772050869 -0.41383358608972459 0 0.18449600084559339 -0.40588254157612419 0 0.17986785094481991 -0.4134894736146324 0 0.18851111772050869 -0.41383358608972459 0 0.1760344574594947 -0.42149786580237669 0 0.1911717259170673 -0.41910232791299562 0 0.1760344574594947 -0.42149786580237669 0 0.18851111772050869 -0.41383358608972459 0 0.1760344574594947 -0.42149786580237669 0 0.17986785094481991 -0.4134894736146324 0 0.1911717259170673 -0.41910232791299562 0 0.18851111772050869 -0.41383358608972459 0 0.1760344574594947 -0.42149786580237669 0 0.1911717259170673 -0.41910232791299562 0 0.1760344574594947 -0.42149786580237669 0 0.18484232774876749 -0.43033534366960768 0 0.18484232774876749 -0.43033534366960768 0 0.17509911994716071 -0.43336510097506958 0 0.18590039067086719 -0.44115637567916172 0 0.18484232774876749 -0.43033534366960768 0 0.17509911994716071 -0.43336510097506958 0 0.17653319474121221 -0.42750765242104072 0 0.1713980071398 -0.42434598792645378 0 0.17509911994716071 -0.43336510097506958 0 0.17653319474121221 -0.42750765242104072 0 0.1760344574594947 -0.42149786580237669 0 0.18484232774876749 -0.43033534366960768 0 0.17653319474121221 -0.42750765242104072 0 0.1713980071398 -0.42434598792645378 0 0.1760344574594947 -0.42149786580237669 0 0.17653319474121221 -0.42750765242104072 0 0.1713980071398 -0.42434598792645378 0 0.1760344574594947 -0.42149786580237669 0 0.17791556380287959 -0.4455361086535346 0 0.17376504419967539 -0.46076368888843938 0 0.16557730454712019 -0.44172028084172121 0 0.17509911994716071 -0.43336510097506958 0 0.17791556380287959 -0.4455361086535346 0 0.18590039067086719 -0.44115637567916172 0 0.17509911994716071 -0.43336510097506958 0 0.17791556380287959 -0.4455361086535346 0 0.16557730454712019 -0.44172028084172121 0 0.18923595964957429 -0.45067509688328122 0 0.17791556380287959 -0.4455361086535346 0 0.18590039067086719 -0.44115637567916172 0 0.18923595964957429 -0.45067509688328122 0 0.17791556380287959 -0.4455361086535346 0 0.17376504419967539 -0.46076368888843938 0 0.1938641377332887 -0.4633108835168005 0 0.18923595964957429 -0.45067509688328122 0 0.17376504419967539 -0.46076368888843938 0 0.1938641377332887 -0.4633108835168005 0 0.17376504419967539 -0.46076368888843938 0 0.17718182015316611 -0.48165544175840053 0 0.17376504419967539 -0.46076368888843938 0 0.15550290350416551 -0.45157236434768988 0 0.1539044029471725 -0.46809795184702829 0 0.17376504419967539 -0.46076368888843938 0 0.16557730454712019 -0.44172028084172121 0 0.15550290350416551 -0.45157236434768988 0 0.15423293294423909 -0.43386412417913311 0 0.16557730454712019 -0.44172028084172121 0 0.15550290350416551 -0.45157236434768988 0 0.15423293294423909 -0.43386412417913311 0 0.15550290350416551 -0.45157236434768988 0 0.1460535583969573 -0.44160689079445481 0 0.15550290350416551 -0.45157236434768988 0 0.1460535583969573 -0.44160689079445481 0 0.14153074802588431 -0.45654190970348868 0 0.1460535583969573 -0.44160689079445481 0 0.128223579302082 -0.44682997076052833 0 0.14153074802588431 -0.45654190970348868 0 0.128223579302082 -0.44682997076052833 0 0.12432460327697011 -0.47341498538026422 0 0.128223579302082 -0.44682997076052833 0 0.14153074802588431 -0.45654190970348868 0 0.12432460327697011 -0.47341498538026422 0 0.1539044029471725 -0.46809795184702829 0 0.14153074802588431 -0.45654190970348868 0 0.12432460327697011 -0.47341498538026422 0 0.15550290350416551 -0.45157236434768988 0 0.1539044029471725 -0.46809795184702829 0 0.14153074802588431 -0.45654190970348868 0 0.1539044029471725 -0.46809795184702829 0 0.15048103374274721 -0.48484579871078243 0 0.12432460327697011 -0.47341498538026422 0 0.1404625649124509 -0.5 0 0.15048103374274721 -0.48484579871078243 0 0.12432460327697011 -0.47341498538026422 0 0.1404625649124509 -0.5 0 0.12042562725185831 -0.49999999999999989 0 0.12432460327697011 -0.47341498538026422 0 0.1404625649124509 -0.5 0 0.15048103374274721 -0.48484579871078243 0 0.16049950257304349 -0.50000000000000033 0 0.16049950257304349 -0.50000000000000033 0 0.17718182015316611 -0.48165544175840053 0 0.15048103374274721 -0.48484579871078243 0 0.16049950257304349 -0.50000000000000033 0 0.17718182015316611 -0.48165544175840053 0 0.17376504419967539 -0.46076368888843938 0 0.1539044029471725 -0.46809795184702829 0 0.17718182015316611 -0.48165544175840053 0 0.1539044029471725 -0.46809795184702829 0 0.15048103374274721 -0.48484579871078243 0 0.17718182015316611 -0.48165544175840053 0 0.1938641377332887 -0.4633108835168005 0 0.17718182015316611 -0.48165544175840053 0 0.19122796324104871 -0.48466606029959602 0 0.1938641377332887 -0.4633108835168005 0 0.17718182015316611 -0.48165544175840053 0 0.16049950257304349 -0.50000000000000033 0 0.17718182015316611 -0.48165544175840053 0 0.18744203257390391 -0.5 0 0.19122796324104871 -0.48466606029959602 0 0.17718182015316611 -0.48165544175840053 0 0.18744203257390391 -0.5 0 0.072018957471098571 -0.48629524479662273 0 0.069142552082564368 -0.5 0 0.082735946582200875 -0.4892045976485363 0 0.072018957471098571 -0.48629524479662273 0 0.079568506083734697 -0.4785915255016745 0 0.082735946582200875 -0.4892045976485363 0 0.072018957471098571 -0.48629524479662273 0 0.062670741706174135 -0.48944359682069549 0 0.064881374578912687 -0.4815757870058418 0 0.072018957471098571 -0.48629524479662273 0 0.069142552082564368 -0.5 0 0.062670741706174135 -0.48944359682069549 0 0.073180054077148754 -0.46968413697177741 0 0.079568506083734697 -0.4785915255016745 0 0.081395248040860374 -0.46160025678040811 0 0.067447632246636219 -0.45716428258124142 0 0.05849497948899289 -0.47642287528831911 0 0.061758178687080389 -0.47580514524370598 0 0.072018957471098571 -0.48629524479662273 0 0.064881374578912687 -0.4815757870058418 0 0.070673492561877091 -0.4782128222507579 0 0.064881374578912687 -0.4815757870058418 0 0.066280053791524171 -0.47680462027284459 0 0.061758178687080389 -0.47580514524370598 0 0.064881374578912687 -0.4815757870058418 0 0.066280053791524171 -0.47680462027284459 0 0.070673492561877091 -0.4782128222507579 0 0.066280053791524171 -0.47680462027284459 0 0.067807169338226503 -0.47162472659107291 0 0.061758178687080389 -0.47580514524370598 0 0.066280053791524171 -0.47680462027284459 0 0.067807169338226503 -0.47162472659107291 0 0.070673492561877091 -0.4782128222507579 0 0.067807169338226503 -0.47162472659107291 0 0.073180054077148754 -0.46968413697177741 0 0.070673492561877091 -0.4782128222507579 0 0.073180054077148754 -0.46968413697177741 0 0.070673492561877091 -0.4782128222507579 0 0.079568506083734697 -0.4785915255016745 0 0.072018957471098571 -0.48629524479662273 0 0.070673492561877091 -0.4782128222507579 0 0.079568506083734697 -0.4785915255016745 0 0.096876661376123455 -0.48080012839020431 0 0.081395248040860374 -0.46160025678040811 0 0.096876661376123455 -0.48080012839020431 0 0.095349939854524335 -0.46404107218864848 0 0.081395248040860374 -0.46160025678040811 0 0.079568506083734697 -0.4785915255016745 0 0.082735946582200875 -0.4892045976485363 0 0.096876661376123455 -0.48080012839020431 0 0.079568506083734697 -0.4785915255016745 0 0.096876661376123455 -0.48080012839020431 0 0.081395248040860374 -0.46160025678040811 0 0.090750313396975479 -0.5 0 0.082735946582200875 -0.4892045976485363 0 0.096876661376123455 -0.48080012839020431 0 0.069142552082564368 -0.5 0 0.090750313396975479 -0.5 0 0.082735946582200875 -0.4892045976485363 0 0.1123580747113867 -0.50000000000000033 0 0.1124728586670535 -0.48406595427175642 0 0.096876661376123455 -0.48080012839020431 0 0.090750313396975479 -0.5 0 0.1123580747113867 -0.50000000000000033 0 0.096876661376123455 -0.48080012839020431 0 0.1123580747113867 -0.50000000000000033 0 0.096876661376123455 -0.48080012839020431 0 0.1123580747113867 -0.50000000000000033 0 0.12042562725185831 -0.49999999999999989 0 0.1124728586670535 -0.48406595427175642 0 0.12042562725185831 -0.49999999999999989 0 0.1124728586670535 -0.48406595427175642 0 0.12432460327697011 -0.47341498538026422 0 0.12042562725185831 -0.49999999999999989 0 0.12432460327697011 -0.47341498538026422 0 0.1124728586670535 -0.48406595427175642 0 0.12432460327697011 -0.47341498538026422 0 0.1082250197838846 -0.46311527911574241 0 0.096876661376123455 -0.48080012839020431 0 0.095349939854524335 -0.46404107218864848 0 0.1082250197838846 -0.46311527911574241 0 0.1124728586670535 -0.48406595427175642 0 0.096876661376123455 -0.48080012839020431 0 0.1082250197838846 -0.46311527911574241 0 0.095349939854524335 -0.46404107218864848 0 0.1082250197838846 -0.46311527911574241 0 0.094902830217228867 -0.45064862446823939 0 0.128223579302082 -0.44682997076052833 0 0.12432460327697011 -0.47341498538026422 0 0.1082250197838846 -0.46311527911574241 0 0.128223579302082 -0.44682997076052833 0 0.1069391861142964 -0.44299064961396012 0 0.1159996351348133 -0.43474120747525058 0 0.128223579302082 -0.44682997076052833 0 0.1082250197838846 -0.46311527911574241 0 0.1069391861142964 -0.44299064961396012 0 0.1082250197838846 -0.46311527911574241 0 0.1069391861142964 -0.44299064961396012 0 0.094902830217228867 -0.45064862446823939 0 0.1069391861142964 -0.44299064961396012 0 0.091812697424993442 -0.4386357446441016 0 0.098414951810672224 -0.43233268446502993 0 0.1069391861142964 -0.44299064961396012 0 0.094902830217228867 -0.45064862446823939 0 0.091812697424993442 -0.4386357446441016 0 0.094902830217228867 -0.45064862446823939 0 0.091812697424993442 -0.4386357446441016 0 0.082434724511159588 -0.44537142502386151 0 0.094902830217228867 -0.45064862446823939 0 0.082434724511159588 -0.44537142502386151 0 0.081395248040860374 -0.46160025678040811 0 0.091812697424993442 -0.4386357446441016 0 0.082434724511159588 -0.44537142502386151 0 0.078149012167117934 -0.43357211405594609 0 0.095349939854524335 -0.46404107218864848 0 0.094902830217228867 -0.45064862446823939 0 0.081395248040860374 -0.46160025678040811 0 0.067447632246636219 -0.45716428258124142 0 0.065913834705597293 -0.44240038517061198 0 0.057068655694905858 -0.46015288389510001 0 0.067447632246636219 -0.45716428258124142 0 0.05849497948899289 -0.47642287528831911 0 0.067807169338226503 -0.47162472659107291 0 0.067447632246636219 -0.45716428258124142 0 0.061758178687080389 -0.47580514524370598 0 0.081395248040860374 -0.46160025678040811 0 0.067447632246636219 -0.45716428258124142 0 0.065913834705597293 -0.44240038517061198 0 0.073180054077148754 -0.46968413697177741 0 0.081395248040860374 -0.46160025678040811 0 0.067447632246636219 -0.45716428258124142 0 0.067807169338226503 -0.47162472659107291 0 0.073180054077148754 -0.46968413697177741 0 0.067447632246636219 -0.45716428258124142 0 0.081395248040860374 -0.46160025678040811 0 0.065913834705597293 -0.44240038517061198 0 0.082434724511159588 -0.44537142502386151 0 0.081395248040860374 -0.46160025678040811 0 0.065913834705597293 -0.44240038517061198 0 0.082434724511159588 -0.44537142502386151 0 0.065913834705597293 -0.44240038517061198 0 0.078149012167117934 -0.43357211405594609 0 0.065921365320016911 -0.4273577277455588 0 0.073982485551444349 -0.42005290588181732 0 0.078149012167117934 -0.43357211405594609 0 0.065913834705597293 -0.44240038517061198 0 0.065921365320016911 -0.4273577277455588 0 0.078149012167117934 -0.43357211405594609 0 0.073982485551444349 -0.42005290588181732 0 0.069775570718114244 -0.40426700169235308 0 0.060774245729122177 -0.41691050055794487 0 0.065921365320016911 -0.4273577277455588 0 0.073982485551444349 -0.42005290588181732 0 0.060774245729122177 -0.41691050055794487 0 0.073982485551444349 -0.42005290588181732 0 0.086447448161059384 -0.41120764722282821 0 0.069775570718114244 -0.40426700169235308 0 0.073982485551444349 -0.42005290588181732 0 0.086447448161059384 -0.41120764722282821 0 0.088692331433278357 -0.42535053834926723 0 0.086447448161059384 -0.41120764722282821 0 0.093827427438274241 -0.41775801958915132 0 0.099702730965631758 -0.41290181884877419 0 0.086447448161059384 -0.41120764722282821 0 0.088692331433278357 -0.42535053834926723 0 0.093827427438274241 -0.41775801958915132 0 0.088692331433278357 -0.42535053834926723 0 0.097645949564215143 -0.42435504664253748 0 0.093827427438274241 -0.41775801958915132 0 0.073982485551444349 -0.42005290588181732 0 0.088692331433278357 -0.42535053834926723 0 0.078149012167117934 -0.43357211405594609 0 0.091812697424993442 -0.4386357446441016 0 0.088692331433278357 -0.42535053834926723 0 0.078149012167117934 -0.43357211405594609 0 0.091812697424993442 -0.4386357446441016 0 0.088692331433278357 -0.42535053834926723 0 0.098414951810672224 -0.43233268446502993 0 0.098414951810672224 -0.43233268446502993 0 0.097645949564215143 -0.42435504664253748 0 0.1061961683754654 -0.43004895598907111 0 0.088692331433278357 -0.42535053834926723 0 0.098414951810672224 -0.43233268446502993 0 0.097645949564215143 -0.42435504664253748 0 0.1061961683754654 -0.43004895598907111 0 0.11152958735588871 -0.42539382439527612 0 0.1045809803654715 -0.42051706085107571 0 0.097645949564215143 -0.42435504664253748 0 0.1061961683754654 -0.43004895598907111 0 0.1045809803654715 -0.42051706085107571 0 0.1069391861142964 -0.44299064961396012 0 0.098414951810672224 -0.43233268446502993 0 0.1061961683754654 -0.43004895598907111 0 0.1061961683754654 -0.43004895598907111 0 0.1159996351348133 -0.43474120747525058 0 0.11152958735588871 -0.42539382439527612 0 0.13212255532719441 -0.42024495614079282 0 0.1159996351348133 -0.43474120747525058 0 0.11851153239627241 -0.42275952171654291 0 0.1069391861142964 -0.44299064961396012 0 0.1061961683754654 -0.43004895598907111 0 0.1159996351348133 -0.43474120747525058 0 0.1159996351348133 -0.43474120747525058 0 0.11152958735588871 -0.42539382439527612 0 0.11851153239627241 -0.42275952171654291 0 0.11152958735588871 -0.42539382439527612 0 0.11851153239627241 -0.42275952171654291 0 0.1123596205074209 -0.41890237594444008 0 0.1250254850364893 -0.40936224001308058 0 0.117866085899093 -0.41583132647739651 0 0.1096180349996463 -0.41151587164058129 0 0.1250254850364893 -0.40936224001308058 0 0.1096180349996463 -0.41151587164058129 0 0.13212255532719441 -0.42024495614079282 0 0.11851153239627241 -0.42275952171654291 0 0.117866085899093 -0.41583132647739651 0 0.117866085899093 -0.41583132647739651 0 0.1123596205074209 -0.41890237594444008 0 0.1096180349996463 -0.41151587164058129 0 0.11851153239627241 -0.42275952171654291 0 0.117866085899093 -0.41583132647739651 0 0.1123596205074209 -0.41890237594444008 0 0.11152958735588871 -0.42539382439527612 0 0.1123596205074209 -0.41890237594444008 0 0.1045809803654715 -0.42051706085107571 0 0.1123596205074209 -0.41890237594444008 0 0.1096180349996463 -0.41151587164058129 0 0.1065506547415149 -0.41613106226330793 0 0.1096180349996463 -0.41151587164058129 0 0.1065506547415149 -0.41613106226330793 0 0.099702730965631758 -0.41290181884877419 0 0.1096180349996463 -0.41151587164058129 0 0.099702730965631758 -0.41290181884877419 0 0.1096180349996463 -0.41151587164058129 0 0.099702730965631758 -0.41290181884877419 0 0.1041447551606165 -0.40305668800175581 0 0.1123596205074209 -0.41890237594444008 0 0.1065506547415149 -0.41613106226330793 0 0.1045809803654715 -0.42051706085107571 0 0.1065506547415149 -0.41613106226330793 0 0.1045809803654715 -0.42051706085107571 0 0.099702730965631758 -0.41290181884877419 0 0.1045809803654715 -0.42051706085107571 0 0.093827427438274241 -0.41775801958915132 0 0.099702730965631758 -0.41290181884877419 0 0.097645949564215143 -0.42435504664253748 0 0.1045809803654715 -0.42051706085107571 0 0.093827427438274241 -0.41775801958915132 0 0.086447448161059384 -0.41120764722282821 0 0.099702730965631758 -0.41290181884877419 0 0.095691580682652475 -0.39908469234235189 0 0.095691580682652475 -0.39908469234235189 0 0.1041447551606165 -0.40305668800175581 0 0.1115666739945345 -0.38872436917531578 0 0.099702730965631758 -0.41290181884877419 0 0.095691580682652475 -0.39908469234235189 0 0.1041447551606165 -0.40305668800175581 0 0.1096180349996463 -0.41151587164058129 0 0.1041447551606165 -0.40305668800175581 0 0.1115666739945345 -0.38872436917531578 0 0.1250254850364893 -0.40936224001308058 0 0.1115666739945345 -0.38872436917531578 0 0.1096180349996463 -0.41151587164058129 0 0.1115666739945345 -0.38872436917531578 0 0.1250254850364893 -0.40936224001308058 0 0.1096180349996463 -0.41151587164058129 0 0.1115666739945345 -0.38872436917531578 0 0.12645644117523869 -0.39722706905544619 0 0.1250254850364893 -0.40936224001308058 0 0.1115666739945345 -0.38872436917531578 0 0.12609635470998201 -0.38402791619100712 0 0.1115666739945345 -0.38872436917531578 0 0.113745377556003 -0.36324200547299851 0 0.1115666739945345 -0.38872436917531578 0 0.113745377556003 -0.36324200547299851 0 0.12609635470998201 -0.38402791619100712 0 0.12645644117523869 -0.39722706905544619 0 0.1115666739945345 -0.38872436917531578 0 0.1115666739945345 -0.38872436917531578 0 0.096372132326470572 -0.36542491223168638 0 0.1115666739945345 -0.38872436917531578 0 0.089853218628298884 -0.38394717958202601 0 0.096372132326470572 -0.36542491223168638 0 0.095691580682652475 -0.39908469234235189 0 0.1115666739945345 -0.38872436917531578 0 0.089853218628298884 -0.38394717958202601 0 0.089853218628298884 -0.38394717958202601 0 0.082924844884061683 -0.39714926844771359 0 0.072939106935086151 -0.38728773006234168 0 0.089853218628298884 -0.38394717958202601 0 0.072939106935086151 -0.38728773006234168 0 0.07582030708563034 -0.37256671738353597 0 0.095691580682652475 -0.39908469234235189 0 0.089853218628298884 -0.38394717958202601 0 0.082924844884061683 -0.39714926844771359 0 0.086447448161059384 -0.41120764722282821 0 0.082924844884061683 -0.39714926844771359 0 0.069775570718114244 -0.40426700169235308 0 0.086447448161059384 -0.41120764722282821 0 0.095691580682652475 -0.39908469234235189 0 0.082924844884061683 -0.39714926844771359 0 0.069775570718114244 -0.40426700169235308 0 0.072939106935086151 -0.38728773006234168 0 0.058313699768321348 -0.39007371912844929 0 0.082924844884061683 -0.39714926844771359 0 0.069775570718114244 -0.40426700169235308 0 0.072939106935086151 -0.38728773006234168 0 0.072939106935086151 -0.38728773006234168 0 0.05933500968155693 -0.37671477575793533 0 0.058313699768321348 -0.39007371912844929 0 0.072939106935086151 -0.38728773006234168 0 0.05933500968155693 -0.37671477575793533 0 0.07582030708563034 -0.37256671738353597 0 0.05933500968155693 -0.37671477575793533 0 0.043300396670470892 -0.38581293046691678 0 0.039079294002052851 -0.37065651216905859 0 0.05933500968155693 -0.37671477575793533 0 0.058313699768321348 -0.39007371912844929 0 0.043300396670470892 -0.38581293046691678 0 0.058313699768321348 -0.39007371912844929 0 0.0466875803122518 -0.39705513158652528 0 0.054373060569327003 -0.40663711634463268 0 0.069775570718114244 -0.40426700169235308 0 0.058313699768321348 -0.39007371912844929 0 0.054373060569327003 -0.40663711634463268 0 0.058313699768321348 -0.39007371912844929 0 0.054373060569327003 -0.40663711634463268 0 0.0466875803122518 -0.39705513158652528 0 0.042121557959679479 -0.40689397827368962 0 0.054373060569327003 -0.40663711634463268 0 0.058313699768321348 -0.39007371912844929 0 0.0466875803122518 -0.39705513158652528 0 0.043300396670470892 -0.38581293046691678 0 0.0466875803122518 -0.39705513158652528 0 0.032645317368698572 -0.39721328630736241 0 0.043300396670470892 -0.38581293046691678 0 0.0466875803122518 -0.39705513158652528 0 0.032645317368698572 -0.39721328630736241 0 0.042121557959679479 -0.40689397827368962 0 0.032645317368698572 -0.39721328630736241 0 0.043300396670470892 -0.38581293046691678 0 0.025542853711361019 -0.38384675294920401 0 0.043300396670470892 -0.38581293046691678 0 0.025542853711361019 -0.38384675294920401 0 0.039079294002052851 -0.37065651216905859 0 0.025542853711361019 -0.38384675294920401 0 0.009690974369139977 -0.39295199195252922 0 0.016784443680880379 -0.36713146693108112 0 -0.0064694903547723136 -0.38059021958606692 0 0.009690974369139977 -0.39295199195252922 0 0.016784443680880379 -0.36713146693108112 0 0.032645317368698572 -0.39721328630736241 0 0.009690974369139977 -0.39295199195252922 0 0.030062121183744069 -0.41560348860952728 0 0.032645317368698572 -0.39721328630736241 0 0.025542853711361019 -0.38384675294920401 0 0.009690974369139977 -0.39295199195252922 0 0.009690974369139977 -0.39295199195252922 0 0.030062121183744069 -0.41560348860952728 0 0.01224976062295041 -0.42183763890738629 0 -0.0080625817845775948 -0.40608726553411861 0 0.009690974369139977 -0.39295199195252922 0 0.01224976062295041 -0.42183763890738629 0 0.009690974369139977 -0.39295199195252922 0 0.01224976062295041 -0.42183763890738629 0 0.01224976062295041 -0.42183763890738629 0 0.01480854687676085 -0.45072328586224342 0 0.030062121183744069 -0.41560348860952728 0 0.01224976062295041 -0.42183763890738629 0 0.028535899264767479 -0.43733174884408438 0 0.01224976062295041 -0.42183763890738629 0 0.028535899264767479 -0.43733174884408438 0 0.01480854687676085 -0.45072328586224342 0 0.030062121183744069 -0.41560348860952728 0 0.028535899264767479 -0.43733174884408438 0 0.039909128579099777 -0.42893709763038412 0 0.039909128579099777 -0.42893709763038412 0 0.050432421370333713 -0.42320051356081623 0 0.04400553312424714 -0.45021417746364167 0 0.039909128579099777 -0.42893709763038412 0 0.046509667952406512 -0.41833555967385072 0 0.050432421370333713 -0.42320051356081623 0 0.032645317368698572 -0.39721328630736241 0 0.030062121183744069 -0.41560348860952728 0 0.042121557959679479 -0.40689397827368962 0 0.030062121183744069 -0.41560348860952728 0 0.039909128579099777 -0.42893709763038412 0 0.046509667952406512 -0.41833555967385072 0 0.030062121183744069 -0.41560348860952728 0 0.042121557959679479 -0.40689397827368962 0 0.046509667952406512 -0.41833555967385072 0 0.054373060569327003 -0.40663711634463268 0 0.050432421370333713 -0.42320051356081623 0 0.046509667952406512 -0.41833555967385072 0 0.054373060569327003 -0.40663711634463268 0 0.050432421370333713 -0.42320051356081623 0 0.054373060569327003 -0.40663711634463268 0 0.060774245729122177 -0.41691050055794487 0 0.050432421370333713 -0.42320051356081623 0 0.046509667952406512 -0.41833555967385072 0 0.050432421370333713 -0.42320051356081623 0 0.042121557959679479 -0.40689397827368962 0 0.046509667952406512 -0.41833555967385072 0 0.054373060569327003 -0.40663711634463268 0 0.069775570718114244 -0.40426700169235308 0 0.054373060569327003 -0.40663711634463268 0 0.060774245729122177 -0.41691050055794487 0 0.050432421370333713 -0.42320051356081623 0 0.04400553312424714 -0.45021417746364167 0 0.065913834705597293 -0.44240038517061198 0 0.050432421370333713 -0.42320051356081623 0 0.065913834705597293 -0.44240038517061198 0 0.065921365320016911 -0.4273577277455588 0 0.050432421370333713 -0.42320051356081623 0 0.065921365320016911 -0.4273577277455588 0 0.060774245729122177 -0.41691050055794487 0 0.050432421370333713 -0.42320051356081623 0 0.065913834705597293 -0.44240038517061198 0 0.050432421370333713 -0.42320051356081623 0 0.04400553312424714 -0.45021417746364167 0 0.065913834705597293 -0.44240038517061198 0 0.057068655694905858 -0.46015288389510001 0 0.04400553312424714 -0.45021417746364167 0 0.057068655694905858 -0.46015288389510001 0 0.048043393468649283 -0.46676160836513853 0 0.04400553312424714 -0.45021417746364167 0 0.067447632246636219 -0.45716428258124142 0 0.057068655694905858 -0.46015288389510001 0 0.05849497948899289 -0.47642287528831911 0 0.057068655694905858 -0.46015288389510001 0 0.048043393468649283 -0.46676160836513853 0 0.052635520687858477 -0.47072247146996382 0 0.04400553312424714 -0.45021417746364167 0 0.037578644878161642 -0.47722784136646751 0 0.048043393468649283 -0.46676160836513853 0 0.04400553312424714 -0.45021417746364167 0 0.037578644878161642 -0.47722784136646751 0 0.04400553312424714 -0.45021417746364167 0 0.030366658319331299 -0.45781827645911538 0 0.037578644878161642 -0.47722784136646751 0 0.028535899264767479 -0.43733174884408438 0 0.039909128579099777 -0.42893709763038412 0 0.04400553312424714 -0.45021417746364167 0 0.028535899264767479 -0.43733174884408438 0 0.04400553312424714 -0.45021417746364167 0 0.030366658319331299 -0.45781827645911538 0 0.028535899264767479 -0.43733174884408438 0 0.01480854687676085 -0.45072328586224342 0 0.030366658319331299 -0.45781827645911538 0 -0.008216644178786571 -0.4466179140804285 0 0.01224976062295041 -0.42183763890738629 0 0.01480854687676085 -0.45072328586224342 0 0.01480854687676085 -0.45072328586224342 0 0.017367333130571299 -0.47960893281710049 0 0.0084119176919832291 -0.471974008478943 0 -0.0021957942935651631 -0.46571035637089769 0 0.01480854687676085 -0.45072328586224342 0 0.0084119176919832291 -0.471974008478943 0 -0.008216644178786571 -0.4466179140804285 0 -0.0021957942935651631 -0.46571035637089769 0 0.01480854687676085 -0.45072328586224342 0 0.01480854687676085 -0.45072328586224342 0 0.017367333130571299 -0.47960893281710049 0 0.01480854687676085 -0.45072328586224342 0 0.030366658319331299 -0.45781827645911538 0 0.0269046674527194 -0.47359432875914009 0 0.01480854687676085 -0.45072328586224342 0 0.0269046674527194 -0.47359432875914009 0 0.017367333130571299 -0.47960893281710049 0 0.017367333130571299 -0.47960893281710049 0 0.012735562036971701 -0.48508522326900949 0 0.035615270762982369 -0.48075404927866472 0 0.012735562036971701 -0.48508522326900949 0 0.035615270762982369 -0.48075404927866472 0 0.0269046674527194 -0.47359432875914009 0 0.017367333130571299 -0.47960893281710049 0 0.035615270762982369 -0.48075404927866472 0 0.017367333130571299 -0.47960893281710049 0 0.0084119176919832291 -0.471974008478943 0 0.012735562036971701 -0.48508522326900949 0 -0.00065605929082254884 -0.47874224407546379 0 0.0084119176919832291 -0.471974008478943 0 0.012735562036971701 -0.48508522326900949 0 -0.0021957942935651631 -0.46571035637089769 0 -0.00065605929082254884 -0.47874224407546379 0 0.0084119176919832291 -0.471974008478943 0 -0.010144146689038991 -0.48941639725935437 0 -0.00065605929082254884 -0.47874224407546379 0 0.012735562036971701 -0.48508522326900949 0 -0.010144146689038991 -0.48941639725935437 0 0.012735562036971701 -0.48508522326900949 0 -0.011489863113854141 -0.5 0 0.012735562036971701 -0.48508522326900949 0 0.01802246382714956 -0.5 0 0.01802246382714956 -0.5 0 0.025329369399590369 -0.48901546815995378 0 0.047534790768153173 -0.50000000000000044 0 0.012735562036971701 -0.48508522326900949 0 0.025329369399590369 -0.48901546815995378 0 0.035615270762982369 -0.48075404927866472 0 0.012735562036971701 -0.48508522326900949 0 0.01802246382714956 -0.5 0 0.025329369399590369 -0.48901546815995378 0 0.025329369399590369 -0.48901546815995378 0 0.035615270762982369 -0.48075404927866472 0 0.047534790768153173 -0.50000000000000044 0 0.030366658319331299 -0.45781827645911538 0 0.0269046674527194 -0.47359432875914009 0 0.037578644878161642 -0.47722784136646751 0 0.0269046674527194 -0.47359432875914009 0 0.037578644878161642 -0.47722784136646751 0 0.035615270762982369 -0.48075404927866472 0 0.048043393468649283 -0.46676160836513853 0 0.037578644878161642 -0.47722784136646751 0 0.046296380844488463 -0.47463440362945558 0 0.035615270762982369 -0.48075404927866472 0 0.046296380844488463 -0.47463440362945558 0 0.049693011087844949 -0.4756354888466594 0 0.037578644878161642 -0.47722784136646751 0 0.035615270762982369 -0.48075404927866472 0 0.046296380844488463 -0.47463440362945558 0 0.057068655694905858 -0.46015288389510001 0 0.052635520687858477 -0.47072247146996382 0 0.05849497948899289 -0.47642287528831911 0 0.035615270762982369 -0.48075404927866472 0 0.049693011087844949 -0.4756354888466594 0 0.05849497948899289 -0.47642287528831911 0 0.035615270762982369 -0.48075404927866472 0 0.05849497948899289 -0.47642287528831911 0 0.048043393468649283 -0.46676160836513853 0 0.046296380844488463 -0.47463440362945558 0 0.052635520687858477 -0.47072247146996382 0 0.049693011087844949 -0.4756354888466594 0 0.052635520687858477 -0.47072247146996382 0 0.05849497948899289 -0.47642287528831911 0 0.046296380844488463 -0.47463440362945558 0 0.049693011087844949 -0.4756354888466594 0 0.052635520687858477 -0.47072247146996382 0 0.05849497948899289 -0.47642287528831911 0 0.061758178687080389 -0.47580514524370598 0 0.062670741706174135 -0.48944359682069549 0 0.064881374578912687 -0.4815757870058418 0 0.05849497948899289 -0.47642287528831911 0 0.064881374578912687 -0.4815757870058418 0 0.05849497948899289 -0.47642287528831911 0 0.061758178687080389 -0.47580514524370598 0 0.069142552082564368 -0.5 0 0.062670741706174135 -0.48944359682069549 0 0.047534790768153173 -0.50000000000000044 0 0.05849497948899289 -0.47642287528831911 0 0.047534790768153173 -0.50000000000000044 0 0.035615270762982369 -0.48075404927866472 0 0.05849497948899289 -0.47642287528831911 0 0.047534790768153173 -0.50000000000000044 0 0.062670741706174135 -0.48944359682069549 0 0.05849497948899289 -0.47642287528831911 0 0.047534790768153173 -0.50000000000000044 0 0.089727975817252392 -0.29646224842349211 0 0.069967983226982527 -0.30495776272600778 0 0.075483032258224086 -0.28815868119130272 0 0.089727975817252392 -0.29646224842349211 0 0.088503230311337153 -0.27716835087377989 0 0.101883582619993 -0.28460947857741209 0 0.089727975817252392 -0.29646224842349211 0 0.075483032258224086 -0.28815868119130272 0 0.088503230311337153 -0.27716835087377989 0 0.089727975817252392 -0.29646224842349211 0 0.086214248119208581 -0.31193359067875348 0 0.069967983226982527 -0.30495776272600778 0 0.089727975817252392 -0.29646224842349211 0 0.086214248119208581 -0.31193359067875348 0 0.10049372866807189 -0.31082656242210721 0 0.069967983226982527 -0.30495776272600778 0 0.075483032258224086 -0.28815868119130272 0 0.059449054433483903 -0.28956707473318272 0 0.075483032258224086 -0.28815868119130272 0 0.0646939085167762 -0.2722383315448984 0 0.059449054433483903 -0.28956707473318272 0 0.0646939085167762 -0.2722383315448984 0 0.077350866508299074 -0.27549126298099152 0 0.080723294946858856 -0.26439968831398508 0 0.075483032258224086 -0.28815868119130272 0 0.0646939085167762 -0.2722383315448984 0 0.077350866508299074 -0.27549126298099152 0 0.0646939085167762 -0.2722383315448984 0 0.070005134957367529 -0.25889031236374099 0 0.080723294946858856 -0.26439968831398508 0 0.070005134957367529 -0.25889031236374099 0 0.061490933840310687 -0.25382890142296882 0 0.070069103552599196 -0.24823964670048029 0 0.0646939085167762 -0.2722383315448984 0 0.070005134957367529 -0.25889031236374099 0 0.060614126731859473 -0.2624009925450973 0 0.070005134957367529 -0.25889031236374099 0 0.061490933840310687 -0.25382890142296882 0 0.060614126731859473 -0.2624009925450973 0 0.070005134957367529 -0.25889031236374099 0 0.080071368274292315 -0.25145738896057979 0 0.080723294946858856 -0.26439968831398508 0 0.070005134957367529 -0.25889031236374099 0 0.080071368274292315 -0.25145738896057979 0 0.070069103552599196 -0.24823964670048029 0 0.080071368274292315 -0.25145738896057979 0 0.080723294946858856 -0.26439968831398508 0 0.090706365013478091 -0.25245448435890872 0 0.080723294946858856 -0.26439968831398508 0 0.090706365013478091 -0.25245448435890872 0 0.095060577752172304 -0.26241188567384149 0 0.075483032258224086 -0.28815868119130272 0 0.077350866508299074 -0.27549126298099152 0 0.088503230311337153 -0.27716835087377989 0 0.077350866508299074 -0.27549126298099152 0 0.080723294946858856 -0.26439968831398508 0 0.088503230311337153 -0.27716835087377989 0 0.080723294946858856 -0.26439968831398508 0 0.088503230311337153 -0.27716835087377989 0 0.095060577752172304 -0.26241188567384149 0 0.088503230311337153 -0.27716835087377989 0 0.1016952336099234 -0.27235330725820578 0 0.101883582619993 -0.28460947857741209 0 0.088503230311337153 -0.27716835087377989 0 0.1016952336099234 -0.27235330725820578 0 0.095060577752172304 -0.26241188567384149 0 0.1016952336099234 -0.27235330725820578 0 0.1104739380917857 -0.2612093749811526 0 0.1125548392743288 -0.27636744618484282 0 0.1016952336099234 -0.27235330725820578 0 0.1125548392743288 -0.27636744618484282 0 0.101883582619993 -0.28460947857741209 0 0.090706365013478091 -0.25245448435890872 0 0.099550463170151926 -0.25262580003909579 0 0.095060577752172304 -0.26241188567384149 0 0.1016952336099234 -0.27235330725820578 0 0.095060577752172304 -0.26241188567384149 0 0.1104739380917857 -0.2612093749811526 0 0.099550463170151926 -0.25262580003909579 0 0.095060577752172304 -0.26241188567384149 0 0.1104739380917857 -0.2612093749811526 0 0.099550463170151926 -0.25262580003909579 0 0.1104739380917857 -0.2612093749811526 0 0.1078238037173969 -0.24832262031645649 0 0.1311170075682456 -0.27142576198599933 0 0.1104739380917857 -0.2612093749811526 0 0.1212054647883809 -0.25073068226796852 0 0.1104739380917857 -0.2612093749811526 0 0.1212054647883809 -0.25073068226796852 0 0.1078238037173969 -0.24832262031645649 0 0.1311170075682456 -0.27142576198599933 0 0.1104739380917857 -0.2612093749811526 0 0.1311170075682456 -0.27142576198599933 0 0.1104739380917857 -0.2612093749811526 0 0.1193620271946058 -0.27249351692823448 0 0.1104739380917857 -0.2612093749811526 0 0.1125548392743288 -0.27636744618484282 0 0.1193620271946058 -0.27249351692823448 0 0.1125548392743288 -0.27636744618484282 0 0.1193620271946058 -0.27249351692823448 0 0.1233023238440631 -0.28097148456094378 0 0.1311170075682456 -0.27142576198599933 0 0.1193620271946058 -0.27249351692823448 0 0.1233023238440631 -0.28097148456094378 0 0.1233023238440631 -0.28097148456094378 0 0.1242383748246253 -0.29131174999725179 0 0.1141297936923768 -0.28878453930630188 0 0.1242383748246253 -0.29131174999725179 0 0.1141297936923768 -0.28878453930630188 0 0.1198701537204314 -0.30089140532399938 0 0.1141297936923768 -0.28878453930630188 0 0.10622170970645189 -0.29895353846799488 0 0.1198701537204314 -0.30089140532399938 0 0.1125548392743288 -0.27636744618484282 0 0.1233023238440631 -0.28097148456094378 0 0.1141297936923768 -0.28878453930630188 0 0.1125548392743288 -0.27636744618484282 0 0.1141297936923768 -0.28878453930630188 0 0.101883582619993 -0.28460947857741209 0 0.089727975817252392 -0.29646224842349211 0 0.101883582619993 -0.28460947857741209 0 0.10622170970645189 -0.29895353846799488 0 0.1141297936923768 -0.28878453930630188 0 0.101883582619993 -0.28460947857741209 0 0.10622170970645189 -0.29895353846799488 0 0.089727975817252392 -0.29646224842349211 0 0.10049372866807189 -0.31082656242210721 0 0.10622170970645189 -0.29895353846799488 0 0.10049372866807189 -0.31082656242210721 0 0.10622170970645189 -0.29895353846799488 0 0.1134387524627216 -0.31086840579325631 0 0.10622170970645189 -0.29895353846799488 0 0.1134387524627216 -0.31086840579325631 0 0.1198701537204314 -0.30089140532399938 0 0.1265219532001009 -0.3124330460259736 0 0.1134387524627216 -0.31086840579325631 0 0.1198701537204314 -0.30089140532399938 0 0.1265219532001009 -0.3124330460259736 0 0.1134387524627216 -0.31086840579325631 0 0.1192961391526948 -0.32261879728377291 0 0.1134387524627216 -0.31086840579325631 0 0.1192961391526948 -0.32261879728377291 0 0.1082288303285789 -0.31948708523568958 0 0.1192961391526948 -0.32261879728377291 0 0.1093748658769356 -0.32997486192450581 0 0.1082288303285789 -0.31948708523568958 0 0.1192961391526948 -0.32261879728377291 0 0.1168506625355451 -0.3296807312869221 0 0.1093748658769356 -0.32997486192450581 0 0.1192961391526948 -0.32261879728377291 0 0.12260601330919629 -0.33072698382653798 0 0.1168506625355451 -0.3296807312869221 0 0.13219802669416811 -0.32498852212276208 0 0.1192961391526948 -0.32261879728377291 0 0.12260601330919629 -0.33072698382653798 0 0.13051916655351839 -0.33696304048325831 0 0.12260601330919629 -0.33072698382653798 0 0.1159240811174677 -0.33775964177068091 0 0.12260601330919629 -0.33072698382653798 0 0.1159240811174677 -0.33775964177068091 0 0.1161256318033537 -0.33540228211287182 0 0.12260601330919629 -0.33072698382653798 0 0.1168506625355451 -0.3296807312869221 0 0.1161256318033537 -0.33540228211287182 0 0.13051916655351839 -0.33696304048325831 0 0.1159240811174677 -0.33775964177068091 0 0.13051916655351839 -0.33696304048325831 0 0.1159240811174677 -0.33775964177068091 0 0.123981461538115 -0.35128285539313481 0 0.1159240811174677 -0.33775964177068091 0 0.1161256318033537 -0.33540228211287182 0 0.1168506625355451 -0.3296807312869221 0 0.1161256318033537 -0.33540228211287182 0 0.1093748658769356 -0.32997486192450581 0 0.1159240811174677 -0.33775964177068091 0 0.1161256318033537 -0.33540228211287182 0 0.1093748658769356 -0.32997486192450581 0 0.1159240811174677 -0.33775964177068091 0 0.092335912071574502 -0.33904708650077298 0 0.1159240811174677 -0.33775964177068091 0 0.1093748658769356 -0.32997486192450581 0 0.092335912071574502 -0.33904708650077298 0 0.1093748658769356 -0.32997486192450581 0 0.096347407600029022 -0.32440529872184809 0 0.092335912071574502 -0.33904708650077298 0 0.1159240811174677 -0.33775964177068091 0 0.10211321446004019 -0.35101158716873732 0 0.092335912071574502 -0.33904708650077298 0 0.086214248119208581 -0.31193359067875348 0 0.10049372866807189 -0.31082656242210721 0 0.096347407600029022 -0.32440529872184809 0 0.10049372866807189 -0.31082656242210721 0 0.1134387524627216 -0.31086840579325631 0 0.1082288303285789 -0.31948708523568958 0 0.10049372866807189 -0.31082656242210721 0 0.096347407600029022 -0.32440529872184809 0 0.1082288303285789 -0.31948708523568958 0 0.1093748658769356 -0.32997486192450581 0 0.096347407600029022 -0.32440529872184809 0 0.1082288303285789 -0.31948708523568958 0 0.12784456261830821 -0.36308533366748658 0 0.12609635470998201 -0.38402791619100712 0 0.113745377556003 -0.36324200547299851 0 0.1159240811174677 -0.33775964177068091 0 0.113745377556003 -0.36324200547299851 0 0.123981461538115 -0.35128285539313481 0 0.1159240811174677 -0.33775964177068091 0 0.113745377556003 -0.36324200547299851 0 0.1159240811174677 -0.33775964177068091 0 0.113745377556003 -0.36324200547299851 0 0.10211321446004019 -0.35101158716873732 0 0.12784456261830821 -0.36308533366748658 0 0.113745377556003 -0.36324200547299851 0 0.123981461538115 -0.35128285539313481 0 0.1115666739945345 -0.38872436917531578 0 0.113745377556003 -0.36324200547299851 0 0.096372132326470572 -0.36542491223168638 0 0.113745377556003 -0.36324200547299851 0 0.10211321446004019 -0.35101158716873732 0 0.096372132326470572 -0.36542491223168638 0 0.089853218628298884 -0.38394717958202601 0 0.096372132326470572 -0.36542491223168638 0 0.07582030708563034 -0.37256671738353597 0 0.096372132326470572 -0.36542491223168638 0 0.082110249222110576 -0.35466523699539548 0 0.07582030708563034 -0.37256671738353597 0 0.10211321446004019 -0.35101158716873732 0 0.096372132326470572 -0.36542491223168638 0 0.082110249222110576 -0.35466523699539548 0 0.082110249222110576 -0.35466523699539548 0 0.092335912071574502 -0.33904708650077298 0 0.068747743025681235 -0.34033453123086538 0 0.10211321446004019 -0.35101158716873732 0 0.082110249222110576 -0.35466523699539548 0 0.092335912071574502 -0.33904708650077298 0 0.082110249222110576 -0.35466523699539548 0 0.068747743025681235 -0.34033453123086538 0 0.057272186363266697 -0.35960658745677498 0 0.082110249222110576 -0.35466523699539548 0 0.07582030708563034 -0.37256671738353597 0 0.057272186363266697 -0.35960658745677498 0 0.05933500968155693 -0.37671477575793533 0 0.07582030708563034 -0.37256671738353597 0 0.057272186363266697 -0.35960658745677498 0 0.086214248119208581 -0.31193359067875348 0 0.096347407600029022 -0.32440529872184809 0 0.078030795921920637 -0.32434601069550512 0 0.092335912071574502 -0.33904708650077298 0 0.068747743025681235 -0.34033453123086538 0 0.078030795921920637 -0.32434601069550512 0 0.092335912071574502 -0.33904708650077298 0 0.068747743025681235 -0.34033453123086538 0 0.096347407600029022 -0.32440529872184809 0 0.092335912071574502 -0.33904708650077298 0 0.078030795921920637 -0.32434601069550512 0 0.068747743025681235 -0.34033453123086538 0 0.078030795921920637 -0.32434601069550512 0 0.053863538987460123 -0.3232816795844588 0 0.069967983226982527 -0.30495776272600778 0 0.078030795921920637 -0.32434601069550512 0 0.053863538987460123 -0.3232816795844588 0 0.086214248119208581 -0.31193359067875348 0 0.069967983226982527 -0.30495776272600778 0 0.078030795921920637 -0.32434601069550512 0 0.068747743025681235 -0.34033453123086538 0 0.045159573979787898 -0.34162197596095778 0 0.068747743025681235 -0.34033453123086538 0 0.053863538987460123 -0.3232816795844588 0 0.045159573979787898 -0.34162197596095778 0 0.053863538987460123 -0.3232816795844588 0 0.034832013842728909 -0.33032259781876938 0 0.045159573979787898 -0.34162197596095778 0 0.034832013842728909 -0.33032259781876938 0 0.045159573979787898 -0.34162197596095778 0 0.02157140493389462 -0.34290942069105018 0 0.045159573979787898 -0.34162197596095778 0 0.02157140493389462 -0.34290942069105018 0 0.053863538987460123 -0.3232816795844588 0 0.034832013842728909 -0.33032259781876938 0 0.03621734991660093 -0.31670946998547028 0 0.053863538987460123 -0.3232816795844588 0 0.03621734991660093 -0.31670946998547028 0 0.048768037075517537 -0.30442990221103089 0 0.05933500968155693 -0.37671477575793533 0 0.057272186363266697 -0.35960658745677498 0 0.039079294002052851 -0.37065651216905859 0 0.068747743025681235 -0.34033453123086538 0 0.045159573979787898 -0.34162197596095778 0 0.057272186363266697 -0.35960658745677498 0 0.045159573979787898 -0.34162197596095778 0 0.034512899630155462 -0.3545258348651717 0 0.02157140493389462 -0.34290942069105018 0 0.045159573979787898 -0.34162197596095778 0 0.057272186363266697 -0.35960658745677498 0 0.034512899630155462 -0.3545258348651717 0 0.057272186363266697 -0.35960658745677498 0 0.034512899630155462 -0.3545258348651717 0 0.039079294002052851 -0.37065651216905859 0 0.025542853711361019 -0.38384675294920401 0 0.039079294002052851 -0.37065651216905859 0 0.016784443680880379 -0.36713146693108112 0 0.034512899630155462 -0.3545258348651717 0 0.039079294002052851 -0.37065651216905859 0 0.016784443680880379 -0.36713146693108112 0 0.034512899630155462 -0.3545258348651717 0 0.016784443680880379 -0.36713146693108112 0 0.02157140493389462 -0.34290942069105018 0 -0.0043130761299947744 -0.35643483176966217 0 0.016784443680880379 -0.36713146693108112 0 0.02157140493389462 -0.34290942069105018 0 -0.0038616663111063101 -0.33241552487502413 0 -0.0043130761299947744 -0.35643483176966217 0 0.02157140493389462 -0.34290942069105018 0 -0.0043130761299947744 -0.35643483176966217 0 -0.0064694903547723136 -0.38059021958606692 0 0.016784443680880379 -0.36713146693108112 0 0.03621734991660093 -0.31670946998547028 0 0.020048637459846991 -0.32439583124448262 0 0.029165048793799431 -0.30349547286963757 0 0.034832013842728909 -0.33032259781876938 0 0.03621734991660093 -0.31670946998547028 0 0.020048637459846991 -0.32439583124448262 0 0.020048637459846991 -0.32439583124448262 0 0.0094652366165251054 -0.31053241408104548 0 0.029165048793799431 -0.30349547286963757 0 0.034832013842728909 -0.33032259781876938 0 0.020048637459846991 -0.32439583124448262 0 0.02157140493389462 -0.34290942069105018 0 -0.0038616663111063101 -0.33241552487502413 0 0.020048637459846991 -0.32439583124448262 0 0.02157140493389462 -0.34290942069105018 0 -0.0038616663111063101 -0.33241552487502413 0 0.020048637459846991 -0.32439583124448262 0 0.0094652366165251054 -0.31053241408104548 0 -0.01007927323019326 -0.3103345258507364 0 0.0094652366165251054 -0.31053241408104548 0 0.0017563221397047381 -0.2997067901486577 0 0.0094652366165251054 -0.31053241408104548 0 0.0017563221397047381 -0.2997067901486577 0 0.017453688627786131 -0.29322190620108468 0 0.0017563221397047381 -0.2997067901486577 0 0.0066437179820165657 -0.2861171845936395 0 0.017453688627786131 -0.29322190620108468 0 -0.0080748459131490501 -0.2914060437848453 0 0.0017563221397047381 -0.2997067901486577 0 0.0066437179820165657 -0.2861171845936395 0 0.0066437179820165657 -0.2861171845936395 0 0.017453688627786131 -0.29322190620108468 0 0.01908241754038794 -0.28073467218482329 0 0.017453688627786131 -0.29322190620108468 0 0.029398966714908509 -0.28692964748338379 0 0.029165048793799431 -0.30349547286963757 0 0.017453688627786131 -0.29322190620108468 0 0.029398966714908509 -0.28692964748338379 0 0.01908241754038794 -0.28073467218482329 0 0.0094652366165251054 -0.31053241408104548 0 0.017453688627786131 -0.29322190620108468 0 0.029165048793799431 -0.30349547286963757 0 0.03621734991660093 -0.31670946998547028 0 0.029165048793799431 -0.30349547286963757 0 0.048768037075517537 -0.30442990221103089 0 0.029165048793799431 -0.30349547286963757 0 0.043029943860180789 -0.28970337243015992 0 0.048768037075517537 -0.30442990221103089 0 0.029398966714908509 -0.28692964748338379 0 0.029165048793799431 -0.30349547286963757 0 0.043029943860180789 -0.28970337243015992 0 0.029398966714908509 -0.28692964748338379 0 0.043029943860180789 -0.28970337243015992 0 0.038396769586432553 -0.27977596087564799 0 0.043029943860180789 -0.28970337243015992 0 0.051749435803858171 -0.27840569125857739 0 0.038396769586432553 -0.27977596087564799 0 0.043029943860180789 -0.28970337243015992 0 0.059449054433483903 -0.28956707473318272 0 0.051749435803858171 -0.27840569125857739 0 0.043029943860180789 -0.28970337243015992 0 0.059449054433483903 -0.28956707473318272 0 0.048768037075517537 -0.30442990221103089 0 0.069967983226982527 -0.30495776272600778 0 0.059449054433483903 -0.28956707473318272 0 0.048768037075517537 -0.30442990221103089 0 0.069967983226982527 -0.30495776272600778 0 0.053863538987460123 -0.3232816795844588 0 0.048768037075517537 -0.30442990221103089 0 0.053380735395516472 -0.25867595766617779 0 0.04428054005230446 -0.26275141268032309 0 0.045372505498807933 -0.25408090721008542 0 0.053380735395516472 -0.25867595766617779 0 0.053158010572478251 -0.26777612517812432 0 0.04428054005230446 -0.26275141268032309 0 0.053380735395516472 -0.25867595766617779 0 0.045372505498807933 -0.25408090721008542 0 0.05268811686830014 -0.24901610311096159 0 0.053380735395516472 -0.25867595766617779 0 0.061490933840310687 -0.25382890142296882 0 0.05268811686830014 -0.24901610311096159 0 0.053380735395516472 -0.25867595766617779 0 0.060614126731859473 -0.2624009925450973 0 0.053158010572478251 -0.26777612517812432 0 0.053380735395516472 -0.25867595766617779 0 0.061490933840310687 -0.25382890142296882 0 0.060614126731859473 -0.2624009925450973 0 0.0646939085167762 -0.2722383315448984 0 0.060614126731859473 -0.2624009925450973 0 0.053158010572478251 -0.26777612517812432 0 0.0646939085167762 -0.2722383315448984 0 0.059449054433483903 -0.28956707473318272 0 0.051749435803858171 -0.27840569125857739 0 0.0646939085167762 -0.2722383315448984 0 0.051749435803858171 -0.27840569125857739 0 0.053158010572478251 -0.26777612517812432 0 0.053158010572478251 -0.26777612517812432 0 0.044229316934554799 -0.27218436537367241 0 0.04428054005230446 -0.26275141268032309 0 0.051749435803858171 -0.27840569125857739 0 0.053158010572478251 -0.26777612517812432 0 0.044229316934554799 -0.27218436537367241 0 0.044229316934554799 -0.27218436537367241 0 0.031885251388666561 -0.26470215361104171 0 0.04428054005230446 -0.26275141268032309 0 0.051749435803858171 -0.27840569125857739 0 0.044229316934554799 -0.27218436537367241 0 0.038396769586432553 -0.27977596087564799 0 0.044229316934554799 -0.27218436537367241 0 0.038396769586432553 -0.27977596087564799 0 0.029696712261103771 -0.27487286106778819 0 0.029398966714908509 -0.28692964748338379 0 0.038396769586432553 -0.27977596087564799 0 0.029696712261103771 -0.27487286106778819 0 0.044229316934554799 -0.27218436537367241 0 0.031885251388666561 -0.26470215361104171 0 0.029696712261103771 -0.27487286106778819 0 0.037315510146954597 -0.25849363249326118 0 0.031885251388666561 -0.26470215361104171 0 0.04428054005230446 -0.26275141268032309 0 0.037315510146954597 -0.25849363249326118 0 0.031885251388666561 -0.26470215361104171 0 0.03069464768829987 -0.25176037071845259 0 0.037315510146954597 -0.25849363249326118 0 0.04428054005230446 -0.26275141268032309 0 0.045372505498807933 -0.25408090721008542 0 0.045372505498807933 -0.25408090721008542 0 0.03069464768829987 -0.25176037071845259 0 0.042588116356466379 -0.2448823624008481 0 0.037315510146954597 -0.25849363249326118 0 0.045372505498807933 -0.25408090721008542 0 0.03069464768829987 -0.25176037071845259 0 0.031885251388666561 -0.26470215361104171 0 0.021199614426200629 -0.26114166245967918 0 0.019908913466960752 -0.27058631964059482 0 0.031885251388666561 -0.26470215361104171 0 0.03069464768829987 -0.25176037071845259 0 0.021199614426200629 -0.26114166245967918 0 0.03069464768829987 -0.25176037071845259 0 0.021199614426200629 -0.26114166245967918 0 0.016145176335298529 -0.25210595968411048 0 0.029398966714908509 -0.28692964748338379 0 0.029696712261103771 -0.27487286106778819 0 0.01908241754038794 -0.28073467218482329 0 0.031885251388666561 -0.26470215361104171 0 0.029696712261103771 -0.27487286106778819 0 0.019908913466960752 -0.27058631964059482 0 0.019908913466960752 -0.27058631964059482 0 0.01908241754038794 -0.28073467218482329 0 0.01128192931255503 -0.27464126756021451 0 0.029696712261103771 -0.27487286106778819 0 0.019908913466960752 -0.27058631964059482 0 0.01908241754038794 -0.28073467218482329 0 -0.01145854626600548 -0.26602311564559261 0 0.01128192931255503 -0.27464126756021451 0 0.0057158633005241696 -0.26337829885565528 0 0.0066437179820165657 -0.2861171845936395 0 0.01908241754038794 -0.28073467218482329 0 0.01128192931255503 -0.27464126756021451 0 0.019908913466960752 -0.27058631964059482 0 0.01128192931255503 -0.27464126756021451 0 0.0057158633005241696 -0.26337829885565528 0 -0.002848760243290064 -0.27761611820401882 0 0.0066437179820165657 -0.2861171845936395 0 0.01128192931255503 -0.27464126756021451 0 0.016145176335298529 -0.25210595968411048 0 0.0057158633005241696 -0.26337829885565528 0 0.0054759062840018038 -0.25064707341720888 0 0.021199614426200629 -0.26114166245967918 0 0.019908913466960752 -0.27058631964059482 0 0.0057158633005241696 -0.26337829885565528 0 0.021199614426200629 -0.26114166245967918 0 0.016145176335298529 -0.25210595968411048 0 0.0057158633005241696 -0.26337829885565528 0 -0.0009620894167222515 -0.25496392916579452 0 0.0057158633005241696 -0.26337829885565528 0 0.0054759062840018038 -0.25064707341720888 0 -0.0009620894167222515 -0.25496392916579452 0 -0.0029313858115674811 -0.24854412401401971 0 0.0054759062840018038 -0.25064707341720888 0 0.0054759062840018038 -0.25064707341720888 0 0.0026199421412959989 -0.2430643023623929 0 0.011589873569895199 -0.24127835128668559 0 -0.0029313858115674811 -0.24854412401401971 0 0.0054759062840018038 -0.25064707341720888 0 0.0026199421412959989 -0.2430643023623929 0 0.016145176335298529 -0.25210595968411048 0 0.0054759062840018038 -0.25064707341720888 0 0.011589873569895199 -0.24127835128668559 0 0.011589873569895199 -0.24127835128668559 0 0.010668172172219499 -0.2272828987723072 0 0.020574075722817331 -0.2351284197632682 0 0.0026199421412959989 -0.2430643023623929 0 0.011589873569895199 -0.24127835128668559 0 0.0017465435191736189 -0.23378549097037141 0 -0.00080535468136348092 -0.21995366459000901 0 0.010668172172219499 -0.2272828987723072 0 0.01016515501406726 -0.20926501301563591 0 -0.00080535468136348092 -0.21995366459000901 0 0.0017465435191736189 -0.23378549097037141 0 0.010668172172219499 -0.2272828987723072 0 0.010668172172219499 -0.2272828987723072 0 0.02170661161633574 -0.22145314359659171 0 0.01016515501406726 -0.20926501301563591 0 0.011589873569895199 -0.24127835128668559 0 0.0017465435191736189 -0.23378549097037141 0 0.010668172172219499 -0.2272828987723072 0 0.010668172172219499 -0.2272828987723072 0 0.02170661161633574 -0.22145314359659171 0 0.020574075722817331 -0.2351284197632682 0 0.02170661161633574 -0.22145314359659171 0 0.02866695829179056 -0.22960637228307629 0 0.036392787169896093 -0.22322562645731159 0 0.02170661161633574 -0.22145314359659171 0 0.02866695829179056 -0.22960637228307629 0 0.020574075722817331 -0.2351284197632682 0 0.02866695829179056 -0.22960637228307629 0 0.020574075722817331 -0.2351284197632682 0 0.032071787069821417 -0.24054619649286721 0 0.022195152742869501 -0.2444300013669817 0 0.020574075722817331 -0.2351284197632682 0 0.032071787069821417 -0.24054619649286721 0 0.03069464768829987 -0.25176037071845259 0 0.022195152742869501 -0.2444300013669817 0 0.032071787069821417 -0.24054619649286721 0 0.03069464768829987 -0.25176037071845259 0 0.016145176335298529 -0.25210595968411048 0 0.022195152742869501 -0.2444300013669817 0 0.016145176335298529 -0.25210595968411048 0 0.011589873569895199 -0.24127835128668559 0 0.022195152742869501 -0.2444300013669817 0 0.011589873569895199 -0.24127835128668559 0 0.022195152742869501 -0.2444300013669817 0 0.020574075722817331 -0.2351284197632682 0 -0.003739977245034012 -0.19168309442994089 0 0.010514116253606281 -0.1925853606064957 0 0.01016515501406726 -0.20926501301563591 0 0.010514116253606281 -0.1925853606064957 0 0.01016515501406726 -0.20926501301563591 0 0.018596641755985681 -0.20049862993462389 0 0.02170661161633574 -0.22145314359659171 0 0.01016515501406726 -0.20926501301563591 0 0.028304225500431591 -0.20785134554231141 0 0.01016515501406726 -0.20926501301563591 0 0.028304225500431591 -0.20785134554231141 0 0.018596641755985681 -0.20049862993462389 0 0.02170661161633574 -0.22145314359659171 0 0.028304225500431591 -0.20785134554231141 0 0.036392787169896093 -0.22322562645731159 0 0.028304225500431591 -0.20785134554231141 0 0.018596641755985681 -0.20049862993462389 0 0.02540307025583758 -0.19229280057405279 0 0.010514116253606281 -0.1925853606064957 0 0.018596641755985681 -0.20049862993462389 0 0.02540307025583758 -0.19229280057405279 0 0.010514116253606281 -0.1925853606064957 0 0.02540307025583758 -0.19229280057405279 0 0.015764016274472759 -0.1812646672695073 0 0.02540307025583758 -0.19229280057405279 0 0.041440672425083092 -0.19607701236864419 0 0.030421272951226121 -0.1778391783376792 0 0.028304225500431591 -0.20785134554231141 0 0.02540307025583758 -0.19229280057405279 0 0.041440672425083092 -0.19607701236864419 0 0.041440672425083092 -0.19607701236864419 0 0.042310424588804782 -0.2140630995529598 0 0.055497750511994078 -0.2086068857692274 0 0.028304225500431591 -0.20785134554231141 0 0.041440672425083092 -0.19607701236864419 0 0.042310424588804782 -0.2140630995529598 0 0.028304225500431591 -0.20785134554231141 0 0.042310424588804782 -0.2140630995529598 0 0.036392787169896093 -0.22322562645731159 0 0.042310424588804782 -0.2140630995529598 0 0.055497750511994078 -0.2086068857692274 0 0.052955454276687589 -0.2198291654371925 0 0.062338921595789062 -0.21792006704763969 0 0.055497750511994078 -0.2086068857692274 0 0.052955454276687589 -0.2198291654371925 0 0.062338921595789062 -0.21792006704763969 0 0.055497750511994078 -0.2086068857692274 0 0.067863046951983474 -0.20503048868511209 0 0.055497750511994078 -0.2086068857692274 0 0.056257937900538298 -0.19577788601322099 0 0.067863046951983474 -0.20503048868511209 0 0.041440672425083092 -0.19607701236864419 0 0.056257937900538298 -0.19577788601322099 0 0.051449240160577621 -0.1762857105508405 0 0.041440672425083092 -0.19607701236864419 0 0.055497750511994078 -0.2086068857692274 0 0.056257937900538298 -0.19577788601322099 0 0.040491861427302538 -0.2355872617630255 0 0.042588116356466379 -0.2448823624008481 0 0.052307832003780613 -0.23884346229351339 0 0.040491861427302538 -0.2355872617630255 0 0.045866106706223042 -0.22907627795895011 0 0.052307832003780613 -0.23884346229351339 0 0.03069464768829987 -0.25176037071845259 0 0.042588116356466379 -0.2448823624008481 0 0.032071787069821417 -0.24054619649286721 0 0.040491861427302538 -0.2355872617630255 0 0.042588116356466379 -0.2448823624008481 0 0.032071787069821417 -0.24054619649286721 0 0.02866695829179056 -0.22960637228307629 0 0.040491861427302538 -0.2355872617630255 0 0.032071787069821417 -0.24054619649286721 0 0.02866695829179056 -0.22960637228307629 0 0.040491861427302538 -0.2355872617630255 0 0.036392787169896093 -0.22322562645731159 0 0.042310424588804782 -0.2140630995529598 0 0.036392787169896093 -0.22322562645731159 0 0.045866106706223042 -0.22907627795895011 0 0.040491861427302538 -0.2355872617630255 0 0.036392787169896093 -0.22322562645731159 0 0.045866106706223042 -0.22907627795895011 0 0.045866106706223042 -0.22907627795895011 0 0.058764067980626958 -0.22947949685718549 0 0.052307832003780613 -0.23884346229351339 0 0.045866106706223042 -0.22907627795895011 0 0.052955454276687589 -0.2198291654371925 0 0.058764067980626958 -0.22947949685718549 0 0.042310424588804782 -0.2140630995529598 0 0.045866106706223042 -0.22907627795895011 0 0.052955454276687589 -0.2198291654371925 0 0.062338921595789062 -0.21792006704763969 0 0.058764067980626958 -0.22947949685718549 0 0.065719467571416057 -0.22489822263154319 0 0.062338921595789062 -0.21792006704763969 0 0.052955454276687589 -0.2198291654371925 0 0.058764067980626958 -0.22947949685718549 0 0.058764067980626958 -0.22947949685718549 0 0.062159259289524899 -0.2368834247622158 0 0.052307832003780613 -0.23884346229351339 0 0.062159259289524899 -0.2368834247622158 0 0.052307832003780613 -0.23884346229351339 0 0.061229972926465738 -0.2445427902389527 0 0.045372505498807933 -0.25408090721008542 0 0.042588116356466379 -0.2448823624008481 0 0.05268811686830014 -0.24901610311096159 0 0.042588116356466379 -0.2448823624008481 0 0.052307832003780613 -0.23884346229351339 0 0.05268811686830014 -0.24901610311096159 0 0.061490933840310687 -0.25382890142296882 0 0.05268811686830014 -0.24901610311096159 0 0.061229972926465738 -0.2445427902389527 0 0.052307832003780613 -0.23884346229351339 0 0.05268811686830014 -0.24901610311096159 0 0.061229972926465738 -0.2445427902389527 0 0.061490933840310687 -0.25382890142296882 0 0.061229972926465738 -0.2445427902389527 0 0.070069103552599196 -0.24823964670048029 0 0.061229972926465738 -0.2445427902389527 0 0.070069103552599196 -0.24823964670048029 0 0.069856411684105391 -0.23913895996007839 0 0.062159259289524899 -0.2368834247622158 0 0.061229972926465738 -0.2445427902389527 0 0.069856411684105391 -0.23913895996007839 0 0.062159259289524899 -0.2368834247622158 0 0.069856411684105391 -0.23913895996007839 0 0.067142239376285745 -0.23139328163069281 0 0.069856411684105391 -0.23913895996007839 0 0.077788170153509889 -0.24196191377257101 0 0.076767606518392539 -0.23187249677345001 0 0.080071368274292315 -0.25145738896057979 0 0.070069103552599196 -0.24823964670048029 0 0.077788170153509889 -0.24196191377257101 0 0.070069103552599196 -0.24823964670048029 0 0.069856411684105391 -0.23913895996007839 0 0.077788170153509889 -0.24196191377257101 0 0.080071368274292315 -0.25145738896057979 0 0.090706365013478091 -0.25245448435890872 0 0.085906732882507178 -0.24385162082211831 0 0.080071368274292315 -0.25145738896057979 0 0.077788170153509889 -0.24196191377257101 0 0.085906732882507178 -0.24385162082211831 0 0.077788170153509889 -0.24196191377257101 0 0.085906732882507178 -0.24385162082211831 0 0.083256636250354649 -0.23616880796388259 0 0.077788170153509889 -0.24196191377257101 0 0.083256636250354649 -0.23616880796388259 0 0.076767606518392539 -0.23187249677345001 0 0.085906732882507178 -0.24385162082211831 0 0.089657973372422345 -0.23730775202069579 0 0.094006026236525903 -0.2441335510050745 0 0.085906732882507178 -0.24385162082211831 0 0.083256636250354649 -0.23616880796388259 0 0.089657973372422345 -0.23730775202069579 0 0.083256636250354649 -0.23616880796388259 0 0.089657973372422345 -0.23730775202069579 0 0.089763789457938253 -0.2306791647953326 0 0.089657973372422345 -0.23730775202069579 0 0.089763789457938253 -0.2306791647953326 0 0.096012267649498176 -0.23702186761809721 0 0.089657973372422345 -0.23730775202069579 0 0.094006026236525903 -0.2441335510050745 0 0.096012267649498176 -0.23702186761809721 0 0.090706365013478091 -0.25245448435890872 0 0.085906732882507178 -0.24385162082211831 0 0.094006026236525903 -0.2441335510050745 0 0.086446736705125371 -0.22420087797706609 0 0.091303359373345411 -0.22339335178318359 0 0.089763789457938253 -0.2306791647953326 0 0.086446736705125371 -0.22420087797706609 0 0.091303359373345411 -0.22339335178318359 0 0.086853981468707001 -0.2185547472363609 0 0.091303359373345411 -0.22339335178318359 0 0.086853981468707001 -0.2185547472363609 0 0.09077468002378962 -0.21857675351640271 0 0.091303359373345411 -0.22339335178318359 0 0.09077468002378962 -0.21857675351640271 0 0.094530837428433365 -0.22086489816084981 0 0.091303359373345411 -0.22339335178318359 0 0.089763789457938253 -0.2306791647953326 0 0.098670227838192195 -0.22970514568366851 0 0.086446736705125371 -0.22420087797706609 0 0.089763789457938253 -0.2306791647953326 0 0.083020570332336119 -0.22791650227557511 0 0.083256636250354649 -0.23616880796388259 0 0.083020570332336119 -0.22791650227557511 0 0.076767606518392539 -0.23187249677345001 0 0.083256636250354649 -0.23616880796388259 0 0.089763789457938253 -0.2306791647953326 0 0.083020570332336119 -0.22791650227557511 0 0.083020570332336119 -0.22791650227557511 0 0.077930889523722374 -0.22519622511208121 0 0.076767606518392539 -0.23187249677345001 0 0.083020570332336119 -0.22791650227557511 0 0.081291982893300085 -0.22046062379487821 0 0.077930889523722374 -0.22519622511208121 0 0.086446736705125371 -0.22420087797706609 0 0.083020570332336119 -0.22791650227557511 0 0.081291982893300085 -0.22046062379487821 0 0.086446736705125371 -0.22420087797706609 0 0.081291982893300085 -0.22046062379487821 0 0.086853981468707001 -0.2185547472363609 0 0.081291982893300085 -0.22046062379487821 0 0.077930889523722374 -0.22519622511208121 0 0.073706539318973169 -0.21796036257100029 0 0.072234091795087663 -0.22574485878751241 0 0.065719467571416057 -0.22489822263154319 0 0.073706539318973169 -0.21796036257100029 0 0.077930889523722374 -0.22519622511208121 0 0.072234091795087663 -0.22574485878751241 0 0.073706539318973169 -0.21796036257100029 0 0.069856411684105391 -0.23913895996007839 0 0.076767606518392539 -0.23187249677345001 0 0.067142239376285745 -0.23139328163069281 0 0.072234091795087663 -0.22574485878751241 0 0.076767606518392539 -0.23187249677345001 0 0.067142239376285745 -0.23139328163069281 0 0.077930889523722374 -0.22519622511208121 0 0.072234091795087663 -0.22574485878751241 0 0.076767606518392539 -0.23187249677345001 0 0.058764067980626958 -0.22947949685718549 0 0.062159259289524899 -0.2368834247622158 0 0.067142239376285745 -0.23139328163069281 0 0.058764067980626958 -0.22947949685718549 0 0.067142239376285745 -0.23139328163069281 0 0.065719467571416057 -0.22489822263154319 0 0.072234091795087663 -0.22574485878751241 0 0.067142239376285745 -0.23139328163069281 0 0.065719467571416057 -0.22489822263154319 0 0.062338921595789062 -0.21792006704763969 0 0.065719467571416057 -0.22489822263154319 0 0.073706539318973169 -0.21796036257100029 0 0.062338921595789062 -0.21792006704763969 0 0.067863046951983474 -0.20503048868511209 0 0.073706539318973169 -0.21796036257100029 0 0.067863046951983474 -0.20503048868511209 0 0.073706539318973169 -0.21796036257100029 0 0.079094442607528917 -0.20913243433380641 0 0.067863046951983474 -0.20503048868511209 0 0.081482512553192915 -0.1953056794767786 0 0.079094442607528917 -0.20913243433380641 0 0.056257937900538298 -0.19577788601322099 0 0.067863046951983474 -0.20503048868511209 0 0.066040058368007956 -0.18964665730407451 0 0.067863046951983474 -0.20503048868511209 0 0.066040058368007956 -0.18964665730407451 0 0.081482512553192915 -0.1953056794767786 0 0.081482512553192915 -0.1953056794767786 0 0.095454742848087734 -0.19451486061966669 0 0.093505174579280592 -0.1731787749771625 0 0.081482512553192915 -0.1953056794767786 0 0.08833530696517819 -0.21036332105093219 0 0.095454742848087734 -0.19451486061966669 0 0.08833530696517819 -0.21036332105093219 0 0.097404311116896569 -0.21585094626217091 0 0.095454742848087734 -0.19451486061966669 0 0.081291982893300085 -0.22046062379487821 0 0.073706539318973169 -0.21796036257100029 0 0.082946926161669862 -0.2149195339015407 0 0.082946926161669862 -0.2149195339015407 0 0.079094442607528917 -0.20913243433380641 0 0.08833530696517819 -0.21036332105093219 0 0.073706539318973169 -0.21796036257100029 0 0.082946926161669862 -0.2149195339015407 0 0.079094442607528917 -0.20913243433380641 0 0.081291982893300085 -0.22046062379487821 0 0.082946926161669862 -0.2149195339015407 0 0.086853981468707001 -0.2185547472363609 0 0.081482512553192915 -0.1953056794767786 0 0.079094442607528917 -0.20913243433380641 0 0.08833530696517819 -0.21036332105093219 0 0.082946926161669862 -0.2149195339015407 0 0.08833530696517819 -0.21036332105093219 0 0.086853981468707001 -0.2185547472363609 0 0.08833530696517819 -0.21036332105093219 0 0.086853981468707001 -0.2185547472363609 0 0.09077468002378962 -0.21857675351640271 0 0.08833530696517819 -0.21036332105093219 0 0.09077468002378962 -0.21857675351640271 0 0.092213447725184278 -0.21529843562297729 0 0.08833530696517819 -0.21036332105093219 0 0.092213447725184278 -0.21529843562297729 0 0.097404311116896569 -0.21585094626217091 0 0.09077468002378962 -0.21857675351640271 0 0.094501608789943028 -0.21679829355882299 0 0.094530837428433365 -0.22086489816084981 0 0.09077468002378962 -0.21857675351640271 0 0.092213447725184278 -0.21529843562297729 0 0.094501608789943028 -0.21679829355882299 0 0.094501608789943028 -0.21679829355882299 0 0.097404311116896569 -0.21585094626217091 0 0.094530837428433365 -0.22086489816084981 0 0.092213447725184278 -0.21529843562297729 0 0.094501608789943028 -0.21679829355882299 0 0.097404311116896569 -0.21585094626217091 0 0.097404311116896569 -0.21585094626217091 0 0.095454742848087734 -0.19451486061966669 0 0.097404311116896569 -0.21585094626217091 0 0.1059898830346106 -0.20430933332548051 0 0.095454742848087734 -0.19451486061966669 0 0.097404311116896569 -0.21585094626217091 0 0.1089347031997706 -0.21297733173581901 0 0.1146171121197104 -0.21980430615730401 0 0.097404311116896569 -0.21585094626217091 0 0.1059898830346106 -0.20430933332548051 0 0.1089347031997706 -0.21297733173581901 0 0.095454742848087734 -0.19451486061966669 0 0.1128143282819509 -0.19216489626002589 0 0.10772522460311169 -0.17968171223372481 0 0.1059898830346106 -0.20430933332548051 0 0.095454742848087734 -0.19451486061966669 0 0.1128143282819509 -0.19216489626002589 0 0.1128143282819509 -0.19216489626002589 0 0.1237689835273371 -0.19605207676116951 0 0.1178461100078927 -0.20838697738218431 0 0.1059898830346106 -0.20430933332548051 0 0.1128143282819509 -0.19216489626002589 0 0.1178461100078927 -0.20838697738218431 0 0.1128143282819509 -0.19216489626002589 0 0.1237689835273371 -0.19605207676116951 0 0.1232013989280239 -0.1819146573535104 0 0.1089347031997706 -0.21297733173581901 0 0.1178461100078927 -0.20838697738218431 0 0.1146171121197104 -0.21980430615730401 0 0.1059898830346106 -0.20430933332548051 0 0.1089347031997706 -0.21297733173581901 0 0.1178461100078927 -0.20838697738218431 0 0.1178461100078927 -0.20838697738218431 0 0.1146171121197104 -0.21980430615730401 0 0.12895394136930069 -0.22163642029703709 0 0.1146171121197104 -0.21980430615730401 0 0.12018370186474731 -0.23305432747703519 0 0.12895394136930069 -0.22163642029703709 0 0.097404311116896569 -0.21585094626217091 0 0.1146171121197104 -0.21980430615730401 0 0.12018370186474731 -0.23305432747703519 0 0.1212054647883809 -0.25073068226796852 0 0.12018370186474731 -0.23305432747703519 0 0.1059281586602189 -0.23527494890652931 0 0.13217397618885759 -0.25462043987800831 0 0.1212054647883809 -0.25073068226796852 0 0.12018370186474731 -0.23305432747703519 0 0.1212054647883809 -0.25073068226796852 0 0.1059281586602189 -0.23527494890652931 0 0.1078238037173969 -0.24832262031645649 0 0.1212054647883809 -0.25073068226796852 0 0.1059281586602189 -0.23527494890652931 0 0.099550463170151926 -0.25262580003909579 0 0.1078238037173969 -0.24832262031645649 0 0.10103467245524091 -0.24298905409433241 0 0.1059281586602189 -0.23527494890652931 0 0.1078238037173969 -0.24832262031645649 0 0.10103467245524091 -0.24298905409433241 0 0.099550463170151926 -0.25262580003909579 0 0.10103467245524091 -0.24298905409433241 0 0.094006026236525903 -0.2441335510050745 0 0.090706365013478091 -0.25245448435890872 0 0.099550463170151926 -0.25262580003909579 0 0.094006026236525903 -0.2441335510050745 0 0.1059281586602189 -0.23527494890652931 0 0.10103467245524091 -0.24298905409433241 0 0.096012267649498176 -0.23702186761809721 0 0.10103467245524091 -0.24298905409433241 0 0.094006026236525903 -0.2441335510050745 0 0.096012267649498176 -0.23702186761809721 0 0.1059281586602189 -0.23527494890652931 0 0.096012267649498176 -0.23702186761809721 0 0.098670227838192195 -0.22970514568366851 0 0.089763789457938253 -0.2306791647953326 0 0.096012267649498176 -0.23702186761809721 0 0.098670227838192195 -0.22970514568366851 0 0.097404311116896569 -0.21585094626217091 0 0.12018370186474731 -0.23305432747703519 0 0.097404311116896569 -0.21585094626217091 0 0.12018370186474731 -0.23305432747703519 0 0.1059281586602189 -0.23527494890652931 0 0.097404311116896569 -0.21585094626217091 0 0.1059281586602189 -0.23527494890652931 0 0.098670227838192195 -0.22970514568366851 0 0.091303359373345411 -0.22339335178318359 0 0.098670227838192195 -0.22970514568366851 0 0.094530837428433365 -0.22086489816084981 0 0.097404311116896569 -0.21585094626217091 0 0.098670227838192195 -0.22970514568366851 0 0.094530837428433365 -0.22086489816084981 0 0.097404311116896569 -0.21585094626217091 0 0.098670227838192195 -0.22970514568366851 0 0.1071373084330472 -0.14482826815459701 0 0.1035248479174861 -0.15311019857333261 0 0.098760878024456711 -0.14050656481393209 0 0.1071373084330472 -0.14482826815459701 0 0.1035248479174861 -0.15311019857333261 0 0.1121477659277255 -0.1503271840913511 0 0.1035248479174861 -0.15311019857333261 0 0.098760878024456711 -0.14050656481393209 0 0.091560400862706559 -0.15189516094014111 0 0.098760878024456711 -0.14050656481393209 0 0.099399694252258627 -0.1328638184600745 0 0.089615627146132512 -0.13061154690311971 0 0.099399694252258627 -0.1328638184600745 0 0.099525338641528904 -0.12611341339503321 0 0.089615627146132512 -0.13061154690311971 0 0.099525338641528904 -0.12611341339503321 0 0.1096969331969164 -0.13422374872821319 0 0.1121708616464093 -0.1216807098986791 0 0.099399694252258627 -0.1328638184600745 0 0.099525338641528904 -0.12611341339503321 0 0.1096969331969164 -0.13422374872821319 0 0.098760878024456711 -0.14050656481393209 0 0.099399694252258627 -0.1328638184600745 0 0.1096969331969164 -0.13422374872821319 0 0.1071373084330472 -0.14482826815459701 0 0.098760878024456711 -0.14050656481393209 0 0.1096969331969164 -0.13422374872821319 0 0.1096969331969164 -0.13422374872821319 0 0.1155243526086871 -0.14484298486410191 0 0.12532898621889721 -0.13663811256420449 0 0.1096969331969164 -0.13422374872821319 0 0.11997683785091839 -0.1276371159963853 0 0.12532898621889721 -0.13663811256420449 0 0.1096969331969164 -0.13422374872821319 0 0.11997683785091839 -0.1276371159963853 0 0.1121708616464093 -0.1216807098986791 0 0.1217036921304827 -0.1482443959076799 0 0.1155243526086871 -0.14484298486410191 0 0.12532898621889721 -0.13663811256420449 0 0.1217036921304827 -0.1482443959076799 0 0.1155243526086871 -0.14484298486410191 0 0.1179114041550178 -0.15136128022523329 0 0.1071373084330472 -0.14482826815459701 0 0.1155243526086871 -0.14484298486410191 0 0.1121477659277255 -0.1503271840913511 0 0.1071373084330472 -0.14482826815459701 0 0.1096969331969164 -0.13422374872821319 0 0.1155243526086871 -0.14484298486410191 0 0.1035248479174861 -0.15311019857333261 0 0.1121477659277255 -0.1503271840913511 0 0.1169082366172023 -0.15609331882735419 0 0.1155243526086871 -0.14484298486410191 0 0.1121477659277255 -0.1503271840913511 0 0.1179114041550178 -0.15136128022523329 0 0.1121477659277255 -0.1503271840913511 0 0.1169082366172023 -0.15609331882735419 0 0.1179114041550178 -0.15136128022523329 0 0.1169082366172023 -0.15609331882735419 0 0.1179114041550178 -0.15136128022523329 0 0.12324902196630889 -0.15465793599018671 0 0.1217036921304827 -0.1482443959076799 0 0.1179114041550178 -0.15136128022523329 0 0.12324902196630889 -0.15465793599018671 0 0.1217036921304827 -0.1482443959076799 0 0.12324902196630889 -0.15465793599018671 0 0.12831016946945831 -0.1492440347933528 0 0.1035248479174861 -0.15311019857333261 0 0.12443417021765769 -0.1709717485187108 0 0.1227471198665283 -0.15880086614903269 0 0.12098675462827781 -0.16200852072179159 0 0.1290045142054978 -0.1612372837293575 0 0.1035248479174861 -0.15311019857333261 0 0.12443417021765769 -0.1709717485187108 0 0.12083528946942131 -0.1711597280255607 0 0.1035248479174861 -0.15311019857333261 0 0.12098675462827781 -0.16200852072179159 0 0.12443417021765769 -0.1709717485187108 0 0.1035248479174861 -0.15311019857333261 0 0.1169082366172023 -0.15609331882735419 0 0.12098675462827781 -0.16200852072179159 0 0.1169082366172023 -0.15609331882735419 0 0.1227471198665283 -0.15880086614903269 0 0.12098675462827781 -0.16200852072179159 0 0.1169082366172023 -0.15609331882735419 0 0.12324902196630889 -0.15465793599018671 0 0.1227471198665283 -0.15880086614903269 0 0.12098675462827781 -0.16200852072179159 0 0.12443417021765769 -0.1709717485187108 0 0.12715697753007521 -0.16591248018761531 0 0.1128143282819509 -0.19216489626002589 0 0.1232013989280239 -0.1819146573535104 0 0.1157139550245927 -0.18029465614444529 0 0.12083528946942131 -0.1711597280255607 0 0.1232013989280239 -0.1819146573535104 0 0.1157139550245927 -0.18029465614444529 0 0.12443417021765769 -0.1709717485187108 0 0.12083528946942131 -0.1711597280255607 0 0.1232013989280239 -0.1819146573535104 0 0.12083528946942131 -0.1711597280255607 0 0.1157139550245927 -0.18029465614444529 0 0.10772522460311169 -0.17968171223372481 0 0.1128143282819509 -0.19216489626002589 0 0.1157139550245927 -0.18029465614444529 0 0.10772522460311169 -0.17968171223372481 0 0.095454742848087734 -0.19451486061966669 0 0.10772522460311169 -0.17968171223372481 0 0.093505174579280592 -0.1731787749771625 0 0.12083528946942131 -0.1711597280255607 0 0.093505174579280592 -0.1731787749771625 0 0.095454742848087734 -0.19451486061966669 0 0.093505174579280592 -0.1731787749771625 0 0.12083528946942131 -0.1711597280255607 0 0.10772522460311169 -0.17968171223372481 0 0.093505174579280592 -0.1731787749771625 0 0.1035248479174861 -0.15311019857333261 0 0.093505174579280592 -0.1731787749771625 0 0.091560400862706559 -0.15189516094014111 0 0.1035248479174861 -0.15311019857333261 0 0.12083528946942131 -0.1711597280255607 0 0.093505174579280592 -0.1731787749771625 0 0.078133883947979807 -0.15717501910519549 0 0.093505174579280592 -0.1731787749771625 0 0.091560400862706559 -0.15189516094014111 0 0.078133883947979807 -0.15717501910519549 0 0.093505174579280592 -0.1731787749771625 0 0.072477207369929117 -0.17473224276400179 0 0.093505174579280592 -0.1731787749771625 0 0.091560400862706559 -0.15189516094014111 0 0.081482512553192915 -0.1953056794767786 0 0.093505174579280592 -0.1731787749771625 0 0.072477207369929117 -0.17473224276400179 0 0.093505174579280592 -0.1731787749771625 0 0.072477207369929117 -0.17473224276400179 0 0.066040058368007956 -0.18964665730407451 0 0.072477207369929117 -0.17473224276400179 0 0.051449240160577621 -0.1762857105508405 0 0.066040058368007956 -0.18964665730407451 0 0.081482512553192915 -0.1953056794767786 0 0.072477207369929117 -0.17473224276400179 0 0.078133883947979807 -0.15717501910519549 0 0.072477207369929117 -0.17473224276400179 0 0.063878974636528515 -0.16401540189567099 0 0.072477207369929117 -0.17473224276400179 0 0.063878974636528515 -0.16401540189567099 0 0.051449240160577621 -0.1762857105508405 0 0.078133883947979807 -0.15717501910519549 0 0.063878974636528515 -0.16401540189567099 0 0.06522271263887458 -0.15305574504012881 0 0.06522271263887458 -0.15305574504012881 0 0.069316279952888193 -0.14186668388360371 0 0.075278834721760557 -0.14616760919767161 0 0.06522271263887458 -0.15305574504012881 0 0.069316279952888193 -0.14186668388360371 0 0.05757515479497001 -0.1486962131740798 0 0.069316279952888193 -0.14186668388360371 0 0.075278834721760557 -0.14616760919767161 0 0.079765110473415279 -0.13788087003968491 0 0.078133883947979807 -0.15717501910519549 0 0.06522271263887458 -0.15305574504012881 0 0.075278834721760557 -0.14616760919767161 0 0.098760878024456711 -0.14050656481393209 0 0.091560400862706559 -0.15189516094014111 0 0.089615627146132512 -0.13061154690311971 0 0.078133883947979807 -0.15717501910519549 0 0.083611330147541921 -0.14459745320402559 0 0.091560400862706559 -0.15189516094014111 0 0.091560400862706559 -0.15189516094014111 0 0.089615627146132512 -0.13061154690311971 0 0.078133883947979807 -0.15717501910519549 0 0.075278834721760557 -0.14616760919767161 0 0.083611330147541921 -0.14459745320402559 0 0.083611330147541921 -0.14459745320402559 0 0.091560400862706559 -0.15189516094014111 0 0.089615627146132512 -0.13061154690311971 0 0.075278834721760557 -0.14616760919767161 0 0.083611330147541921 -0.14459745320402559 0 0.079765110473415279 -0.13788087003968491 0 0.099525338641528904 -0.12611341339503321 0 0.089615627146132512 -0.13061154690311971 0 0.081894058627025895 -0.12584863130967919 0 0.083611330147541921 -0.14459745320402559 0 0.089615627146132512 -0.13061154690311971 0 0.079765110473415279 -0.13788087003968491 0 0.089615627146132512 -0.13061154690311971 0 0.079765110473415279 -0.13788087003968491 0 0.081894058627025895 -0.12584863130967919 0 0.081894058627025895 -0.12584863130967919 0 0.065576399090336079 -0.13067912082877309 0 0.057907204523981459 -0.13951585418161591 0 0.081894058627025895 -0.12584863130967919 0 0.057907204523981459 -0.13951585418161591 0 0.069316279952888193 -0.14186668388360371 0 0.081894058627025895 -0.12584863130967919 0 0.057907204523981459 -0.13951585418161591 0 0.081894058627025895 -0.12584863130967919 0 0.068207364780656948 -0.12563827965844471 0 0.065576399090336079 -0.13067912082877309 0 0.069316279952888193 -0.14186668388360371 0 0.079765110473415279 -0.13788087003968491 0 0.081894058627025895 -0.12584863130967919 0 0.068207364780656948 -0.12563827965844471 0 0.065576399090336079 -0.13067912082877309 0 0.054296968429680029 -0.13171371816535249 0 0.054296968429680029 -0.13171371816535249 0 0.057907204523981459 -0.13951585418161591 0 0.034849001543539322 -0.1503583031021323 0 0.054296968429680029 -0.13171371816535249 0 0.045553716665441668 -0.12681104972785159 0 0.052448498866582129 -0.1166826243517366 0 0.065576399090336079 -0.13067912082877309 0 0.054296968429680029 -0.13171371816535249 0 0.057907204523981459 -0.13951585418161591 0 0.069316279952888193 -0.14186668388360371 0 0.057907204523981459 -0.13951585418161591 0 0.05757515479497001 -0.1486962131740798 0 0.06522271263887458 -0.15305574504012881 0 0.05757515479497001 -0.1486962131740798 0 0.052111829065281459 -0.15882829201818821 0 0.046808539919221563 -0.15014413002933799 0 0.052111829065281459 -0.15882829201818821 0 0.043031393960321331 -0.1571354857308308 0 0.05757515479497001 -0.1486962131740798 0 0.046808539919221563 -0.15014413002933799 0 0.052111829065281459 -0.15882829201818821 0 0.057907204523981459 -0.13951585418161591 0 0.05757515479497001 -0.1486962131740798 0 0.046808539919221563 -0.15014413002933799 0 0.057907204523981459 -0.13951585418161591 0 0.046808539919221563 -0.15014413002933799 0 0.033920350420936912 -0.1531830770535528 0 0.057907204523981459 -0.13951585418161591 0 0.034849001543539322 -0.1503583031021323 0 0.033920350420936912 -0.1531830770535528 0 0.054296968429680029 -0.13171371816535249 0 0.034849001543539322 -0.1503583031021323 0 0.038558521200612962 -0.14006542407622449 0 0.054296968429680029 -0.13171371816535249 0 0.034849001543539322 -0.1503583031021323 0 0.057907204523981459 -0.13951585418161591 0 0.033920350420936912 -0.1531830770535528 0 0.046808539919221563 -0.15014413002933799 0 0.040219483271594643 -0.15466785876887121 0 0.033920350420936912 -0.1531830770535528 0 0.046808539919221563 -0.15014413002933799 0 0.040219483271594643 -0.15466785876887121 0 0.043031393960321331 -0.1571354857308308 0 0.040219483271594643 -0.15466785876887121 0 0.033920350420936912 -0.1531830770535528 0 0.037117648785898759 -0.15820874226176301 0 0.034849001543539322 -0.1503583031021323 0 0.031672068294339203 -0.14528428076340441 0 0.030051573782975471 -0.15027594372919439 0 0.034849001543539322 -0.1503583031021323 0 0.033920350420936912 -0.1531830770535528 0 0.030051573782975471 -0.15027594372919439 0 0.034849001543539322 -0.1503583031021323 0 0.031672068294339203 -0.14528428076340441 0 0.038558521200612962 -0.14006542407622449 0 0.031672068294339203 -0.14528428076340441 0 0.038558521200612962 -0.14006542407622449 0 0.030566093298411881 -0.13865773310914861 0 0.054296968429680029 -0.13171371816535249 0 0.038558521200612962 -0.14006542407622449 0 0.040644455285911409 -0.1338393175667463 0 0.038558521200612962 -0.14006542407622449 0 0.040644455285911409 -0.1338393175667463 0 0.030566093298411881 -0.13865773310914861 0 0.034824944079593127 -0.12500853882757099 0 0.040644455285911409 -0.1338393175667463 0 0.030566093298411881 -0.13865773310914861 0 0.034824944079593127 -0.12500853882757099 0 0.045553716665441668 -0.12681104972785159 0 0.040644455285911409 -0.1338393175667463 0 0.054296968429680029 -0.13171371816535249 0 0.045553716665441668 -0.12681104972785159 0 0.040644455285911409 -0.1338393175667463 0 0.072477207369929117 -0.17473224276400179 0 0.051449240160577621 -0.1762857105508405 0 0.056257937900538298 -0.19577788601322099 0 0.066040058368007956 -0.18964665730407451 0 0.051449240160577621 -0.1762857105508405 0 0.063878974636528515 -0.16401540189567099 0 0.051449240160577621 -0.1762857105508405 0 0.052111829065281459 -0.15882829201818821 0 0.051449240160577621 -0.1762857105508405 0 0.052111829065281459 -0.15882829201818821 0 0.040502396519655252 -0.1663673850483231 0 0.063878974636528515 -0.16401540189567099 0 0.06522271263887458 -0.15305574504012881 0 0.052111829065281459 -0.15882829201818821 0 0.043031393960321331 -0.1571354857308308 0 0.037117648785898759 -0.15820874226176301 0 0.040502396519655252 -0.1663673850483231 0 0.052111829065281459 -0.15882829201818821 0 0.043031393960321331 -0.1571354857308308 0 0.040502396519655252 -0.1663673850483231 0 0.040219483271594643 -0.15466785876887121 0 0.043031393960321331 -0.1571354857308308 0 0.037117648785898759 -0.15820874226176301 0 0.033920350420936912 -0.1531830770535528 0 0.033509818979212957 -0.15868168045615499 0 0.027465449436243041 -0.1628752445715565 0 0.037117648785898759 -0.15820874226176301 0 0.034071859908748191 -0.1623715567021686 0 0.040502396519655252 -0.1663673850483231 0 0.033920350420936912 -0.1531830770535528 0 0.037117648785898759 -0.15820874226176301 0 0.033509818979212957 -0.15868168045615499 0 0.037117648785898759 -0.15820874226176301 0 0.033509818979212957 -0.15868168045615499 0 0.034071859908748191 -0.1623715567021686 0 0.033509818979212957 -0.15868168045615499 0 0.034071859908748191 -0.1623715567021686 0 0.027465449436243041 -0.1628752445715565 0 0.031586668938662611 -0.1691709391612749 0 0.040502396519655252 -0.1663673850483231 0 0.030421272951226121 -0.1778391783376792 0 0.034071859908748191 -0.1623715567021686 0 0.031586668938662611 -0.1691709391612749 0 0.040502396519655252 -0.1663673850483231 0 0.051449240160577621 -0.1762857105508405 0 0.040502396519655252 -0.1663673850483231 0 0.030421272951226121 -0.1778391783376792 0 0.041440672425083092 -0.19607701236864419 0 0.051449240160577621 -0.1762857105508405 0 0.030421272951226121 -0.1778391783376792 0 0.051449240160577621 -0.1762857105508405 0 0.030421272951226121 -0.1778391783376792 0 0.02540307025583758 -0.19229280057405279 0 0.015764016274472759 -0.1812646672695073 0 0.030421272951226121 -0.1778391783376792 0 0.031586668938662611 -0.1691709391612749 0 0.030421272951226121 -0.1778391783376792 0 0.021575687727073561 -0.1734893605992324 0 0.015764016274472759 -0.1812646672695073 0 0.021575687727073561 -0.1734893605992324 0 0.012676990919703311 -0.16924925594887871 0 0.015764016274472759 -0.1812646672695073 0 0.030421272951226121 -0.1778391783376792 0 0.021575687727073561 -0.1734893605992324 0 0.033920350420936912 -0.1531830770535528 0 0.009933496317892726 -0.16685029992549011 0 0.02294500892830088 -0.1542832107784407 0 0.033920350420936912 -0.1531830770535528 0 0.027465449436243041 -0.1628752445715565 0 0.009933496317892726 -0.16685029992549011 0 0.019596439448784399 -0.16744493330375371 0 0.027465449436243041 -0.1628752445715565 0 0.009933496317892726 -0.16685029992549011 0 0.033920350420936912 -0.1531830770535528 0 0.009933496317892726 -0.16685029992549011 0 0.021575687727073561 -0.1734893605992324 0 0.019596439448784399 -0.16744493330375371 0 0.012676990919703311 -0.16924925594887871 0 0.021575687727073561 -0.1734893605992324 0 0.019596439448784399 -0.16744493330375371 0 0.025540403417393751 -0.1677775419388785 0 0.031586668938662611 -0.1691709391612749 0 0.021575687727073561 -0.1734893605992324 0 0.025540403417393751 -0.1677775419388785 0 0.019596439448784399 -0.16744493330375371 0 0.025540403417393751 -0.1677775419388785 0 0.027465449436243041 -0.1628752445715565 0 0.034071859908748191 -0.1623715567021686 0 0.031586668938662611 -0.1691709391612749 0 0.027465449436243041 -0.1628752445715565 0 0.031586668938662611 -0.1691709391612749 0 0.025540403417393751 -0.1677775419388785 0 0.027465449436243041 -0.1628752445715565 0 0.009933496317892726 -0.16685029992549011 0 0.01648447247354291 -0.15404273338364399 0 0.02294500892830088 -0.1542832107784407 0 0.009933496317892726 -0.16685029992549011 0 0.01648447247354291 -0.15404273338364399 0 0.0068311679390763679 -0.1533437069849535 0 0.019596439448784399 -0.16744493330375371 0 0.009933496317892726 -0.16685029992549011 0 0.012676990919703311 -0.16924925594887871 0 0.009933496317892726 -0.16685029992549011 0 0.012676990919703311 -0.16924925594887871 0 0.0034571977838801569 -0.17702496179755631 0 0.009933496317892726 -0.16685029992549011 0 0.012676990919703311 -0.16924925594887871 0 -0.0085976242789068957 -0.177408956520272 0 0.009933496317892726 -0.16685029992549011 0 -0.0085976242789068957 -0.177408956520272 0 0.009933496317892726 -0.16685029992549011 0 0.0034571977838801569 -0.17702496179755631 0 0.015764016274472759 -0.1812646672695073 0 0.012676990919703311 -0.16924925594887871 0 0.0034571977838801569 -0.17702496179755631 0 -0.003739977245034012 -0.19168309442994089 0 0.010514116253606281 -0.1925853606064957 0 0.0034571977838801569 -0.17702496179755631 0 0.010514116253606281 -0.1925853606064957 0 0.015764016274472759 -0.1812646672695073 0 0.0034571977838801569 -0.17702496179755631 0 0.02166725362828328 -0.1398342401410575 0 0.019282665512654749 -0.1297026577714144 0 0.01241268948209219 -0.14437852502616319 0 0.034824944079593127 -0.12500853882757099 0 0.019282665512654749 -0.1297026577714144 0 0.030566093298411881 -0.13865773310914861 0 0.02166725362828328 -0.1398342401410575 0 0.019282665512654749 -0.1297026577714144 0 0.030566093298411881 -0.13865773310914861 0 0.031672068294339203 -0.14528428076340441 0 0.030566093298411881 -0.13865773310914861 0 0.024335151646156381 -0.14706399980032239 0 0.02166725362828328 -0.1398342401410575 0 0.030566093298411881 -0.13865773310914861 0 0.024335151646156381 -0.14706399980032239 0 0.031672068294339203 -0.14528428076340441 0 0.024335151646156381 -0.14706399980032239 0 0.030051573782975471 -0.15027594372919439 0 0.033920350420936912 -0.1531830770535528 0 0.030051573782975471 -0.15027594372919439 0 0.02294500892830088 -0.1542832107784407 0 0.024335151646156381 -0.14706399980032239 0 0.030051573782975471 -0.15027594372919439 0 0.02294500892830088 -0.1542832107784407 0 0.024335151646156381 -0.14706399980032239 0 0.01648447247354291 -0.15404273338364399 0 0.01241268948209219 -0.14437852502616319 0 0.024335151646156381 -0.14706399980032239 0 0.01648447247354291 -0.15404273338364399 0 0.02294500892830088 -0.1542832107784407 0 0.02166725362828328 -0.1398342401410575 0 0.024335151646156381 -0.14706399980032239 0 0.01241268948209219 -0.14437852502616319 0 -0.011505986517222349 -0.14810326960451681 0 0.01241268948209219 -0.14437852502616319 0 0.0068311679390763679 -0.1533437069849535 0 -0.011505986517222349 -0.14810326960451681 0 0.009933496317892726 -0.16685029992549011 0 0.0068311679390763679 -0.1533437069849535 0 -0.011505986517222349 -0.14810326960451681 0 0.01241268948209219 -0.14437852502616319 0 0.0027021066240326768 -0.1317064378292063 0 0.01648447247354291 -0.15404273338364399 0 0.01241268948209219 -0.14437852502616319 0 0.0068311679390763679 -0.1533437069849535 0 0.019282665512654749 -0.1297026577714144 0 0.01241268948209219 -0.14437852502616319 0 0.0027021066240326768 -0.1317064378292063 0 0.019282665512654749 -0.1297026577714144 0 0.0027021066240326768 -0.1317064378292063 0 0.005085065621477718 -0.1151057880332567 0 0.019282665512654749 -0.1297026577714144 0 0.005085065621477718 -0.1151057880332567 0 0.024129304522527751 -0.1089818526354679 0 0.034824944079593127 -0.12500853882757099 0 0.019282665512654749 -0.1297026577714144 0 0.024129304522527751 -0.1089818526354679 0 0.024129304522527751 -0.1089818526354679 0 0.01380815825635252 -0.094132232187142617 0 0.031293966725895003 -0.08518965294817829 0 -0.00044729776891663488 -0.1011528385718463 0 0.005085065621477718 -0.1151057880332567 0 0.01380815825635252 -0.094132232187142617 0 0.005085065621477718 -0.1151057880332567 0 0.024129304522527751 -0.1089818526354679 0 0.01380815825635252 -0.094132232187142617 0 0.01380815825635252 -0.094132232187142617 0 0.0042106568376920582 -0.081118225430045127 0 0.020039989671696231 -0.071989185162356889 0 -0.00044729776891663488 -0.1011528385718463 0 0.01380815825635252 -0.094132232187142617 0 0.0042106568376920582 -0.081118225430045127 0 0.0042106568376920582 -0.081118225430045127 0 0.0052181775422467033 -0.064346337314722044 0 0.020039989671696231 -0.071989185162356889 0 -0.0043762627118289626 -0.071729097412358583 0 0.0042106568376920582 -0.081118225430045127 0 0.0052181775422467033 -0.064346337314722044 0 0.0052181775422467033 -0.064346337314722044 0 0.020039989671696231 -0.071989185162356889 0 0.0052181775422467033 -0.064346337314722044 0 0.020039989671696231 -0.071989185162356889 0 0.017880224012190679 -0.058506375123621113 0 0.020039989671696231 -0.071989185162356889 0 0.017880224012190679 -0.058506375123621113 0 0.035073137211611732 -0.060365082031122411 0 0.020039989671696231 -0.071989185162356889 0 0.031293966725895003 -0.08518965294817829 0 0.035073137211611732 -0.060365082031122411 0 0.01380815825635252 -0.094132232187142617 0 0.020039989671696231 -0.071989185162356889 0 0.031293966725895003 -0.08518965294817829 0 0.031293966725895003 -0.08518965294817829 0 0.050629459546369923 -0.074776417317023003 0 0.042727201812981508 -0.099892478072297022 0 0.050629459546369923 -0.074776417317023003 0 0.042727201812981508 -0.099892478072297022 0 0.031293966725895003 -0.08518965294817829 0 0.050629459546369923 -0.074776417317023003 0 0.035073137211611732 -0.060365082031122411 0 0.050629459546369923 -0.074776417317023003 0 0.058531717279758283 -0.049660356561749108 0 0.072219385832792832 -0.066659644627356851 0 0.050629459546369923 -0.074776417317023003 0 0.042727201812981508 -0.099892478072297022 0 0.069701838591585213 -0.089386546866783212 0 0.059655618646742382 -0.10475769562984739 0 0.052448498866582129 -0.1166826243517366 0 0.042727201812981508 -0.099892478072297022 0 0.059655618646742382 -0.10475769562984739 0 0.042727201812981508 -0.099892478072297022 0 0.069701838591585213 -0.089386546866783212 0 0.054296968429680029 -0.13171371816535249 0 0.052448498866582129 -0.1166826243517366 0 0.073744935315820714 -0.1130691332285727 0 0.059655618646742382 -0.10475769562984739 0 0.052448498866582129 -0.1166826243517366 0 0.073744935315820714 -0.1130691332285727 0 0.034824944079593127 -0.12500853882757099 0 0.045553716665441668 -0.12681104972785159 0 0.052448498866582129 -0.1166826243517366 0 0.034824944079593127 -0.12500853882757099 0 0.052448498866582129 -0.1166826243517366 0 0.042727201812981508 -0.099892478072297022 0 0.034824944079593127 -0.12500853882757099 0 0.024129304522527751 -0.1089818526354679 0 0.042727201812981508 -0.099892478072297022 0 0.034824944079593127 -0.12500853882757099 0 0.042727201812981508 -0.099892478072297022 0 0.024129304522527751 -0.1089818526354679 0 0.031293966725895003 -0.08518965294817829 0 0.042727201812981508 -0.099892478072297022 0 0.034885408484197772 0.0062912350017927032 0 0.01265631079038235 -0.01012693536007268 0 0.042517259973231587 -0.011683923625132649 0 -0.00118246574067416 -0.01324232368796026 0 0.0012074066645448821 -0.00065723147797176382 0 0.01265631079038235 -0.01012693536007268 0 0.01265631079038235 -0.01012693536007268 0 0.02406773205363014 -0.026959444655171291 0 0.0015263381015913891 -0.033415212413580753 0 0.01265631079038235 -0.01012693536007268 0 0.0015263381015913891 -0.033415212413580753 0 -0.00118246574067416 -0.01324232368796026 0 0.01265631079038235 -0.01012693536007268 0 0.0015263381015913891 -0.033415212413580753 0 0.01265631079038235 -0.01012693536007268 0 0.02406773205363014 -0.026959444655171291 0 0.042517259973231587 -0.011683923625132649 0 0.02406773205363014 -0.026959444655171291 0 0.021771409900077709 -0.044354063799483319 0 0.04186734150286768 -0.035217088077587062 0 0.02406773205363014 -0.026959444655171291 0 0.021771409900077709 -0.044354063799483319 0 0.0015263381015913891 -0.033415212413580753 0 0.021771409900077709 -0.044354063799483319 0 0.0015263381015913891 -0.033415212413580753 0 0.007298405735321048 -0.051477207310420908 0 -0.0096036345872028556 -0.056703489467087059 0 0.0052181775422467033 -0.064346337314722044 0 0.007298405735321048 -0.051477207310420908 0 0.0052181775422467033 -0.064346337314722044 0 0.007298405735321048 -0.051477207310420908 0 0.017880224012190679 -0.058506375123621113 0 0.021771409900077709 -0.044354063799483319 0 0.017880224012190679 -0.058506375123621113 0 0.035073137211611732 -0.060365082031122411 0 0.021771409900077709 -0.044354063799483319 0 0.007298405735321048 -0.051477207310420908 0 0.017880224012190679 -0.058506375123621113 0 0.035073137211611732 -0.060365082031122411 0 0.058531717279758283 -0.049660356561749108 0 0.04186734150286768 -0.035217088077587062 0 0.050629459546369923 -0.074776417317023003 0 0.058531717279758283 -0.049660356561749108 0 0.050629459546369923 -0.074776417317023003 0 0.035073137211611732 -0.060365082031122411 0 0.058531717279758283 -0.049660356561749108 0 0.058531717279758283 -0.049660356561749108 0 0.066433975013146629 -0.02454429580647528 0 0.058531717279758283 -0.049660356561749108 0 0.04186734150286768 -0.035217088077587062 0 0.066433975013146629 -0.02454429580647528 0 0.021771409900077709 -0.044354063799483319 0 0.035073137211611732 -0.060365082031122411 0 0.04186734150286768 -0.035217088077587062 0 0.02406773205363014 -0.026959444655171291 0 0.04186734150286768 -0.035217088077587062 0 0.042517259973231587 -0.011683923625132649 0 0.04186734150286768 -0.035217088077587062 0 0.042517259973231587 -0.011683923625132649 0 0.066433975013146629 -0.02454429580647528 0 0.052968053050369737 0.0090809173488315582 0 0.042517259973231587 -0.011683923625132649 0 0.067492943165135169 -0.0019794682467893379 0 0.042517259973231587 -0.011683923625132649 0 0.067492943165135169 -0.0019794682467893379 0 0.066433975013146629 -0.02454429580647528 0 0.087040675587819916 -0.0096101539263870796 0 0.066433975013146629 -0.02454429580647528 0 0.098032226742104309 -0.02831505409649597 0 0.083930998993742512 0.0059737405228527038 0 0.087040675587819916 -0.0096101539263870796 0 0.067492943165135169 -0.0019794682467893379 0 0.083930998993742512 0.0059737405228527038 0 0.098495163759696414 0.0029673617968291321 0 0.087040675587819916 -0.0096101539263870796 0 0.087040675587819916 -0.0096101539263870796 0 0.067492943165135169 -0.0019794682467893379 0 0.066433975013146629 -0.02454429580647528 0 0.066433975013146629 -0.02454429580647528 0 0.080663194565618018 -0.042742664855397232 0 0.098032226742104309 -0.02831505409649597 0 0.080663194565618018 -0.042742664855397232 0 0.099119978598511321 -0.045144617550746849 0 0.098032226742104309 -0.02831505409649597 0 0.058531717279758283 -0.049660356561749108 0 0.066433975013146629 -0.02454429580647528 0 0.080663194565618018 -0.042742664855397232 0 0.058531717279758283 -0.049660356561749108 0 0.080663194565618018 -0.042742664855397232 0 0.072219385832792832 -0.066659644627356851 0 0.080663194565618018 -0.042742664855397232 0 0.091985945990252393 -0.059557823171565508 0 0.072219385832792832 -0.066659644627356851 0 0.080663194565618018 -0.042742664855397232 0 0.091985945990252393 -0.059557823171565508 0 0.099119978598511321 -0.045144617550746849 0 0.091985945990252393 -0.059557823171565508 0 0.109385226414503 -0.056941989317685793 0 0.099119978598511321 -0.045144617550746849 0 0.109385226414503 -0.056941989317685793 0 0.1174221699598199 -0.069046986946925279 0 0.12664898879935529 -0.055605769639440771 0 0.109385226414503 -0.056941989317685793 0 0.1155332992800789 -0.038165556312589707 0 0.12664898879935529 -0.055605769639440771 0 0.1155332992800789 -0.038165556312589707 0 0.12954193793015309 -0.041748568408345607 0 0.12664898879935529 -0.055605769639440771 0 0.1155332992800789 -0.038165556312589707 0 0.1294320674019063 -0.023146095115484211 0 0.12954193793015309 -0.041748568408345607 0 0.109385226414503 -0.056941989317685793 0 0.1155332992800789 -0.038165556312589707 0 0.099119978598511321 -0.045144617550746849 0 0.1155332992800789 -0.038165556312589707 0 0.099119978598511321 -0.045144617550746849 0 0.098032226742104309 -0.02831505409649597 0 0.1155332992800789 -0.038165556312589707 0 0.098032226742104309 -0.02831505409649597 0 0.1112777463759113 -0.012222875866518469 0 0.087040675587819916 -0.0096101539263870796 0 0.098032226742104309 -0.02831505409649597 0 0.1112777463759113 -0.012222875866518469 0 0.1155332992800789 -0.038165556312589707 0 0.1112777463759113 -0.012222875866518469 0 0.1294320674019063 -0.023146095115484211 0 0.1158546052028349 0.0064685721448778594 0 0.13464870039648349 0.00080453217212592717 0 0.1112777463759113 -0.012222875866518469 0 0.098495163759696414 0.0029673617968291321 0 0.087040675587819916 -0.0096101539263870796 0 0.1112777463759113 -0.012222875866518469 0 0.1158546052028349 0.0064685721448778594 0 0.098495163759696414 0.0029673617968291321 0 0.1112777463759113 -0.012222875866518469 0 0.093192902201961414 -0.094424548291792879 0 0.088899626305776192 -0.1113374325741409 0 0.073744935315820714 -0.1130691332285727 0 0.093192902201961414 -0.094424548291792879 0 0.073744935315820714 -0.1130691332285727 0 0.069701838591585213 -0.089386546866783212 0 0.093192902201961414 -0.094424548291792879 0 0.073744935315820714 -0.1130691332285727 0 0.081894058627025895 -0.12584863130967919 0 0.088899626305776192 -0.1113374325741409 0 0.09397493983509804 -0.11322330148444169 0 0.081894058627025895 -0.12584863130967919 0 0.079920122843727764 -0.11786127252462281 0 0.075141871126288284 -0.1211898929860986 0 0.081894058627025895 -0.12584863130967919 0 0.088899626305776192 -0.1113374325741409 0 0.079920122843727764 -0.11786127252462281 0 0.088899626305776192 -0.1113374325741409 0 0.079920122843727764 -0.11786127252462281 0 0.073744935315820714 -0.1130691332285727 0 0.068207364780656948 -0.12563827965844471 0 0.054296968429680029 -0.13171371816535249 0 0.073744935315820714 -0.1130691332285727 0 0.054296968429680029 -0.13171371816535249 0 0.073744935315820714 -0.1130691332285727 0 0.068207364780656948 -0.12563827965844471 0 0.073744935315820714 -0.1130691332285727 0 0.075141871126288284 -0.1211898929860986 0 0.079920122843727764 -0.11786127252462281 0 0.073744935315820714 -0.1130691332285727 0 0.075141871126288284 -0.1211898929860986 0 0.081894058627025895 -0.12584863130967919 0 0.068207364780656948 -0.12563827965844471 0 0.075141871126288284 -0.1211898929860986 0 0.059655618646742382 -0.10475769562984739 0 0.073744935315820714 -0.1130691332285727 0 0.069701838591585213 -0.089386546866783212 0 0.050629459546369923 -0.074776417317023003 0 0.069701838591585213 -0.089386546866783212 0 0.072219385832792832 -0.066659644627356851 0 0.069701838591585213 -0.089386546866783212 0 0.072219385832792832 -0.066659644627356851 0 0.089711563165187497 -0.078251462936863553 0 0.091985945990252393 -0.059557823171565508 0 0.072219385832792832 -0.066659644627356851 0 0.089711563165187497 -0.078251462936863553 0 0.093192902201961414 -0.094424548291792879 0 0.069701838591585213 -0.089386546866783212 0 0.089711563165187497 -0.078251462936863553 0 0.093192902201961414 -0.094424548291792879 0 0.089711563165187497 -0.078251462936863553 0 0.1048667032735431 -0.089595599910983495 0 0.089711563165187497 -0.078251462936863553 0 0.1048667032735431 -0.089595599910983495 0 0.1056935618466131 -0.072691272791708894 0 0.1048667032735431 -0.089595599910983495 0 0.1056935618466131 -0.072691272791708894 0 0.11564058922802831 -0.08068930143821873 0 0.091985945990252393 -0.059557823171565508 0 0.089711563165187497 -0.078251462936863553 0 0.1056935618466131 -0.072691272791708894 0 0.091985945990252393 -0.059557823171565508 0 0.109385226414503 -0.056941989317685793 0 0.1056935618466131 -0.072691272791708894 0 0.1174221699598199 -0.069046986946925279 0 0.12840026197867099 -0.078951386265116219 0 0.12664898879935529 -0.055605769639440771 0 0.109385226414503 -0.056941989317685793 0 0.1056935618466131 -0.072691272791708894 0 0.1174221699598199 -0.069046986946925279 0 0.1056935618466131 -0.072691272791708894 0 0.1174221699598199 -0.069046986946925279 0 0.11564058922802831 -0.08068930143821873 0 0.1174221699598199 -0.069046986946925279 0 0.11564058922802831 -0.08068930143821873 0 0.12840026197867099 -0.078951386265116219 0 0.1048667032735431 -0.089595599910983495 0 0.11564058922802831 -0.08068930143821873 0 0.1191358060176364 -0.092450830711447801 0 0.1191358060176364 -0.092450830711447801 0 0.12840026197867099 -0.078951386265116219 0 0.11564058922802831 -0.08068930143821873 0 0.1191358060176364 -0.092450830711447801 0 0.12840026197867099 -0.078951386265116219 0 0.1058809127300703 -0.11218140843774239 0 0.12023297736745781 -0.1110263554770618 0 0.12986776683311119 -0.098514185565799078 0 0.1058809127300703 -0.11218140843774239 0 0.12986776683311119 -0.098514185565799078 0 0.1048667032735431 -0.089595599910983495 0 0.1191358060176364 -0.092450830711447801 0 0.10987135005660249 -0.1059502751577799 0 0.10987135005660249 -0.1059502751577799 0 0.1058809127300703 -0.11218140843774239 0 0.12986776683311119 -0.098514185565799078 0 0.1191358060176364 -0.092450830711447801 0 0.10987135005660249 -0.1059502751577799 0 0.12986776683311119 -0.098514185565799078 0 0.1191358060176364 -0.092450830711447801 0 0.10987135005660249 -0.1059502751577799 0 0.093192902201961414 -0.094424548291792879 0 0.088899626305776192 -0.1113374325741409 0 0.099225161677519755 -0.1035257336162041 0 0.1048667032735431 -0.089595599910983495 0 0.10987135005660249 -0.1059502751577799 0 0.099225161677519755 -0.1035257336162041 0 0.10987135005660249 -0.1059502751577799 0 0.099225161677519755 -0.1035257336162041 0 0.1058809127300703 -0.11218140843774239 0 0.088899626305776192 -0.1113374325741409 0 0.099225161677519755 -0.1035257336162041 0 0.09397493983509804 -0.11322330148444169 0 0.093192902201961414 -0.094424548291792879 0 0.1048667032735431 -0.089595599910983495 0 0.099225161677519755 -0.1035257336162041 0 0.081894058627025895 -0.12584863130967919 0 0.1058809127300703 -0.11218140843774239 0 0.099525338641528904 -0.12611341339503321 0 0.081894058627025895 -0.12584863130967919 0 0.1058809127300703 -0.11218140843774239 0 0.081894058627025895 -0.12584863130967919 0 0.09397493983509804 -0.11322330148444169 0 0.1058809127300703 -0.11218140843774239 0 0.099225161677519755 -0.1035257336162041 0 0.09397493983509804 -0.11322330148444169 0 0.1058809127300703 -0.11218140843774239 0 0.099525338641528904 -0.12611341339503321 0 0.1058809127300703 -0.11218140843774239 0 0.1121708616464093 -0.1216807098986791 0 0.1058809127300703 -0.11218140843774239 0 0.1121708616464093 -0.1216807098986791 0 0.12023297736745781 -0.1110263554770618 0 0.11997683785091839 -0.1276371159963853 0 0.121067612134044 -0.1214532534018402 0 0.13188977167139071 -0.12546883223523481 0 0.12023297736745781 -0.1110263554770618 0 0.121067612134044 -0.1214532534018402 0 0.13188977167139071 -0.12546883223523481 0 0.11997683785091839 -0.1276371159963853 0 0.1121708616464093 -0.1216807098986791 0 0.121067612134044 -0.1214532534018402 0 0.1121708616464093 -0.1216807098986791 0 0.12023297736745781 -0.1110263554770618 0 0.121067612134044 -0.1214532534018402 0 0.12023297736745781 -0.1110263554770618 0 0.12986776683311119 -0.098514185565799078 0 0.13188977167139071 -0.12546883223523481 0 0.12986776683311119 -0.098514185565799078 0 0.13188977167139071 -0.12546883223523481 0 0.14925441928633251 -0.10969288085116551 0 0.13995942417209239 -0.1034127274713456 0 0.13188977167139071 -0.12546883223523481 0 0.14724036225017881 -0.1245170930860646 0 0.14925441928633251 -0.10969288085116551 0 0.13188977167139071 -0.12546883223523481 0 0.14925441928633251 -0.10969288085116551 0 0.15485465026004211 -0.11932571079310079 0 0.15999890680388329 -0.1096406796162286 0 0.14724036225017881 -0.1245170930860646 0 0.15485465026004211 -0.11932571079310079 0 0.15557261582888751 -0.13003178131142151 0 0.14724036225017881 -0.1245170930860646 0 0.14925441928633251 -0.10969288085116551 0 0.15485465026004211 -0.11932571079310079 0 0.14925441928633251 -0.10969288085116551 0 0.14348993397904131 -0.092765062884646393 0 0.1620153957752187 -0.097165399419701551 0 0.14348993397904131 -0.092765062884646393 0 0.1620153957752187 -0.097165399419701551 0 0.14925441928633251 -0.10969288085116551 0 0.13995942417209239 -0.1034127274713456 0 0.14348993397904131 -0.092765062884646393 0 0.13995942417209239 -0.1034127274713456 0 0.12986776683311119 -0.098514185565799078 0 0.13188977167139071 -0.12546883223523481 0 0.13995942417209239 -0.1034127274713456 0 0.12986776683311119 -0.098514185565799078 0 0.14348993397904131 -0.092765062884646393 0 0.12986776683311119 -0.098514185565799078 0 0.12840026197867099 -0.078951386265116219 0 0.1428482005174804 -0.076716741777837147 0 0.1191358060176364 -0.092450830711447801 0 0.12986776683311119 -0.098514185565799078 0 0.12840026197867099 -0.078951386265116219 0 0.12986776683311119 -0.098514185565799078 0 0.12840026197867099 -0.078951386265116219 0 0.12840026197867099 -0.078951386265116219 0 0.12664898879935529 -0.055605769639440771 0 0.12840026197867099 -0.078951386265116219 0 0.12664898879935529 -0.055605769639440771 0 0.14464694777039611 -0.055277979731059648 0 0.12840026197867099 -0.078951386265116219 0 0.1428482005174804 -0.076716741777837147 0 0.14464694777039611 -0.055277979731059648 0 0.12840026197867099 -0.078951386265116219 0 0.14464694777039611 -0.055277979731059648 0 0.1428482005174804 -0.076716741777837147 0 0.15680899227989839 -0.06637062400294011 0 0.14464694777039611 -0.055277979731059648 0 0.1428482005174804 -0.076716741777837147 0 0.15451703372532541 -0.084469533324270707 0 0.15680899227989839 -0.06637062400294011 0 0.12986776683311119 -0.098514185565799078 0 0.15451703372532541 -0.084469533324270707 0 0.12986776683311119 -0.098514185565799078 0 0.14348993397904131 -0.092765062884646393 0 0.15451703372532541 -0.084469533324270707 0 0.14348993397904131 -0.092765062884646393 0 0.15451703372532541 -0.084469533324270707 0 0.1620153957752187 -0.097165399419701551 0 0.12986776683311119 -0.098514185565799078 0 0.1428482005174804 -0.076716741777837147 0 0.15451703372532541 -0.084469533324270707 0 0.15451703372532541 -0.084469533324270707 0 0.1674193516126988 -0.088794767656503876 0 0.1620153957752187 -0.097165399419701551 0 0.15451703372532541 -0.084469533324270707 0 0.1674193516126988 -0.088794767656503876 0 0.16389165652408541 -0.076485311925560115 0 0.1674193516126988 -0.088794767656503876 0 0.16389165652408541 -0.076485311925560115 0 0.17613181446746839 -0.084287857658230353 0 0.15451703372532541 -0.084469533324270707 0 0.15680899227989839 -0.06637062400294011 0 0.16389165652408541 -0.076485311925560115 0 0.16389165652408541 -0.076485311925560115 0 0.1717227713635387 -0.067009979361705274 0 0.17613181446746839 -0.084287857658230353 0 0.15680899227989839 -0.06637062400294011 0 0.16389165652408541 -0.076485311925560115 0 0.1717227713635387 -0.067009979361705274 0 0.15680899227989839 -0.06637062400294011 0 0.1717227713635387 -0.067009979361705274 0 0.1652446184022294 -0.054500080927008407 0 0.1717227713635387 -0.067009979361705274 0 0.17613181446746839 -0.084287857658230353 0 0.1717227713635387 -0.067009979361705274 0 0.18346211879182289 -0.064955309332027283 0 0.18137547142311691 -0.085525622921553163 0 0.18346211879182289 -0.064955309332027283 0 0.18137547142311691 -0.085525622921553163 0 0.1952329782378138 -0.068464889048657496 0 0.1717227713635387 -0.067009979361705274 0 0.18137547142311691 -0.085525622921553163 0 0.1717227713635387 -0.067009979361705274 0 0.18346211879182289 -0.064955309332027283 0 0.1746283364613696 -0.057560297553190053 0 0.18137547142311691 -0.085525622921553163 0 0.17613181446746839 -0.084287857658230353 0 0.18054085757139629 -0.1015657359547559 0 0.17613181446746839 -0.084287857658230353 0 0.18054085757139629 -0.1015657359547559 0 0.1674193516126988 -0.088794767656503876 0 0.17613181446746839 -0.084287857658230353 0 0.18054085757139629 -0.1015657359547559 0 0.1717227713635387 -0.067009979361705274 0 0.18137547142311691 -0.085525622921553163 0 0.17613181446746839 -0.084287857658230353 0 0.18137547142311691 -0.085525622921553163 0 0.19100769245097829 -0.1040519139747048 0 0.18137547142311691 -0.085525622921553163 0 0.18054085757139629 -0.1015657359547559 0 0.19100769245097829 -0.1040519139747048 0 0.18054085757139629 -0.1015657359547559 0 0.1749190978293893 -0.1165979942053425 0 0.16884250162088479 -0.1080310140379921 0 0.18054085757139629 -0.1015657359547559 0 0.19100769245097829 -0.1040519139747048 0 0.18054085757139629 -0.1015657359547559 0 0.1862357176231304 -0.1238823921021804 0 0.1749190978293893 -0.1165979942053425 0 0.18054085757139629 -0.1015657359547559 0 0.1862357176231304 -0.1238823921021804 0 0.19100769245097829 -0.1040519139747048 0 0.18054085757139629 -0.1015657359547559 0 0.1862357176231304 -0.1238823921021804 0 0.1862357176231304 -0.1238823921021804 0 0.1749190978293893 -0.1165979942053425 0 0.17324983187337631 -0.13165498831909611 0 0.1749190978293893 -0.1165979942053425 0 0.16471491079178111 -0.1205264202314431 0 0.16884250162088479 -0.1080310140379921 0 0.16471491079178111 -0.1205264202314431 0 0.15999890680388329 -0.1096406796162286 0 0.16884250162088479 -0.1080310140379921 0 0.1749190978293893 -0.1165979942053425 0 0.16471491079178111 -0.1205264202314431 0 0.17324983187337631 -0.13165498831909611 0 0.15485465026004211 -0.11932571079310079 0 0.16471491079178111 -0.1205264202314431 0 0.15557261582888751 -0.13003178131142151 0 0.15485465026004211 -0.11932571079310079 0 0.16471491079178111 -0.1205264202314431 0 0.15999890680388329 -0.1096406796162286 0 0.18054085757139629 -0.1015657359547559 0 0.1620153957752187 -0.097165399419701551 0 0.1674193516126988 -0.088794767656503876 0 0.18054085757139629 -0.1015657359547559 0 0.1620153957752187 -0.097165399419701551 0 0.14925441928633251 -0.10969288085116551 0 0.15999890680388329 -0.1096406796162286 0 0.1620153957752187 -0.097165399419701551 0 0.15999890680388329 -0.1096406796162286 0 0.1620153957752187 -0.097165399419701551 0 0.16884250162088479 -0.1080310140379921 0 0.18054085757139629 -0.1015657359547559 0 0.1620153957752187 -0.097165399419701551 0 0.16884250162088479 -0.1080310140379921 0 0.13464870039648349 0.00080453217212592717 0 0.15480995508657039 -0.001084596553268768 0 0.14892696920713289 -0.018041582065753459 0 0.13464870039648349 0.00080453217212592717 0 0.1294320674019063 -0.023146095115484211 0 0.14892696920713289 -0.018041582065753459 0 0.13464870039648349 0.00080453217212592717 0 0.1112777463759113 -0.012222875866518469 0 0.1294320674019063 -0.023146095115484211 0 0.1294320674019063 -0.023146095115484211 0 0.14892696920713289 -0.018041582065753459 0 0.14270131340979469 -0.036531096068384838 0 0.14892696920713289 -0.018041582065753459 0 0.14270131340979469 -0.036531096068384838 0 0.16089363356212191 -0.031604573197003549 0 0.14270131340979469 -0.036531096068384838 0 0.14464694777039611 -0.055277979731059648 0 0.16089363356212191 -0.031604573197003549 0 0.14464694777039611 -0.055277979731059648 0 0.15561449558007559 -0.051164132387281437 0 0.16089363356212191 -0.031604573197003549 0 0.14464694777039611 -0.055277979731059648 0 0.16089363356212191 -0.031604573197003549 0 0.14270131340979469 -0.036531096068384838 0 0.12954193793015309 -0.041748568408345607 0 0.14464694777039611 -0.055277979731059648 0 0.1294320674019063 -0.023146095115484211 0 0.14270131340979469 -0.036531096068384838 0 0.12954193793015309 -0.041748568408345607 0 0.12954193793015309 -0.041748568408345607 0 0.12664898879935529 -0.055605769639440771 0 0.14464694777039611 -0.055277979731059648 0 0.15680899227989839 -0.06637062400294011 0 0.14464694777039611 -0.055277979731059648 0 0.15561449558007559 -0.051164132387281437 0 0.15680899227989839 -0.06637062400294011 0 0.15561449558007559 -0.051164132387281437 0 0.1652446184022294 -0.054500080927008407 0 0.15561449558007559 -0.051164132387281437 0 0.1652446184022294 -0.054500080927008407 0 0.1617942405007988 -0.043199732881276223 0 0.1652446184022294 -0.054500080927008407 0 0.1746283364613696 -0.057560297553190053 0 0.1617942405007988 -0.043199732881276223 0 0.1717227713635387 -0.067009979361705274 0 0.1652446184022294 -0.054500080927008407 0 0.1717227713635387 -0.067009979361705274 0 0.1652446184022294 -0.054500080927008407 0 0.1746283364613696 -0.057560297553190053 0 0.1746283364613696 -0.057560297553190053 0 0.1828119860636557 -0.050363577362968731 0 0.1617942405007988 -0.043199732881276223 0 0.18346211879182289 -0.064955309332027283 0 0.1746283364613696 -0.057560297553190053 0 0.1828119860636557 -0.050363577362968731 0 0.18346211879182289 -0.064955309332027283 0 0.1828119860636557 -0.050363577362968731 0 0.19188844298534441 -0.056659859735039647 0 0.1617942405007988 -0.043199732881276223 0 0.18853740735089011 -0.033706188378118708 0 0.1828119860636557 -0.050363577362968731 0 0.1617942405007988 -0.043199732881276223 0 0.18853740735089011 -0.033706188378118708 0 0.15561449558007559 -0.051164132387281437 0 0.16089363356212191 -0.031604573197003549 0 0.1617942405007988 -0.043199732881276223 0 0.16089363356212191 -0.031604573197003549 0 0.1617942405007988 -0.043199732881276223 0 0.18853740735089011 -0.033706188378118708 0 0.16089363356212191 -0.031604573197003549 0 0.17714031935384769 -0.0079311666629475405 0 0.14892696920713289 -0.018041582065753459 0 0.16089363356212191 -0.031604573197003549 0 0.17714031935384769 -0.0079311666629475405 0 0.16089363356212191 -0.031604573197003549 0 0.17714031935384769 -0.0079311666629475405 0 0.18853740735089011 -0.033706188378118708 0 0.1657030786406338 0.0084270166623369204 0 0.15480995508657039 -0.001084596553268768 0 0.17714031935384769 -0.0079311666629475405 0 0.15480995508657039 -0.001084596553268768 0 0.14892696920713289 -0.018041582065753459 0 0.17714031935384769 -0.0079311666629475405 0 0.21351355446813719 -0.0021103410187178909 0 0.2110126965438916 -0.012672932103663791 0 0.2228246624943325 -0.0092295053444410857 0 0.2110126965438916 -0.012672932103663791 0 0.21911622703360889 -0.015650702578479541 0 0.2228246624943325 -0.0092295053444410857 0 0.21351355446813719 -0.0021103410187178909 0 0.2110126965438916 -0.012672932103663791 0 0.19836939172364151 -0.01016904411482358 0 0.1998105265397013 0.00335350757378736 0 0.21351355446813719 -0.0021103410187178909 0 0.19836939172364151 -0.01016904411482358 0 0.1998105265397013 0.00335350757378736 0 0.17714031935384769 -0.0079311666629475405 0 0.19836939172364151 -0.01016904411482358 0 0.17714031935384769 -0.0079311666629475405 0 0.19836939172364151 -0.01016904411482358 0 0.18853740735089011 -0.033706188378118708 0 0.2110126965438916 -0.012672932103663791 0 0.19836939172364151 -0.01016904411482358 0 0.18853740735089011 -0.033706188378118708 0 0.21528057420098159 -0.024212643874961401 0 0.18853740735089011 -0.033706188378118708 0 0.2110126965438916 -0.012672932103663791 0 0.21528057420098159 -0.024212643874961401 0 0.18853740735089011 -0.033706188378118708 0 0.21528057420098159 -0.024212643874961401 0 0.20886364623554921 -0.031523512657201581 0 0.18853740735089011 -0.033706188378118708 0 0.2110126965438916 -0.012672932103663791 0 0.21528057420098159 -0.024212643874961401 0 0.21911622703360889 -0.015650702578479541 0 0.21528057420098159 -0.024212643874961401 0 0.2158000993154765 -0.027276596113623111 0 0.21360323626451261 -0.02858374534336202 0 0.21528057420098159 -0.024212643874961401 0 0.2158000993154765 -0.027276596113623111 0 0.21995729679401421 -0.029331280632926501 0 0.2158000993154765 -0.027276596113623111 0 0.21503400689837671 -0.030930810510401429 0 0.21995729679401421 -0.029331280632926501 0 0.2158000993154765 -0.027276596113623111 0 0.21503400689837671 -0.030930810510401429 0 0.21360323626451261 -0.02858374534336202 0 0.21528057420098159 -0.024212643874961401 0 0.21360323626451261 -0.02858374534336202 0 0.20886364623554921 -0.031523512657201581 0 0.21503400689837671 -0.030930810510401429 0 0.21360323626451261 -0.02858374534336202 0 0.20886364623554921 -0.031523512657201581 0 0.2128060919330283 -0.035124071741943173 0 0.2180191377477218 -0.035203133534298187 0 0.2167024847658664 -0.043974661413588162 0 0.21503400689837671 -0.030930810510401429 0 0.2128060919330283 -0.035124071741943173 0 0.20886364623554921 -0.031523512657201581 0 0.21503400689837671 -0.030930810510401429 0 0.2128060919330283 -0.035124071741943173 0 0.2180191377477218 -0.035203133534298187 0 0.21503400689837671 -0.030930810510401429 0 0.2180191377477218 -0.035203133534298187 0 0.21995729679401421 -0.029331280632926501 0 0.2167024847658664 -0.043974661413588162 0 0.20890374551960481 -0.040729144831228678 0 0.20897987019450001 -0.050060865146210963 0 0.2128060919330283 -0.035124071741943173 0 0.2167024847658664 -0.043974661413588162 0 0.20890374551960481 -0.040729144831228678 0 0.20890374551960481 -0.040729144831228678 0 0.19655169947710091 -0.043788383486002072 0 0.20897987019450001 -0.050060865146210963 0 0.2128060919330283 -0.035124071741943173 0 0.20890374551960481 -0.040729144831228678 0 0.20886364623554921 -0.031523512657201581 0 0.20890374551960481 -0.040729144831228678 0 0.20886364623554921 -0.031523512657201581 0 0.19655169947710091 -0.043788383486002072 0 0.1828119860636557 -0.050363577362968731 0 0.18853740735089011 -0.033706188378118708 0 0.19655169947710091 -0.043788383486002072 0 0.20886364623554921 -0.031523512657201581 0 0.18853740735089011 -0.033706188378118708 0 0.19655169947710091 -0.043788383486002072 0 0.19655169947710091 -0.043788383486002072 0 0.20138343235632811 -0.055727139445542639 0 0.20897987019450001 -0.050060865146210963 0 0.19655169947710091 -0.043788383486002072 0 0.19188844298534441 -0.056659859735039647 0 0.20138343235632811 -0.055727139445542639 0 0.1828119860636557 -0.050363577362968731 0 0.19655169947710091 -0.043788383486002072 0 0.19188844298534441 -0.056659859735039647 0 0.19188844298534441 -0.056659859735039647 0 0.20138343235632811 -0.055727139445542639 0 0.1952329782378138 -0.068464889048657496 0 0.20138343235632811 -0.055727139445542639 0 0.22670270369963491 -0.067064047377793826 0 0.20138343235632811 -0.055727139445542639 0 0.21577564808412511 -0.056666161138016313 0 0.22670270369963491 -0.067064047377793826 0 0.20138343235632811 -0.055727139445542639 0 0.20897987019450001 -0.050060865146210963 0 0.21577564808412511 -0.056666161138016313 0 0.2167024847658664 -0.043974661413588162 0 0.20897987019450001 -0.050060865146210963 0 0.21577564808412511 -0.056666161138016313 0 0.21577564808412511 -0.056666161138016313 0 0.23694359709532001 -0.061394592404840097 0 0.22670270369963491 -0.067064047377793826 0 0.21577564808412511 -0.056666161138016313 0 0.22648325856373289 -0.049317463857355977 0 0.23694359709532001 -0.061394592404840097 0 0.21577564808412511 -0.056666161138016313 0 0.23694359709532001 -0.061394592404840097 0 0.2167024847658664 -0.043974661413588162 0 0.21577564808412511 -0.056666161138016313 0 0.22648325856373289 -0.049317463857355977 0 0.22648325856373289 -0.049317463857355977 0 0.23694359709532001 -0.061394592404840097 0 0.23716366819637241 -0.046229271507985323 0 0.25811154610651499 -0.066123023671663908 0 0.23694359709532001 -0.061394592404840097 0 0.24870160087168189 -0.052882304334001928 0 0.23694359709532001 -0.061394592404840097 0 0.24870160087168189 -0.052882304334001928 0 0.23716366819637241 -0.046229271507985323 0 0.24870160087168189 -0.052882304334001928 0 0.23716366819637241 -0.046229271507985323 0 0.24731406762381819 -0.035960341631652723 0 0.23716366819637241 -0.046229271507985323 0 0.24731406762381819 -0.035960341631652723 0 0.23342582712955959 -0.033308149953783547 0 0.23342582712955959 -0.033308149953783547 0 0.2258308946769807 -0.038322632822349968 0 0.22548915127375299 -0.027513718828695861 0 0.22648325856373289 -0.049317463857355977 0 0.23716366819637241 -0.046229271507985323 0 0.2258308946769807 -0.038322632822349968 0 0.23716366819637241 -0.046229271507985323 0 0.23342582712955959 -0.033308149953783547 0 0.2258308946769807 -0.038322632822349968 0 0.2180191377477218 -0.035203133534298187 0 0.2167024847658664 -0.043974661413588162 0 0.2258308946769807 -0.038322632822349968 0 0.2167024847658664 -0.043974661413588162 0 0.22648325856373289 -0.049317463857355977 0 0.2258308946769807 -0.038322632822349968 0 0.2180191377477218 -0.035203133534298187 0 0.2258308946769807 -0.038322632822349968 0 0.21995729679401421 -0.029331280632926501 0 0.2258308946769807 -0.038322632822349968 0 0.22548915127375299 -0.027513718828695861 0 0.21995729679401421 -0.029331280632926501 0 0.21528057420098159 -0.024212643874961401 0 0.2313313538768734 -0.018514784978234038 0 0.22829619310998309 -0.01520182636873813 0 0.21528057420098159 -0.024212643874961401 0 0.2313313538768734 -0.018514784978234038 0 0.21528057420098159 -0.024212643874961401 0 0.22548915127375299 -0.027513718828695861 0 0.2313313538768734 -0.018514784978234038 0 0.21528057420098159 -0.024212643874961401 0 0.22548915127375299 -0.027513718828695861 0 0.21995729679401421 -0.029331280632926501 0 0.21528057420098159 -0.024212643874961401 0 0.22829619310998309 -0.01520182636873813 0 0.21528057420098159 -0.024212643874961401 0 0.21911622703360889 -0.015650702578479541 0 0.22829619310998309 -0.01520182636873813 0 0.2313313538768734 -0.018514784978234038 0 0.22829619310998309 -0.01520182636873813 0 0.23342582712955959 -0.033308149953783547 0 0.22548915127375299 -0.027513718828695861 0 0.2313313538768734 -0.018514784978234038 0 0.25508119948702751 -0.010083838205662381 0 0.2313313538768734 -0.018514784978234038 0 0.2482857443068576 -0.021714794414400052 0 0.24731406762381819 -0.035960341631652723 0 0.2313313538768734 -0.018514784978234038 0 0.2482857443068576 -0.021714794414400052 0 0.24731406762381819 -0.035960341631652723 0 0.23342582712955959 -0.033308149953783547 0 0.2313313538768734 -0.018514784978234038 0 0.24731406762381819 -0.035960341631652723 0 0.2313313538768734 -0.018514784978234038 0 0.25508119948702751 -0.010083838205662381 0 0.2313313538768734 -0.018514784978234038 0 0.24138147174972829 -0.0061427828714447699 0 0.25508119948702751 -0.010083838205662381 0 0.2313313538768734 -0.018514784978234038 0 0.24138147174972829 -0.0061427828714447699 0 0.22829619310998309 -0.01520182636873813 0 0.25446675038947358 0.0029162606258486688 0 0.2541426920980116 -0.0036136263454906951 0 0.24138147174972829 -0.0061427828714447699 0 0.25446675038947358 0.0029162606258486688 0 0.24138147174972829 -0.0061427828714447699 0 0.22999165343287109 0.0038227322559807589 0 0.24138147174972829 -0.0061427828714447699 0 0.23189167676904729 -0.0064153040848911828 0 0.22999165343287109 0.0038227322559807589 0 0.23189167676904729 -0.0064153040848911828 0 0.2228246624943325 -0.0092295053444410857 0 0.22999165343287109 0.0038227322559807589 0 0.21351355446813719 -0.0021103410187178909 0 0.2228246624943325 -0.0092295053444410857 0 0.23189167676904729 -0.0064153040848911828 0 0.22829619310998309 -0.01520182636873813 0 0.2228246624943325 -0.0092295053444410857 0 0.2313313538768734 -0.018514784978234038 0 0.24138147174972829 -0.0061427828714447699 0 0.22829619310998309 -0.01520182636873813 0 0.24138147174972829 -0.0061427828714447699 0 0.23189167676904729 -0.0064153040848911828 0 0.22829619310998309 -0.01520182636873813 0 0.21911622703360889 -0.015650702578479541 0 0.22829619310998309 -0.01520182636873813 0 0.2228246624943325 -0.0092295053444410857 0 0.22829619310998309 -0.01520182636873813 0 0.2228246624943325 -0.0092295053444410857 0 0.2084634723971549 -0.097930235578601213 0 0.21737999015654699 -0.1103161024944793 0 0.2275791846540145 -0.10054182369239011 0 0.21737999015654699 -0.1103161024944793 0 0.19100769245097829 -0.1040519139747048 0 0.2084634723971549 -0.097930235578601213 0 0.21140608144591419 -0.084503356370523836 0 0.2275791846540145 -0.10054182369239011 0 0.2084634723971549 -0.097930235578601213 0 0.21737999015654699 -0.1103161024944793 0 0.19100769245097829 -0.1040519139747048 0 0.21737999015654699 -0.1103161024944793 0 0.21277072480774051 -0.1248863227998855 0 0.20025029595199689 -0.1218288277367077 0 0.21737999015654699 -0.1103161024944793 0 0.21277072480774051 -0.1248863227998855 0 0.2239597136694004 -0.1277946194696456 0 0.1862357176231304 -0.1238823921021804 0 0.20025029595199689 -0.1218288277367077 0 0.19100769245097829 -0.1040519139747048 0 0.21737999015654699 -0.1103161024944793 0 0.20025029595199689 -0.1218288277367077 0 0.19100769245097829 -0.1040519139747048 0 0.20025029595199689 -0.1218288277367077 0 0.19100769245097829 -0.1040519139747048 0 0.2084634723971549 -0.097930235578601213 0 0.19100769245097829 -0.1040519139747048 0 0.19624682445825681 -0.08914472739044943 0 0.18137547142311691 -0.085525622921553163 0 0.19100769245097829 -0.1040519139747048 0 0.19624682445825681 -0.08914472739044943 0 0.19624682445825681 -0.08914472739044943 0 0.1952329782378138 -0.068464889048657496 0 0.21140608144591419 -0.084503356370523836 0 0.18137547142311691 -0.085525622921553163 0 0.19624682445825681 -0.08914472739044943 0 0.1952329782378138 -0.068464889048657496 0 0.20138343235632811 -0.055727139445542639 0 0.1952329782378138 -0.068464889048657496 0 0.21149591893834541 -0.070957707586151192 0 0.18346211879182289 -0.064955309332027283 0 0.19188844298534441 -0.056659859735039647 0 0.1952329782378138 -0.068464889048657496 0 0.1952329782378138 -0.068464889048657496 0 0.21140608144591419 -0.084503356370523836 0 0.20138343235632811 -0.055727139445542639 0 0.21149591893834541 -0.070957707586151192 0 0.22670270369963491 -0.067064047377793826 0 0.1952329782378138 -0.068464889048657496 0 0.21149591893834541 -0.070957707586151192 0 0.21140608144591419 -0.084503356370523836 0 0.2084634723971549 -0.097930235578601213 0 0.19624682445825681 -0.08914472739044943 0 0.21140608144591419 -0.084503356370523836 0 0.21149591893834541 -0.070957707586151192 0 0.21140608144591419 -0.084503356370523836 0 0.2227543989520358 -0.079029105688238177 0 0.21140608144591419 -0.084503356370523836 0 0.2275791846540145 -0.10054182369239011 0 0.2227543989520358 -0.079029105688238177 0 0.23449163343577681 -0.083610487294907485 0 0.2275791846540145 -0.10054182369239011 0 0.21140608144591419 -0.084503356370523836 0 0.2227543989520358 -0.079029105688238177 0 0.2275791846540145 -0.10054182369239011 0 0.2227543989520358 -0.079029105688238177 0 0.22670270369963491 -0.067064047377793826 0 0.23449163343577681 -0.083610487294907485 0 0.21149591893834541 -0.070957707586151192 0 0.2227543989520358 -0.079029105688238177 0 0.22670270369963491 -0.067064047377793826 0 0.25202197504294188 -0.078400955310045109 0 0.25811154610651499 -0.066123023671663908 0 0.23694359709532001 -0.061394592404840097 0 0.25202197504294188 -0.078400955310045109 0 0.22670270369963491 -0.067064047377793826 0 0.25202197504294188 -0.078400955310045109 0 0.22670270369963491 -0.067064047377793826 0 0.23449163343577681 -0.083610487294907485 0 0.25202197504294188 -0.078400955310045109 0 0.23694359709532001 -0.061394592404840097 0 0.22670270369963491 -0.067064047377793826 0 0.25811154610651499 -0.066123023671663908 0 0.23694359709532001 -0.061394592404840097 0 0.25202197504294188 -0.078400955310045109 0 0.23449163343577681 -0.083610487294907485 0 0.24624903761231479 -0.086847438891893419 0 0.23449163343577681 -0.083610487294907485 0 0.24292322406264641 -0.096552741650977186 0 0.2275791846540145 -0.10054182369239011 0 0.23449163343577681 -0.083610487294907485 0 0.24624903761231479 -0.086847438891893419 0 0.24292322406264641 -0.096552741650977186 0 0.25304747237378489 -0.090741332181114118 0 0.24624903761231479 -0.086847438891893419 0 0.24292322406264641 -0.096552741650977186 0 0.2275791846540145 -0.10054182369239011 0 0.24375228786211539 -0.116580291014256 0 0.24292322406264641 -0.096552741650977186 0 0.2275791846540145 -0.10054182369239011 0 0.24375228786211539 -0.116580291014256 0 0.25771864553297669 -0.099620140202181948 0 0.24292322406264641 -0.096552741650977186 0 0.24375228786211539 -0.116580291014256 0 0.21737999015654699 -0.1103161024944793 0 0.2275791846540145 -0.10054182369239011 0 0.24375228786211539 -0.116580291014256 0 0.21737999015654699 -0.1103161024944793 0 0.24375228786211539 -0.116580291014256 0 0.2239597136694004 -0.1277946194696456 0 0.21737999015654699 -0.1103161024944793 0 0.24375228786211539 -0.116580291014256 0 0.24375228786211539 -0.116580291014256 0 0.235054631712311 -0.13955626642273861 0 0.24955680073527009 -0.143898101237383 0 0.235054631712311 -0.13955626642273861 0 0.24955680073527009 -0.143898101237383 0 0.23627457688356679 -0.15840319400941011 0 0.25449645062408999 -0.16331052089379791 0 0.24955680073527009 -0.143898101237383 0 0.23627457688356679 -0.15840319400941011 0 0.235054631712311 -0.13955626642273861 0 0.22199130801810529 -0.1478171468904442 0 0.23627457688356679 -0.15840319400941011 0 0.24375228786211539 -0.116580291014256 0 0.235054631712311 -0.13955626642273861 0 0.2239597136694004 -0.1277946194696456 0 0.235054631712311 -0.13955626642273861 0 0.22199130801810529 -0.1478171468904442 0 0.2239597136694004 -0.1277946194696456 0 0.20025029595199689 -0.1218288277367077 0 0.20949289945301761 -0.1396057414987095 0 0.22199130801810529 -0.1478171468904442 0 0.2239597136694004 -0.1277946194696456 0 0.20949289945301761 -0.1396057414987095 0 0.21277072480774051 -0.1248863227998855 0 0.20025029595199689 -0.1218288277367077 0 0.20949289945301761 -0.1396057414987095 0 0.21277072480774051 -0.1248863227998855 0 0.2239597136694004 -0.1277946194696456 0 0.20949289945301761 -0.1396057414987095 0 0.22199130801810529 -0.1478171468904442 0 0.20949289945301761 -0.1396057414987095 0 0.2069794531536403 -0.1537888919124783 0 0.20949289945301761 -0.1396057414987095 0 0.2069794531536403 -0.1537888919124783 0 0.1919305776748628 -0.1461990482496055 0 0.2069794531536403 -0.1537888919124783 0 0.1919305776748628 -0.1461990482496055 0 0.19225769977326759 -0.16432491474026781 0 0.1862357176231304 -0.1238823921021804 0 0.1919305776748628 -0.1461990482496055 0 0.19714487019074359 -0.1333469628700395 0 0.20025029595199689 -0.1218288277367077 0 0.20949289945301761 -0.1396057414987095 0 0.19714487019074359 -0.1333469628700395 0 0.20949289945301761 -0.1396057414987095 0 0.1919305776748628 -0.1461990482496055 0 0.19714487019074359 -0.1333469628700395 0 0.1862357176231304 -0.1238823921021804 0 0.1919305776748628 -0.1461990482496055 0 0.1862357176231304 -0.1238823921021804 0 0.20025029595199689 -0.1218288277367077 0 0.19714487019074359 -0.1333469628700395 0 0.19629081049063871 -0.1815365299480412 0 0.19225769977326759 -0.16432491474026781 0 0.17982600751226671 -0.1762593337595659 0 0.19629081049063871 -0.1815365299480412 0 0.19225769977326759 -0.16432491474026781 0 0.22018657323669569 -0.16775416802968299 0 0.2069794531536403 -0.1537888919124783 0 0.19225769977326759 -0.16432491474026781 0 0.22018657323669569 -0.16775416802968299 0 0.22199130801810529 -0.1478171468904442 0 0.2069794531536403 -0.1537888919124783 0 0.22018657323669569 -0.16775416802968299 0 0.19629081049063871 -0.1815365299480412 0 0.22018657323669569 -0.16775416802968299 0 0.21237941264848451 -0.18810475376770611 0 0.22018657323669569 -0.16775416802968299 0 0.23934418379307471 -0.18436482883247621 0 0.22018657323669569 -0.16775416802968299 0 0.23934418379307471 -0.18436482883247621 0 0.21237941264848451 -0.18810475376770611 0 0.22018657323669569 -0.16775416802968299 0 0.23627457688356679 -0.15840319400941011 0 0.23934418379307471 -0.18436482883247621 0 0.22199130801810529 -0.1478171468904442 0 0.22018657323669569 -0.16775416802968299 0 0.23627457688356679 -0.15840319400941011 0 0.25449645062408999 -0.16331052089379791 0 0.23627457688356679 -0.15840319400941011 0 0.23934418379307471 -0.18436482883247621 0 0.25850179434945381 -0.20097548963526929 0 0.23934418379307471 -0.18436482883247621 0 0.25850179434945381 -0.20097548963526929 0 0.23934418379307471 -0.18436482883247621 0 0.23907695871134879 -0.21289681242661959 0 0.23907695871134879 -0.21289681242661959 0 0.22308479462261119 -0.20217133576560289 0 0.21722062693650279 -0.2226466586169516 0 0.23934418379307471 -0.18436482883247621 0 0.22308479462261119 -0.20217133576560289 0 0.21237941264848451 -0.18810475376770611 0 0.23934418379307471 -0.18436482883247621 0 0.23907695871134879 -0.21289681242661959 0 0.22308479462261119 -0.20217133576560289 0 0.25037283077400019 -0.2416092145933311 0 0.23239962387573149 -0.2337287944253621 0 0.2339549802858914 -0.24933471903745599 0 0.25658827463044448 -0.2222138965281123 0 0.23907695871134879 -0.21289681242661959 0 0.2446094219978813 -0.2276121794933563 0 0.25037283077400019 -0.2416092145933311 0 0.2446094219978813 -0.2276121794933563 0 0.23239962387573149 -0.2337287944253621 0 0.23907695871134879 -0.21289681242661959 0 0.2446094219978813 -0.2276121794933563 0 0.23239962387573149 -0.2337287944253621 0 0.23907695871134879 -0.21289681242661959 0 0.23239962387573149 -0.2337287944253621 0 0.21722062693650279 -0.2226466586169516 0 0.23239962387573149 -0.2337287944253621 0 0.2194561222393229 -0.23682627783696539 0 0.21722062693650279 -0.2226466586169516 0 0.23239962387573149 -0.2337287944253621 0 0.22502312889380549 -0.2426362774769398 0 0.2339549802858914 -0.24933471903745599 0 0.2194561222393229 -0.23682627783696539 0 0.22502312889380549 -0.2426362774769398 0 0.21456577207223029 -0.24270171036535029 0 0.23239962387573149 -0.2337287944253621 0 0.2194561222393229 -0.23682627783696539 0 0.22502312889380549 -0.2426362774769398 0 0.22331750647786899 -0.25281133177650322 0 0.22502312889380549 -0.2426362774769398 0 0.21456577207223029 -0.24270171036535029 0 0.22331750647786899 -0.25281133177650322 0 0.22502312889380549 -0.2426362774769398 0 0.2339549802858914 -0.24933471903745599 0 0.2084475354763706 -0.25511513831035743 0 0.2080714594183444 -0.2424179483002232 0 0.21336353465090491 -0.24693864317134839 0 0.2080714594183444 -0.2424179483002232 0 0.21336353465090491 -0.24693864317134839 0 0.2080714594183444 -0.2424179483002232 0 0.21336353465090491 -0.24693864317134839 0 0.21456577207223029 -0.24270171036535029 0 0.2194561222393229 -0.23682627783696539 0 0.2080714594183444 -0.2424179483002232 0 0.21456577207223029 -0.24270171036535029 0 0.21722062693650279 -0.2226466586169516 0 0.20244123733496699 -0.2260211367091485 0 0.19848523837712481 -0.2136299623964425 0 0.2080714594183444 -0.2424179483002232 0 0.21722062693650279 -0.2226466586169516 0 0.2194561222393229 -0.23682627783696539 0 0.2080714594183444 -0.2424179483002232 0 0.21722062693650279 -0.2226466586169516 0 0.2080714594183444 -0.2424179483002232 0 0.21722062693650279 -0.2226466586169516 0 0.20244123733496699 -0.2260211367091485 0 0.2080714594183444 -0.2424179483002232 0 0.18716213711817259 -0.22455639835484539 0 0.2080714594183444 -0.2424179483002232 0 0.20244123733496699 -0.2260211367091485 0 0.18716213711817259 -0.22455639835484539 0 0.20244123733496699 -0.2260211367091485 0 0.19848523837712481 -0.2136299623964425 0 0.18716213711817259 -0.22455639835484539 0 0.2080714594183444 -0.2424179483002232 0 0.19254414318066221 -0.24961624770678509 0 0.1866817818972302 -0.23981118877977231 0 0.2080714594183444 -0.2424179483002232 0 0.1866817818972302 -0.23981118877977231 0 0.18716213711817259 -0.22455639835484539 0 0.19254414318066221 -0.24961624770678509 0 0.18399505531774341 -0.24981832115951039 0 0.1866817818972302 -0.23981118877977231 0 0.21237941264848451 -0.18810475376770611 0 0.20793523744788639 -0.20366419955677639 0 0.19447652973028121 -0.19759128756789451 0 0.22308479462261119 -0.20217133576560289 0 0.21237941264848451 -0.18810475376770611 0 0.20793523744788639 -0.20366419955677639 0 0.22308479462261119 -0.20217133576560289 0 0.21722062693650279 -0.2226466586169516 0 0.20793523744788639 -0.20366419955677639 0 0.21722062693650279 -0.2226466586169516 0 0.20793523744788639 -0.20366419955677639 0 0.19848523837712481 -0.2136299623964425 0 0.19848523837712481 -0.2136299623964425 0 0.19447652973028121 -0.19759128756789451 0 0.1831457957419608 -0.2071674304332729 0 0.20793523744788639 -0.20366419955677639 0 0.19848523837712481 -0.2136299623964425 0 0.19447652973028121 -0.19759128756789451 0 0.19848523837712481 -0.2136299623964425 0 0.1831457957419608 -0.2071674304332729 0 0.18716213711817259 -0.22455639835484539 0 0.19629081049063871 -0.1815365299480412 0 0.19447652973028121 -0.19759128756789451 0 0.1840061663436266 -0.1900566622106199 0 0.19629081049063871 -0.1815365299480412 0 0.21237941264848451 -0.18810475376770611 0 0.19447652973028121 -0.19759128756789451 0 0.19447652973028121 -0.19759128756789451 0 0.1840061663436266 -0.1900566622106199 0 0.1831457957419608 -0.2071674304332729 0 0.1840061663436266 -0.1900566622106199 0 0.1831457957419608 -0.2071674304332729 0 0.16486725365112659 -0.18785963188663279 0 0.1831457957419608 -0.2071674304332729 0 0.16486725365112659 -0.18785963188663279 0 0.1831457957419608 -0.2071674304332729 0 0.16625281481800089 -0.2066948484094672 0 0.18716213711817259 -0.22455639835484539 0 0.16625281481800089 -0.2066948484094672 0 0.18716213711817259 -0.22455639835484539 0 0.16625281481800089 -0.2066948484094672 0 0.18716213711817259 -0.22455639835484539 0 0.16937657335138201 -0.22198425569814831 0 0.16625281481800089 -0.2066948484094672 0 0.15661990237239229 -0.21733625041789439 0 0.14909823278687431 -0.20687378182447139 0 0.16625281481800089 -0.2066948484094672 0 0.15661990237239229 -0.21733625041789439 0 0.16937657335138201 -0.22198425569814831 0 0.1831457957419608 -0.2071674304332729 0 0.16625281481800089 -0.2066948484094672 0 0.16486725365112659 -0.18785963188663279 0 0.16625281481800089 -0.2066948484094672 0 0.16486725365112659 -0.18785963188663279 0 0.14534349251782941 -0.188833298464089 0 0.17619278994504239 -0.24587918172992959 0 0.18399505531774341 -0.24981832115951039 0 0.1866817818972302 -0.23981118877977231 0 0.17619278994504239 -0.24587918172992959 0 0.17450151464944069 -0.23276490516368609 0 0.16609645978724119 -0.24143951784646769 0 0.17619278994504239 -0.24587918172992959 0 0.1866817818972302 -0.23981118877977231 0 0.17450151464944069 -0.23276490516368609 0 0.17450151464944069 -0.23276490516368609 0 0.18716213711817259 -0.22455639835484539 0 0.16937657335138201 -0.22198425569814831 0 0.1866817818972302 -0.23981118877977231 0 0.17450151464944069 -0.23276490516368609 0 0.18716213711817259 -0.22455639835484539 0 0.15661990237239229 -0.21733625041789439 0 0.1623464977989032 -0.22856887614484861 0 0.15090654410468329 -0.22688320449844629 0 0.15661990237239229 -0.21733625041789439 0 0.16937657335138201 -0.22198425569814831 0 0.1623464977989032 -0.22856887614484861 0 0.17450151464944069 -0.23276490516368609 0 0.1623464977989032 -0.22856887614484861 0 0.16609645978724119 -0.24143951784646769 0 0.17450151464944069 -0.23276490516368609 0 0.16937657335138201 -0.22198425569814831 0 0.1623464977989032 -0.22856887614484861 0 0.1623464977989032 -0.22856887614484861 0 0.16609645978724119 -0.24143951784646769 0 0.1528270009437688 -0.23836283418195289 0 0.16001236861667459 -0.2513654190734112 0 0.16609645978724119 -0.24143951784646769 0 0.1528270009437688 -0.23836283418195289 0 0.16978669848249819 -0.25098739912941831 0 0.17619278994504239 -0.24587918172992959 0 0.16609645978724119 -0.24143951784646769 0 0.16001236861667459 -0.2513654190734112 0 0.16978669848249819 -0.25098739912941831 0 0.16609645978724119 -0.24143951784646769 0 0.1429630926125974 -0.2502577086919005 0 0.16001236861667459 -0.2513654190734112 0 0.1528270009437688 -0.23836283418195289 0 0.1429630926125974 -0.2502577086919005 0 0.1528270009437688 -0.23836283418195289 0 0.13988621804673579 -0.23152362256679451 0 0.1528270009437688 -0.23836283418195289 0 0.15090654410468329 -0.22688320449844629 0 0.13988621804673579 -0.23152362256679451 0 0.1623464977989032 -0.22856887614484861 0 0.1528270009437688 -0.23836283418195289 0 0.15090654410468329 -0.22688320449844629 0 0.15661990237239229 -0.21733625041789439 0 0.15090654410468329 -0.22688320449844629 0 0.1428531013616163 -0.21862443918074129 0 0.15090654410468329 -0.22688320449844629 0 0.13988621804673579 -0.23152362256679451 0 0.1428531013616163 -0.21862443918074129 0 0.12018370186474731 -0.23305432747703519 0 0.12895394136930069 -0.22163642029703709 0 0.13988621804673579 -0.23152362256679451 0 0.12895394136930069 -0.22163642029703709 0 0.13988621804673579 -0.23152362256679451 0 0.1428531013616163 -0.21862443918074129 0 0.1429630926125974 -0.2502577086919005 0 0.12018370186474731 -0.23305432747703519 0 0.1429630926125974 -0.2502577086919005 0 0.12018370186474731 -0.23305432747703519 0 0.13988621804673579 -0.23152362256679451 0 0.13217397618885759 -0.25462043987800831 0 0.1429630926125974 -0.2502577086919005 0 0.12018370186474731 -0.23305432747703519 0 0.16625281481800089 -0.2066948484094672 0 0.14534349251782941 -0.188833298464089 0 0.16625281481800089 -0.2066948484094672 0 0.14534349251782941 -0.188833298464089 0 0.14909823278687431 -0.20687378182447139 0 0.14534349251782941 -0.188833298464089 0 0.14909823278687431 -0.20687378182447139 0 0.1346280568372662 -0.20359450925845249 0 0.15661990237239229 -0.21733625041789439 0 0.14909823278687431 -0.20687378182447139 0 0.1428531013616163 -0.21862443918074129 0 0.14909823278687431 -0.20687378182447139 0 0.1428531013616163 -0.21862443918074129 0 0.1346280568372662 -0.20359450925845249 0 0.1178461100078927 -0.20838697738218431 0 0.12895394136930069 -0.22163642029703709 0 0.1346280568372662 -0.20359450925845249 0 0.12895394136930069 -0.22163642029703709 0 0.1428531013616163 -0.21862443918074129 0 0.1346280568372662 -0.20359450925845249 0 0.14534349251782941 -0.188833298464089 0 0.1346280568372662 -0.20359450925845249 0 0.13128332926409281 -0.18787359724935929 0 0.1237689835273371 -0.19605207676116951 0 0.1178461100078927 -0.20838697738218431 0 0.1346280568372662 -0.20359450925845249 0 0.1237689835273371 -0.19605207676116951 0 0.1346280568372662 -0.20359450925845249 0 0.13128332926409281 -0.18787359724935929 0 0.1237689835273371 -0.19605207676116951 0 0.1232013989280239 -0.1819146573535104 0 0.13128332926409281 -0.18787359724935929 0 0.12443417021765769 -0.1709717485187108 0 0.14534349251782941 -0.188833298464089 0 0.12443417021765769 -0.1709717485187108 0 0.1232013989280239 -0.1819146573535104 0 0.13128332926409281 -0.18787359724935929 0 0.12443417021765769 -0.1709717485187108 0 0.14534349251782941 -0.188833298464089 0 0.13128332926409281 -0.18787359724935929 0 0.12443417021765769 -0.1709717485187108 0 0.14534349251782941 -0.188833298464089 0 0.13540865390058859 -0.1688207667960602 0 0.14534349251782941 -0.188833298464089 0 0.14658871156029241 -0.16855183333999291 0 0.13540865390058859 -0.1688207667960602 0 0.16486725365112659 -0.18785963188663279 0 0.14658871156029241 -0.16855183333999291 0 0.16486725365112659 -0.18785963188663279 0 0.14534349251782941 -0.188833298464089 0 0.14658871156029241 -0.16855183333999291 0 0.14658871156029241 -0.16855183333999291 0 0.13391177650968769 -0.15242347890466901 0 0.14971917460686079 -0.1530450482394467 0 0.14658871156029241 -0.16855183333999291 0 0.14971917460686079 -0.1530450482394467 0 0.16192904395431579 -0.15800089119817939 0 0.14658871156029241 -0.16855183333999291 0 0.13391177650968769 -0.15242347890466901 0 0.12831016946945831 -0.1492440347933528 0 0.14658871156029241 -0.16855183333999291 0 0.12831016946945831 -0.1492440347933528 0 0.14658871156029241 -0.16855183333999291 0 0.13540865390058859 -0.1688207667960602 0 0.1290045142054978 -0.1612372837293575 0 0.14658871156029241 -0.16855183333999291 0 0.1290045142054978 -0.1612372837293575 0 0.12831016946945831 -0.1492440347933528 0 0.13540865390058859 -0.1688207667960602 0 0.12715697753007521 -0.16591248018761531 0 0.1290045142054978 -0.1612372837293575 0 0.12443417021765769 -0.1709717485187108 0 0.13540865390058859 -0.1688207667960602 0 0.12715697753007521 -0.16591248018761531 0 0.12098675462827781 -0.16200852072179159 0 0.12715697753007521 -0.16591248018761531 0 0.1290045142054978 -0.1612372837293575 0 0.12324902196630889 -0.15465793599018671 0 0.1227471198665283 -0.15880086614903269 0 0.1290045142054978 -0.1612372837293575 0 0.13391177650968769 -0.15242347890466901 0 0.12831016946945831 -0.1492440347933528 0 0.12532898621889721 -0.13663811256420449 0 0.12324902196630889 -0.15465793599018671 0 0.1290045142054978 -0.1612372837293575 0 0.12831016946945831 -0.1492440347933528 0 0.1217036921304827 -0.1482443959076799 0 0.12831016946945831 -0.1492440347933528 0 0.12532898621889721 -0.13663811256420449 0 0.13391177650968769 -0.15242347890466901 0 0.13188977167139071 -0.12546883223523481 0 0.13391177650968769 -0.15242347890466901 0 0.13188977167139071 -0.12546883223523481 0 0.1446303542042412 -0.1380662602394005 0 0.13391177650968769 -0.15242347890466901 0 0.13188977167139071 -0.12546883223523481 0 0.12532898621889721 -0.13663811256420449 0 0.11997683785091839 -0.1276371159963853 0 0.13188977167139071 -0.12546883223523481 0 0.12532898621889721 -0.13663811256420449 0 0.1446303542042412 -0.1380662602394005 0 0.15557261582888751 -0.13003178131142151 0 0.1621281360659286 -0.14191921566573409 0 0.14724036225017881 -0.1245170930860646 0 0.13188977167139071 -0.12546883223523481 0 0.1446303542042412 -0.1380662602394005 0 0.14724036225017881 -0.1245170930860646 0 0.1446303542042412 -0.1380662602394005 0 0.15557261582888751 -0.13003178131142151 0 0.13391177650968769 -0.15242347890466901 0 0.1446303542042412 -0.1380662602394005 0 0.14971917460686079 -0.1530450482394467 0 0.1446303542042412 -0.1380662602394005 0 0.14971917460686079 -0.1530450482394467 0 0.1621281360659286 -0.14191921566573409 0 0.1621281360659286 -0.14191921566573409 0 0.17324983187337631 -0.13165498831909611 0 0.17651024624945799 -0.1485415537171802 0 0.14971917460686079 -0.1530450482394467 0 0.1621281360659286 -0.14191921566573409 0 0.16192904395431579 -0.15800089119817939 0 0.1621281360659286 -0.14191921566573409 0 0.17651024624945799 -0.1485415537171802 0 0.16192904395431579 -0.15800089119817939 0 0.16471491079178111 -0.1205264202314431 0 0.15557261582888751 -0.13003178131142151 0 0.1639163736399934 -0.1310331013819237 0 0.15557261582888751 -0.13003178131142151 0 0.1621281360659286 -0.14191921566573409 0 0.1639163736399934 -0.1310331013819237 0 0.1621281360659286 -0.14191921566573409 0 0.1639163736399934 -0.1310331013819237 0 0.17324983187337631 -0.13165498831909611 0 0.16471491079178111 -0.1205264202314431 0 0.1639163736399934 -0.1310331013819237 0 0.17324983187337631 -0.13165498831909611 0 0.1862357176231304 -0.1238823921021804 0 0.1919305776748628 -0.1461990482496055 0 0.17324983187337631 -0.13165498831909611 0 0.1919305776748628 -0.1461990482496055 0 0.17324983187337631 -0.13165498831909611 0 0.17651024624945799 -0.1485415537171802 0 0.1919305776748628 -0.1461990482496055 0 0.19225769977326759 -0.16432491474026781 0 0.17651024624945799 -0.1485415537171802 0 0.19225769977326759 -0.16432491474026781 0 0.17526083145963689 -0.16308053239281189 0 0.17982600751226671 -0.1762593337595659 0 0.19225769977326759 -0.16432491474026781 0 0.17651024624945799 -0.1485415537171802 0 0.17526083145963689 -0.16308053239281189 0 0.17526083145963689 -0.16308053239281189 0 0.17982600751226671 -0.1762593337595659 0 0.16627328335530381 -0.17069773137902189 0 0.1840061663436266 -0.1900566622106199 0 0.16486725365112659 -0.18785963188663279 0 0.17982600751226671 -0.1762593337595659 0 0.19629081049063871 -0.1815365299480412 0 0.1840061663436266 -0.1900566622106199 0 0.17982600751226671 -0.1762593337595659 0 0.16486725365112659 -0.18785963188663279 0 0.14658871156029241 -0.16855183333999291 0 0.16627328335530381 -0.17069773137902189 0 0.16486725365112659 -0.18785963188663279 0 0.17982600751226671 -0.1762593337595659 0 0.16627328335530381 -0.17069773137902189 0 0.14658871156029241 -0.16855183333999291 0 0.16192904395431579 -0.15800089119817939 0 0.16627328335530381 -0.17069773137902189 0 0.17526083145963689 -0.16308053239281189 0 0.16192904395431579 -0.15800089119817939 0 0.16627328335530381 -0.17069773137902189 0 0.17651024624945799 -0.1485415537171802 0 0.17526083145963689 -0.16308053239281189 0 0.16192904395431579 -0.15800089119817939 0 
</DataArray>
</Points>
<Cells>
<DataArray type="UInt32" Name="connectivity" format="ascii">
0 1 2 3 4 5 6 7 8 9 10 11 12 13 14 15 16 17 18 19 20 21 22 23 24 25 26 27 28 29 30 31 32 33 34 35 36 37 38 39 40 41 42 43 44 45 46 47 48 49 50 51 52 53 54 55 56 57 58 59 60 61 62 63 64 65 66 67 68 69 70 71 72 73 74 75 76 77 78 79 80 81 82 83 84 85 86 87 88 89 90 91 92 93 94 95 96 97 98 99 100 101 102 103 104 105 106 107 108 109 110 111 112 113 114 115 116 117 118 119 120 121 122 123 124 125 126 127 128 129 130 131 132 133 134 135 136 137 138 139 140 141 142 143 144 145 146 147 148 149 150 151 152 153 154 155 156 157 158 159 160 161 162 163 164 165 166 167 168 169 170 171 172 173 174 175 176 177 178 179 180 181 182 183 184 185 186 187 188 189 190 191 192 193 194 195 196 197 198 199 200 201 202 203 204 205 206 207 208 209 210 211 212 213 214 215 216 217 218 219 220 221 222 223 224 225 226 227 228 229 230 231 232 233 234 235 236 237 238 239 240 241 242 243 244 245 246 247 248 249 250 251 252 253 254 255 256 257 258 259 260 261 262 263 264 265 266 267 268 269 270 271 272 273 274 275 276 277 278 279 280 281 282 283 284 285 286 287 288 289 290 291 292 293 294 295 296 297 298 299 300 301 302 303 304 305 306 307 308 309 310 311 312 313 314 315 316 317 318 319 320 321 322 323 324 325 326 327 328 329 330 331 332 333 334 335 336 337 338 339 340 341 342 343 344 345 346 347 348 349 350 351 352 353 354 355 356 357 358 359 360 361 362 363 364 365 366 367 368 369 370 371 372 373 374 375 376 377 378 379 380 381 382 383 384 385 386 387 388 389 390 391 392 393 394 395 396 397 398 399 400 401 402 403 404 405 406 407 408 409 410 411 412 413 414 415 416 417 418 419 420 421 422 423 424 425 426 427 428 429 430 431 432 433 434 435 436 437 438 439 440 441 442 443 444 445 446 447 448 449 450 451 452 453 454 455 456 457 458 459 460 461 462 463 464 465 466 467 468 469 470 471 472 473 474 475 476 477 478 479 480 481 482 483 484 485 486 487 488 489 490 491 492 493 494 495 496 497 498 499 500 501 502 503 504 505 506 507 508 509 510 511 512 513 514 515 516 517 518 519 520 521 522 523 524 525 526 527 528 529 530 531 532 533 534 535 536 537 538 539 540 541 542 543 544 545 546 547 548 549 550 551 552 553 554 555 556 557 558 559 560 561 562 563 564 565 566 567 568 569 570 571 572 573 574 575 576 577 578 579 580 581 582 583 584 585 586 587 588 589 590 591 592 593 594 595 596 597 598 599 600 601 602 603 604 605 606 607 608 609 610 611 612 613 614 615 616 617 618 619 620 621 622 623 624 625 626 627 628 629 630 631 632 633 634 635 636 637 638 639 640 641 642 643 644 645 646 647 648 649 650 651 652 653 654 655 656 657 658 659 660 661 662 663 664 665 666 667 668 669 670 671 672 673 674 675 676 677 678 679 680 681 682 683 684 685 686 687 688 689 690 691 692 693 694 695 696 697 698 699 700 701 702 703 704 705 706 707 708 709 710 711 712 713 714 715 716 717 718 719 720 721 722 723 724 725 726 727 728 729 730 731 732 733 734 735 736 737 738 739 740 741 742 743 744 745 746 747 748 749 750 751 752 753 754 755 756 757 758 759 760 761 762 763 764 765 766 767 768 769 770 771 772 773 774 775 776 777 778 779 780 781 782 783 784 785 786 787 788 789 790 791 792 793 794 795 796 797 798 799 800 801 802 803 804 805 806 807 808 809 810 811 812 813 814 815 816 817 818 819 820 821 822 823 824 825 826 827 828 829 830 831 832 833 834 835 836 837 838 839 840 841 842 843 844 845 846 847 848 849 850 851 852 853 854 855 856 857 858 859 860 861 862 863 864 865 866 867 868 869 870 871 872 873 874 875 876 877 878 879 880 881 882 883 884 885 886 887 888 889 890 891 892 893 894 895 896 897 898 899 900 901 902 903 904 905 906 907 908 909 910 911 912 913 914 915 916 917 918 919 920 921 922 923 924 925 926 927 928 929 930 931 932 933 934 935 936 937 938 939 940 941 942 943 944 945 946 947 948 949 950 951 952 953 954 955 956 957 958 959 960 961 962 963 964 965 966 967 968 969 970 971 972 973 974 975 976 977 978 979 980 981 982 983 984 985 986 987 988 989 990 991 992 993 994 995 996 997 998 999 1000 1001 1002 1003 1004 1005 1006 1007 1008 1009 1010 1011 1012 1013 1014 1015 1016 1017 1018 1019 1020 1021 1022 1023 1024 1025 1026 1027 1028 1029 1030 1031 1032 1033 1034 1035 1036 1037 1038 1039 1040 1041 1042 1043 1044 1045 1046 1047 1048 1049 1050 1051 1052 1053 1054 1055 1056 1057 1058 1059 1060 1061 1062 1063 1064 1065 1066 1067 1068 1069 1070 1071 1072 1073 1074 1075 1076 1077 1078 1079 1080 1081 1082 1083 1084 1085 1086 1087 1088 1089 1090 1091 1092 1093 1094 1095 1096 1097 1098 1099 1100 1101 1102 1103 1104 1105 1106 1107 1108 1109 1110 1111 1112 1113 1114 1115 1116 1117 1118 1119 1120 1121 1122 1123 1124 1125 1126 1127 1128 1129 1130 1131 1132 1133 1134 1135 1136 1137 1138 1139 1140 1141 1142 1143 1144 1145 1146 1147 1148 1149 1150 1151 1152 1153 1154 1155 1156 1157 1158 1159 1160 1161 1162 1163 1164 1165 1166 1167 1168 1169 1170 1171 1172 1173 1174 1175 1176 1177 1178 1179 1180 1181 1182 1183 1184 1185 1186 1187 1188 1189 1190 1191 1192 1193 1194 1195 1196 1197 1198 1199 1200 1201 1202 1203 1204 1205 1206 1207 1208 1209 1210 1211 1212 1213 1214 1215 1216 1217 1218 1219 1220 1221 1222 1223 1224 1225 1226 1227 1228 1229 1230 1231 1232 1233 1234 1235 1236 1237 1238 1239 1240 1241 1242 1243 1244 1245 1246 1247 1248 1249 1250 1251 1252 1253 1254 1255 1256 1257 1258 1259 1260 1261 1262 1263 1264 1265 1266 1267 1268 1269 1270 1271 1272 1273 1274 1275 1276 1277 1278 1279 1280 1281 1282 1283 1284 1285 1286 1287 1288 1289 1290 1291 1292 1293 1294 1295 1296 1297 1298 1299 1300 1301 1302 1303 1304 1305 1306 1307 1308 1309 1310 1311 1312 1313 1314 1315 1316 1317 1318 1319 1320 1321 1322 1323 1324 1325 1326 1327 1328 1329 1330 1331 1332 1333 1334 1335 1336 1337 1338 1339 1340 1341 1342 1343 1344 1345 1346 1347 1348 1349 1350 1351 1352 1353 1354 1355 1356 1357 1358 1359 1360 1361 1362 1363 1364 1365 1366 1367 1368 1369 1370 1371 1372 1373 1374 1375 1376 1377 1378 1379 1380 1381 1382 1383 1384 1385 1386 1387 1388 1389 1390 1391 1392 1393 1394 1395 1396 1397 1398 1399 1400 1401 1402 1403 1404 1405 1406 1407 1408 1409 1410 1411 1412 1413 1414 1415 1416 1417 1418 1419 1420 1421 1422 1423 1424 1425 1426 1427 1428 1429 1430 1431 1432 1433 1434 1435 1436 1437 1438 1439 1440 1441 1442 1443 1444 1445 1446 1447 1448 1449 1450 1451 1452 1453 1454 1455 1456 1457 1458 1459 1460 1461 1462 1463 1464 1465 1466 1467 1468 1469 1470 1471 1472 1473 1474 1475 1476 1477 1478 1479 1480 1481 1482 1483 1484 1485 1486 1487 1488 1489 1490 1491 1492 1493 1494 1495 1496 1497 1498 1499 1500 1501 1502 1503 1504 1505 1506 1507 1508 1509 1510 1511 1512 1513 1514 1515 1516 1517 1518 1519 1520 1521 1522 1523 1524 1525 1526 1527 1528 1529 1530 1531 1532 1533 1534 1535 1536 1537 1538 1539 1540 1541 1542 1543 1544 1545 1546 1547 1548 1549 1550 1551 1552 1553 1554 1555 1556 1557 1558 1559 1560 1561 1562 1563 1564 1565 1566 1567 1568 1569 1570 1571 1572 1573 1574 1575 1576 1577 1578 1579 1580 1581 1582 1583 1584 1585 1586 1587 1588 1589 1590 1591 1592 1593 1594 1595 1596 1597 1598 1599 1600 1601 1602 1603 1604 1605 1606 1607 1608 1609 1610 1611 1612 1613 1614 1615 1616 1617 1618 1619 1620 1621 1622 1623 1624 1625 1626 1627 1628 1629 1630 1631 1632 1633 1634 1635 1636 1637 1638 1639 1640 1641 1642 1643 1644 1645 1646 1647 1648 1649 1650 1651 1652 1653 1654 1655 1656 1657 1658 1659 1660 1661 1662 1663 1664 1665 1666 1667 1668 1669 1670 1671 1672 1673 1674 1675 1676 1677 1678 1679 1680 1681 1682 1683 1684 1685 1686 1687 1688 1689 1690 1691 1692 1693 1694 1695 1696 1697 1698 1699 1700 1701 1702 1703 1704 1705 1706 1707 1708 1709 1710 1711 1712 1713 1714 1715 1716 1717 1718 1719 1720 1721 1722 1723 1724 1725 1726 1727 1728 1729 1730 1731 1732 1733 1734 1735 1736 1737 1738 1739 1740 1741 1742 1743 1744 1745 1746 1747 1748 1749 1750 1751 1752 1753 1754 1755 1756 1757 1758 1759 1760 1761 1762 1763 1764 1765 1766 1767 1768 1769 1770 1771 1772 1773 1774 1775 1776 1777 1778 1779 1780 1781 1782 1783 1784 1785 1786 1787 1788 1789 1790 1791 1792 1793 1794 1795 1796 1797 1798 1799 1800 1801 1802 1803 1804 1805 1806 1807 1808 1809 1810 1811 1812 1813 1814 1815 1816 1817 1818 1819 1820 1821 1822 1823 1824 1825 1826 1827 1828 1829 1830 1831 1832 1833 1834 1835 1836 1837 1838 1839 1840 1841 1842 1843 1844 1845 1846 1847 1848 1849 1850 1851 1852 1853 1854 1855 1856 1857 1858 1859 1860 1861 1862 1863 1864 1865 1866 1867 1868 1869 1870 1871 1872 1873 1874 1875 1876 1877 1878 1879 1880 1881 1882 1883 1884 1885 1886 1887 1888 1889 1890 1891 1892 1893 1894 1895 1896 1897 1898 1899 1900 1901 1902 1903 1904 1905 1906 1907 1908 1909 1910 1911 1912 1913 1914 1915 1916 1917 1918 1919 1920 1921 1922 1923 1924 1925 1926 1927 1928 1929 1930 1931 1932 1933 1934 1935 1936 1937 1938 1939 1940 1941 1942 1943 1944 1945 1946 1947 1948 1949 1950 1951 1952 1953 1954 1955 1956 1957 1958 1959 1960 1961 1962 1963 1964 1965 1966 1967 1968 1969 1970 1971 1972 1973 1974 1975 1976 1977 1978 1979 1980 1981 1982 1983 1984 1985 1986 1987 1988 1989 1990 1991 1992 1993 1994 1995 1996 1997 1998 1999 2000 2001 2002 2003 2004 2005 2006 2007 2008 2009 2010 2011 2012 2013 2014 2015 2016 2017 2018 2019 2020 2021 2022 2023 2024 2025 2026 2027 2028 2029 2030 2031 2032 2033 2034 2035 2036 2037 2038 2039 2040 2041 2042 2043 2044 2045 2046 2047 2048 2049 2050 2051 2052 2053 2054 2055 2056 2057 2058 2059 2060 2061 2062 2063 2064 2065 2066 2067 2068 2069 2070 2071 2072 2073 2074 2075 2076 2077 2078 2079 2080 2081 2082 2083 2084 2085 2086 2087 2088 2089 2090 2091 2092 2093 2094 2095 2096 2097 2098 2099 2100 2101 2102 2103 2104 2105 2106 2107 2108 2109 2110 2111 2112 2113 2114 2115 2116 2117 2118 2119 2120 2121 2122 2123 2124 2125 2126 2127 2128 2129 2130 2131 2132 2133 2134 2135 2136 2137 2138 2139 2140 2141 2142 2143 2144 2145 2146 2147 2148 2149 2150 2151 2152 2153 2154 2155 2156 2157 2158 2159 2160 2161 2162 2163 2164 2165 2166 2167 2168 2169 2170 2171 2172 2173 2174 2175 2176 2177 2178 2179 2180 2181 2182 2183 2184 2185 2186 2187 2188 2189 2190 2191 2192 2193 2194 2195 2196 2197 2198 2199 2200 2201 2202 2203 2204 2205 2206 2207 2208 2209 2210 2211 2212 2213 2214 2215 2216 2217 2218 2219 2220 2221 2222 2223 2224 2225 2226 2227 2228 2229 2230 2231 2232 2233 2234 2235 2236 2237 2238 2239 2240 2241 2242 2243 2244 2245 2246 2247 2248 2249 2250 2251 2252 2253 2254 2255 2256 2257 2258 2259 2260 2261 2262 2263 2264 2265 2266 2267 2268 2269 2270 2271 2272 2273 2274 2275 2276 2277 2278 2279 2280 2281 2282 2283 2284 2285 2286 2287 2288 2289 2290 2291 2292 2293 2294 2295 2296 2297 2298 2299 2300 2301 2302 2303 2304 2305 2306 2307 2308 2309 2310 2311 2312 2313 2314 2315 2316 2317 2318 2319 2320 2321 2322 2323 2324 2325 2326 2327 2328 2329 2330 2331 2332 2333 2334 2335 2336 2337 2338 2339 2340 2341 2342 2343 2344 2345 2346 2347 2348 2349 2350 2351 2352 2353 2354 2355 2356 2357 2358 2359 2360 2361 2362 2363 2364 2365 2366 2367 2368 2369 2370 2371 2372 2373 2374 2375 2376 2377 2378 2379 2380 2381 2382 2383 2384 2385 2386 2387 2388 2389 2390 2391 2392 2393 2394 2395 2396 2397 2398 2399 2400 2401 2402 2403 2404 2405 2406 2407 2408 2409 2410 2411 2412 2413 2414 2415 2416 2417 2418 2419 2420 2421 2422 2423 2424 2425 2426 2427 2428 2429 2430 2431 2432 2433 2434 2435 2436 2437 2438 2439 2440 2441 2442 2443 2444 2445 2446 2447 2448 2449 2450 2451 2452 2453 2454 2455 2456 2457 2458 2459 2460 2461 2462 2463 2464 2465 2466 2467 2468 2469 2470 2471 2472 2473 2474 2475 2476 2477 2478 2479 2480 2481 2482 2483 2484 2485 2486 2487 2488 2489 2490 2491 2492 2493 2494 2495 2496 2497 2498 2499 2500 2501 2502 2503 2504 2505 2506 2507 2508 2509 2510 2511 2512 2513 2514 2515 2516 2517 2518 2519 2520 2521 2522 2523 2524 2525 2526 2527 2528 2529 2530 2531 2532 2533 2534 2535 2536 2537 2538 2539 2540 2541 2542 2543 2544 2545 2546 2547 2548 2549 2550 2551 2552 2553 2554 2555 2556 2557 2558 2559 2560 2561 2562 2563 2564 2565 2566 2567 2568 2569 2570 2571 2572 2573 2574 2575 2576 2577 2578 2579 2580 2581 2582 2583 2584 2585 2586 2587 2588 2589 2590 2591 2592 2593 2594 2595 2596 2597 2598 2599 2600 2601 2602 2603 2604 2605 2606 2607 2608 2609 2610 2611 2612 2613 2614 2615 2616 2617 2618 2619 2620 2621 2622 2623 2624 2625 2626 2627 2628 2629 2630 2631 2632 2633 2634 2635 2636 2637 2638 2639 2640 2641 2642 2643 2644 2645 2646 2647 2648 2649 2650 2651 2652 2653 2654 2655 2656 2657 2658 2659 2660 2661 2662 2663 2664 2665 2666 2667 2668 2669 2670 2671 2672 2673 2674 2675 2676 2677 2678 2679 2680 2681 2682 2683 2684 2685 2686 2687 2688 2689 2690 2691 2692 2693 2694 2695 2696 2697 2698 2699 2700 2701 2702 2703 2704 2705 2706 2707 2708 2709 2710 2711 2712 2713 2714 2715 2716 2717 2718 2719 2720 2721 2722 2723 2724 2725 2726 2727 2728 2729 2730 2731 2732 2733 2734 2735 2736 2737 2738 2739 2740 2741 2742 2743 2744 2745 2746 2747 2748 2749 2750 2751 2752 2753 2754 2755 2756 2757 2758 2759 2760 2761 2762 2763 2764 2765 2766 2767 2768 2769 2770 2771 2772 2773 2774 2775 2776 2777 2778 2779 2780 2781 2782 2783 2784 2785 2786 2787 2788 2789 2790 2791 2792 2793 2794 2795 2796 2797 2798 2799 2800 2801 2802 2803 2804 2805 2806 2807 2808 2809 2810 2811 2812 2813 2814 2815 2816 2817 2818 2819 2820 2821 2822 2823 2824 2825 2826 2827 2828 2829 2830 2831 2832 2833 2834 2835 2836 2837 2838 2839 2840 2841 2842 2843 2844 2845 2846 2847 2848 2849 2850 2851 2852 2853 2854 2855 2856 2857 2858 2859 2860 2861 2862 2863 2864 2865 2866 2867 2868 2869 2870 2871 2872 2873 2874 2875 2876 2877 2878 2879 2880 2881 2882 2883 2884 2885 2886 2887 2888 2889 2890 2891 2892 2893 2894 2895 2896 2897 2898 2899 2900 2901 2902 2903 2904 2905 2906 2907 2908 2909 2910 2911 2912 2913 2914 2915 2916 2917 2918 2919 2920 2921 2922 2923 2924 2925 2926 2927 2928 2929 2930 2931 2932 2933 2934 2935 2936 2937 2938 2939 2940 2941 2942 2943 2944 2945 2946 2947 2948 2949 2950 2951 2952 2953 2954 2955 2956 2957 2958 2959 2960 2961 2962 2963 2964 2965 2966 2967 2968 2969 2970 2971 2972 2973 2974 2975 2976 2977 2978 2979 2980 2981 2982 2983 2984 2985 2986 2987 2988 2989 2990 2991 2992 2993 2994 2995 2996 2997 2998 2999 3000 3001 3002 3003 3004 3005 3006 3007 3008 3009 3010 3011 3012 3013 3014 3015 3016 3017 3018 3019 3020 3021 3022 3023 3024 3025 3026 3027 3028 3029 3030 3031 3032 3033 3034 3035 3036 3037 3038 3039 3040 3041 3042 3043 3044 3045 3046 3047 3048 3049 3050 3051 3052 3053 3054 3055 3056 3057 3058 3059 3060 3061 3062 3063 3064 3065 3066 3067 3068 3069 3070 3071 3072 3073 3074 3075 3076 3077 3078 3079 3080 3081 3082 3083 3084 3085 3086 3087 3088 3089 3090 3091 3092 3093 3094 3095 3096 3097 3098 3099 3100 3101 3102 3103 3104 3105 3106 3107 3108 3109 3110 3111 3112 3113 3114 3115 3116 3117 3118 3119 3120 3121 3122 3123 3124 3125 3126 3127 3128 3129 3130 3131 3132 3133 3134 3135 3136 3137 3138 3139 3140 3141 3142 3143 3144 3145 3146 3147 3148 3149 3150 3151 3152 3153 3154 3155 3156 3157 3158 3159 3160 3161 3162 3163 3164 3165 3166 3167 3168 3169 3170 3171 3172 3173 3174 3175 3176 3177 3178 3179 3180 3181 3182 3183 3184 3185 3186 3187 3188 3189 3190 3191 3192 3193 3194 3195 3196 3197 3198 3199 3200 3201 3202 3203 3204 3205 3206 3207 3208 3209 3210 3211 3212 3213 3214 3215 3216 3217 3218 3219 3220 3221 3222 3223 3224 3225 3226 3227 3228 3229 3230 3231 3232 3233 3234 3235 3236 3237 3238 3239 3240 3241 3242 3243 3244 3245 3246 3247 3248 3249 3250 3251 3252 3253 3254 3255 3256 3257 3258 3259 3260 3261 3262 3263 3264 3265 3266 3267 3268 3269 3270 3271 3272 3273 3274 3275 3276 3277 3278 3279 3280 3281 3282 3283 3284 3285 3286 3287 3288 3289 3290 3291 3292 3293 3294 3295 3296 3297 3298 3299 3300 3301 3302 3303 3304 3305 3306 3307 3308 3309 3310 3311 3312 3313 3314 3315 3316 3317 3318 3319 3320 3321 3322 3323 3324 3325 3326 3327 3328 3329 3330 3331 3332 3333 3334 3335 3336 3337 3338 3339 3340 3341 3342 3343 3344 3345 3346 3347 3348 3349 3350 3351 3352 3353 3354 3355 3356 3357 3358 3359 3360 3361 3362 3363 3364 3365 3366 3367 3368 3369 3370 3371 3372 3373 3374 3375 3376 3377 3378 3379 3380 3381 3382 3383 3384 3385 3386 3387 3388 3389 3390 3391 3392 3393 3394 3395 3396 3397 3398 3399 3400 3401 3402 3403 3404 3405 3406 3407 3408 3409 3410 3411 3412 3413 3414 3415 3416 3417 3418 3419 3420 3421 3422 3423 3424 3425 3426 3427 3428 3429 3430 3431 3432 3433 3434 3435 3436 3437 3438 3439 3440 3441 3442 3443 3444 3445 3446 3447 3448 3449 3450 3451 3452 3453 3454 3455 3456 3457 3458 3459 3460 3461 3462 3463 3464 3465 3466 3467 3468 3469 3470 3471 3472 3473 3474 3475 3476 3477 3478 3479 3480 3481 3482 3483 3484 3485 3486 3487 3488 3489 3490 3491 3492 3493 3494 3495 3496 3497 3498 3499 3500 3501 3502 3503 3504 3505 3506 3507 3508 3509 3510 3511 3512 3513 3514 3515 3516 3517 3518 3519 3520 3521 3522 3523 3524 3525 3526 3527 3528 3529 3530 3531 3532 3533 3534 3535 3536 3537 3538 3539 3540 3541 3542 3543 3544 3545 3546 3547 3548 3549 3550 3551 3552 3553 3554 3555 3556 3557 3558 3559 3560 3561 3562 3563 3564 3565 3566 3567 3568 3569 3570 3571 3572 3573 3574 3575 3576 3577 3578 3579 3580 3581 3582 3583 3584 3585 3586 3587 3588 3589 3590 3591 3592 3593 3594 3595 3596 3597 3598 3599 3600 3601 3602 3603 3604 3605 3606 3607 3608 3609 3610 3611 3612 3613 3614 3615 3616 3617 3618 3619 3620 3621 3622 3623 3624 3625 3626 3627 3628 3629 3630 3631 3632 3633 3634 3635 3636 3637 3638 3639 3640 3641 3642 3643 3644 3645 3646 3647 3648 3649 3650 3651 3652 3653 3654 3655 3656 3657 3658 3659 3660 3661 3662 3663 3664 3665 3666 3667 3668 3669 3670 3671 3672 3673 3674 3675 3676 3677 3678 3679 3680 3681 3682 3683 3684 3685 3686 3687 3688 3689 3690 3691 3692 3693 3694 3695 3696 3697 3698 3699 3700 3701 3702 3703 3704 3705 3706 3707 3708 3709 3710 3711 3712 3713 3714 3715 3716 3717 3718 3719 3720 3721 3722 3723 3724 3725 3726 3727 3728 3729 3730 3731 3732 3733 3734 3735 3736 3737 3738 3739 3740 3741 3742 3743 3744 3745 3746 3747 3748 3749 3750 3751 3752 3753 3754 3755 3756 3757 3758 3759 3760 3761 3762 3763 3764 3765 3766 3767 3768 3769 3770 3771 3772 3773 3774 3775 3776 3777 3778 3779 3780 3781 3782 3783 3784 3785 3786 3787 3788 3789 3790 3791 3792 3793 3794 3795 3796 3797 3798 3799 3800 3801 3802 3803 3804 3805 3806 3807 3808 3809 3810 3811 3812 3813 3814 3815 3816 3817 3818 3819 3820 3821 3822 3823 3824 3825 3826 3827 3828 3829 3830 3831 3832 3833 3834 3835 3836 3837 3838 3839 3840 3841 3842 3843 3844 3845 3846 3847 3848 3849 3850 3851 3852 3853 3854 3855 3856 3857 3858 3859 3860 3861 3862 3863 3864 3865 3866 3867 3868 3869 3870 3871 3872 3873 3874 3875 3876 3877 3878 3879 3880 3881 3882 3883 3884 3885 3886 3887 3888 3889 3890 3891 3892 3893 3894 3895 3896 3897 3898 3899 3900 3901 3902 3903 3904 3905 3906 3907 3908 3909 3910 3911 3912 3913 3914 3915 3916 3917 3918 3919 3920 3921 3922 3923 3924 3925 3926 3927 3928 3929 3930 3931 3932 3933 3934 3935 3936 3937 3938 3939 3940 3941 3942 3943 3944 3945 3946 3947 3948 3949 3950 3951 3952 3953 3954 3955 3956 3957 3958 3959 3960 3961 3962 3963 3964 3965 3966 3967 3968 3969 3970 3971 3972 3973 3974 3975 3976 3977 3978 3979 3980 3981 3982 3983 3984 3985 3986 3987 3988 3989 3990 3991 3992 3993 3994 3995 3996 3997 3998 3999 4000 4001 4002 4003 4004 4005 4006 4007 4008 4009 4010 4011 4012 4013 4014 4015 4016 4017 4018 4019 4020 4021 4022 4023 4024 4025 4026 4027 4028 4029 4030 4031 4032 4033 4034 4035 4036 4037 4038 4039 4040 4041 4042 4043 4044 4045 4046 4047 4048 4049 4050 4051 4052 4053 4054 4055 4056 4057 4058 4059 4060 4061 4062 4063 4064 4065 4066 4067 4068 4069 4070 4071 4072 4073 4074 4075 4076 4077 4078 4079 4080 4081 4082 4083 4084 4085 4086 4087 4088 4089 4090 4091 4092 4093 4094 4095 4096 4097 4098 4099 4100 4101 4102 4103 4104 4105 4106 4107 4108 4109 4110 4111 4112 4113 4114 4115 4116 4117 4118 4119 4120 4121 4122 4123 4124 4125 4126 4127 4128 4129 4130 4131 4132 4133 4134 4135 4136 4137 4138 4139 4140 4141 4142 4143 4144 4145 4146 4147 4148 4149 4150 4151 4152 4153 4154 4155 4156 4157 4158 4159 4160 4161 4162 4163 4164 4165 4166 4167 4168 4169 4170 4171 4172 4173 4174 4175 4176 4177 4178 4179 4180 4181 4182 4183 4184 4185 4186 4187 4188 4189 4190 4191 4192 4193 4194 4195 4196 4197 4198 4199 4200 4201 4202 4203 4204 4205 4206 4207 4208 4209 4210 4211 4212 4213 4214 4215 4216 4217 4218 4219 4220 4221 4222 4223 4224 4225 4226 4227 4228 4229 4230 4231 4232 4233 4234 4235 4236 4237 4238 4239 4240 4241 4242 4243 4244 4245 4246 4247 4248 4249 4250 4251 4252 4253 4254 4255 4256 4257 4258 4259 4260 4261 4262 4263 4264 4265 4266 4267 4268 4269 4270 4271 4272 4273 4274 4275 4276 4277 4278 4279 4280 4281 4282 4283 4284 4285 4286 4287 4288 4289 4290 4291 4292 4293 4294 4295 4296 4297 4298 4299 4300 4301 4302 4303 4304 4305 4306 4307 4308 4309 4310 4311 4312 4313 4314 4315 4316 4317 4318 4319 4320 4321 4322 4323 4324 4325 4326 4327 4328 4329 4330 4331 4332 4333 4334 4335 4336 4337 4338 4339 4340 4341 4342 4343 4344 4345 4346 4347 4348 4349 4350 4351 4352 4353 4354 4355 4356 4357 4358 4359 4360 4361 4362 4363 4364 4365 4366 4367 4368 4369 4370 4371 4372 4373 4374 4375 4376 4377 4378 4379 4380 4381 4382 4383 4384 4385 4386 4387 4388 4389 4390 4391 4392 4393 4394 4395 4396 4397 4398 4399 4400 4401 4402 4403 4404 4405 4406 4407 4408 4409 4410 4411 4412 4413 4414 4415 4416 4417 4418 4419 4420 4421 4422 4423 4424 4425 4426 4427 4428 4429 4430 4431 4432 4433 4434 4435 4436 4437 4438 4439 4440 4441 4442 4443 4444 4445 4446 4447 4448 4449 4450 4451 4452 4453 4454 4455 4456 4457 4458 4459 4460 4461 4462 4463 4464 4465 4466 4467 4468 4469 4470 4471 4472 4473 4474 4475 4476 4477 4478 4479 4480 4481 4482 4483 4484 4485 4486 4487 4488 4489 4490 4491 4492 4493 4494 4495 4496 4497 4498 4499 4500 4501 4502 4503 4504 4505 4506 4507 4508 4509 4510 4511 4512 4513 4514 4515 4516 4517 4518 4519 4520 4521 4522 4523 4524 4525 4526 4527 4528 4529 4530 4531 4532 4533 4534 4535 4536 4537 4538 4539 4540 4541 4542 4543 4544 4545 4546 4547 4548 4549 4550 4551 4552 4553 4554 4555 4556 4557 4558 4559 4560 4561 4562 4563 4564 4565 4566 4567 4568 4569 4570 4571 4572 4573 4574 4575 4576 4577 4578 4579 4580 4581 4582 4583 4584 4585 4586 4587 4588 4589 4590 4591 4592 4593 4594 4595 4596 4597 4598 4599 4600 4601 4602 4603 4604 4605 4606 4607 4608 4609 4610 4611 4612 4613 4614 4615 4616 4617 4618 4619 4620 4621 4622 4623 4624 4625 4626 4627 4628 4629 4630 4631 4632 4633 4634 4635 4636 4637 4638 4639 4640 4641 4642 4643 4644 4645 4646 4647 4648 4649 4650 4651 4652 4653 4654 4655 4656 4657 4658 4659 4660 4661 4662 4663 4664 4665 4666 4667 4668 4669 4670 4671 4672 4673 4674 4675 4676 4677 4678 4679 4680 4681 4682 4683 4684 4685 4686 4687 4688 4689 4690 4691 4692 4693 4694 4695 4696 4697 4698 4699 4700 4701 4702 4703 4704 4705 4706 4707 4708 4709 4710 4711 4712 4713 4714 4715 4716 4717 4718 4719 4720 4721 4722 4723 4724 4725 4726 4727 4728 4729 4730 4731 4732 4733 4734 4735 4736 4737 4738 4739 4740 4741 4742 4743 4744 4745 4746 4747 4748 4749 4750 4751 4752 4753 4754 4755 4756 4757 4758 4759 4760 4761 4762 4763 4764 4765 4766 4767 4768 4769 4770 4771 4772 4773 4774 4775 4776 4777 4778 4779 4780 4781 4782 4783 4784 4785 4786 4787 4788 4789 4790 4791 4792 4793 4794 4795 4796 4797 4798 4799 4800 4801 4802 4803 4804 4805 4806 4807 4808 4809 4810 4811 4812 4813 4814 4815 4816 4817 4818 4819 4820 4821 4822 4823 4824 4825 4826 4827 4828 4829 4830 4831 4832 4833 4834 4835 4836 4837 4838 4839 4840 4841 4842 4843 4844 4845 4846 4847 4848 4849 4850 4851 4852 4853 4854 4855 4856 4857 4858 4859 4860 4861 4862 4863 4864 4865 4866 4867 4868 4869 4870 4871 4872 4873 4874 4875 4876 4877 4878 4879 4880 4881 4882 4883 4884 4885 4886 4887 4888 4889 4890 4891 4892 4893 4894 4895 4896 4897 4898 4899 4900 4901 4902 4903 4904 4905 4906 4907 4908 4909 4910 4911 4912 4913 4914 4915 4916 4917 4918 4919 4920 4921 4922 4923 4924 4925 4926 4927 4928 4929 4930 4931 4932 4933 4934 4935 4936 4937 4938 4939 4940 4941 4942 4943 4944 4945 4946 4947 4948 4949 4950 4951 4952 4953 4954 4955 4956 4957 4958 4959 4960 4961 4962 4963 4964 4965 4966 4967 4968 4969 4970 4971 4972 4973 4974 4975 4976 4977 4978 4979 4980 4981 4982 4983 4984 4985 4986 4987 4988 4989 4990 4991 4992 4993 4994 4995 4996 4997 4998 4999 5000 5001 5002 5003 5004 5005 5006 5007 5008 5009 5010 5011 5012 5013 5014 5015 5016 5017 5018 5019 5020 5021 5022 5023 5024 5025 5026 5027 5028 5029 5030 5031 5032 5033 5034 5035 5036 5037 5038 5039 5040 5041 5042 5043 5044 5045 5046 5047 5048 5049 5050 5051 5052 5053 5054 5055 5056 5057 5058 5059 5060 5061 5062 5063 5064 5065 5066 5067 5068 5069 5070 5071 5072 5073 5074 5075 5076 5077 5078 5079 5080 5081 5082 5083 5084 5085 5086 5087 5088 5089 5090 5091 5092 5093 5094 5095 5096 5097 5098 5099 5100 5101 5102 5103 5104 5105 5106 5107 5108 5109 5110 5111 5112 5113 5114 5115 5116 5117 5118 5119 5120 5121 5122 5123 5124 5125 5126 5127 5128 5129 5130 5131 5132 5133 5134 5135 5136 5137 5138 5139 5140 5141 5142 5143 5144 5145 5146 5147 5148 5149 5150 5151 5152 5153 5154 5155 5156 5157 5158 5159 5160 5161 5162 5163 5164 5165 5166 5167 5168 5169 5170 5171 5172 5173 5174 5175 5176 5177 5178 5179 5180 5181 5182 5183 5184 5185 5186 5187 5188 5189 5190 5191 5192 5193 5194 5195 5196 5197 5198 5199 5200 5201 5202 5203 5204 5205 5206 5207 5208 5209 5210 5211 5212 5213 5214 5215 5216 5217 5218 5219 5220 5221 5222 5223 5224 5225 5226 5227 5228 5229 5230 5231 5232 5233 5234 5235 5236 5237 5238 5239 5240 5241 5242 5243 5244 5245 5246 5247 5248 5249 5250 5251 5252 5253 5254 5255 5256 5257 5258 5259 5260 5261 5262 5263 5264 5265 5266 5267 5268 5269 5270 5271 5272 5273 5274 5275 5276 5277 5278 5279 5280 5281 5282 5283 5284 5285 5286 5287 5288 5289 5290 5291 5292 5293 5294 5295 5296 5297 5298 5299 5300 5301 5302 5303 5304 5305 5306 5307 5308 5309 5310 5311 5312 5313 5314 5315 5316 5317 5318 5319 5320 5321 5322 5323 5324 5325 5326 5327 5328 5329 5330 5331 5332 5333 5334 5335 5336 5337 5338 5339 5340 5341 5342 5343 5344 5345 5346 5347 5348 5349 5350 5351 5352 5353 5354 5355 5356 5357 5358 5359 5360 5361 5362 5363 5364 5365 5366 5367 5368 5369 5370 5371 5372 5373 5374 5375 5376 5377 5378 5379 5380 5381 5382 5383 5384 5385 5386 5387 5388 5389 5390 5391 5392 5393 5394 5395 5396 5397 5398 5399 5400 5401 5402 5403 5404 5405 5406 5407 5408 5409 5410 5411 5412 5413 5414 5415 5416 5417 5418 5419 5420 5421 5422 5423 5424 5425 5426 5427 5428 5429 5430 5431 5432 5433 5434 5435 5436 5437 5438 5439 5440 5441 5442 5443 5444 5445 5446 5447 5448 5449 5450 5451 5452 5453 5454 5455 5456 5457 5458 5459 5460 5461 5462 5463 5464 5465 5466 5467 5468 5469 5470 5471 5472 5473 5474 5475 5476 5477 5478 5479 5480 5481 5482 5483 5484 5485 5486 5487 5488 5489 5490 5491 5492 5493 5494 5495 5496 5497 5498 5499 5500 5501 5502 5503 5504 5505 5506 5507 5508 5509 5510 5511 5512 5513 5514 5515 5516 5517 5518 5519 5520 5521 5522 5523 5524 5525 5526 5527 5528 5529 5530 5531 5532 5533 5534 5535 5536 5537 5538 5539 5540 5541 5542 5543 5544 5545 5546 5547 5548 5549 5550 5551 5552 5553 5554 5555 5556 5557 5558 5559 5560 5561 5562 5563 5564 5565 5566 5567 5568 5569 5570 5571 5572 5573 5574 5575 5576 5577 5578 5579 5580 5581 5582 5583 5584 5585 5586 5587 5588 5589 5590 5591 5592 5593 5594 5595 5596 5597 5598 5599 5600 5601 5602 5603 5604 5605 5606 5607 5608 5609 5610 5611 5612 5613 5614 5615 5616 5617 5618 5619 5620 5621 5622 5623 5624 5625 5626 5627 5628 5629 5630 5631 5632 5633 5634 5635 5636 5637 5638 5639 5640 5641 5642 5643 5644 5645 5646 5647 5648 5649 5650 5651 5652 5653 5654 5655 5656 5657 5658 5659 5660 5661 5662 5663 5664 5665 5666 5667 5668 5669 5670 5671 5672 5673 5674 5675 5676 5677 5678 5679 5680 5681 5682 5683 5684 5685 5686 5687 5688 5689 5690 5691 5692 5693 5694 5695 5696 5697 5698 5699 5700 5701 5702 5703 5704 5705 5706 5707 5708 5709 5710 5711 5712 5713 5714 5715 5716 5717 5718 5719 5720 5721 5722 5723 5724 5725 5726 5727 5728 5729 5730 5731 5732 5733 5734 5735 5736 5737 5738 5739 5740 5741 5742 5743 5744 5745 5746 5747 5748 5749 5750 5751 5752 5753 5754 5755 5756 5757 5758 5759 5760 5761 5762 5763 5764 5765 5766 5767 5768 5769 5770 5771 5772 5773 5774 5775 5776 5777 5778 5779 5780 5781 5782 5783 5784 5785 5786 5787 5788 5789 5790 5791 5792 5793 5794 5795 5796 5797 5798 5799 5800 5801 5802 5803 5804 5805 5806 5807 5808 5809 5810 5811 5812 5813 5814 5815 5816 5817 5818 5819 5820 5821 5822 5823 5824 5825 5826 5827 5828 5829 5830 5831 5832 5833 5834 5835 5836 5837 5838 5839 5840 5841 5842 5843 5844 5845 5846 5847 5848 5849 5850 5851 5852 5853 5854 5855 5856 5857 5858 5859 5860 5861 5862 5863 5864 5865 5866 5867 5868 5869 5870 5871 5872 5873 5874 5875 5876 5877 5878 5879 5880 5881 5882 5883 5884 5885 5886 5887 5888 5889 5890 5891 5892 5893 5894 5895 5896 5897 5898 5899 5900 5901 5902 5903 5904 5905 5906 5907 5908 5909 5910 5911 5912 5913 5914 5915 5916 5917 5918 5919 5920 5921 5922 5923 5924 5925 5926 5927 5928 5929 5930 5931 5932 5933 5934 5935 5936 5937 5938 5939 5940 5941 5942 5943 5944 5945 5946 5947 5948 5949 5950 5951 5952 5953 5954 5955 5956 5957 5958 5959 5960 5961 5962 5963 5964 5965 5966 5967 5968 5969 5970 5971 5972 5973 5974 5975 5976 5977 5978 5979 5980 5981 5982 5983 5984 5985 5986 5987 5988 5989 5990 5991 5992 5993 5994 5995 5996 5997 5998 5999 6000 6001 6002 6003 6004 6005 6006 6007 6008 6009 6010 6011 6012 6013 6014 6015 6016 6017 6018 6019 6020 6021 6022 6023 6024 6025 6026 6027 6028 6029 6030 6031 6032 6033 6034 6035 6036 6037 6038 6039 6040 6041 6042 6043 6044 6045 6046 6047 6048 6049 6050 6051 6052 6053 6054 6055 6056 6057 6058 6059 6060 6061 6062 6063 6064 6065 6066 6067 6068 6069 6070 6071 6072 6073 6074 6075 6076 6077 6078 6079 6080 6081 6082 6083 6084 6085 6086 6087 6088 6089 6090 6091 6092 6093 6094 6095 6096 6097 6098 6099 6100 6101 6102 6103 6104 6105 6106 6107 6108 6109 6110 6111 6112 6113 6114 6115 6116 6117 6118 6119 6120 6121 6122 6123 6124 6125 6126 6127 6128 6129 6130 6131 6132 6133 6134 6135 6136 6137 6138 6139 6140 6141 6142 6143 6144 6145 6146 6147 6148 6149 6150 6151 6152 6153 6154 6155 6156 6157 6158 6159 6160 6161 6162 6163 6164 6165 6166 6167 6168 6169 6170 6171 6172 6173 6174 6175 6176 6177 6178 6179 6180 6181 6182 6183 6184 6185 6186 6187 6188 6189 6190 6191 6192 6193 6194 6195 6196 6197 6198 6199 6200 6201 6202 6203 6204 6205 6206 6207 6208 6209 6210 6211 6212 6213 6214 6215 6216 6217 6218 6219 6220 6221 6222 6223 6224 6225 6226 6227 6228 6229 6230 6231 6232 6233 6234 6235 6236 6237 6238 6239 6240 6241 6242 6243 6244 6245 6246 6247 6248 6249 6250 6251 6252 6253 6254 6255 6256 6257 6258 6259 6260 6261 6262 6263 6264 6265 6266 6267 6268 6269 6270 6271 6272 6273 6274 6275 6276 6277 6278 6279 6280 6281 6282 6283 6284 6285 6286 6287 6288 6289 6290 6291 6292 6293 6294 6295 6296 6297 6298 6299 6300 6301 6302 6303 6304 6305 6306 6307 6308 6309 6310 6311 6312 6313 6314 6315 6316 6317 6318 6319 6320 6321 6322 6323 6324 6325 6326 6327 6328 6329 6330 6331 6332 6333 6334 6335 6336 6337 6338 6339 6340 6341 6342 6343 6344 6345 6346 6347 6348 6349 6350 6351 6352 6353 6354 6355 6356 6357 6358 6359 6360 6361 6362 6363 6364 6365 6366 6367 6368 6369 6370 6371 6372 6373 6374 6375 6376 6377 6378 6379 6380 6381 6382 6383 6384 6385 6386 6387 6388 6389 6390 6391 6392 6393 6394 6395 6396 6397 6398 6399 6400 6401 6402 6403 6404 6405 6406 6407 6408 6409 6410 6411 6412 6413 6414 6415 6416 6417 6418 6419 6420 6421 6422 6423 6424 6425 6426 6427 6428 6429 6430 6431 6432 6433 6434 6435 6436 6437 6438 6439 6440 6441 6442 6443 6444 6445 6446 6447 6448 6449 6450 6451 6452 6453 6454 6455 6456 6457 6458 6459 6460 6461 6462 6463 6464 6465 6466 6467 6468 6469 6470 6471 6472 6473 6474 6475 6476 6477 6478 6479 6480 6481 6482 6483 6484 6485 6486 6487 6488 6489 6490 6491 6492 6493 6494 6495 6496 6497 6498 6499 6500 6501 6502 6503 6504 6505 6506 6507 6508 6509 6510 6511 6512 6513 6514 6515 6516 6517 6518 6519 6520 6521 6522 6523 6524 6525 6526 6527 6528 6529 6530 6531 6532 6533 6534 6535 6536 6537 6538 6539 6540 6541 6542 6543 6544 6545 6546 6547 6548 6549 6550 6551 6552 6553 6554 6555 6556 6557 6558 6559 6560 6561 6562 6563 6564 6565 6566 6567 6568 6569 6570 6571 6572 6573 6574 6575 6576 6577 6578 6579 6580 6581 6582 6583 6584 6585 6586 6587 6588 6589 6590 6591 6592 6593 6594 6595 6596 6597 6598 6599 6600 6601 6602 6603 6604 6605 6606 6607 6608 6609 6610 6611 6612 6613 6614 6615 6616 6617 6618 6619 6620 6621 6622 6623 6624 6625 6626 6627 6628 6629 6630 6631 6632 6633 6634 6635 6636 6637 6638 6639 6640 6641 6642 6643 6644 6645 6646 6647 6648 6649 6650 6651 6652 6653 6654 6655 6656 6657 6658 6659 6660 6661 6662 6663 6664 6665 6666 6667 6668 6669 6670 6671 6672 6673 6674 6675 6676 6677 6678 6679 6680 6681 6682 6683 6684 6685 6686 6687 6688 6689 6690 6691 6692 6693 6694 6695 6696 6697 6698 6699 6700 6701 6702 6703 6704 6705 6706 6707 6708 6709 6710 6711 6712 6713 6714 6715 6716 6717 6718 6719 6720 6721 6722 6723 6724 6725 6726 6727 6728 6729 6730 6731 6732 6733 6734 6735 6736 6737 6738 6739 6740 6741 6742 6743 6744 6745 6746 6747 6748 6749 6750 6751 6752 6753 6754 6755 6756 6757 6758 6759 6760 6761 6762 6763 6764 6765 6766 6767 6768 6769 6770 6771 6772 6773 6774 6775 6776 6777 6778 6779 6780 6781 6782 6783 6784 6785 6786 6787 6788 6789 6790 6791 6792 6793 6794 6795 6796 6797 6798 6799 6800 6801 6802 6803 6804 6805 6806 6807 6808 6809 6810 6811 6812 6813 6814 6815 6816 6817 6818 6819 6820 6821 6822 6823 6824 6825 6826 6827 6828 6829 6830 6831 6832 6833 6834 6835 6836 6837 6838 6839 6840 6841 6842 6843 6844 6845 6846 6847 6848 6849 6850 6851 6852 6853 6854 6855 6856 6857 6858 6859 6860 6861 6862 6863 6864 6865 6866 6867 6868 6869 6870 6871 6872 6873 6874 6875 6876 6877 6878 6879 6880 6881 6882 6883 6884 6885 6886 6887 6888 6889 6890 6891 6892 6893 6894 6895 6896 6897 6898 6899 6900 6901 6902 6903 6904 6905 6906 6907 6908 6909 6910 6911 6912 6913 6914 6915 6916 6917 6918 6919 6920 6921 6922 6923 6924 6925 6926 6927 6928 6929 6930 6931 6932 6933 6934 6935 6936 6937 6938 6939 6940 6941 6942 6943 6944 6945 6946 6947 6948 6949 6950 6951 6952 6953 6954 6955 6956 6957 6958 6959 6960 6961 6962 6963 6964 6965 6966 6967 6968 6969 6970 6971 6972 6973 6974 6975 6976 6977 6978 6979 6980 6981 6982 6983 6984 6985 6986 6987 6988 6989 6990 6991 6992 6993 6994 6995 6996 6997 6998 6999 7000 7001 7002 7003 7004 7005 7006 7007 7008 7009 7010 7011 7012 7013 7014 7015 7016 7017 7018 7019 7020 7021 7022 7023 7024 7025 7026 7027 7028 7029 7030 7031 7032 7033 7034 7035 7036 7037 7038 7039 7040 7041 7042 7043 7044 7045 7046 7047 7048 7049 7050 7051 7052 7053 7054 7055 7056 7057 7058 7059 7060 7061 7062 7063 7064 7065 7066 7067 7068 7069 7070 7071 7072 7073 7074 7075 7076 7077 7078 7079 7080 7081 7082 7083 7084 7085 7086 7087 7088 7089 7090 7091 7092 7093 7094 7095 7096 7097 7098 7099 7100 7101 7102 7103 7104 7105 7106 7107 7108 7109 7110 7111 7112 7113 7114 7115 7116 7117 7118 7119 7120 7121 7122 7123 7124 7125 7126 7127 7128 7129 7130 7131 7132 7133 7134 7135 7136 7137 7138 7139 7140 7141 7142 7143 7144 7145 7146 7147 7148 7149 7150 7151 7152 7153 7154 7155 7156 7157 7158 7159 7160 7161 7162 7163 7164 7165 7166 7167 7168 7169 7170 7171 7172 7173 7174 7175 7176 7177 7178 7179 7180 7181 7182 7183 7184 7185 7186 7187 7188 7189 7190 7191 7192 7193 7194 7195 7196 7197 7198 7199 7200 7201 7202 7203 7204 7205 7206 7207 7208 7209 7210 7211 7212 7213 7214 7215 7216 7217 7218 7219 7220 7221 7222 7223 7224 7225 7226 7227 7228 7229 7230 7231 7232 7233 7234 7235 7236 7237 7238 7239 7240 7241 7242 7243 7244 7245 7246 7247 7248 7249 7250 7251 7252 7253 7254 7255 7256 7257 7258 7259 7260 7261 7262 7263 7264 7265 7266 7267 7268 7269 7270 7271 7272 7273 7274 7275 7276 7277 7278 7279 7280 7281 7282 7283 7284 7285 7286 7287 7288 7289 7290 7291 7292 7293 7294 7295 7296 7297 7298 7299 7300 7301 7302 7303 7304 7305 7306 7307 7308 7309 7310 7311 7312 7313 7314 7315 7316 7317 7318 7319 7320 7321 7322 7323 7324 7325 7326 7327 7328 7329 7330 7331 7332 7333 7334 7335 7336 7337 7338 7339 7340 7341 7342 7343 7344 7345 7346 7347 7348 7349 7350 7351 7352 7353 7354 7355 7356 7357 7358 7359 7360 7361 7362 7363 7364 7365 7366 7367 7368 7369 7370 7371 7372 7373 7374 7375 7376 7377 7378 7379 7380 7381 7382 7383 7384 7385 7386 7387 7388 7389 7390 7391 7392 7393 7394 7395 7396 7397 7398 7399 7400 7401 7402 7403 7404 7405 7406 7407 7408 7409 7410 7411 7412 7413 7414 7415 7416 7417 7418 7419 7420 7421 7422 7423 7424 7425 7426 7427 7428 7429 7430 7431 7432 7433 7434 7435 7436 7437 7438 7439 7440 7441 7442 7443 7444 7445 7446 7447 7448 7449 7450 7451 7452 7453 7454 7455 7456 7457 7458 7459 7460 7461 7462 7463 7464 7465 7466 7467 7468 7469 7470 7471 7472 7473 7474 7475 7476 7477 7478 7479 7480 7481 7482 7483 7484 7485 7486 7487 7488 7489 7490 7491 7492 7493 7494 7495 7496 7497 7498 7499 7500 7501 7502 7503 7504 7505 7506 7507 7508 7509 7510 7511 7512 7513 7514 7515 7516 7517 7518 7519 7520 7521 7522 7523 7524 7525 7526 7527 7528 7529 7530 7531 7532 7533 7534 7535 7536 7537 7538 7539 7540 7541 7542 7543 7544 7545 7546 7547 7548 7549 7550 7551 7552 7553 7554 7555 7556 7557 7558 7559 7560 7561 7562 7563 7564 7565 7566 7567 7568 7569 7570 7571 7572 7573 7574 7575 7576 7577 7578 7579 7580 7581 7582 7583 7584 7585 7586 7587 7588 7589 7590 7591 7592 7593 7594 7595 7596 7597 7598 7599 7600 7601 7602 7603 7604 7605 7606 7607 7608 7609 7610 7611 7612 7613 7614 7615 7616 7617 7618 7619 7620 7621 7622 7623 7624 7625 7626 7627 7628 7629 7630 7631 7632 7633 7634 7635 7636 7637 7638 7639 7640 7641 7642 7643 7644 7645 7646 7647 7648 7649 7650 7651 7652 7653 7654 7655 7656 7657 7658 7659 7660 7661 7662 7663 7664 7665 7666 7667 7668 7669 7670 7671 7672 7673 7674 7675 7676 7677 7678 7679 7680 7681 7682 7683 7684 7685 7686 7687 7688 7689 7690 7691 7692 7693 7694 7695 7696 7697 7698 7699 7700 7701 7702 7703 7704 7705 7706 7707 7708 7709 7710 7711 7712 7713 7714 7715 7716 7717 7718 7719 7720 7721 7722 7723 7724 7725 7726 7727 7728 7729 7730 7731 7732 7733 7734 7735 7736 7737 7738 7739 7740 7741 7742 7743 7744 7745 7746 7747 7748 7749 7750 7751 7752 7753 7754 7755 7756 7757 7758 7759 7760 7761 7762 7763 7764 7765 7766 7767 7768 7769 7770 7771 7772 7773 7774 7775 7776 7777 7778 7779 7780 7781 7782 7783 7784 7785 7786 7787 7788 7789 7790 7791 7792 7793 7794 7795 7796 7797 7798 7799 7800 7801 7802 7803 7804 7805 7806 7807 7808 7809 7810 7811 7812 7813 7814 7815 7816 7817 7818 7819 7820 7821 7822 7823 7824 7825 7826 7827 7828 7829 7830 7831 7832 7833 7834 7835 7836 7837 7838 7839 7840 7841 7842 7843 7844 7845 7846 7847 7848 7849 7850 7851 7852 7853 7854 7855 7856 7857 7858 7859 7860 7861 7862 7863 7864 7865 7866 7867 7868 7869 7870 7871 7872 7873 7874 7875 7876 7877 7878 7879 7880 7881 7882 7883 7884 7885 7886 7887 7888 7889 7890 7891 7892 7893 7894 7895 7896 7897 7898 7899 7900 7901 7902 7903 7904 7905 7906 7907 7908 7909 7910 7911 7912 7913 7914 7915 7916 7917 7918 7919 7920 7921 7922 7923 7924 7925 7926 7927 7928 7929 7930 7931 7932 7933 7934 7935 7936 7937 7938 7939 7940 7941 7942 7943 7944 7945 7946 7947 7948 7949 7950 7951 7952 7953 7954 7955 7956 7957 7958 7959 7960 7961 7962 7963 7964 7965 7966 7967 7968 7969 7970 7971 7972 7973 7974 7975 7976 7977 7978 7979 7980 7981 7982 7983 7984 7985 7986 7987 7988 7989 7990 7991 7992 7993 7994 7995 7996 7997 7998 7999 8000 8001 8002 8003 8004 8005 8006 8007 8008 8009 8010 8011 8012 8013 8014 8015 8016 8017 8018 8019 8020 8021 8022 8023 8024 8025 8026 8027 8028 8029 8030 8031 8032 8033 8034 8035 8036 8037 8038 8039 8040 8041 8042 8043 8044 8045 8046 8047 8048 8049 8050 8051 8052 8053 8054 8055 8056 8057 8058 8059 8060 8061 8062 8063 8064 8065 8066 8067 8068 8069 8070 8071 8072 8073 8074 8075 8076 8077 8078 8079 8080 8081 8082 8083 8084 8085 8086 8087 8088 8089 8090 8091 8092 8093 8094 8095 8096 8097 8098 8099 8100 8101 8102 8103 8104 8105 8106 8107 8108 8109 8110 8111 8112 8113 8114 8115 8116 8117 8118 8119 8120 8121 8122 8123 8124 8125 8126 8127 8128 8129 8130 8131 8132 8133 8134 8135 8136 8137 8138 8139 8140 8141 8142 8143 8144 8145 8146 8147 8148 8149 8150 8151 8152 8153 8154 8155 8156 8157 8158 8159 8160 8161 8162 8163 8164 8165 8166 8167 8168 8169 8170 8171 8172 8173 8174 8175 8176 8177 8178 8179 8180 8181 8182 8183 8184 8185 8186 8187 8188 8189 8190 8191 8192 8193 8194 8195 8196 8197 8198 8199 8200 8201 8202 8203 8204 8205 8206 8207 8208 8209 8210 8211 8212 8213 8214 8215 8216 8217 8218 8219 8220 8221 8222 8223 8224 8225 8226 8227 8228 8229 8230 8231 8232 8233 8234 8235 8236 8237 8238 8239 8240 8241 8242 8243 8244 8245 8246 8247 8248 8249 8250 8251 8252 8253 8254 8255 8256 8257 8258 8259 8260 8261 8262 8263 8264 8265 8266 8267 8268 8269 8270 8271 8272 8273 8274 8275 8276 8277 8278 8279 8280 8281 8282 8283 8284 8285 8286 8287 8288 8289 8290 8291 8292 8293 8294 8295 8296 8297 8298 8299 8300 8301 8302 8303 8304 8305 8306 8307 8308 8309 8310 8311 8312 8313 8314 8315 8316 8317 8318 8319 8320 8321 8322 8323 8324 8325 8326 8327 8328 8329 8330 8331 8332 8333 8334 8335 8336 8337 8338 8339 8340 8341 8342 8343 8344 8345 8346 8347 8348 8349 8350 8351 8352 8353 8354 8355 8356 8357 8358 8359 8360 8361 8362 8363 8364 8365 8366 8367 8368 8369 8370 8371 8372 8373 8374 8375 8376 8377 8378 8379 8380 8381 8382 8383 8384 8385 8386 8387 8388 8389 8390 8391 8392 8393 8394 8395 8396 8397 8398 8399 8400 8401 8402 8403 8404 8405 8406 8407 8408 8409 8410 8411 8412 8413 8414 8415 8416 8417 8418 8419 8420 8421 8422 8423 8424 8425 8426 8427 8428 8429 8430 8431 8432 8433 8434 8435 8436 8437 8438 8439 8440 8441 8442 8443 8444 8445 8446 8447 8448 8449 8450 8451 8452 8453 8454 8455 8456 8457 8458 8459 8460 8461 8462 8463 8464 8465 8466 8467 8468 8469 8470 8471 8472 8473 8474 8475 8476 8477 8478 8479 8480 8481 8482 8483 8484 8485 8486 8487 8488 8489 8490 8491 8492 8493 8494 8495 8496 8497 8498 8499 8500 8501 8502 8503 8504 8505 8506 8507 8508 8509 8510 8511 8512 8513 8514 8515 8516 8517 8518 8519 8520 8521 8522 8523 8524 8525 8526 8527 8528 8529 8530 8531 8532 8533 8534 8535 8536 8537 8538 8539 8540 8541 8542 8543 8544 8545 8546 8547 8548 8549 8550 8551 8552 8553 8554 8555 8556 8557 8558 8559 8560 8561 8562 8563 8564 8565 8566 8567 8568 8569 8570 8571 8572 8573 8574 8575 8576 8577 8578 8579 8580 8581 8582 8583 8584 8585 8586 8587 8588 8589 8590 8591 8592 8593 8594 8595 8596 8597 8598 8599 8600 8601 8602 8603 8604 8605 8606 8607 8608 8609 8610 8611 8612 8613 8614 8615 8616 8617 8618 8619 8620 8621 8622 8623 8624 8625 8626 8627 8628 8629 8630 8631 8632 8633 8634 8635 8636 8637 8638 8639 8640 8641 8642 8643 8644 8645 8646 8647 8648 8649 8650 8651 8652 8653 8654 8655 8656 8657 8658 8659 8660 8661 8662 8663 8664 8665 8666 8667 8668 8669 8670 8671 8672 8673 8674 8675 8676 8677 8678 8679 8680 8681 8682 8683 8684 8685 8686 8687 8688 8689 8690 8691 8692 8693 8694 8695 8696 8697 8698 8699 8700 8701 8702 8703 8704 8705 8706 8707 8708 8709 8710 8711 8712 8713 8714 8715 8716 8717 8718 8719 8720 8721 8722 8723 8724 8725 8726 8727 8728 8729 8730 8731 8732 8733 8734 8735 8736 8737 8738 8739 8740 8741 8742 8743 8744 8745 8746 8747 8748 8749 8750 8751 8752 8753 8754 8755 8756 8757 8758 8759 8760 8761 8762 8763 8764 8765 8766 8767 8768 8769 8770 8771 8772 8773 8774 8775 8776 8777 8778 8779 8780 8781 8782 8783 8784 8785 8786 8787 8788 8789 8790 8791 8792 8793 8794 8795 8796 8797 8798 8799 8800 8801 8802 8803 8804 8805 8806 8807 8808 8809 8810 8811 8812 8813 8814 8815 8816 8817 8818 8819 8820 8821 8822 8823 8824 8825 8826 8827 8828 8829 8830 8831 8832 8833 8834 8835 8836 8837 8838 8839 8840 8841 8842 8843 8844 8845 8846 8847 8848 8849 8850 8851 8852 8853 8854 8855 8856 8857 8858 8859 8860 8861 8862 8863 8864 8865 8866 8867 8868 8869 8870 8871 8872 8873 8874 8875 8876 8877 8878 8879 8880 8881 8882 8883 8884 8885 8886 8887 8888 8889 8890 8891 8892 8893 8894 8895 8896 8897 8898 8899 8900 8901 8902 8903 8904 8905 8906 8907 8908 8909 8910 8911 8912 8913 8914 8915 8916 8917 8918 8919 8920 8921 8922 8923 8924 8925 8926 8927 8928 8929 8930 8931 8932 8933 8934 8935 8936 8937 8938 8939 8940 8941 8942 8943 8944 8945 8946 8947 8948 8949 8950 8951 8952 8953 8954 8955 8956 8957 8958 8959 8960 8961 8962 8963 8964 8965 8966 8967 8968 8969 8970 8971 8972 8973 8974 8975 8976 8977 8978 8979 8980 8981 8982 8983 8984 8985 8986 8987 8988 8989 8990 8991 8992 8993 8994 8995 8996 8997 8998 8999 9000 9001 9002 9003 9004 9005 9006 9007 9008 9009 9010 9011 9012 9013 9014 9015 9016 9017 9018 9019 9020 9021 9022 9023 9024 9025 9026 9027 9028 9029 9030 9031 9032 9033 9034 9035 9036 9037 9038 9039 9040 9041 9042 9043 9044 9045 9046 9047 9048 9049 9050 9051 9052 9053 9054 9055 9056 9057 9058 9059 9060 9061 9062 9063 9064 9065 9066 9067 9068 9069 9070 9071 9072 9073 9074 9075 9076 9077 9078 9079 9080 9081 9082 9083 9084 9085 9086 9087 9088 9089 9090 9091 9092 9093 9094 9095 9096 9097 9098 9099 9100 9101 9102 9103 9104 9105 9106 9107 9108 9109 9110 9111 9112 9113 9114 9115 9116 9117 9118 9119 9120 9121 9122 9123 9124 9125 9126 9127 9128 9129 9130 9131 9132 9133 9134 9135 9136 9137 9138 9139 9140 9141 9142 9143 9144 9145 9146 9147 9148 9149 9150 9151 9152 9153 9154 9155 9156 9157 9158 9159 9160 9161 9162 9163 9164 9165 9166 9167 9168 9169 9170 9171 9172 9173 9174 9175 9176 9177 9178 9179 9180 9181 9182 9183 9184 9185 9186 9187 9188 9189 9190 9191 9192 9193 9194 9195 9196 9197 9198 9199 9200 9201 9202 9203 9204 9205 9206 9207 9208 9209 9210 9211 9212 9213 9214 9215 9216 9217 9218 9219 9220 9221 9222 9223 9224 9225 9226 9227 9228 9229 9230 9231 9232 9233 9234 9235 9236 9237 9238 9239 9240 9241 9242 9243 9244 9245 9246 9247 9248 9249 9250 9251 9252 9253 9254 9255 9256 9257 9258 9259 9260 9261 9262 9263 9264 9265 9266 9267 9268 9269 9270 9271 9272 9273 9274 9275 9276 9277 9278 9279 9280 9281 9282 9283 9284 9285 9286 9287 9288 9289 9290 9291 9292 9293 9294 9295 9296 9297 9298 9299 9300 9301 9302 9303 9304 9305 9306 9307 9308 9309 9310 9311 9312 9313 9314 9315 9316 9317 9318 9319 9320 9321 9322 9323 9324 9325 9326 9327 9328 9329 9330 9331 9332 9333 9334 9335 9336 9337 9338 9339 9340 9341 9342 9343 9344 9345 9346 9347 9348 9349 9350 9351 9352 9353 9354 9355 9356 9357 9358 9359 9360 9361 9362 9363 9364 9365 9366 9367 9368 9369 9370 9371 9372 9373 9374 9375 9376 9377 9378 9379 9380 9381 9382 9383 9384 9385 9386 9387 9388 9389 9390 9391 9392 9393 9394 9395 9396 9397 9398 9399 9400 9401 9402 9403 9404 9405 9406 9407 9408 9409 9410 9411 9412 9413 9414 9415 9416 9417 9418 9419 9420 9421 9422 9423 9424 9425 9426 9427 9428 9429 9430 9431 9432 9433 9434 9435 9436 9437 9438 9439 9440 9441 9442 9443 9444 9445 9446 9447 9448 9449 9450 9451 9452 9453 9454 9455 9456 9457 9458 9459 9460 9461 9462 9463 9464 9465 9466 9467 9468 9469 9470 9471 9472 9473 9474 9475 9476 9477 9478 9479 9480 9481 9482 9483 9484 9485 9486 9487 9488 9489 9490 9491 9492 9493 9494 9495 9496 9497 9498 9499 9500 9501 9502 9503 9504 9505 9506 9507 9508 9509 9510 9511 9512 9513 9514 9515 9516 9517 9518 9519 9520 9521 9522 9523 9524 9525 9526 9527 9528 9529 9530 9531 9532 9533 9534 9535 9536 9537 9538 9539 9540 9541 9542 9543 9544 9545 9546 9547 9548 9549 9550 9551 9552 9553 9554 9555 9556 9557 9558 9559 9560 9561 9562 9563 9564 9565 9566 9567 9568 9569 9570 9571 9572 9573 9574 9575 9576 9577 9578 9579 9580 9581 9582 9583 9584 9585 9586 9587 9588 9589 9590 9591 9592 9593 9594 9595 9596 9597 9598 9599 9600 9601 9602 9603 9604 9605 9606 9607 9608 9609 9610 9611 9612 9613 9614 9615 9616 9617 9618 9619 9620 9621 9622 9623 9624 9625 9626 9627 9628 9629 9630 9631 9632 9633 9634 9635 9636 9637 9638 9639 9640 9641 9642 9643 9644 9645 9646 9647 9648 9649 9650 9651 9652 9653 9654 9655 9656 9657 9658 9659 9660 9661 9662 9663 9664 9665 9666 9667 9668 9669 9670 9671 9672 9673 9674 9675 9676 9677 9678 9679 9680 9681 9682 9683 9684 9685 9686 9687 9688 9689 9690 9691 9692 9693 9694 9695 9696 9697 9698 9699 9700 9701 9702 9703 9704 9705 9706 9707 9708 9709 9710 9711 9712 9713 9714 9715 9716 9717 9718 9719 9720 9721 9722 9723 9724 9725 9726 9727 9728 9729 9730 9731 9732 9733 9734 9735 9736 9737 9738 9739 9740 9741 9742 9743 9744 9745 9746 9747 9748 9749 9750 9751 9752 9753 9754 9755 9756 9757 9758 9759 9760 9761 9762 9763 9764 9765 9766 9767 9768 9769 9770 9771 9772 9773 9774 9775 9776 9777 9778 9779 9780 9781 9782 9783 9784 9785 9786 9787 9788 9789 9790 9791 9792 9793 9794 9795 9796 9797 9798 9799 9800 9801 9802 9803 9804 9805 9806 9807 9808 9809 9810 9811 9812 9813 9814 9815 9816 9817 9818 9819 9820 9821 9822 9823 9824 9825 9826 9827 9828 9829 9830 9831 9832 9833 9834 9835 9836 9837 9838 9839 9840 9841 9842 9843 9844 9845 9846 9847 9848 9849 9850 9851 9852 9853 9854 9855 9856 9857 9858 9859 9860 9861 9862 9863 9864 9865 9866 9867 9868 9869 9870 9871 9872 9873 9874 9875 9876 9877 9878 9879 9880 9881 9882 9883 9884 9885 9886 9887 9888 9889 9890 9891 9892 9893 9894 9895 9896 9897 9898 9899 9900 9901 9902 9903 9904 9905 9906 9907 9908 9909 9910 9911 9912 9913 9914 9915 9916 9917 9918 9919 9920 9921 9922 9923 9924 9925 9926 9927 9928 9929 9930 9931 9932 9933 9934 9935 9936 9937 9938 9939 9940 9941 9942 9943 9944 9945 9946 9947 9948 9949 9950 9951 9952 9953 9954 9955 9956 9957 9958 9959 9960 9961 9962 9963 9964 9965 9966 9967 9968 9969 9970 9971 9972 9973 9974 9975 9976 9977 9978 9979 9980 9981 9982 9983 9984 9985 9986 9987 9988 9989 9990 9991 9992 9993 9994 9995 9996 9997 9998 9999 10000 10001 10002 10003 10004 10005 10006 10007 10008 10009 10010 10011 10012 10013 10014 10015 10016 10017 10018 10019 10020 10021 10022 10023 10024 10025 10026 10027 10028 10029 10030 10031 10032 10033 10034 10035 10036 10037 10038 10039 10040 10041 10042 10043 10044 10045 10046 10047 10048 10049 10050 10051 10052 10053 10054 10055 10056 10057 10058 10059 10060 10061 10062 10063 10064 10065 10066 10067 10068 10069 10070 10071 10072 10073 10074 10075 10076 10077 10078 10079 10080 10081 10082 10083 10084 10085 10086 10087 10088 10089 10090 10091 10092 10093 10094 10095 10096 10097 10098 10099 10100 10101 10102 10103 10104 10105 10106 10107 10108 10109 10110 10111 10112 10113 10114 10115 10116 10117 10118 10119 10120 10121 10122 10123 10124 10125 10126 10127 10128 10129 10130 10131 10132 10133 10134 10135 10136 10137 10138 10139 10140 10141 10142 10143 10144 10145 10146 10147 10148 10149 10150 10151 10152 10153 10154 10155 10156 10157 10158 10159 10160 10161 10162 10163 10164 10165 10166 10167 10168 10169 10170 10171 10172 10173 10174 10175 10176 10177 10178 10179 10180 10181 10182 10183 10184 10185 10186 10187 10188 10189 10190 10191 10192 10193 10194 10195 10196 10197 10198 10199 10200 10201 10202 10203 10204 10205 10206 10207 10208 10209 10210 10211 10212 10213 10214 10215 10216 10217 10218 10219 10220 10221 10222 10223 10224 10225 10226 10227 10228 10229 10230 10231 10232 10233 10234 10235 10236 10237 10238 10239 10240 10241 10242 10243 10244 10245 10246 10247 10248 10249 10250 10251 10252 10253 10254 10255 10256 10257 10258 10259 10260 10261 10262 10263 10264 10265 10266 10267 10268 10269 10270 10271 10272 10273 10274 10275 10276 10277 10278 10279 10280 10281 10282 10283 10284 10285 10286 10287 10288 10289 10290 10291 10292 10293 10294 10295 10296 10297 10298 10299 10300 10301 10302 10303 10304 10305 10306 10307 10308 10309 10310 10311 10312 10313 10314 10315 10316 10317 10318 10319 10320 10321 10322 10323 10324 10325 10326 10327 10328 10329 10330 10331 10332 10333 10334 10335 10336 10337 10338 10339 10340 10341 10342 10343 10344 10345 10346 10347 10348 10349 10350 10351 10352 10353 10354 10355 10356 10357 10358 10359 10360 10361 10362 10363 10364 10365 10366 10367 10368 10369 10370 10371 10372 10373 10374 10375 10376 10377 10378 10379 10380 10381 10382 10383 10384 10385 10386 10387 10388 10389 10390 10391 10392 10393 10394 10395 10396 10397 10398 10399 10400 10401 10402 10403 10404 10405 10406 10407 10408 10409 10410 10411 10412 10413 10414 10415 10416 10417 10418 10419 10420 10421 10422 10423 10424 10425 10426 10427 10428 10429 10430 10431 10432 10433 10434 10435 10436 10437 10438 10439 10440 10441 10442 10443 10444 10445 10446 10447 10448 10449 10450 10451 10452 10453 10454 10455 10456 10457 10458 10459 10460 10461 10462 10463 10464 10465 10466 10467 10468 10469 10470 10471 10472 10473 10474 10475 10476 10477 10478 10479 10480 10481 10482 10483 10484 10485 10486 10487 10488 10489 10490 10491 10492 10493 10494 10495 10496 10497 10498 10499 10500 10501 10502 10503 10504 10505 10506 10507 10508 10509 10510 10511 10512 10513 10514 10515 10516 10517 10518 10519 10520 10521 10522 10523 10524 10525 10526 10527 10528 10529 10530 10531 10532 10533 10534 10535 10536 10537 10538 10539 10540 10541 10542 10543 10544 10545 10546 10547 10548 10549 10550 10551 10552 10553 10554 10555 10556 10557 10558 10559 10560 10561 10562 10563 10564 10565 10566 10567 10568 10569 10570 10571 10572 10573 10574 10575 10576 10577 10578 10579 10580 10581 10582 10583 10584 10585 10586 10587 10588 10589 10590 10591 10592 10593 10594 10595 10596 10597 10598 10599 10600 10601 10602 10603 10604 10605 10606 10607 10608 10609 10610 10611 10612 10613 10614 10615 10616 10617 10618 10619 10620 10621 10622 10623 10624 10625 10626 10627 10628 10629 10630 10631 10632 10633 10634 10635 10636 10637 10638 10639 10640 10641 10642 10643 10644 10645 10646 10647 10648 10649 10650 10651 10652 10653 10654 10655 10656 10657 10658 10659 10660 10661 10662 10663 10664 10665 10666 10667 10668 10669 10670 10671 10672 10673 10674 10675 10676 10677 10678 10679 10680 10681 10682 10683 10684 10685 10686 10687 10688 10689 10690 10691 10692 10693 10694 10695 10696 10697 10698 10699 10700 10701 10702 10703 10704 10705 10706 10707 10708 10709 10710 10711 10712 10713 10714 10715 10716 10717 10718 10719 10720 10721 10722 10723 10724 10725 10726 10727 10728 10729 10730 10731 10732 10733 10734 10735 10736 10737 10738 10739 10740 10741 10742 10743 10744 10745 10746 10747 10748 10749 10750 10751 10752 10753 10754 10755 10756 10757 10758 10759 10760 10761 10762 10763 10764 10765 10766 10767 10768 10769 10770 10771 10772 10773 10774 10775 10776 10777 10778 10779 10780 10781 10782 10783 10784 10785 10786 10787 10788 10789 10790 10791 10792 10793 10794 10795 10796 10797 10798 10799 10800 10801 10802 10803 10804 10805 10806 10807 10808 10809 10810 10811 10812 10813 10814 10815 10816 10817 10818 10819 10820 10821 10822 10823 10824 10825 10826 10827 10828 10829 10830 10831 10832 10833 10834 10835 10836 10837 10838 10839 10840 10841 10842 10843 10844 10845 10846 10847 10848 10849 10850 10851 10852 10853 10854 10855 10856 10857 10858 10859 10860 10861 10862 10863 10864 10865 10866 10867 10868 10869 10870 10871 10872 10873 10874 10875 10876 10877 10878 10879 10880 10881 10882 10883 10884 10885 10886 10887 10888 10889 10890 10891 10892 10893 10894 10895 10896 10897 10898 10899 10900 10901 10902 10903 10904 10905 10906 10907 10908 10909 10910 10911 10912 10913 10914 10915 10916 10917 10918 10919 10920 10921 10922 10923 10924 10925 10926 10927 10928 10929 10930 10931 10932 10933 10934 10935 10936 10937 10938 10939 10940 10941 10942 10943 10944 10945 10946 10947 10948 10949 10950 10951 10952 10953 10954 10955 10956 10957 10958 10959 10960 10961 10962 10963 10964 10965 10966 10967 10968 10969 10970 10971 10972 10973 10974 10975 10976 10977 10978 10979 10980 10981 10982 10983 10984 10985 10986 10987 10988 10989 10990 10991 10992 10993 10994 10995 10996 10997 10998 10999 11000 11001 11002 11003 11004 11005 11006 11007 11008 11009 11010 11011 11012 11013 11014 11015 11016 11017 11018 11019 11020 11021 11022 11023 11024 11025 11026 11027 11028 11029 11030 11031 11032 11033 11034 11035 11036 11037 11038 11039 11040 11041 11042 11043 11044 11045 11046 11047 11048 11049 11050 11051 11052 11053 11054 11055 11056 11057 11058 11059 11060 11061 11062 11063 11064 11065 11066 11067 11068 11069 11070 11071 11072 11073 11074 11075 11076 11077 11078 11079 11080 11081 11082 11083 11084 11085 11086 11087 11088 11089 11090 11091 11092 11093 11094 11095 11096 11097 11098 11099 11100 11101 11102 11103 11104 11105 11106 11107 11108 11109 11110 11111 11112 11113 11114 11115 11116 11117 11118 11119 11120 11121 11122 11123 11124 11125 11126 11127 11128 11129 11130 11131 11132 11133 11134 11135 11136 11137 11138 11139 11140 11141 11142 11143 11144 11145 11146 11147 11148 11149 11150 11151 11152 11153 11154 11155 11156 11157 11158 11159 11160 11161 11162 11163 11164 11165 11166 11167 11168 11169 11170 11171 11172 11173 11174 11175 11176 11177 11178 11179 11180 11181 11182 11183 11184 11185 11186 11187 11188 11189 11190 11191 11192 11193 11194 11195 11196 11197 11198 11199 11200 11201 11202 11203 11204 11205 11206 11207 11208 11209 11210 11211 11212 11213 11214 11215 11216 11217 11218 11219 11220 11221 11222 11223 11224 11225 11226 11227 11228 11229 11230 11231 11232 11233 11234 11235 11236 11237 11238 11239 11240 11241 11242 11243 11244 11245 11246 11247 11248 11249 11250 11251 11252 11253 11254 11255 11256 11257 11258 11259 11260 11261 11262 11263 11264 11265 11266 11267 11268 11269 11270 11271 11272 11273 11274 11275 11276 11277 11278 11279 11280 11281 11282 11283 11284 11285 11286 11287 11288 11289 11290 11291 11292 11293 11294 11295 11296 11297 11298 11299 11300 11301 11302 11303 11304 11305 11306 11307 11308 11309 11310 11311 11312 11313 11314 11315 11316 11317 11318 11319 11320 11321 11322 11323 11324 11325 11326 11327 11328 11329 11330 11331 11332 11333 11334 11335 11336 11337 11338 11339 11340 11341 11342 11343 11344 11345 11346 11347 11348 11349 11350 11351 11352 11353 11354 11355 11356 11357 11358 11359 11360 11361 11362 11363 11364 11365 11366 11367 11368 11369 11370 11371 11372 11373 11374 11375 11376 11377 11378 11379 11380 11381 11382 11383 11384 11385 11386 11387 11388 11389 11390 11391 11392 11393 11394 11395 11396 11397 11398 11399 11400 11401 11402 11403 11404 11405 11406 11407 11408 11409 11410 11411 11412 11413 11414 11415 11416 11417 11418 11419 11420 11421 11422 11423 11424 11425 11426 11427 11428 11429 11430 11431 11432 11433 11434 11435 11436 11437 11438 11439 11440 11441 11442 11443 11444 11445 11446 11447 11448 11449 11450 11451 11452 11453 11454 11455 11456 11457 11458 11459 11460 11461 11462 11463 11464 11465 11466 11467 11468 11469 11470 11471 11472 11473 11474 11475 11476 11477 11478 11479 11480 11481 11482 11483 11484 11485 11486 11487 11488 11489 11490 11491 11492 11493 11494 11495 11496 11497 11498 11499 11500 11501 11502 11503 11504 11505 11506 11507 11508 11509 11510 11511 11512 11513 11514 11515 11516 11517 11518 11519 11520 11521 11522 11523 11524 11525 11526 11527 11528 11529 11530 11531 11532 11533 11534 11535 11536 11537 11538 11539 11540 11541 11542 11543 11544 11545 11546 11547 11548 11549 11550 11551 11552 11553 11554 11555 11556 11557 11558 11559 11560 11561 11562 11563 11564 11565 11566 11567 11568 11569 11570 11571 11572 11573 11574 11575 11576 11577 11578 11579 11580 11581 11582 11583 11584 11585 11586 11587 11588 11589 11590 11591 11592 11593 11594 11595 11596 11597 11598 11599 11600 11601 11602 11603 11604 11605 11606 11607 11608 11609 11610 11611 11612 11613 11614 11615 11616 11617 11618 11619 11620 11621 11622 11623 11624 11625 11626 11627 11628 11629 11630 11631 11632 11633 11634 11635 11636 11637 11638 11639 11640 11641 11642 11643 11644 11645 11646 11647 11648 11649 11650 11651 11652 11653 11654 11655 11656 11657 11658 11659 11660 11661 11662 11663 11664 11665 11666 11667 11668 11669 11670 11671 11672 11673 11674 11675 11676 11677 11678 11679 11680 11681 11682 11683 11684 11685 11686 11687 11688 11689 11690 11691 11692 11693 11694 11695 11696 11697 11698 11699 11700 11701 11702 11703 11704 11705 11706 11707 11708 11709 11710 11711 11712 11713 11714 11715 11716 11717 11718 11719 11720 11721 11722 11723 11724 11725 11726 11727 11728 11729 11730 11731 11732 11733 11734 11735 11736 11737 11738 11739 11740 11741 11742 11743 11744 11745 11746 11747 11748 11749 11750 11751 11752 11753 11754 11755 11756 11757 11758 11759 11760 11761 11762 11763 11764 11765 11766 11767 11768 11769 11770 11771 11772 11773 11774 11775 11776 11777 11778 11779 11780 11781 11782 11783 11784 11785 11786 11787 11788 11789 11790 11791 11792 11793 11794 11795 11796 11797 11798 11799 11800 11801 11802 11803 11804 11805 11806 11807 11808 11809 11810 11811 11812 11813 11814 11815 11816 11817 11818 11819 11820 11821 11822 11823 11824 11825 11826 11827 11828 11829 11830 11831 11832 11833 11834 11835 11836 11837 11838 11839 11840 11841 11842 11843 11844 11845 11846 11847 11848 11849 11850 11851 11852 11853 11854 11855 11856 11857 11858 11859 11860 11861 11862 11863 11864 11865 11866 11867 11868 11869 11870 11871 11872 11873 11874 11875 11876 11877 11878 11879 11880 11881 11882 11883 11884 11885 11886 11887 11888 11889 11890 11891 11892 11893 11894 11895 11896 11897 11898 11899 11900 11901 11902 11903 11904 11905 11906 11907 11908 11909 11910 11911 11912 11913 11914 11915 11916 11917 11918 11919 11920 11921 11922 11923 11924 11925 11926 11927 11928 11929 11930 11931 11932 11933 11934 11935 11936 11937 11938 11939 11940 11941 11942 11943 11944 11945 11946 11947 11948 11949 11950 11951 11952 11953 11954 11955 11956 11957 11958 11959 11960 11961 11962 11963 11964 11965 11966 11967 11968 11969 11970 11971 11972 11973 11974 11975 11976 11977 11978 11979 11980 11981 11982 11983 11984 11985 11986 11987 11988 11989 11990 11991 11992 11993 11994 11995 11996 11997 11998 11999 12000 12001 12002 12003 12004 12005 12006 12007 12008 12009 12010 12011 12012 12013 12014 12015 12016 12017 12018 12019 12020 12021 12022 12023 12024 12025 12026 12027 12028 12029 12030 12031 12032 12033 12034 12035 12036 12037 12038 12039 12040 12041 12042 12043 12044 12045 12046 12047 12048 12049 12050 12051 12052 12053 12054 12055 12056 12057 12058 12059 12060 12061 12062 12063 12064 12065 12066 12067 12068 12069 12070 12071 12072 12073 12074 12075 12076 12077 12078 12079 12080 12081 12082 12083 12084 12085 12086 12087 12088 12089 12090 12091 12092 12093 12094 12095 12096 12097 12098 12099 12100 12101 12102 12103 12104 12105 12106 12107 12108 12109 12110 12111 12112 12113 12114 12115 12116 12117 12118 12119 12120 12121 12122 12123 12124 12125 12126 12127 12128 12129 12130 12131 12132 12133 12134 12135 12136 12137 12138 12139 12140 12141 12142 12143 12144 12145 12146 12147 12148 12149 12150 12151 12152 12153 12154 12155 12156 12157 12158 12159 12160 12161 12162 12163 12164 12165 12166 12167 12168 12169 12170 12171 12172 12173 12174 12175 12176 12177 12178 12179 12180 12181 12182 12183 12184 12185 12186 12187 12188 12189 12190 12191 12192 12193 12194 12195 12196 12197 12198 12199 12200 12201 12202 12203 12204 12205 12206 12207 12208 12209 12210 12211 12212 12213 12214 12215 12216 12217 12218 12219 12220 12221 12222 12223 12224 12225 12226 12227 12228 12229 12230 12231 12232 12233 12234 12235 12236 12237 12238 12239 12240 12241 12242 12243 12244 12245 12246 12247 12248 12249 12250 12251 12252 12253 12254 12255 12256 12257 12258 12259 12260 12261 12262 12263 12264 12265 12266 12267 12268 12269 12270 12271 12272 12273 12274 12275 12276 12277 12278 12279 12280 12281 12282 12283 12284 12285 12286 12287 12288 12289 12290 12291 12292 12293 12294 12295 12296 12297 12298 12299 12300 12301 12302 12303 12304 12305 12306 12307 12308 12309 12310 12311 12312 12313 12314 12315 12316 12317 12318 12319 12320 12321 12322 12323 12324 12325 12326 12327 12328 12329 12330 12331 12332 12333 12334 12335 12336 12337 12338 12339 12340 12341 12342 12343 12344 12345 12346 12347 12348 12349 12350 12351 12352 12353 12354 12355 12356 12357 12358 12359 12360 12361 12362 12363 12364 12365 12366 12367 12368 12369 12370 12371 12372 12373 12374 12375 12376 12377 12378 12379 12380 12381 12382 12383 12384 12385 12386 12387 12388 12389 12390 12391 12392 12393 12394 12395 12396 12397 12398 12399 12400 12401 12402 12403 12404 12405 12406 12407 12408 12409 12410 12411 12412 12413 12414 12415 12416 12417 12418 12419 12420 12421 12422 12423 12424 12425 12426 12427 12428 12429 12430 12431 12432 12433 12434 12435 12436 12437 12438 12439 12440 12441 12442 12443 12444 12445 12446 12447 12448 12449 12450 12451 12452 12453 12454 12455 12456 12457 12458 12459 12460 12461 12462 12463 12464 12465 12466 12467 12468 12469 12470 12471 12472 12473 12474 12475 12476 12477 12478 12479 12480 12481 12482 12483 12484 12485 12486 12487 12488 12489 12490 12491 12492 12493 12494 12495 12496 12497 12498 12499 12500 12501 12502 12503 12504 12505 12506 12507 12508 12509 12510 12511 12512 12513 12514 12515 12516 12517 12518 12519 12520 12521 12522 12523 12524 12525 12526 12527 12528 12529 12530 12531 12532 12533 12534 12535 12536 12537 12538 12539 12540 12541 12542 12543 12544 12545 12546 12547 12548 12549 12550 12551 12552 12553 12554 12555 12556 12557 12558 12559 12560 12561 12562 12563 12564 12565 12566 12567 12568 12569 12570 12571 12572 12573 12574 12575 12576 12577 12578 12579 12580 12581 12582 12583 12584 12585 12586 12587 12588 12589 12590 12591 12592 12593 12594 12595 12596 12597 12598 12599 12600 12601 12602 12603 12604 12605 12606 12607 12608 12609 12610 12611 12612 12613 12614 12615 12616 12617 12618 12619 12620 12621 12622 12623 12624 12625 12626 12627 12628 12629 12630 12631 12632 12633 12634 12635 12636 12637 12638 12639 12640 12641 12642 12643 12644 12645 12646 12647 12648 12649 12650 12651 12652 12653 12654 12655 12656 12657 12658 12659 12660 12661 12662 12663 12664 12665 12666 12667 12668 12669 12670 12671 12672 12673 12674 12675 12676 12677 12678 12679 12680 12681 12682 12683 12684 12685 12686 12687 12688 12689 12690 12691 12692 12693 12694 12695 12696 12697 12698 12699 12700 12701 12702 12703 12704 12705 12706 12707 12708 12709 12710 12711 12712 12713 12714 12715 12716 12717 12718 12719 12720 12721 12722 12723 12724 12725 12726 12727 12728 12729 12730 12731 12732 12733 12734 12735 12736 12737 12738 12739 12740 12741 12742 12743 12744 12745 12746 12747 12748 12749 12750 12751 12752 12753 12754 12755 12756 12757 12758 12759 12760 12761 12762 12763 12764 12765 12766 12767 12768 12769 12770 12771 12772 12773 12774 12775 12776 12777 12778 12779 12780 12781 12782 12783 12784 12785 12786 12787 12788 12789 12790 12791 12792 12793 12794 12795 12796 12797 12798 12799 12800 12801 12802 12803 12804 12805 12806 12807 12808 12809 12810 12811 12812 12813 12814 12815 12816 12817 12818 12819 12820 12821 12822 12823 12824 12825 12826 12827 12828 12829 12830 12831 12832 12833 12834 12835 12836 12837 12838 12839 12840 12841 12842 12843 12844 12845 12846 12847 12848 12849 12850 12851 12852 12853 12854 12855 12856 12857 12858 12859 12860 12861 12862 12863 12864 12865 12866 12867 12868 12869 12870 12871 12872 12873 12874 12875 12876 12877 12878 12879 12880 12881 12882 12883 12884 12885 12886 12887 12888 12889 12890 12891 12892 12893 12894 12895 12896 12897 12898 12899 12900 12901 12902 12903 12904 12905 12906 12907 12908 12909 12910 12911 12912 12913 12914 12915 12916 12917 12918 12919 12920 12921 12922 12923 12924 12925 12926 12927 12928 12929 12930 12931 12932 12933 12934 12935 12936 12937 12938 12939 12940 12941 12942 12943 12944 12945 12946 12947 12948 12949 12950 12951 12952 12953 12954 12955 12956 12957 12958 12959 12960 12961 12962 12963 12964 12965 12966 12967 12968 12969 12970 12971 12972 12973 12974 12975 12976 12977 12978 12979 12980 12981 12982 12983 12984 12985 12986 12987 12988 12989 12990 12991 12992 12993 12994 12995 12996 12997 12998 12999 13000 13001 13002 13003 13004 13005 13006 13007 13008 13009 13010 13011 13012 13013 13014 13015 13016 13017 13018 13019 13020 13021 13022 13023 13024 13025 13026 13027 13028 13029 13030 13031 13032 13033 13034 13035 13036 13037 13038 13039 13040 13041 13042 13043 13044 13045 13046 13047 13048 13049 13050 13051 13052 13053 13054 13055 13056 13057 13058 13059 13060 13061 13062 13063 13064 13065 13066 13067 13068 13069 13070 13071 13072 13073 13074 13075 13076 13077 13078 13079 13080 13081 13082 13083 13084 13085 13086 13087 13088 13089 13090 13091 13092 13093 13094 13095 13096 13097 13098 13099 13100 13101 13102 13103 13104 13105 13106 13107 13108 13109 13110 13111 13112 13113 13114 13115 13116 13117 13118 13119 13120 13121 13122 13123 13124 13125 13126 13127 13128 13129 13130 13131 13132 13133 13134 13135 13136 13137 13138 13139 13140 13141 13142 13143 13144 13145 13146 13147 13148 13149 13150 13151 13152 13153 13154 13155 13156 13157 13158 13159 13160 13161 13162 13163 13164 13165 13166 13167 13168 13169 13170 13171 13172 13173 13174 13175 13176 13177 13178 13179 13180 13181 13182 13183 13184 13185 13186 13187 13188 13189 13190 13191 13192 13193 13194 13195 13196 13197 13198 13199 13200 13201 13202 13203 13204 13205 13206 13207 13208 13209 13210 13211 13212 13213 13214 13215 13216 13217 13218 13219 13220 13221 13222 13223 13224 13225 13226 13227 13228 13229 13230 13231 13232 13233 13234 13235 13236 13237 13238 13239 13240 13241 13242 13243 13244 13245 13246 13247 13248 13249 13250 13251 13252 13253 13254 13255 13256 13257 13258 13259 13260 13261 13262 13263 13264 13265 13266 13267 13268 13269 13270 13271 13272 13273 13274 13275 13276 13277 13278 13279 13280 13281 13282 13283 13284 13285 13286 13287 13288 13289 13290 13291 13292 13293 13294 13295 13296 13297 13298 13299 13300 13301 13302 13303 13304 13305 13306 13307 13308 13309 13310 13311 13312 13313 13314 13315 13316 13317 13318 13319 13320 13321 13322 13323 13324 13325 13326 13327 13328 13329 13330 13331 13332 13333 13334 13335 13336 13337 13338 13339 13340 13341 13342 13343 13344 13345 13346 13347 13348 13349 13350 13351 13352 13353 13354 13355 13356 13357 13358 13359 13360 13361 13362 13363 13364 13365 13366 13367 13368 13369 13370 13371 13372 13373 13374 13375 13376 13377 13378 13379 13380 13381 13382 13383 13384 13385 13386 13387 13388 13389 13390 13391 13392 13393 13394 13395 13396 13397 13398 13399 13400 13401 13402 13403 13404 13405 13406 13407 13408 13409 13410 13411 13412 13413 13414 13415 13416 13417 13418 13419 13420 13421 13422 13423 13424 13425 13426 13427 13428 13429 13430 13431 13432 13433 13434 13435 13436 13437 13438 13439 13440 13441 13442 13443 13444 13445 13446 13447 13448 13449 13450 13451 13452 13453 13454 13455 13456 13457 13458 13459 13460 13461 13462 13463 13464 13465 13466 13467 13468 13469 13470 13471 13472 13473 13474 13475 13476 13477 13478 13479 13480 13481 13482 13483 13484 13485 13486 13487 13488 13489 13490 13491 13492 13493 13494 13495 13496 13497 13498 13499 13500 13501 13502 13503 13504 13505 13506 13507 13508 13509 13510 13511 13512 13513 13514 13515 13516 13517 13518 13519 13520 13521 13522 13523 13524 13525 13526 13527 13528 13529 13530 13531 13532 13533 13534 13535 13536 13537 13538 13539 13540 13541 13542 13543 13544 13545 13546 13547 13548 13549 13550 13551 13552 13553 13554 13555 13556 13557 13558 13559 13560 13561 13562 13563 13564 13565 13566 13567 13568 13569 13570 13571 13572 13573 13574 13575 13576 13577 13578 13579 13580 13581 13582 13583 13584 13585 13586 13587 13588 13589 13590 13591 13592 13593 13594 13595 13596 13597 13598 13599 13600 13601 13602 13603 13604 13605 13606 13607 13608 13609 13610 13611 13612 13613 13614 13615 13616 13617 13618 13619 13620 13621 13622 13623 13624 13625 13626 13627 13628 13629 13630 13631 13632 13633 13634 13635 13636 13637 13638 13639 13640 13641 13642 13643 13644 13645 13646 13647 13648 13649 13650 13651 13652 13653 13654 13655 13656 13657 13658 13659 13660 13661 13662 13663 13664 13665 13666 13667 13668 13669 13670 13671 13672 13673 13674 13675 13676 13677 13678 13679 13680 13681 13682 13683 13684 13685 13686 13687 13688 13689 13690 13691 13692 13693 13694 13695 13696 13697 13698 13699 13700 13701 13702 13703 13704 13705 13706 13707 13708 13709 13710 13711 13712 13713 13714 13715 13716 13717 13718 13719 13720 13721 13722 13723 13724 13725 13726 13727 13728 13729 13730 13731 13732 13733 13734 13735 13736 13737 13738 13739 13740 13741 13742 13743 13744 13745 13746 13747 13748 13749 13750 13751 13752 13753 13754 13755 13756 13757 13758 13759 13760 13761 13762 13763 13764 13765 13766 13767 13768 13769 13770 13771 13772 13773 13774 13775 13776 13777 13778 13779 13780 13781 13782 13783 13784 13785 13786 13787 13788 13789 13790 13791 13792 13793 13794 13795 13796 13797 13798 13799 13800 13801 13802 13803 13804 13805 13806 13807 13808 13809 13810 13811 13812 13813 13814 13815 13816 13817 13818 13819 13820 13821 13822 13823 13824 13825 13826 13827 13828 13829 13830 13831 13832 13833 13834 13835 13836 13837 13838 13839 13840 13841 13842 13843 13844 13845 13846 13847 13848 13849 13850 13851 13852 13853 13854 13855 13856 13857 13858 13859 13860 13861 13862 13863 13864 13865 13866 13867 13868 13869 13870 13871 13872 13873 13874 13875 13876 13877 13878 13879 13880 13881 13882 13883 13884 13885 13886 13887 13888 13889 13890 13891 13892 13893 13894 13895 13896 13897 13898 13899 13900 13901 13902 13903 13904 13905 13906 13907 13908 13909 13910 13911 13912 13913 13914 13915 13916 13917 13918 13919 13920 13921 13922 13923 13924 13925 13926 13927 13928 13929 13930 13931 13932 13933 13934 13935 13936 13937 13938 13939 13940 13941 13942 13943 13944 13945 13946 13947 13948 13949 13950 13951 13952 13953 13954 13955 13956 13957 13958 13959 13960 13961 13962 13963 13964 13965 13966 13967 13968 13969 13970 13971 13972 13973 13974 13975 13976 13977 13978 13979 13980 13981 13982 13983 13984 13985 13986 13987 13988 13989 13990 13991 13992 13993 13994 13995 13996 13997 13998 13999 14000 14001 14002 14003 14004 14005 14006 14007 14008 14009 14010 14011 14012 14013 14014 14015 14016 14017 14018 14019 14020 14021 14022 14023 14024 14025 14026 14027 14028 14029 14030 14031 14032 14033 14034 14035 14036 14037 14038 14039 14040 14041 14042 14043 14044 14045 14046 14047 14048 14049 14050 14051 14052 14053 14054 14055 14056 14057 14058 14059 14060 14061 14062 14063 14064 14065 14066 14067 14068 14069 14070 14071 14072 14073 14074 14075 14076 14077 14078 14079 14080 14081 14082 14083 14084 14085 14086 14087 14088 14089 14090 14091 14092 14093 14094 14095 14096 14097 14098 14099 14100 14101 14102 14103 14104 14105 14106 14107 14108 14109 14110 14111 14112 14113 14114 14115 14116 14117 14118 14119 14120 14121 14122 14123 14124 14125 14126 14127 14128 14129 14130 14131 14132 14133 14134 14135 14136 14137 14138 14139 14140 14141 14142 14143 14144 14145 14146 14147 14148 14149 14150 14151 14152 14153 14154 14155 14156 14157 14158 14159 14160 14161 14162 14163 14164 14165 14166 14167 14168 14169 14170 14171 14172 14173 14174 14175 14176 14177 14178 14179 14180 14181 14182 14183 14184 14185 14186 14187 14188 14189 14190 14191 14192 14193 14194 14195 14196 14197 14198 14199 14200 14201 14202 14203 14204 14205 14206 14207 14208 14209 14210 14211 14212 14213 14214 14215 14216 14217 14218 14219 14220 14221 14222 14223 14224 14225 14226 14227 14228 14229 14230 14231 14232 14233 14234 14235 14236 14237 14238 14239 14240 14241 14242 14243 14244 14245 14246 14247 14248 14249 14250 14251 14252 14253 14254 14255 14256 14257 14258 14259 14260 14261 14262 14263 14264 14265 14266 14267 14268 14269 14270 14271 14272 14273 14274 14275 14276 14277 14278 14279 14280 14281 14282 14283 14284 14285 14286 14287 14288 14289 14290 14291 14292 14293 14294 14295 14296 14297 14298 14299 14300 14301 14302 14303 14304 14305 14306 14307 14308 14309 14310 14311 14312 14313 14314 14315 14316 14317 14318 14319 14320 14321 14322 14323 14324 14325 14326 14327 14328 14329 14330 14331 14332 14333 14334 14335 14336 14337 14338 14339 14340 14341 14342 14343 14344 14345 14346 14347 14348 14349 14350 14351 14352 14353 14354 14355 14356 14357 14358 14359 14360 14361 14362 14363 14364 14365 14366 14367 14368 14369 14370 14371 14372 14373 14374 14375 14376 14377 14378 14379 14380 14381 14382 14383 14384 14385 14386 14387 14388 14389 14390 14391 14392 14393 14394 14395 14396 14397 14398 14399 14400 14401 14402 14403 14404 14405 14406 14407 14408 14409 14410 14411 14412 14413 14414 14415 14416 14417 14418 14419 14420 14421 14422 14423 14424 14425 14426 14427 14428 14429 14430 14431 14432 14433 14434 14435 14436 14437 14438 14439 14440 14441 14442 14443 14444 14445 14446 14447 14448 14449 14450 14451 14452 14453 14454 14455 14456 14457 14458 14459 14460 14461 14462 14463 14464 14465 14466 14467 14468 14469 14470 14471 14472 14473 14474 14475 14476 14477 14478 14479 14480 14481 14482 14483 14484 14485 14486 14487 14488 14489 14490 14491 14492 14493 14494 14495 14496 14497 14498 14499 14500 14501 14502 14503 14504 14505 14506 14507 14508 14509 14510 14511 14512 14513 14514 14515 14516 14517 14518 14519 14520 14521 14522 14523 14524 14525 14526 14527 14528 14529 14530 14531 14532 14533 14534 14535 14536 14537 14538 14539 14540 14541 14542 14543 14544 14545 14546 14547 14548 14549 14550 14551 14552 14553 14554 14555 14556 14557 14558 14559 14560 14561 14562 14563 14564 14565 14566 14567 14568 14569 14570 14571 14572 14573 14574 14575 14576 14577 14578 14579 14580 14581 14582 14583 14584 14585 14586 14587 14588 14589 14590 14591 14592 14593 14594 14595 14596 14597 14598 14599 14600 14601 14602 14603 14604 14605 14606 14607 14608 14609 14610 14611 14612 14613 14614 14615 14616 14617 14618 14619 14620 14621 14622 14623 14624 14625 14626 14627 14628 14629 14630 14631 14632 14633 14634 14635 14636 14637 14638 14639 14640 14641 14642 14643 14644 14645 14646 14647 14648 14649 14650 14651 14652 14653 14654 14655 14656 14657 14658 14659 14660 14661 14662 14663 14664 14665 14666 14667 14668 14669 14670 14671 14672 14673 14674 14675 14676 14677 14678 14679 14680 14681 14682 14683 14684 14685 14686 14687 14688 14689 14690 14691 14692 14693 14694 14695 14696 14697 14698 14699 14700 14701 14702 14703 14704 14705 14706 14707 14708 14709 14710 14711 14712 14713 14714 14715 14716 14717 14718 14719 14720 14721 14722 14723 14724 14725 14726 14727 14728 14729 14730 14731 14732 14733 14734 14735 14736 14737 14738 14739 14740 14741 14742 14743 14744 14745 14746 14747 14748 14749 14750 14751 14752 14753 14754 14755 14756 14757 14758 14759 14760 14761 14762 14763 14764 14765 14766 14767 14768 14769 14770 14771 14772 14773 14774 14775 14776 14777 14778 14779 14780 14781 14782 14783 14784 14785 14786 14787 14788 14789 14790 14791 14792 14793 14794 14795 14796 14797 14798 14799 14800 14801 14802 14803 14804 14805 14806 14807 14808 14809 14810 14811 14812 14813 14814 14815 14816 14817 14818 14819 14820 14821 14822 14823 14824 14825 14826 14827 14828 14829 14830 14831 14832 14833 14834 14835 14836 14837 14838 14839 14840 14841 14842 14843 14844 14845 14846 14847 14848 14849 14850 14851 14852 14853 14854 14855 14856 14857 14858 14859 14860 14861 14862 14863 14864 14865 14866 14867 14868 14869 14870 14871 14872 14873 14874 14875 14876 14877 14878 14879 14880 14881 14882 14883 14884 14885 14886 14887 14888 14889 14890 14891 14892 14893 14894 14895 14896 14897 14898 14899 14900 14901 14902 14903 14904 14905 14906 14907 14908 14909 14910 14911 14912 14913 14914 14915 14916 14917 14918 14919 14920 14921 14922 14923 14924 14925 14926 14927 14928 14929 14930 14931 14932 14933 14934 14935 14936 14937 14938 14939 14940 14941 14942 14943 14944 14945 14946 14947 14948 14949 14950 14951 14952 14953 14954 14955 14956 14957 14958 14959 14960 14961 14962 14963 14964 14965 14966 14967 14968 14969 14970 14971 14972 14973 14974 14975 14976 14977 14978 14979 14980 14981 14982 14983 14984 14985 14986 14987 14988 14989 14990 14991 14992 14993 14994 14995 14996 14997 14998 14999 15000 15001 15002 15003 15004 15005 15006 15007 15008 15009 15010 15011 15012 15013 15014 15015 15016 15017 15018 15019 15020 15021 15022 15023 15024 15025 15026 15027 15028 15029 15030 15031 15032 15033 15034 15035 15036 15037 15038 15039 15040 15041 15042 15043 15044 15045 15046 15047 15048 15049 15050 15051 15052 15053 15054 15055 15056 15057 15058 15059 15060 15061 15062 15063 15064 15065 15066 15067 15068 15069 15070 15071 15072 15073 15074 15075 15076 15077 15078 15079 15080 15081 15082 15083 15084 15085 15086 15087 15088 15089 15090 15091 15092 15093 15094 15095 15096 15097 15098 15099 15100 15101 15102 15103 15104 15105 15106 15107 15108 15109 15110 15111 15112 15113 15114 15115 15116 15117 15118 15119 15120 15121 15122 15123 15124 15125 15126 15127 15128 15129 15130 15131 15132 15133 15134 15135 15136 15137 15138 15139 15140 15141 15142 15143 15144 15145 15146 15147 15148 15149 15150 15151 15152 15153 15154 15155 15156 15157 15158 15159 15160 15161 15162 15163 15164 15165 15166 15167 15168 15169 15170 15171 15172 15173 15174 15175 15176 15177 15178 15179 15180 15181 15182 15183 15184 15185 15186 15187 15188 15189 15190 15191 15192 15193 15194 15195 15196 15197 15198 15199 15200 15201 15202 15203 15204 15205 15206 15207 15208 15209 15210 15211 15212 15213 15214 15215 15216 15217 15218 15219 15220 15221 15222 15223 15224 15225 15226 15227 15228 15229 15230 15231 15232 15233 15234 15235 15236 15237 15238 15239 15240 15241 15242 15243 15244 15245 15246 15247 15248 15249 15250 15251 15252 15253 15254 15255 15256 15257 15258 15259 15260 15261 15262 15263 15264 15265 15266 15267 15268 15269 15270 15271 15272 15273 15274 15275 15276 15277 15278 15279 15280 15281 15282 15283 15284 15285 15286 15287 15288 15289 15290 15291 15292 15293 15294 15295 15296 15297 15298 15299 15300 15301 15302 15303 15304 15305 15306 15307 15308 15309 15310 15311 15312 15313 15314 15315 15316 15317 15318 15319 15320 15321 15322 15323 15324 15325 15326 15327 15328 15329 15330 15331 15332 15333 15334 15335 15336 15337 15338 15339 15340 15341 15342 15343 15344 15345 15346 15347 15348 15349 15350 15351 15352 15353 15354 15355 15356 15357 15358 15359 15360 15361 15362 15363 15364 15365 15366 15367 15368 15369 15370 15371 15372 15373 15374 15375 15376 15377 15378 15379 15380 15381 15382 15383 15384 15385 15386 15387 15388 15389 15390 15391 15392 15393 15394 15395 15396 15397 15398 15399 15400 15401 15402 15403 15404 15405 15406 15407 15408 15409 15410 15411 15412 15413 15414 15415 15416 15417 15418 15419 15420 15421 15422 15423 15424 15425 15426 15427 15428 15429 15430 15431 15432 15433 15434 15435 15436 15437 15438 15439 15440 15441 15442 15443 15444 15445 15446 15447 15448 15449 15450 15451 15452 15453 15454 15455 15456 15457 15458 15459 15460 15461 15462 15463 15464 15465 15466 15467 15468 15469 15470 15471 15472 15473 15474 15475 15476 15477 15478 15479 15480 15481 15482 15483 15484 15485 15486 15487 15488 15489 15490 15491 15492 15493 15494 15495 15496 15497 15498 15499 15500 15501 15502 15503 15504 15505 15506 15507 15508 15509 15510 15511 15512 15513 15514 15515 15516 15517 15518 15519 15520 15521 15522 15523 15524 15525 15526 15527 15528 15529 15530 15531 15532 15533 15534 15535 15536 15537 15538 15539 15540 15541 15542 15543 15544 15545 15546 15547 15548 15549 15550 15551 15552 15553 15554 15555 15556 15557 15558 15559 15560 15561 15562 15563 15564 15565 15566 15567 15568 15569 15570 15571 15572 15573 15574 15575 15576 15577 15578 15579 15580 15581 15582 15583 15584 15585 15586 15587 15588 15589 15590 15591 15592 15593 15594 15595 15596 15597 15598 15599 15600 15601 15602 15603 15604 15605 15606 15607 15608 15609 15610 15611 15612 15613 15614 15615 15616 15617 15618 15619 15620 15621 15622 15623 15624 15625 15626 15627 15628 15629 15630 15631 15632 15633 15634 15635 15636 15637 15638 15639 15640 15641 15642 15643 15644 15645 15646 15647 15648 15649 15650 15651 15652 15653 15654 15655 15656 15657 15658 15659 15660 15661 15662 15663 15664 15665 15666 15667 15668 15669 15670 15671 15672 15673 15674 15675 15676 15677 15678 15679 15680 15681 15682 15683 15684 15685 15686 15687 15688 15689 15690 15691 15692 15693 15694 15695 15696 15697 15698 15699 15700 15701 15702 15703 15704 15705 15706 15707 15708 15709 15710 15711 15712 15713 15714 15715 15716 15717 15718 15719 15720 15721 15722 15723 15724 15725 15726 15727 15728 15729 15730 15731 15732 15733 15734 15735 15736 15737 15738 15739 15740 15741 15742 15743 15744 15745 15746 15747 15748 15749 15750 15751 15752 15753 15754 15755 15756 15757 15758 15759 15760 15761 15762 15763 15764 15765 15766 15767 15768 15769 15770 15771 15772 15773 15774 15775 15776 15777 15778 15779 15780 15781 15782 15783 15784 15785 15786 15787 15788 15789 15790 15791 15792 15793 15794 15795 15796 15797 15798 15799 15800 15801 15802 15803 15804 15805 15806 15807 15808 15809 15810 15811 15812 15813 15814 15815 15816 15817 15818 15819 15820 15821 15822 15823 15824 15825 15826 15827 15828 15829 15830 15831 15832 15833 15834 15835 15836 15837 15838 15839 15840 15841 15842 15843 15844 15845 15846 15847 15848 15849 15850 15851 15852 15853 15854 15855 15856 15857 15858 15859 15860 15861 15862 15863 15864 15865 15866 15867 15868 15869 15870 15871 15872 15873 15874 15875 15876 15877 15878 15879 15880 15881 15882 15883 15884 15885 15886 15887 15888 15889 15890 15891 15892 15893 15894 15895 15896 15897 15898 15899 15900 15901 15902 15903 15904 15905 15906 15907 15908 15909 15910 15911 15912 15913 15914 15915 15916 15917 15918 15919 15920 15921 15922 15923 15924 15925 15926 15927 15928 15929 15930 15931 15932 15933 15934 15935 15936 15937 15938 15939 15940 15941 15942 15943 15944 15945 15946 15947 15948 15949 15950 15951 15952 15953 15954 15955 15956 15957 15958 15959 15960 15961 15962 15963 15964 15965 15966 15967 15968 15969 15970 15971 15972 15973 15974 15975 15976 15977 15978 15979 15980 15981 15982 15983 15984 15985 15986 15987 15988 15989 15990 15991 15992 15993 15994 15995 15996 15997 15998 15999 16000 16001 16002 16003 16004 16005 16006 16007 16008 16009 16010 16011 16012 16013 16014 16015 16016 16017 16018 16019 16020 16021 16022 16023 16024 16025 16026 16027 16028 16029 16030 16031 16032 16033 16034 16035 16036 16037 16038 16039 16040 16041 16042 16043 16044 16045 16046 16047 16048 16049 16050 16051 16052 16053 16054 16055 16056 16057 16058 16059 16060 16061 16062 16063 16064 16065 16066 16067 16068 16069 16070 16071 16072 16073 16074 16075 16076 16077 16078 16079 16080 16081 16082 16083 16084 16085 16086 16087 16088 16089 16090 16091 16092 16093 16094 16095 16096 16097 16098 16099 16100 16101 16102 16103 16104 16105 16106 16107 16108 16109 16110 16111 16112 16113 16114 16115 16116 16117 16118 16119 16120 16121 16122 16123 16124 16125 16126 16127 16128 16129 16130 16131 16132 16133 16134 16135 16136 16137 16138 16139 16140 16141 16142 16143 16144 16145 16146 16147 16148 16149 16150 16151 16152 16153 16154 16155 16156 16157 16158 16159 16160 16161 16162 16163 16164 16165 16166 16167 16168 16169 16170 16171 16172 16173 16174 16175 16176 16177 16178 16179 16180 16181 16182 16183 16184 16185 16186 16187 16188 16189 16190 16191 16192 16193 16194 16195 16196 16197 16198 16199 16200 16201 16202 16203 16204 16205 16206 16207 16208 16209 16210 16211 16212 16213 16214 16215 16216 16217 16218 16219 16220 16221 16222 16223 16224 16225 16226 16227 16228 16229 16230 16231 16232 16233 16234 16235 16236 16237 16238 16239 16240 16241 16242 16243 16244 16245 16246 16247 16248 16249 16250 16251 16252 16253 16254 16255 16256 16257 16258 16259 16260 16261 16262 16263 16264 16265 16266 16267 16268 16269 16270 16271 16272 16273 16274 16275 16276 16277 16278 16279 16280 16281 16282 16283 16284 16285 16286 16287 16288 16289 16290 16291 16292 16293 16294 16295 16296 16297 16298 16299 16300 16301 16302 16303 16304 16305 16306 16307 16308 16309 16310 16311 16312 16313 16314 16315 16316 16317 16318 16319 16320 16321 16322 16323 16324 16325 16326 16327 16328 16329 16330 16331 16332 16333 16334 16335 16336 16337 16338 16339 16340 16341 16342 16343 16344 16345 16346 16347 16348 16349 16350 16351 16352 16353 16354 16355 16356 16357 16358 16359 16360 16361 16362 16363 16364 16365 16366 16367 16368 16369 16370 16371 16372 16373 16374 16375 16376 16377 16378 16379 16380 16381 16382 16383 16384 16385 16386 16387 16388 16389 16390 16391 16392 16393 16394 16395 16396 16397 16398 16399 16400 16401 16402 16403 16404 16405 16406 16407 16408 16409 16410 16411 16412 16413 16414 16415 16416 16417 16418 16419 16420 16421 16422 16423 16424 16425 16426 16427 16428 16429 16430 16431 16432 16433 16434 16435 16436 16437 16438 16439 16440 16441 16442 16443 16444 16445 16446 16447 16448 16449 16450 16451 16452 16453 16454 16455 16456 16457 16458 16459 16460 16461 16462 16463 16464 16465 16466 16467 16468 16469 16470 16471 16472 16473 16474 16475 16476 16477 16478 16479 16480 16481 16482 16483 16484 16485 16486 16487 16488 16489 16490 16491 16492 16493 16494 16495 16496 16497 16498 16499 16500 16501 16502 16503 16504 16505 16506 16507 16508 16509 16510 16511 16512 16513 16514 16515 16516 16517 16518 16519 16520 16521 16522 16523 16524 16525 16526 16527 16528 16529 16530 16531 16532 16533 16534 16535 16536 16537 16538 16539 16540 16541 16542 16543 16544 16545 16546 16547 16548 16549 16550 16551 16552 16553 16554 16555 16556 16557 16558 16559 16560 16561 16562 16563 16564 16565 16566 16567 16568 16569 16570 16571 16572 16573 16574 16575 16576 16577 16578 16579 16580 16581 16582 16583 16584 16585 16586 16587 16588 16589 16590 16591 16592 16593 16594 16595 16596 16597 16598 16599 16600 16601 16602 16603 16604 16605 16606 16607 16608 16609 16610 16611 16612 16613 16614 16615 16616 16617 16618 16619 16620 16621 16622 16623 16624 16625 16626 16627 16628 16629 16630 16631 16632 16633 16634 16635 16636 16637 16638 16639 16640 16641 16642 16643 16644 16645 16646 16647 16648 16649 16650 16651 16652 16653 16654 16655 16656 16657 16658 16659 16660 16661 16662 16663 16664 16665 16666 16667 16668 16669 16670 16671 16672 16673 16674 16675 16676 16677 16678 16679 16680 16681 16682 16683 16684 16685 16686 16687 16688 16689 16690 16691 16692 16693 16694 16695 16696 16697 16698 16699 16700 16701 16702 16703 16704 16705 16706 16707 16708 16709 16710 16711 16712 16713 16714 16715 16716 16717 16718 16719 16720 16721 16722 16723 16724 16725 16726 16727 16728 16729 16730 16731 16732 16733 16734 16735 16736 16737 16738 16739 16740 16741 16742 16743 16744 16745 16746 16747 16748 16749 16750 16751 16752 16753 16754 16755 16756 16757 16758 16759 16760 16761 16762 16763 16764 16765 16766 16767 16768 16769 16770 16771 16772 16773 16774 16775 16776 16777 16778 16779 16780 16781 16782 16783 16784 16785 16786 16787 16788 16789 16790 16791 16792 16793 16794 16795 16796 16797 16798 16799 16800 16801 16802 16803 16804 16805 16806 16807 16808 16809 16810 16811 16812 16813 16814 16815 16816 16817 16818 16819 16820 16821 16822 16823 16824 16825 16826 16827 16828 16829 16830 16831 16832 16833 16834 16835 16836 16837 16838 16839 16840 16841 16842 16843 16844 16845 16846 16847 16848 16849 16850 16851 16852 16853 16854 16855 16856 16857 16858 16859 16860 16861 16862 16863 16864 16865 16866 16867 16868 16869 16870 16871 16872 16873 16874 16875 16876 16877 16878 16879 16880 16881 16882 16883 16884 16885 16886 16887 16888 16889 16890 16891 16892 16893 16894 16895 16896 16897 16898 16899 16900 16901 16902 16903 16904 16905 16906 16907 16908 16909 16910 16911 16912 16913 16914 16915 16916 16917 16918 16919 16920 16921 16922 16923 16924 16925 16926 16927 16928 16929 16930 16931 16932 16933 16934 16935 16936 16937 16938 16939 16940 16941 16942 16943 16944 16945 16946 16947 16948 16949 16950 16951 16952 16953 16954 16955 16956 16957 16958 16959 16960 16961 16962 16963 16964 16965 16966 16967 16968 16969 16970 16971 16972 16973 16974 16975 16976 16977 16978 16979 16980 16981 16982 16983 16984 16985 16986 16987 16988 16989 16990 16991 16992 16993 16994 16995 16996 16997 16998 16999 17000 17001 17002 17003 17004 17005 17006 17007 17008 17009 17010 17011 17012 17013 17014 17015 17016 17017 17018 17019 17020 17021 17022 17023 17024 17025 17026 17027 17028 17029 17030 17031 17032 17033 17034 17035 17036 17037 17038 17039 17040 17041 17042 17043 17044 17045 17046 17047 17048 17049 17050 17051 17052 17053 17054 17055 17056 17057 17058 17059 17060 17061 17062 17063 17064 17065 17066 17067 17068 17069 17070 17071 17072 17073 17074 17075 17076 17077 17078 17079 17080 17081 17082 17083 17084 17085 17086 17087 17088 17089 17090 17091 17092 17093 17094 17095 17096 17097 17098 17099 17100 17101 17102 17103 17104 17105 17106 17107 17108 17109 17110 17111 17112 17113 17114 17115 17116 17117 17118 17119 17120 17121 17122 17123 17124 17125 17126 17127 17128 17129 17130 17131 17132 17133 17134 17135 17136 17137 17138 17139 17140 17141 17142 17143 17144 17145 17146 17147 17148 17149 17150 17151 17152 17153 17154 17155 17156 17157 17158 17159 17160 17161 17162 17163 17164 17165 17166 17167 17168 17169 17170 17171 17172 17173 17174 17175 17176 17177 17178 17179 17180 17181 17182 17183 17184 17185 17186 17187 17188 17189 17190 17191 17192 17193 17194 17195 17196 17197 17198 17199 17200 17201 17202 17203 17204 17205 17206 17207 17208 17209 17210 17211 17212 17213 17214 17215 17216 17217 17218 17219 17220 17221 17222 17223 17224 17225 17226 17227 17228 17229 17230 17231 17232 17233 17234 17235 17236 17237 17238 17239 17240 17241 17242 17243 17244 17245 17246 17247 17248 17249 17250 17251 17252 17253 17254 17255 17256 17257 17258 17259 17260 17261 17262 17263 17264 17265 17266 17267 17268 17269 17270 17271 17272 17273 17274 17275 17276 17277 17278 17279 17280 17281 17282 17283 17284 17285 17286 17287 17288 17289 17290 17291 17292 17293 17294 17295 17296 17297 17298 17299 17300 17301 17302 17303 17304 17305 17306 17307 17308 17309 17310 17311 17312 17313 17314 17315 17316 17317 17318 17319 17320 17321 17322 17323 17324 17325 17326 17327 17328 17329 17330 17331 17332 17333 17334 17335 17336 17337 17338 17339 17340 17341 17342 17343 17344 17345 17346 17347 17348 17349 17350 17351 17352 17353 17354 17355 17356 17357 17358 17359 17360 17361 17362 17363 17364 17365 17366 17367 17368 17369 17370 17371 17372 17373 17374 17375 17376 17377 17378 17379 17380 17381 17382 17383 17384 17385 17386 17387 17388 17389 17390 17391 17392 17393 17394 17395 17396 17397 17398 17399 17400 17401 17402 17403 17404 17405 17406 17407 17408 17409 17410 17411 17412 17413 17414 17415 17416 17417 17418 17419 17420 17421 17422 17423 17424 17425 17426 17427 17428 17429 17430 17431 17432 17433 17434 17435 17436 17437 17438 17439 17440 17441 17442 17443 17444 17445 17446 17447 17448 17449 17450 17451 17452 17453 17454 17455 17456 17457 17458 17459 17460 17461 17462 17463 17464 17465 17466 17467 17468 17469 17470 17471 17472 17473 17474 17475 17476 17477 17478 17479 17480 17481 17482 17483 17484 17485 17486 17487 17488 17489 17490 17491 17492 17493 17494 17495 17496 17497 17498 17499 17500 17501 17502 17503 17504 17505 17506 17507 17508 17509 17510 17511 17512 17513 17514 17515 17516 17517 17518 17519 17520 17521 17522 17523 17524 17525 17526 17527 17528 17529 17530 17531 17532 17533 17534 17535 17536 17537 17538 17539 17540 17541 17542 17543 17544 17545 17546 17547 17548 17549 17550 17551 17552 17553 17554 17555 17556 17557 17558 17559 17560 17561 17562 17563 17564 17565 17566 17567 17568 17569 17570 17571 17572 17573 17574 17575 17576 17577 17578 17579 17580 17581 17582 17583 17584 17585 17586 17587 17588 17589 17590 17591 17592 17593 17594 17595 17596 17597 17598 17599 17600 17601 17602 17603 17604 17605 17606 17607 17608 17609 17610 17611 17612 17613 17614 17615 17616 17617 17618 17619 17620 17621 17622 17623 17624 17625 17626 17627 17628 17629 17630 17631 17632 17633 17634 17635 17636 17637 17638 17639 17640 17641 17642 17643 17644 17645 17646 17647 17648 17649 17650 17651 17652 17653 17654 17655 17656 17657 17658 17659 17660 17661 17662 17663 17664 17665 17666 17667 17668 17669 17670 17671 17672 17673 17674 17675 17676 17677 17678 17679 17680 17681 17682 17683 17684 17685 17686 17687 17688 17689 17690 17691 17692 17693 17694 17695 17696 17697 17698 17699 17700 17701 17702 17703 17704 17705 17706 17707 17708 17709 17710 17711 17712 17713 17714 17715 17716 17717 17718 17719 17720 17721 17722 17723 17724 17725 17726 17727 17728 17729 17730 17731 17732 17733 17734 17735 17736 17737 17738 17739 17740 17741 17742 17743 17744 17745 17746 17747 17748 17749 17750 17751 17752 17753 17754 17755 17756 17757 17758 17759 17760 17761 17762 17763 17764 17765 17766 17767 17768 17769 17770 17771 17772 17773 17774 17775 17776 17777 17778 17779 17780 17781 17782 17783 17784 17785 17786 17787 17788 17789 17790 17791 17792 17793 17794 17795 17796 17797 17798 17799 17800 17801 17802 17803 17804 17805 17806 17807 17808 17809 17810 17811 17812 17813 17814 17815 17816 17817 17818 17819 17820 17821 17822 17823 17824 17825 17826 17827 17828 17829 17830 17831 17832 17833 17834 17835 17836 17837 17838 17839 17840 17841 17842 17843 17844 17845 17846 17847 17848 17849 17850 17851 17852 17853 17854 17855 17856 17857 17858 17859 17860 17861 17862 17863 17864 17865 17866 17867 17868 17869 17870 17871 17872 17873 17874 17875 17876 17877 17878 17879 17880 17881 17882 17883 17884 17885 17886 17887 17888 17889 17890 17891 17892 17893 17894 17895 17896 17897 17898 17899 17900 17901 17902 17903 17904 17905 17906 17907 17908 17909 17910 17911 17912 17913 17914 17915 17916 17917 17918 17919 17920 17921 17922 17923 17924 17925 17926 17927 17928 17929 17930 17931 17932 17933 17934 17935 17936 17937 17938 17939 17940 17941 17942 17943 17944 17945 17946 17947 17948 17949 17950 17951 17952 17953 17954 17955 17956 17957 17958 17959 17960 17961 17962 17963 17964 17965 17966 17967 17968 17969 17970 17971 17972 17973 17974 17975 17976 17977 17978 17979 17980 17981 17982 17983 17984 17985 17986 17987 17988 17989 17990 17991 17992 17993 17994 17995 17996 17997 17998 17999 18000 18001 18002 18003 18004 18005 18006 18007 18008 18009 18010 18011 18012 18013 18014 18015 18016 18017 18018 18019 18020 18021 18022 18023 18024 18025 18026 18027 18028 18029 18030 18031 18032 18033 18034 18035 18036 18037 18038 18039 18040 18041 18042 18043 18044 18045 18046 18047 18048 18049 18050 18051 18052 18053 18054 18055 18056 18057 18058 18059 18060 18061 18062 18063 18064 18065 18066 18067 18068 18069 18070 18071 18072 18073 18074 18075 18076 18077 18078 18079 18080 18081 18082 18083 18084 18085 18086 18087 18088 18089 18090 18091 18092 18093 18094 18095 18096 18097 18098 18099 18100 18101 18102 18103 18104 18105 18106 18107 18108 18109 18110 18111 18112 18113 18114 18115 18116 18117 18118 18119 18120 18121 18122 18123 18124 18125 18126 18127 18128 18129 18130 18131 18132 18133 18134 18135 18136 18137 18138 18139 18140 18141 18142 18143 18144 18145 18146 18147 18148 18149 18150 18151 18152 18153 18154 18155 18156 18157 18158 18159 18160 18161 18162 18163 18164 18165 18166 18167 18168 18169 18170 18171 18172 18173 18174 18175 18176 18177 18178 18179 18180 18181 18182 18183 18184 18185 18186 18187 18188 18189 18190 18191 18192 18193 18194 18195 18196 18197 18198 18199 18200 18201 18202 18203 18204 18205 18206 18207 18208 18209 18210 18211 18212 18213 18214 18215 18216 18217 18218 18219 18220 18221 18222 18223 18224 18225 18226 18227 18228 18229 18230 18231 18232 18233 18234 18235 18236 18237 18238 18239 18240 18241 18242 18243 18244 18245 18246 18247 18248 18249 18250 18251 18252 18253 18254 18255 18256 18257 18258 18259 18260 18261 18262 18263 18264 18265 18266 18267 18268 18269 18270 18271 18272 18273 18274 18275 18276 18277 18278 18279 18280 18281 18282 18283 18284 18285 18286 18287 18288 18289 18290 18291 18292 18293 18294 18295 18296 18297 18298 18299 18300 18301 18302 18303 18304 18305 18306 18307 18308 18309 18310 18311 18312 18313 18314 18315 18316 18317 18318 18319 18320 18321 18322 18323 18324 18325 18326 18327 18328 18329 18330 18331 18332 18333 18334 18335 18336 18337 18338 18339 18340 18341 18342 18343 18344 18345 18346 18347 18348 18349 18350 18351 18352 18353 18354 18355 18356 18357 18358 18359 18360 18361 18362 18363 18364 18365 18366 18367 18368 18369 18370 18371 18372 18373 18374 18375 18376 18377 18378 18379 18380 18381 18382 18383 18384 18385 18386 18387 18388 18389 18390 18391 18392 18393 18394 18395 18396 18397 18398 18399 18400 18401 18402 18403 18404 18405 18406 18407 18408 18409 18410 18411 18412 18413 18414 18415 18416 18417 18418 18419 18420 18421 18422 18423 18424 18425 18426 18427 18428 18429 18430 18431 18432 18433 18434 18435 18436 18437 18438 18439 18440 18441 18442 18443 18444 18445 18446 18447 18448 18449 18450 18451 18452 18453 18454 18455 18456 18457 18458 18459 18460 18461 18462 18463 18464 18465 18466 18467 18468 18469 18470 18471 18472 18473 18474 18475 18476 18477 18478 18479 18480 18481 18482 18483 18484 18485 18486 18487 18488 18489 18490 18491 18492 18493 18494 18495 18496 18497 18498 18499 18500 18501 18502 18503 18504 18505 18506 18507 18508 18509 18510 18511 18512 18513 18514 18515 18516 18517 18518 18519 18520 18521 18522 18523 18524 18525 18526 18527 18528 18529 18530 18531 18532 18533 18534 18535 18536 18537 18538 18539 18540 18541 18542 18543 18544 18545 18546 18547 18548 18549 18550 18551 18552 18553 18554 18555 18556 18557 18558 18559 18560 18561 18562 18563 18564 18565 18566 18567 18568 18569 18570 18571 18572 18573 18574 18575 18576 18577 18578 18579 18580 18581 18582 18583 18584 18585 18586 18587 18588 18589 18590 18591 18592 18593 18594 18595 18596 18597 18598 18599 18600 18601 18602 18603 18604 18605 18606 18607 18608 18609 18610 18611 18612 18613 18614 18615 18616 18617 18618 18619 18620 18621 18622 18623 18624 18625 18626 18627 18628 18629 18630 18631 18632 18633 18634 18635 18636 18637 18638 18639 18640 18641 18642 18643 18644 18645 18646 18647 18648 18649 18650 18651 18652 18653 18654 18655 18656 18657 18658 18659 18660 18661 18662 18663 18664 18665 18666 18667 18668 18669 18670 18671 18672 18673 18674 18675 18676 18677 18678 18679 18680 18681 18682 18683 18684 18685 18686 18687 18688 18689 18690 18691 18692 18693 18694 18695 18696 18697 18698 18699 18700 18701 18702 18703 18704 18705 18706 18707 18708 18709 18710 18711 18712 18713 18714 18715 18716 18717 18718 18719 18720 18721 18722 18723 18724 18725 18726 18727 18728 18729 18730 18731 18732 18733 18734 18735 18736 18737 18738 18739 18740 18741 18742 18743 18744 18745 18746 18747 18748 18749 18750 18751 18752 18753 18754 18755 18756 18757 18758 18759 18760 18761 18762 18763 18764 18765 18766 18767 18768 18769 18770 18771 18772 18773 18774 18775 18776 18777 18778 18779 18780 18781 18782 18783 18784 18785 18786 18787 18788 18789 18790 18791 18792 18793 18794 18795 18796 18797 18798 18799 18800 18801 18802 18803 18804 18805 18806 18807 18808 18809 18810 18811 18812 18813 18814 18815 18816 18817 18818 18819 18820 18821 18822 18823 18824 18825 18826 18827 18828 18829 18830 18831 18832 18833 18834 18835 18836 18837 18838 18839 18840 18841 18842 18843 18844 18845 18846 18847 18848 18849 18850 18851 18852 18853 18854 18855 18856 18857 18858 18859 18860 18861 18862 18863 18864 18865 18866 18867 18868 18869 18870 18871 18872 18873 18874 18875 18876 18877 18878 18879 18880 18881 18882 18883 18884 18885 18886 18887 18888 18889 18890 18891 18892 18893 18894 18895 18896 18897 18898 18899 18900 18901 18902 18903 18904 18905 18906 18907 18908 18909 18910 18911 18912 18913 18914 18915 18916 18917 18918 18919 18920 18921 18922 18923 18924 18925 18926 18927 18928 18929 18930 18931 18932 18933 18934 18935 18936 18937 18938 18939 18940 18941 18942 18943 18944 18945 18946 18947 18948 18949 18950 18951 18952 18953 18954 18955 18956 18957 18958 18959 18960 18961 18962 18963 18964 18965 18966 18967 18968 18969 18970 18971 18972 18973 18974 18975 18976 18977 18978 18979 18980 18981 18982 18983 18984 18985 18986 18987 18988 18989 18990 18991 18992 18993 18994 18995 18996 18997 18998 18999 19000 19001 19002 19003 19004 19005 19006 19007 19008 19009 19010 19011 19012 19013 19014 19015 19016 19017 19018 19019 19020 19021 19022 19023 19024 19025 19026 19027 19028 19029 19030 19031 19032 19033 19034 19035 19036 19037 19038 19039 19040 19041 19042 19043 19044 19045 19046 19047 19048 19049 19050 19051 19052 19053 19054 19055 19056 19057 19058 19059 19060 19061 19062 19063 19064 19065 19066 19067 19068 19069 19070 19071 19072 19073 19074 19075 19076 19077 19078 19079 19080 19081 19082 19083 19084 19085 19086 19087 19088 19089 19090 19091 19092 19093 19094 19095 19096 19097 19098 19099 19100 19101 19102 19103 19104 19105 19106 19107 19108 19109 19110 19111 19112 19113 19114 19115 19116 19117 19118 19119 19120 19121 19122 19123 19124 19125 19126 19127 19128 19129 19130 19131 19132 19133 19134 19135 19136 19137 19138 19139 19140 19141 19142 19143 19144 19145 19146 19147 19148 19149 19150 19151 19152 19153 19154 19155 19156 19157 19158 19159 19160 19161 19162 19163 19164 19165 19166 19167 19168 19169 19170 19171 19172 19173 19174 19175 19176 19177 19178 19179 19180 19181 19182 19183 19184 19185 19186 19187 19188 19189 19190 19191 19192 19193 19194 19195 19196 19197 19198 19199 19200 19201 19202 19203 19204 19205 19206 19207 19208 19209 19210 19211 19212 19213 19214 19215 19216 19217 19218 19219 19220 19221 19222 19223 19224 19225 19226 19227 19228 19229 19230 19231 19232 19233 19234 19235 19236 19237 19238 19239 19240 19241 19242 19243 19244 19245 19246 19247 19248 19249 19250 19251 19252 19253 19254 19255 19256 19257 19258 19259 19260 19261 19262 19263 19264 19265 19266 19267 19268 19269 19270 19271 19272 19273 19274 19275 19276 19277 19278 19279 19280 19281 19282 19283 19284 19285 19286 19287 19288 19289 19290 19291 19292 19293 19294 19295 19296 19297 19298 19299 19300 19301 19302 19303 19304 19305 19306 19307 19308 19309 19310 19311 19312 19313 19314 19315 19316 19317 19318 19319 19320 19321 19322 19323 19324 19325 19326 19327 19328 19329 19330 19331 19332 19333 19334 19335 19336 19337 19338 19339 19340 19341 19342 19343 19344 19345 19346 19347 19348 19349 19350 19351 19352 19353 19354 19355 19356 19357 19358 19359 19360 19361 19362 19363 19364 19365 19366 19367 19368 19369 19370 19371 19372 19373 19374 19375 19376 19377 19378 19379 19380 19381 19382 19383 19384 19385 19386 19387 19388 19389 19390 19391 19392 19393 19394 19395 19396 19397 19398 19399 19400 19401 19402 19403 19404 19405 19406 19407 19408 19409 19410 19411 19412 19413 19414 19415 19416 19417 19418 19419 19420 19421 19422 19423 19424 19425 19426 19427 19428 19429 19430 19431 19432 19433 19434 19435 19436 19437 19438 19439 19440 19441 19442 19443 19444 19445 19446 19447 19448 19449 19450 19451 19452 19453 19454 19455 19456 19457 19458 19459 19460 19461 19462 19463 19464 19465 19466 19467 19468 19469 19470 19471 19472 19473 19474 19475 19476 19477 19478 19479 19480 19481 19482 19483 19484 19485 19486 19487 19488 19489 19490 19491 19492 19493 19494 19495 19496 19497 19498 19499 19500 19501 19502 19503 19504 19505 19506 19507 19508 19509 19510 19511 19512 19513 19514 19515 19516 19517 19518 19519 19520 19521 19522 19523 19524 19525 19526 19527 19528 19529 19530 19531 19532 19533 19534 19535 19536 19537 19538 19539 19540 19541 19542 19543 19544 19545 19546 19547 19548 19549 19550 19551 19552 19553 19554 19555 19556 19557 19558 19559 19560 19561 19562 19563 19564 19565 19566 19567 19568 19569 19570 19571 19572 19573 19574 19575 19576 19577 19578 19579 19580 19581 19582 19583 19584 19585 19586 19587 19588 19589 19590 19591 19592 19593 19594 19595 19596 19597 19598 19599 19600 19601 19602 19603 19604 19605 19606 19607 19608 19609 19610 19611 19612 19613 19614 19615 19616 19617 19618 19619 19620 19621 19622 19623 19624 19625 19626 19627 19628 19629 19630 19631 19632 19633 19634 19635 19636 19637 19638 19639 19640 19641 19642 19643 19644 19645 19646 19647 19648 19649 19650 19651 19652 19653 19654 19655 19656 19657 19658 19659 19660 19661 19662 19663 19664 19665 19666 19667 19668 19669 19670 19671 19672 19673 19674 19675 19676 19677 19678 19679 19680 19681 19682 19683 19684 19685 19686 19687 19688 19689 19690 19691 19692 19693 19694 19695 19696 19697 19698 19699 19700 19701 19702 19703 19704 19705 19706 19707 19708 19709 19710 19711 19712 19713 19714 19715 19716 19717 19718 19719 19720 19721 19722 19723 19724 19725 19726 19727 19728 19729 19730 19731 19732 19733 19734 19735 19736 19737 19738 19739 19740 19741 19742 19743 19744 19745 19746 19747 19748 19749 19750 19751 19752 19753 19754 19755 19756 19757 19758 19759 19760 19761 19762 19763 19764 19765 19766 19767 19768 19769 19770 19771 19772 19773 19774 19775 19776 19777 19778 19779 19780 19781 19782 19783 19784 19785 19786 19787 19788 19789 19790 19791 19792 19793 19794 19795 19796 19797 19798 19799 19800 19801 19802 19803 19804 19805 19806 19807 19808 19809 19810 19811 19812 19813 19814 19815 19816 19817 19818 19819 19820 19821 19822 19823 19824 19825 19826 19827 19828 19829 19830 19831 19832 19833 19834 19835 19836 19837 19838 19839 19840 19841 19842 19843 19844 19845 19846 19847 19848 19849 19850 19851 19852 19853 19854 19855 19856 19857 19858 19859 19860 19861 19862 19863 19864 19865 19866 19867 19868 19869 19870 19871 19872 19873 19874 19875 19876 19877 19878 19879 19880 19881 19882 19883 19884 19885 19886 19887 19888 19889 19890 19891 19892 19893 19894 19895 19896 19897 19898 19899 19900 19901 19902 19903 19904 19905 19906 19907 19908 19909 19910 19911 19912 19913 19914 19915 19916 19917 19918 19919 19920 19921 19922 19923 19924 19925 19926 19927 19928 19929 19930 19931 19932 19933 19934 19935 19936 19937 19938 19939 19940 19941 19942 19943 19944 19945 19946 19947 19948 19949 19950 19951 19952 19953 19954 19955 19956 19957 19958 19959 19960 19961 19962 19963 19964 19965 19966 19967 19968 19969 19970 19971 19972 19973 19974 19975 19976 19977 19978 19979 19980 19981 19982 19983 19984 19985 19986 19987 19988 19989 19990 19991 19992 19993 19994 19995 19996 19997 19998 19999 20000 20001 20002 20003 20004 20005 20006 20007 20008 20009 20010 20011 20012 20013 20014 20015 20016 20017 20018 20019 20020 20021 20022 20023 20024 20025 20026 20027 20028 20029 20030 20031 20032 20033 20034 20035 20036 20037 20038 20039 20040 20041 20042 20043 20044 20045 20046 20047 20048 20049 20050 20051 20052 20053 20054 20055 20056 20057 20058 20059 20060 20061 20062 20063 20064 20065 20066 20067 20068 20069 20070 20071 20072 20073 20074 20075 20076 20077 20078 20079 20080 20081 20082 20083 20084 20085 20086 20087 20088 20089 20090 20091 20092 20093 20094 20095 20096 20097 20098 20099 20100 20101 20102 20103 20104 20105 20106 20107 20108 20109 20110 20111 20112 20113 20114 20115 20116 20117 20118 20119 20120 20121 20122 20123 20124 20125 20126 20127 20128 20129 20130 20131 20132 20133 20134 20135 20136 20137 20138 20139 20140 20141 20142 20143 20144 20145 20146 20147 20148 20149 20150 20151 20152 20153 20154 20155 20156 20157 20158 20159 20160 20161 20162 20163 20164 20165 20166 20167 20168 20169 20170 20171 20172 20173 20174 20175 20176 20177 20178 20179 20180 20181 20182 20183 20184 20185 20186 20187 20188 20189 20190 20191 20192 20193 20194 20195 20196 20197 20198 20199 20200 20201 20202 20203 20204 20205 20206 20207 20208 20209 20210 20211 20212 20213 20214 20215 20216 20217 20218 20219 20220 20221 20222 20223 20224 20225 20226 20227 20228 20229 20230 20231 20232 20233 20234 20235 20236 20237 20238 20239 20240 20241 20242 20243 20244 20245 20246 20247 20248 20249 20250 20251 20252 20253 20254 20255 20256 20257 20258 20259 20260 20261 20262 20263 20264 20265 20266 20267 20268 20269 20270 20271 20272 20273 20274 20275 20276 20277 20278 20279 20280 20281 20282 20283 20284 20285 20286 20287 20288 20289 20290 20291 20292 20293 20294 20295 20296 20297 20298 20299 20300 20301 20302 20303 20304 20305 20306 20307 20308 20309 20310 20311 20312 20313 20314 20315 20316 20317 20318 20319 20320 20321 20322 20323 20324 20325 20326 20327 20328 20329 20330 20331 20332 20333 20334 20335 20336 20337 20338 20339 20340 20341 20342 20343 20344 20345 20346 20347 20348 20349 20350 20351 20352 20353 20354 20355 20356 20357 20358 20359 20360 20361 20362 20363 20364 20365 20366 20367 20368 20369 20370 20371 20372 20373 20374 20375 20376 20377 20378 20379 20380 20381 20382 20383 20384 20385 20386 20387 20388 20389 20390 20391 20392 20393 20394 20395 20396 20397 20398 20399 20400 20401 20402 20403 20404 20405 20406 20407 20408 20409 20410 20411 20412 20413 20414 20415 20416 20417 20418 20419 20420 20421 20422 20423 20424 20425 20426 20427 20428 20429 20430 20431 20432 20433 20434 20435 20436 20437 20438 20439 20440 20441 20442 20443 20444 20445 20446 20447 20448 20449 20450 20451 20452 20453 20454 20455 20456 20457 20458 20459 20460 20461 20462 20463 20464 20465 20466 20467 20468 20469 20470 20471 20472 20473 20474 20475 20476 20477 20478 20479 20480 20481 20482 20483 20484 20485 20486 20487 20488 20489 20490 20491 20492 20493 20494 20495 20496 20497 20498 20499 20500 20501 20502 20503 20504 20505 20506 20507 20508 20509 20510 20511 20512 20513 20514 20515 20516 20517 20518 20519 20520 20521 20522 20523 20524 20525 20526 20527 20528 20529 20530 20531 20532 20533 20534 20535 20536 20537 20538 20539 20540 20541 20542 20543 20544 20545 20546 20547 20548 20549 20550 20551 20552 20553 20554 20555 20556 20557 20558 20559 20560 20561 20562 20563 20564 20565 20566 20567 20568 20569 20570 20571 20572 20573 20574 20575 20576 20577 20578 20579 20580 20581 20582 20583 20584 20585 20586 20587 20588 20589 20590 20591 20592 20593 20594 20595 20596 20597 20598 20599 20600 20601 20602 20603 20604 20605 20606 20607 20608 20609 20610 20611 20612 20613 20614 20615 20616 20617 20618 20619 20620 20621 20622 20623 20624 20625 20626 20627 20628 20629 20630 20631 20632 20633 20634 20635 20636 20637 20638 20639 20640 20641 20642 20643 20644 20645 20646 20647 20648 20649 20650 20651 20652 20653 20654 20655 20656 20657 20658 20659 20660 20661 20662 20663 20664 20665 20666 20667 20668 20669 20670 20671 20672 20673 20674 20675 20676 20677 20678 20679 20680 20681 20682 20683 20684 20685 20686 20687 20688 20689 20690 20691 20692 20693 20694 20695 20696 20697 20698 20699 20700 20701 20702 20703 20704 20705 20706 20707 20708 20709 20710 20711 20712 20713 20714 20715 20716 20717 20718 20719 20720 20721 20722 20723 20724 20725 20726 20727 20728 20729 20730 20731 20732 20733 20734 20735 20736 20737 20738 20739 20740 20741 20742 20743 20744 20745 20746 20747 20748 20749 20750 20751 20752 20753 20754 20755 20756 20757 20758 20759 20760 20761 20762 20763 20764 20765 20766 20767 20768 20769 20770 20771 20772 20773 20774 20775 20776 20777 20778 20779 20780 20781 20782 20783 20784 20785 20786 20787 20788 20789 20790 20791 20792 20793 20794 20795 20796 20797 20798 20799 20800 20801 20802 20803 20804 20805 20806 20807 20808 20809 20810 20811 20812 20813 20814 20815 20816 20817 20818 20819 20820 20821 20822 20823 20824 20825 20826 20827 20828 20829 20830 20831 20832 20833 20834 20835 20836 20837 20838 20839 20840 20841 20842 20843 20844 20845 20846 20847 20848 20849 20850 20851 20852 20853 20854 20855 20856 20857 20858 20859 20860 20861 20862 20863 20864 20865 20866 20867 20868 20869 20870 20871 20872 20873 20874 20875 20876 20877 20878 20879 20880 20881 20882 20883 20884 20885 20886 20887 20888 20889 20890 20891 20892 20893 20894 20895 20896 20897 20898 20899 20900 20901 20902 20903 20904 20905 20906 20907 20908 20909 20910 20911 20912 20913 20914 20915 20916 20917 20918 20919 20920 20921 20922 20923 20924 20925 20926 20927 20928 20929 20930 20931 20932 20933 20934 20935 20936 20937 20938 20939 20940 20941 20942 20943 20944 20945 20946 20947 20948 20949 20950 20951 20952 20953 20954 20955 20956 20957 20958 20959 20960 20961 20962 20963 20964 20965 20966 20967 20968 20969 20970 20971 20972 20973 20974 20975 20976 20977 20978 20979 20980 20981 20982 20983 20984 20985 20986 20987 20988 20989 20990 20991 20992 20993 20994 20995 20996 20997 20998 20999 21000 21001 21002 21003 21004 21005 21006 21007 21008 21009 21010 21011 21012 21013 21014 21015 21016 21017 21018 21019 21020 21021 21022 21023 21024 21025 21026 21027 21028 21029 21030 21031 21032 21033 21034 21035 21036 21037 21038 21039 21040 21041 21042 21043 21044 21045 21046 21047 21048 21049 21050 21051 21052 21053 21054 21055 21056 21057 21058 21059 21060 21061 21062 21063 21064 21065 21066 21067 21068 21069 21070 21071 21072 21073 21074 21075 21076 21077 21078 21079 21080 21081 21082 21083 21084 21085 21086 21087 21088 21089 21090 21091 21092 21093 21094 21095 21096 21097 21098 21099 21100 21101 21102 21103 21104 21105 21106 21107 21108 21109 21110 21111 21112 21113 21114 21115 21116 21117 21118 21119 21120 21121 21122 21123 21124 21125 21126 21127 21128 21129 21130 21131 21132 21133 21134 21135 21136 21137 21138 21139 21140 21141 21142 21143 21144 21145 21146 21147 21148 21149 21150 21151 21152 21153 21154 21155 21156 21157 21158 21159 21160 21161 21162 21163 21164 21165 21166 21167 21168 21169 21170 21171 21172 21173 21174 21175 21176 21177 21178 21179 21180 21181 21182 21183 21184 21185 21186 21187 21188 21189 21190 21191 21192 21193 21194 21195 21196 21197 21198 21199 21200 21201 21202 21203 21204 21205 21206 21207 21208 21209 21210 21211 21212 21213 21214 21215 21216 21217 21218 21219 21220 21221 21222 21223 21224 21225 21226 21227 21228 21229 21230 21231 21232 21233 21234 21235 21236 21237 21238 21239 21240 21241 21242 21243 21244 21245 21246 21247 21248 21249 21250 21251 21252 21253 21254 21255 21256 21257 21258 21259 21260 21261 21262 21263 21264 21265 21266 21267 21268 21269 21270 21271 21272 21273 21274 21275 21276 21277 21278 21279 21280 21281 21282 21283 21284 21285 21286 21287 21288 21289 21290 21291 21292 21293 21294 21295 21296 21297 21298 21299 21300 21301 21302 21303 21304 21305 21306 21307 21308 21309 21310 21311 21312 21313 21314 21315 21316 21317 21318 21319 21320 21321 21322 21323 21324 21325 21326 21327 21328 21329 21330 21331 21332 21333 21334 21335 21336 21337 21338 21339 21340 21341 21342 21343 21344 21345 21346 21347 21348 21349 21350 21351 21352 21353 21354 21355 21356 21357 21358 21359 21360 21361 21362 21363 21364 21365 21366 21367 21368 21369 21370 21371 21372 21373 21374 21375 21376 21377 21378 21379 21380 21381 21382 21383 21384 21385 21386 21387 21388 21389 21390 21391 21392 21393 21394 21395 21396 21397 21398 21399 21400 21401 21402 21403 21404 21405 21406 21407 21408 21409 21410 21411 21412 21413 21414 21415 21416 21417 21418 21419 21420 21421 21422 21423 21424 21425 21426 21427 21428 21429 21430 21431 21432 21433 21434 21435 21436 21437 21438 21439 21440 21441 21442 21443 21444 21445 21446 21447 21448 21449 21450 21451 21452 21453 21454 21455 21456 21457 21458 21459 21460 21461 21462 21463 21464 21465 21466 21467 21468 21469 21470 21471 21472 21473 21474 21475 21476 21477 21478 21479 21480 21481 21482 21483 21484 21485 21486 21487 21488 21489 21490 21491 21492 21493 21494 21495 21496 21497 21498 21499 21500 21501 21502 21503 21504 21505 21506 21507 21508 21509 21510 21511 21512 21513 21514 21515 21516 21517 21518 21519 21520 21521 21522 21523 21524 21525 21526 21527 21528 21529 21530 21531 21532 21533 21534 21535 21536 21537 21538 21539 21540 21541 21542 21543 21544 21545 21546 21547 21548 21549 21550 21551 21552 21553 21554 21555 21556 21557 21558 21559 21560 21561 21562 21563 21564 21565 21566 21567 21568 21569 21570 21571 21572 21573 21574 21575 21576 21577 21578 21579 21580 21581 21582 21583 21584 21585 21586 21587 21588 21589 21590 21591 21592 21593 21594 21595 21596 21597 21598 21599 21600 21601 21602 21603 21604 21605 21606 21607 21608 21609 21610 21611 21612 21613 21614 21615 21616 21617 21618 21619 21620 21621 21622 21623 21624 21625 21626 21627 21628 21629 21630 21631 21632 21633 21634 21635 21636 21637 21638 21639 21640 21641 21642 21643 21644 21645 21646 21647 21648 21649 21650 21651 21652 21653 21654 21655 21656 21657 21658 21659 21660 21661 21662 21663 21664 21665 21666 21667 21668 21669 21670 21671 21672 21673 21674 21675 21676 21677 21678 21679 21680 21681 21682 21683 21684 21685 21686 21687 21688 21689 21690 21691 21692 21693 21694 21695 21696 21697 21698 21699 21700 21701 21702 21703 21704 21705 21706 21707 21708 21709 21710 21711 21712 21713 21714 21715 21716 21717 21718 21719 21720 21721 21722 21723 21724 21725 21726 21727 21728 21729 21730 21731 21732 21733 21734 21735 21736 21737 21738 21739 21740 21741 21742 21743 21744 21745 21746 21747 21748 21749 21750 21751 21752 21753 21754 21755 21756 21757 21758 21759 21760 21761 21762 21763 21764 21765 21766 21767 21768 21769 21770 21771 21772 21773 21774 21775 21776 21777 21778 21779 21780 21781 21782 21783 21784 21785 21786 21787 21788 21789 21790 21791 21792 21793 21794 21795 21796 21797 21798 21799 21800 21801 21802 21803 21804 21805 21806 21807 21808 21809 21810 21811 21812 21813 21814 21815 21816 21817 21818 21819 21820 21821 21822 21823 21824 21825 21826 21827 21828 21829 21830 21831 21832 21833 21834 21835 21836 21837 21838 21839 21840 21841 21842 21843 21844 21845 21846 21847 21848 21849 21850 21851 21852 21853 21854 21855 21856 21857 21858 21859 21860 21861 21862 21863 21864 21865 21866 21867 21868 21869 21870 21871 21872 21873 21874 21875 21876 21877 21878 21879 21880 21881 21882 21883 21884 21885 21886 21887 21888 21889 21890 21891 21892 21893 21894 21895 21896 21897 21898 21899 21900 21901 21902 21903 21904 21905 21906 21907 21908 21909 21910 21911 21912 21913 21914 21915 21916 21917 21918 21919 21920 21921 21922 21923 21924 21925 21926 21927 21928 21929 21930 21931 21932 21933 21934 21935 21936 21937 21938 21939 21940 21941 21942 21943 21944 21945 21946 21947 21948 21949 21950 21951 21952 21953 21954 21955 21956 21957 21958 21959 21960 21961 21962 21963 21964 21965 21966 21967 21968 21969 21970 21971 21972 21973 21974 21975 21976 21977 21978 21979 21980 21981 21982 21983 21984 21985 21986 21987 21988 21989 21990 21991 21992 21993 21994 21995 21996 21997 21998 21999 22000 22001 22002 22003 22004 22005 22006 22007 22008 22009 22010 22011 22012 22013 22014 22015 22016 22017 22018 22019 22020 22021 22022 22023 22024 22025 22026 22027 22028 22029 22030 22031 22032 22033 22034 22035 22036 22037 22038 22039 22040 22041 22042 22043 22044 22045 22046 22047 22048 22049 22050 22051 22052 22053 22054 22055 22056 22057 22058 22059 22060 22061 22062 22063 22064 22065 22066 22067 22068 22069 22070 22071 22072 22073 22074 22075 22076 22077 22078 22079 22080 22081 22082 22083 22084 22085 22086 22087 22088 22089 22090 22091 22092 22093 22094 22095 22096 22097 22098 22099 22100 22101 22102 22103 22104 22105 22106 22107 22108 22109 22110 22111 22112 22113 22114 22115 22116 22117 22118 22119 22120 22121 22122 22123 22124 22125 22126 22127 22128 22129 22130 22131 22132 22133 22134 22135 22136 22137 22138 22139 22140 22141 22142 22143 22144 22145 22146 22147 22148 22149 22150 22151 22152 22153 22154 22155 22156 22157 22158 22159 22160 22161 22162 22163 22164 22165 22166 22167 22168 22169 22170 22171 22172 22173 22174 22175 22176 22177 22178 22179 22180 22181 22182 22183 22184 22185 22186 22187 22188 22189 22190 22191 22192 22193 22194 22195 22196 22197 22198 22199 22200 22201 22202 22203 22204 22205 22206 22207 22208 22209 22210 22211 22212 22213 22214 22215 22216 22217 22218 22219 22220 22221 22222 22223 22224 22225 22226 22227 22228 22229 22230 22231 22232 22233 22234 22235 22236 22237 22238 22239 22240 22241 22242 22243 22244 22245 22246 22247 22248 22249 22250 22251 22252 22253 22254 22255 22256 22257 22258 22259 22260 22261 22262 22263 22264 22265 22266 22267 22268 22269 22270 22271 22272 22273 22274 22275 22276 22277 22278 22279 22280 22281 22282 22283 22284 22285 22286 22287 22288 22289 22290 22291 22292 22293 22294 22295 22296 22297 22298 22299 22300 22301 22302 22303 22304 22305 22306 22307 22308 22309 22310 22311 22312 22313 22314 22315 22316 22317 22318 22319 22320 22321 22322 22323 22324 22325 22326 22327 22328 22329 22330 22331 22332 22333 22334 22335 22336 22337 22338 22339 22340 22341 22342 22343 22344 22345 22346 22347 22348 22349 22350 22351 22352 22353 22354 22355 22356 22357 22358 22359 22360 22361 22362 22363 22364 22365 22366 22367 22368 22369 22370 22371 22372 22373 22374 22375 22376 22377 22378 22379 22380 22381 22382 22383 22384 22385 22386 22387 22388 22389 22390 22391 22392 22393 22394 22395 22396 22397 22398 22399 22400 22401 22402 22403 22404 22405 22406 22407 22408 22409 22410 22411 22412 22413 22414 22415 22416 22417 22418 22419 22420 22421 22422 22423 22424 22425 22426 22427 22428 22429 22430 22431 22432 22433 22434 22435 22436 22437 22438 22439 22440 22441 22442 22443 22444 22445 22446 22447 22448 22449 22450 22451 22452 22453 22454 22455 22456 22457 22458 22459 22460 22461 22462 22463 22464 22465 22466 22467 22468 22469 22470 22471 22472 22473 22474 22475 22476 22477 22478 22479 22480 22481 22482 22483 22484 22485 22486 22487 22488 22489 22490 22491 22492 22493 22494 22495 22496 22497 22498 22499 22500 22501 22502 22503 22504 22505 22506 22507 22508 22509 22510 22511 22512 22513 22514 22515 22516 22517 22518 22519 22520 22521 22522 22523 22524 22525 22526 22527 22528 22529 22530 22531 22532 22533 22534 22535 22536 22537 22538 22539 22540 22541 22542 22543 22544 22545 22546 22547 22548 22549 22550 22551 22552 22553 22554 22555 22556 22557 22558 22559 22560 22561 22562 22563 22564 22565 22566 22567 22568 22569 22570 22571 22572 22573 22574 22575 22576 22577 22578 22579 22580 22581 22582 22583 22584 22585 22586 22587 22588 22589 22590 22591 22592 22593 22594 22595 22596 22597 22598 22599 22600 22601 22602 22603 22604 22605 22606 22607 22608 22609 22610 22611 22612 22613 22614 22615 22616 22617 22618 22619 22620 22621 22622 22623 22624 22625 22626 22627 22628 22629 22630 22631 22632 22633 22634 22635 22636 22637 22638 22639 22640 22641 22642 22643 22644 22645 22646 22647 22648 22649 22650 22651 22652 22653 22654 22655 22656 22657 22658 22659 22660 22661 22662 22663 22664 22665 22666 22667 22668 22669 22670 22671 22672 22673 22674 22675 22676 22677 22678 22679 22680 22681 22682 22683 22684 22685 22686 22687 22688 22689 22690 22691 22692 22693 22694 22695 22696 22697 22698 22699 22700 22701 22702 22703 22704 22705 22706 22707 22708 22709 22710 22711 22712 22713 22714 22715 22716 22717 22718 22719 22720 22721 22722 22723 22724 22725 22726 22727 22728 22729 22730 22731 22732 22733 22734 22735 22736 22737 22738 22739 22740 22741 22742 22743 22744 22745 22746 22747 22748 22749 22750 22751 22752 22753 22754 22755 22756 22757 22758 22759 22760 22761 22762 22763 22764 22765 22766 22767 22768 22769 22770 22771 22772 22773 22774 22775 22776 22777 22778 22779 22780 22781 22782 22783 22784 22785 22786 22787 22788 22789 22790 22791 22792 22793 22794 22795 22796 22797 22798 22799 22800 22801 22802 22803 22804 22805 22806 22807 22808 22809 22810 22811 22812 22813 22814 22815 22816 22817 22818 22819 22820 22821 22822 22823 22824 22825 22826 22827 22828 22829 22830 22831 22832 22833 22834 22835 22836 22837 22838 22839 22840 22841 22842 22843 22844 22845 22846 22847 22848 22849 22850 22851 22852 22853 22854 22855 22856 22857 22858 22859 22860 22861 22862 22863 22864 22865 22866 22867 22868 22869 22870 22871 22872 22873 22874 22875 22876 22877 22878 22879 22880 22881 22882 22883 22884 22885 22886 22887 22888 22889 22890 22891 22892 22893 22894 22895 22896 22897 22898 22899 22900 22901 22902 22903 22904 22905 22906 22907 22908 22909 22910 22911 22912 22913 22914 22915 22916 22917 22918 22919 22920 22921 22922 22923 22924 22925 22926 22927 22928 22929 22930 22931 22932 22933 22934 22935 22936 22937 22938 22939 22940 22941 22942 22943 22944 22945 22946 22947 22948 22949 22950 22951 22952 22953 22954 22955 22956 22957 22958 22959 22960 22961 22962 22963 22964 22965 22966 22967 22968 22969 22970 22971 22972 22973 22974 22975 22976 22977 22978 22979 22980 22981 22982 22983 22984 22985 22986 22987 22988 22989 22990 22991 22992 22993 22994 22995 22996 22997 22998 22999 23000 23001 23002 23003 23004 23005 23006 23007 23008 23009 23010 23011 23012 23013 23014 23015 23016 23017 23018 23019 23020 23021 23022 23023 23024 23025 23026 23027 23028 23029 23030 23031 23032 23033 23034 23035 23036 23037 23038 23039 23040 23041 23042 23043 23044 23045 23046 23047 23048 23049 23050 23051 23052 23053 23054 23055 23056 23057 23058 23059 23060 23061 23062 23063 23064 23065 23066 23067 23068 23069 23070 23071 23072 23073 23074 23075 23076 23077 23078 23079 23080 23081 23082 23083 23084 23085 23086 23087 23088 23089 23090 23091 23092 23093 23094 23095 23096 23097 23098 23099 23100 23101 23102 23103 23104 23105 23106 23107 23108 23109 23110 23111 23112 23113 23114 23115 23116 23117 23118 23119 23120 23121 23122 23123 23124 23125 23126 23127 23128 23129 23130 23131 23132 23133 23134 23135 23136 23137 23138 23139 23140 23141 23142 23143 23144 23145 23146 23147 23148 23149 23150 23151 23152 23153 23154 23155 23156 23157 23158 23159 23160 23161 23162 23163 23164 23165 23166 23167 23168 23169 23170 23171 23172 23173 23174 23175 23176 23177 23178 23179 23180 23181 23182 23183 23184 23185 23186 23187 23188 23189 23190 23191 23192 23193 23194 23195 23196 23197 23198 23199 23200 23201 23202 23203 23204 23205 23206 23207 23208 23209 23210 23211 23212 23213 23214 23215 23216 23217 23218 23219 23220 23221 23222 23223 23224 23225 23226 23227 23228 23229 23230 23231 23232 23233 23234 23235 23236 23237 23238 23239 23240 23241 23242 23243 23244 23245 23246 23247 23248 23249 23250 23251 23252 23253 23254 23255 23256 23257 23258 23259 23260 23261 23262 23263 23264 23265 23266 23267 23268 23269 23270 23271 23272 23273 23274 23275 23276 23277 23278 23279 23280 23281 23282 23283 23284 23285 23286 23287 23288 23289 23290 23291 23292 23293 23294 23295 23296 23297 23298 23299 23300 23301 23302 23303 23304 23305 23306 23307 23308 23309 23310 23311 23312 23313 23314 23315 23316 23317 23318 23319 23320 23321 23322 23323 23324 23325 23326 23327 23328 23329 23330 23331 23332 23333 23334 23335 23336 23337 23338 23339 23340 23341 23342 23343 23344 23345 23346 23347 23348 23349 23350 23351 23352 23353 23354 23355 23356 23357 23358 23359 23360 23361 23362 23363 23364 23365 23366 23367 23368 23369 23370 23371 23372 23373 23374 23375 23376 23377 23378 23379 23380 23381 23382 23383 23384 23385 23386 23387 23388 23389 23390 23391 23392 23393 23394 23395 23396 23397 23398 23399 23400 23401 23402 23403 23404 23405 23406 23407 23408 23409 23410 23411 23412 23413 23414 23415 23416 23417 23418 23419 23420 23421 23422 23423 23424 23425 23426 23427 23428 23429 23430 23431 23432 23433 23434 23435 23436 23437 23438 23439 23440 23441 23442 23443 23444 23445 23446 23447 23448 23449 23450 23451 23452 23453 23454 23455 23456 23457 23458 23459 23460 23461 23462 23463 23464 23465 23466 23467 23468 23469 23470 23471 23472 23473 23474 23475 23476 23477 23478 23479 23480 23481 23482 23483 23484 23485 23486 23487 23488 23489 23490 23491 23492 23493 23494 23495 23496 23497 23498 23499 23500 23501 23502 23503 23504 23505 23506 23507 23508 23509 23510 23511 23512 23513 23514 23515 23516 23517 23518 23519 23520 23521 23522 23523 23524 23525 23526 23527 23528 23529 23530 23531 23532 23533 23534 23535 23536 23537 23538 23539 23540 23541 23542 23543 23544 23545 23546 23547 23548 23549 23550 23551 23552 23553 23554 23555 23556 23557 23558 23559 23560 23561 23562 23563 23564 23565 23566 23567 23568 23569 23570 23571 23572 23573 23574 23575 23576 23577 23578 23579 23580 23581 23582 23583 23584 23585 23586 23587 23588 23589 23590 23591 23592 23593 23594 23595 23596 23597 23598 23599 23600 23601 23602 23603 23604 23605 23606 23607 23608 23609 23610 23611 23612 23613 23614 23615 23616 23617 23618 23619 23620 23621 23622 23623 23624 23625 23626 23627 23628 23629 23630 23631 23632 23633 23634 23635 23636 23637 23638 23639 23640 23641 23642 23643 23644 23645 23646 23647 23648 23649 23650 23651 23652 23653 23654 23655 23656 23657 23658 23659 23660 23661 23662 23663 23664 23665 23666 23667 23668 23669 23670 23671 23672 23673 23674 23675 23676 23677 23678 23679 23680 23681 23682 23683 23684 23685 23686 23687 23688 23689 23690 23691 23692 23693 23694 23695 23696 23697 23698 23699 23700 23701 23702 23703 23704 23705 23706 23707 23708 23709 23710 23711 23712 23713 23714 23715 23716 23717 23718 23719 23720 23721 23722 23723 23724 23725 23726 23727 23728 23729 23730 23731 23732 23733 23734 23735 23736 23737 23738 23739 23740 23741 23742 23743 23744 23745 23746 23747 23748 23749 23750 23751 23752 23753 23754 23755 23756 23757 23758 23759 23760 23761 23762 23763 23764 23765 23766 23767 23768 23769 23770 23771 23772 23773 23774 23775 23776 23777 23778 23779 23780 23781 23782 23783 23784 23785 23786 23787 23788 23789 23790 23791 23792 23793 23794 23795 23796 23797 23798 23799 23800 23801 23802 23803 23804 23805 23806 23807 23808 23809 23810 23811 23812 23813 23814 23815 23816 23817 23818 23819 23820 23821 23822 23823 23824 23825 23826 23827 23828 23829 23830 23831 23832 23833 23834 23835 23836 23837 23838 23839 23840 23841 23842 23843 23844 23845 23846 23847 23848 23849 23850 23851 23852 23853 23854 23855 23856 23857 23858 23859 23860 23861 23862 23863 23864 23865 23866 23867 23868 23869 23870 23871 23872 23873 23874 23875 23876 23877 23878 23879 23880 23881 23882 23883 23884 23885 23886 23887 23888 23889 23890 23891 23892 23893 23894 23895 23896 23897 23898 23899 23900 23901 23902 23903 23904 23905 23906 23907 23908 23909 23910 23911 23912 23913 23914 23915 23916 23917 23918 23919 23920 23921 23922 23923 23924 23925 23926 23927 23928 23929 23930 23931 23932 23933 23934 23935 23936 23937 23938 23939 23940 23941 23942 23943 23944 23945 23946 23947 23948 23949 23950 23951 23952 23953 23954 23955 23956 23957 23958 23959 23960 23961 23962 23963 23964 23965 23966 23967 23968 23969 23970 23971 23972 23973 23974 23975 23976 23977 23978 23979 23980 23981 23982 23983 23984 23985 23986 23987 23988 23989 23990 23991 23992 23993 23994 23995 23996 23997 23998 23999 24000 24001 24002 24003 24004 24005 24006 24007 24008 24009 24010 24011 24012 24013 24014 24015 24016 24017 24018 24019 24020 24021 24022 24023 24024 24025 24026 24027 24028 24029 24030 24031 24032 24033 24034 24035 24036 24037 24038 24039 24040 24041 24042 24043 24044 24045 24046 24047 24048 24049 24050 24051 24052 24053 24054 24055 24056 24057 24058 24059 24060 24061 24062 24063 24064 24065 24066 24067 24068 24069 24070 24071 24072 24073 24074 24075 24076 24077 24078 24079 24080 24081 24082 24083 24084 24085 24086 24087 24088 24089 24090 24091 24092 24093 24094 24095 24096 24097 24098 24099 24100 24101 24102 24103 24104 24105 24106 24107 24108 24109 24110 24111 24112 24113 24114 24115 24116 24117 24118 24119 24120 24121 24122 24123 24124 24125 24126 24127 24128 24129 24130 24131 24132 24133 24134 24135 24136 24137 24138 24139 24140 24141 24142 24143 24144 24145 24146 24147 24148 24149 24150 24151 24152 24153 24154 24155 24156 24157 24158 24159 24160 24161 24162 24163 24164 24165 24166 24167 24168 24169 24170 24171 24172 24173 24174 24175 24176 24177 24178 24179 24180 24181 24182 24183 24184 24185 24186 24187 24188 24189 24190 24191 24192 24193 24194 24195 24196 24197 24198 24199 24200 24201 24202 24203 24204 24205 24206 24207 24208 24209 24210 24211 24212 24213 24214 24215 24216 24217 24218 24219 24220 24221 24222 24223 24224 24225 24226 24227 24228 24229 24230 24231 24232 24233 24234 24235 24236 24237 24238 24239 24240 24241 24242 24243 24244 24245 24246 24247 24248 24249 24250 24251 24252 24253 24254 24255 24256 24257 24258 24259 24260 24261 24262 24263 24264 24265 24266 24267 24268 24269 24270 24271 24272 24273 24274 24275 24276 24277 24278 24279 24280 24281 24282 24283 24284 24285 24286 24287 24288 24289 24290 24291 24292 24293 24294 24295 24296 24297 24298 24299 24300 24301 24302 24303 24304 24305 24306 24307 24308 24309 24310 24311 24312 24313 24314 24315 24316 24317 24318 24319 24320 24321 24322 24323 24324 24325 24326 24327 24328 24329 24330 24331 24332 24333 24334 24335 24336 24337 24338 24339 24340 24341 24342 24343 24344 24345 24346 24347 24348 24349 24350 24351 24352 24353 24354 24355 24356 24357 24358 24359 24360 24361 24362 24363 24364 24365 24366 24367 24368 24369 24370 24371 24372 24373 24374 24375 24376 24377 24378 24379 24380 24381 24382 24383 24384 24385 24386 24387 24388 24389 24390 24391 24392 24393 24394 24395 24396 24397 24398 24399 24400 24401 24402 24403 24404 24405 24406 24407 24408 24409 24410 24411 24412 24413 24414 24415 24416 24417 24418 24419 24420 24421 24422 24423 24424 24425 24426 24427 24428 24429 24430 24431 24432 24433 24434 24435 24436 24437 24438 24439 24440 24441 24442 24443 24444 24445 24446 24447 24448 24449 24450 24451 24452 24453 24454 24455 24456 24457 24458 24459 24460 24461 24462 24463 24464 24465 24466 24467 24468 24469 24470 24471 24472 24473 24474 24475 24476 24477 24478 24479 24480 24481 24482 24483 24484 24485 24486 24487 24488 24489 24490 24491 24492 24493 24494 24495 24496 24497 24498 24499 24500 24501 24502 24503 24504 24505 24506 24507 24508 24509 24510 24511 24512 24513 24514 24515 24516 24517 24518 24519 24520 24521 24522 24523 24524 24525 24526 24527 24528 24529 24530 24531 24532 24533 24534 24535 24536 24537 24538 24539 24540 24541 24542 24543 24544 24545 24546 24547 24548 24549 24550 24551 24552 24553 24554 24555 24556 24557 24558 24559 24560 24561 24562 24563 24564 24565 24566 24567 24568 24569 24570 24571 24572 24573 24574 24575 24576 24577 24578 24579 24580 24581 24582 24583 24584 24585 24586 24587 24588 24589 24590 24591 24592 24593 24594 24595 24596 24597 24598 24599 24600 24601 24602 24603 24604 24605 24606 24607 24608 24609 24610 24611 24612 24613 24614 24615 24616 24617 24618 24619 24620 24621 24622 24623 24624 24625 24626 24627 24628 24629 24630 24631 24632 24633 24634 24635 24636 24637 24638 24639 24640 24641 24642 24643 24644 24645 24646 24647 24648 24649 24650 24651 24652 24653 24654 24655 24656 24657 24658 24659 24660 24661 24662 24663 24664 24665 24666 24667 24668 24669 24670 24671 24672 24673 24674 24675 24676 24677 24678 24679 24680 24681 24682 24683 24684 24685 24686 24687 24688 24689 24690 24691 24692 24693 24694 24695 24696 24697 24698 24699 24700 24701 24702 24703 24704 24705 24706 24707 24708 24709 24710 24711 24712 24713 24714 24715 24716 24717 24718 24719 24720 24721 24722 24723 24724 24725 24726 24727 24728 24729 24730 24731 24732 24733 24734 24735 24736 24737 24738 24739 24740 24741 24742 24743 24744 24745 24746 24747 24748 24749 24750 24751 24752 24753 24754 24755 24756 24757 24758 24759 24760 24761 24762 24763 24764 24765 24766 24767 24768 24769 24770 24771 24772 24773 24774 24775 24776 24777 24778 24779 24780 24781 24782 24783 24784 24785 24786 24787 24788 24789 24790 24791 24792 24793 24794 24795 24796 24797 24798 24799 24800 24801 24802 24803 24804 24805 24806 24807 24808 24809 24810 24811 24812 24813 24814 24815 24816 24817 24818 24819 24820 24821 24822 24823 24824 24825 24826 24827 24828 24829 24830 24831 24832 24833 24834 24835 24836 24837 24838 24839 24840 24841 24842 24843 24844 24845 24846 24847 24848 24849 24850 24851 24852 24853 24854 24855 24856 24857 24858 24859 24860 24861 24862 24863 24864 24865 24866 24867 24868 24869 24870 24871 24872 24873 24874 24875 24876 24877 24878 24879 24880 24881 24882 24883 24884 24885 24886 24887 24888 24889 24890 24891 24892 24893 24894 24895 24896 24897 24898 24899 24900 24901 24902 24903 24904 24905 24906 24907 24908 24909 24910 24911 24912 24913 24914 24915 24916 24917 24918 24919 24920 24921 24922 24923 24924 24925 24926 24927 24928 24929 24930 24931 24932 24933 24934 24935 24936 24937 24938 24939 24940 24941 24942 24943 24944 24945 24946 24947 24948 24949 24950 24951 24952 24953 24954 24955 24956 24957 24958 24959 24960 24961 24962 24963 24964 24965 24966 24967 24968 24969 24970 24971 24972 24973 24974 24975 24976 24977 24978 24979 24980 24981 24982 24983 24984 24985 24986 24987 24988 24989 24990 24991 24992 24993 24994 24995 24996 24997 24998 24999 25000 25001 25002 25003 25004 25005 25006 25007 25008 25009 25010 25011 25012 25013 25014 25015 25016 25017 25018 25019 25020 25021 25022 25023 25024 25025 25026 25027 25028 25029 25030 25031 25032 25033 25034 25035 25036 25037 25038 25039 25040 25041 25042 25043 25044 25045 25046 25047 25048 25049 25050 25051 25052 25053 25054 25055 25056 25057 25058 25059 25060 25061 25062 25063 25064 25065 25066 25067 25068 25069 25070 25071 25072 25073 25074 25075 25076 25077 25078 25079 25080 25081 25082 25083 25084 25085 25086 25087 25088 25089 25090 25091 25092 25093 25094 25095 25096 25097 25098 25099 25100 25101 25102 25103 25104 25105 25106 25107 25108 25109 25110 25111 25112 25113 25114 25115 25116 25117 25118 25119 25120 25121 25122 25123 25124 25125 25126 25127 25128 25129 25130 25131 25132 25133 25134 25135 25136 25137 25138 25139 25140 25141 25142 25143 25144 25145 25146 25147 25148 25149 25150 25151 25152 25153 25154 25155 25156 25157 25158 25159 25160 25161 25162 25163 25164 25165 25166 25167 25168 25169 25170 25171 25172 25173 25174 25175 25176 25177 25178 25179 25180 25181 25182 25183 25184 25185 25186 25187 25188 25189 25190 25191 25192 25193 25194 25195 25196 25197 25198 25199 25200 25201 25202 25203 25204 25205 25206 25207 25208 25209 25210 25211 25212 25213 25214 25215 25216 25217 25218 25219 25220 25221 25222 25223 25224 25225 25226 25227 25228 25229 25230 25231 25232 25233 25234 25235 25236 25237 25238 25239 25240 25241 25242 25243 25244 25245 25246 25247 25248 25249 25250 25251 25252 25253 25254 25255 25256 25257 25258 25259 25260 25261 25262 25263 25264 25265 25266 25267 25268 25269 25270 25271 25272 25273 25274 25275 25276 25277 25278 25279 25280 25281 25282 25283 25284 25285 25286 25287 25288 25289 25290 25291 25292 25293 25294 25295 25296 25297 25298 25299 25300 25301 25302 25303 25304 25305 25306 25307 25308 25309 25310 25311 25312 25313 25314 25315 25316 25317 25318 25319 25320 25321 25322 25323 25324 25325 25326 25327 25328 25329 25330 25331 25332 25333 25334 25335 25336 25337 25338 25339 25340 25341 25342 25343 25344 25345 25346 25347 25348 25349 25350 25351 25352 25353 25354 25355 25356 25357 25358 25359 25360 25361 25362 25363 25364 25365 25366 25367 25368 25369 25370 25371 25372 25373 25374 25375 25376 25377 25378 25379 25380 25381 25382 25383 25384 25385 25386 25387 25388 25389 25390 25391 25392 25393 25394 25395 25396 25397 25398 25399 25400 25401 25402 25403 25404 25405 25406 25407 25408 25409 25410 25411 25412 25413 25414 25415 25416 25417 25418 25419 25420 25421 25422 25423 25424 25425 25426 25427 25428 25429 25430 25431 25432 25433 25434 25435 25436 25437 25438 25439 25440 25441 25442 25443 25444 25445 25446 25447 25448 25449 25450 25451 25452 25453 25454 25455 25456 25457 25458 25459 25460 25461 25462 25463 25464 25465 25466 25467 25468 25469 25470 25471 25472 25473 25474 25475 25476 25477 25478 25479 25480 25481 25482 25483 25484 25485 25486 25487 25488 25489 25490 25491 25492 25493 25494 25495 25496 25497 25498 25499 25500 25501 25502 25503 25504 25505 25506 25507 25508 25509 25510 25511 25512 25513 25514 25515 25516 25517 25518 25519 25520 25521 25522 25523 25524 25525 25526 25527 25528 25529 25530 25531 25532 25533 25534 25535 25536 25537 25538 25539 25540 25541 25542 25543 25544 25545 25546 25547 25548 25549 25550 25551 25552 25553 25554 25555 25556 25557 25558 25559 25560 25561 25562 25563 25564 25565 25566 25567 25568 25569 25570 25571 25572 25573 25574 25575 25576 25577 25578 25579 25580 25581 25582 25583 25584 25585 25586 25587 25588 25589 25590 25591 25592 25593 25594 25595 25596 25597 25598 25599 25600 25601 25602 25603 25604 25605 25606 25607 25608 25609 25610 25611 25612 25613 25614 25615 25616 25617 25618 25619 25620 25621 25622 25623 25624 25625 25626 25627 25628 25629 25630 25631 25632 25633 25634 25635 25636 25637 25638 25639 25640 25641 25642 25643 25644 25645 25646 25647 25648 25649 25650 25651 25652 25653 25654 25655 25656 25657 25658 25659 25660 25661 25662 25663 25664 25665 25666 25667 25668 25669 25670 25671 25672 25673 25674 25675 25676 25677 25678 25679 25680 25681 25682 25683 25684 25685 25686 25687 25688 25689 25690 25691 25692 25693 25694 25695 25696 25697 25698 25699 25700 25701 25702 25703 25704 25705 25706 25707 25708 25709 25710 25711 25712 25713 25714 25715 25716 25717 25718 25719 25720 25721 25722 25723 25724 25725 25726 25727 25728 25729 25730 25731 25732 25733 25734 25735 25736 25737 25738 25739 25740 25741 25742 25743 25744 25745 25746 25747 25748 25749 25750 25751 25752 25753 25754 25755 25756 25757 25758 25759 25760 25761 25762 25763 25764 25765 25766 25767 25768 25769 25770 25771 25772 25773 25774 25775 25776 25777 25778 25779 25780 25781 25782 25783 25784 25785 25786 25787 25788 25789 25790 25791 25792 25793 25794 25795 25796 25797 25798 25799 25800 25801 25802 25803 25804 25805 25806 25807 25808 25809 25810 25811 25812 25813 25814 25815 25816 25817 25818 25819 25820 25821 25822 25823 25824 25825 25826 25827 25828 25829 25830 25831 25832 25833 25834 25835 25836 25837 25838 25839 25840 25841 25842 25843 25844 25845 25846 25847 25848 25849 25850 25851 25852 25853 25854 25855 25856 25857 25858 25859 25860 25861 25862 25863 25864 25865 25866 25867 25868 25869 25870 25871 25872 25873 25874 25875 25876 25877 25878 25879 25880 25881 25882 25883 25884 25885 25886 25887 25888 25889 25890 25891 25892 25893 25894 25895 25896 25897 25898 25899 25900 25901 25902 25903 25904 25905 25906 25907 25908 25909 25910 25911 25912 25913 25914 25915 25916 25917 25918 25919 25920 25921 25922 25923 25924 25925 25926 25927 25928 25929 25930 25931 25932 25933 25934 25935 25936 25937 25938 25939 25940 25941 25942 25943 25944 25945 25946 25947 25948 25949 25950 25951 25952 25953 25954 25955 25956 25957 25958 25959 25960 25961 25962 25963 25964 25965 25966 25967 25968 25969 25970 25971 25972 25973 25974 25975 25976 25977 25978 25979 25980 25981 25982 25983 25984 25985 25986 25987 25988 25989 25990 25991 25992 25993 25994 25995 25996 25997 25998 25999 26000 26001 26002 26003 26004 26005 26006 26007 26008 26009 26010 26011 26012 26013 26014 26015 26016 26017 26018 26019 26020 26021 26022 26023 26024 26025 26026 26027 26028 26029 26030 26031 26032 26033 26034 26035 26036 26037 26038 26039 26040 26041 26042 26043 26044 26045 26046 26047 26048 26049 26050 26051 26052 26053 26054 26055 26056 26057 26058 26059 26060 26061 26062 26063 26064 26065 26066 26067 26068 26069 26070 26071 26072 26073 26074 26075 26076 26077 26078 26079 26080 26081 26082 26083 26084 26085 26086 26087 26088 26089 26090 26091 26092 26093 26094 26095 26096 26097 26098 26099 26100 26101 26102 26103 26104 26105 26106 26107 26108 26109 26110 26111 26112 26113 26114 26115 26116 26117 26118 26119 26120 26121 26122 26123 26124 26125 26126 26127 26128 26129 26130 26131 26132 26133 26134 26135 26136 26137 26138 26139 26140 26141 26142 26143 26144 26145 26146 26147 26148 26149 26150 26151 26152 26153 26154 26155 26156 26157 26158 26159 26160 26161 26162 26163 26164 26165 26166 26167 26168 26169 26170 26171 26172 26173 26174 26175 26176 26177 26178 26179 26180 26181 26182 26183 26184 26185 26186 26187 26188 26189 26190 26191 26192 26193 26194 26195 26196 26197 26198 26199 26200 26201 26202 26203 26204 26205 26206 26207 26208 26209 26210 26211 26212 26213 26214 26215 26216 26217 26218 26219 26220 26221 26222 26223 26224 26225 26226 26227 26228 26229 26230 26231 26232 26233 26234 26235 26236 26237 26238 26239 26240 26241 26242 26243 26244 26245 26246 26247 26248 26249 26250 26251 26252 26253 26254 26255 26256 26257 26258 26259 26260 26261 26262 26263 26264 26265 26266 26267 26268 26269 26270 26271 26272 26273 26274 26275 26276 26277 26278 26279 26280 26281 26282 26283 26284 26285 26286 26287 26288 26289 26290 26291 26292 26293 26294 26295 26296 26297 26298 26299 26300 26301 26302 26303 26304 26305 26306 26307 26308 26309 26310 26311 26312 26313 26314 26315 26316 26317 26318 26319 26320 26321 26322 26323 26324 26325 26326 26327 26328 26329 26330 26331 26332 26333 26334 26335 26336 26337 26338 26339 26340 26341 26342 26343 26344 26345 26346 26347 26348 26349 26350 26351 26352 26353 26354 26355 26356 26357 26358 26359 26360 26361 26362 26363 26364 26365 26366 26367 26368 26369 26370 26371 26372 26373 26374 26375 26376 26377 26378 26379 26380 26381 26382 26383 26384 26385 26386 26387 26388 26389 26390 26391 26392 26393 26394 26395 26396 26397 26398 26399 26400 26401 26402 26403 26404 26405 26406 26407 26408 26409 26410 26411 26412 26413 26414 26415 26416 26417 26418 26419 26420 26421 26422 26423 26424 26425 26426 26427 26428 26429 26430 26431 26432 26433 26434 26435 26436 26437 26438 26439 26440 26441 26442 26443 26444 26445 26446 26447 26448 26449 26450 26451 26452 26453 26454 26455 26456 26457 26458 26459 26460 26461 26462 26463 26464 26465 26466 26467 26468 26469 26470 26471 26472 26473 26474 26475 26476 26477 26478 26479 26480 26481 26482 26483 26484 26485 26486 26487 26488 26489 26490 26491 26492 26493 26494 26495 26496 26497 26498 26499 26500 26501 26502 26503 26504 26505 26506 26507 26508 26509 26510 26511 26512 26513 26514 26515 26516 26517 26518 26519 26520 26521 26522 26523 26524 26525 26526 26527 26528 26529 26530 26531 26532 26533 26534 26535 26536 26537 26538 26539 26540 26541 26542 26543 26544 26545 26546 26547 26548 26549 26550 26551 26552 26553 26554 26555 26556 26557 26558 26559 26560 26561 26562 26563 26564 26565 26566 26567 26568 26569 26570 26571 26572 26573 26574 26575 26576 26577 26578 26579 26580 26581 26582 26583 26584 26585 26586 26587 26588 26589 26590 26591 26592 26593 26594 26595 26596 26597 26598 26599 26600 26601 26602 26603 26604 26605 26606 26607 26608 26609 26610 26611 26612 26613 26614 26615 26616 26617 26618 26619 26620 26621 26622 26623 26624 26625 26626 26627 26628 26629 26630 26631 26632 26633 26634 26635 26636 26637 26638 26639 26640 26641 26642 26643 26644 26645 26646 26647 26648 26649 26650 26651 26652 26653 26654 26655 26656 26657 26658 26659 26660 26661 26662 26663 26664 26665 26666 26667 26668 26669 26670 26671 26672 26673 26674 26675 26676 26677 26678 26679 26680 26681 26682 26683 26684 26685 26686 26687 26688 26689 26690 26691 26692 26693 26694 26695 26696 26697 26698 26699 26700 26701 26702 26703 26704 26705 26706 26707 26708 26709 26710 26711 26712 26713 26714 26715 26716 26717 26718 26719 26720 26721 26722 26723 26724 26725 26726 26727 26728 26729 26730 26731 26732 26733 26734 26735 26736 26737 26738 26739 26740 26741 26742 26743 26744 26745 26746 26747 26748 26749 26750 26751 26752 26753 26754 26755 26756 26757 26758 26759 26760 26761 26762 26763 26764 26765 26766 26767 26768 26769 26770 26771 26772 26773 26774 26775 26776 26777 26778 26779 26780 26781 26782 26783 26784 26785 26786 26787 26788 26789 26790 26791 26792 26793 26794 26795 26796 26797 26798 26799 26800 26801 26802 26803 26804 26805 26806 26807 26808 26809 26810 26811 26812 26813 26814 26815 26816 26817 26818 26819 26820 26821 26822 26823 26824 26825 26826 26827 26828 26829 26830 26831 26832 26833 26834 26835 26836 26837 26838 26839 26840 26841 26842 26843 26844 26845 26846 26847 26848 26849 26850 26851 26852 26853 26854 26855 26856 26857 26858 26859 26860 26861 26862 26863 26864 26865 26866 26867 26868 26869 26870 26871 26872 26873 26874 26875 26876 26877 26878 26879 26880 26881 26882 26883 26884 26885 26886 26887 26888 26889 26890 26891 26892 26893 26894 26895 26896 26897 26898 26899 26900 26901 26902 26903 26904 26905 26906 26907 26908 26909 26910 26911 26912 26913 26914 26915 26916 26917 26918 26919 26920 26921 26922 26923 26924 26925 26926 26927 26928 26929 26930 26931 26932 26933 26934 26935 26936 26937 26938 26939 26940 26941 26942 26943 26944 26945 26946 26947 26948 26949 26950 26951 26952 26953 26954 26955 26956 26957 26958 26959 26960 26961 26962 26963 26964 26965 26966 26967 26968 26969 26970 26971 26972 26973 26974 26975 26976 26977 26978 26979 26980 26981 26982 26983 26984 26985 26986 26987 26988 26989 26990 26991 26992 26993 26994 26995 26996 26997 26998 26999 27000 27001 27002 27003 27004 27005 27006 27007 27008 27009 27010 27011 27012 27013 27014 27015 27016 27017 27018 27019 27020 27021 27022 27023 27024 27025 27026 27027 27028 27029 27030 27031 27032 27033 27034 27035 27036 27037 27038 27039 27040 27041 27042 27043 27044 27045 27046 27047 27048 27049 27050 27051 27052 27053 27054 27055 27056 27057 27058 27059 27060 27061 27062 27063 27064 27065 27066 27067 27068 27069 27070 27071 27072 27073 27074 27075 27076 27077 27078 27079 27080 27081 27082 27083 27084 27085 27086 27087 27088 27089 27090 27091 27092 27093 27094 27095 27096 27097 27098 27099 27100 27101 27102 27103 27104 27105 27106 27107 27108 27109 27110 27111 27112 27113 27114 27115 27116 27117 27118 27119 27120 27121 27122 27123 27124 27125 27126 27127 27128 27129 27130 27131 27132 27133 27134 27135 27136 27137 27138 27139 27140 27141 27142 27143 27144 27145 27146 27147 27148 27149 27150 27151 27152 27153 27154 27155 27156 27157 27158 27159 27160 27161 27162 27163 27164 27165 27166 27167 27168 27169 27170 27171 27172 27173 27174 27175 27176 27177 27178 27179 27180 27181 27182 27183 27184 27185 27186 27187 27188 27189 27190 27191 27192 27193 27194 27195 27196 27197 27198 27199 27200 27201 27202 27203 27204 27205 27206 27207 27208 27209 27210 27211 27212 27213 27214 27215 27216 27217 27218 27219 27220 27221 27222 27223 27224 27225 27226 27227 27228 27229 27230 27231 27232 27233 27234 27235 27236 27237 27238 27239 27240 27241 27242 27243 27244 27245 27246 27247 27248 27249 27250 27251 27252 27253 27254 27255 27256 27257 27258 27259 27260 27261 27262 27263 27264 27265 27266 27267 27268 27269 27270 27271 27272 27273 27274 27275 27276 27277 27278 27279 27280 27281 27282 27283 27284 27285 27286 27287 27288 27289 27290 27291 27292 27293 27294 27295 27296 27297 27298 27299 27300 27301 27302 27303 27304 27305 27306 27307 27308 27309 27310 27311 27312 27313 27314 27315 27316 27317 27318 27319 27320 27321 27322 27323 27324 27325 27326 27327 27328 27329 27330 27331 27332 27333 27334 27335 27336 27337 27338 27339 27340 27341 27342 27343 27344 27345 27346 27347 27348 27349 27350 27351 27352 27353 27354 27355 27356 27357 27358 27359 27360 27361 27362 27363 27364 27365 27366 27367 27368 27369 27370 27371 27372 27373 27374 27375 27376 27377 27378 27379 27380 27381 27382 27383 27384 27385 27386 27387 27388 27389 27390 27391 27392 27393 27394 27395 27396 27397 27398 27399 27400 27401 27402 27403 27404 27405 27406 27407 27408 27409 27410 27411 27412 27413 27414 27415 27416 27417 27418 27419 27420 27421 27422 27423 27424 27425 27426 27427 27428 27429 27430 27431 27432 27433 27434 27435 27436 27437 27438 27439 27440 27441 27442 27443 27444 27445 27446 27447 27448 27449 27450 27451 27452 27453 27454 27455 27456 27457 27458 27459 27460 27461 27462 27463 27464 27465 27466 27467 27468 27469 27470 27471 27472 27473 27474 27475 27476 27477 27478 27479 27480 27481 27482 27483 27484 27485 27486 27487 27488 27489 27490 27491 27492 27493 27494 27495 27496 27497 27498 27499 27500 27501 27502 27503 27504 27505 27506 27507 27508 27509 27510 27511 27512 27513 27514 27515 27516 27517 27518 27519 27520 27521 27522 27523 27524 27525 27526 27527 27528 27529 27530 27531 27532 27533 27534 27535 27536 27537 27538 27539 27540 27541 27542 27543 27544 27545 27546 27547 27548 27549 27550 27551 27552 27553 27554 27555 27556 27557 27558 27559 27560 27561 27562 27563 27564 27565 27566 27567 27568 27569 27570 27571 27572 27573 27574 27575 27576 27577 27578 27579 27580 27581 27582 27583 27584 27585 27586 27587 27588 27589 27590 27591 27592 27593 27594 27595 27596 27597 27598 27599 27600 27601 27602 27603 27604 27605 27606 27607 27608 27609 27610 27611 27612 27613 27614 27615 27616 27617 27618 27619 27620 27621 27622 27623 27624 27625 27626 27627 27628 27629 27630 27631 27632 27633 27634 27635 27636 27637 27638 27639 27640 27641 27642 27643 27644 27645 27646 27647 27648 27649 27650 27651 27652 27653 27654 27655 27656 27657 27658 27659 27660 27661 27662 27663 27664 27665 27666 27667 27668 27669 27670 27671 27672 27673 27674 27675 27676 27677 27678 27679 27680 27681 27682 27683 27684 27685 27686 27687 27688 27689 27690 27691 27692 27693 27694 27695 27696 27697 27698 27699 27700 27701 27702 27703 27704 27705 27706 27707 27708 27709 27710 27711 27712 27713 27714 27715 27716 27717 27718 27719 27720 27721 27722 27723 27724 27725 27726 27727 27728 27729 27730 27731 27732 27733 27734 27735 27736 27737 27738 27739 27740 27741 27742 27743 27744 27745 27746 27747 27748 27749 27750 27751 27752 27753 27754 27755 27756 27757 27758 27759 27760 27761 27762 27763 27764 27765 27766 27767 27768 27769 27770 27771 27772 27773 27774 27775 27776 27777 27778 27779 27780 27781 27782 27783 27784 27785 27786 27787 27788 27789 27790 27791 27792 27793 27794 27795 27796 27797 27798 27799 27800 27801 27802 27803 27804 27805 27806 27807 27808 27809 27810 27811 27812 27813 27814 27815 27816 27817 27818 27819 27820 27821 27822 27823 27824 27825 27826 27827 27828 27829 27830 27831 27832 27833 27834 27835 27836 27837 27838 27839 27840 27841 27842 27843 27844 27845 27846 27847 27848 27849 27850 27851 27852 27853 27854 27855 27856 27857 27858 27859 27860 27861 27862 27863 27864 27865 27866 27867 27868 27869 27870 27871 27872 27873 27874 27875 27876 27877 27878 27879 27880 27881 27882 27883 27884 27885 27886 27887 27888 27889 27890 27891 27892 27893 27894 27895 27896 27897 27898 27899 27900 27901 27902 27903 27904 27905 27906 27907 27908 27909 27910 27911 27912 27913 27914 27915 27916 27917 27918 27919 27920 27921 27922 27923 27924 27925 27926 27927 27928 27929 27930 27931 27932 27933 27934 27935 27936 27937 27938 27939 27940 27941 27942 27943 27944 27945 27946 27947 27948 27949 27950 27951 27952 27953 27954 27955 27956 27957 27958 27959 27960 27961 27962 27963 27964 27965 27966 27967 27968 27969 27970 27971 27972 27973 27974 27975 27976 27977 27978 27979 27980 27981 27982 27983 27984 27985 27986 27987 27988 27989 27990 27991 27992 27993 27994 27995 27996 27997 27998 27999 28000 28001 28002 28003 28004 28005 28006 28007 28008 28009 28010 28011 28012 28013 28014 28015 28016 28017 28018 28019 28020 28021 28022 28023 28024 28025 28026 28027 28028 28029 28030 28031 28032 28033 28034 28035 28036 28037 28038 28039 28040 28041 28042 28043 28044 28045 28046 28047 28048 28049 28050 28051 28052 28053 28054 28055 28056 28057 28058 28059 28060 28061 28062 28063 28064 28065 28066 28067 28068 28069 28070 28071 28072 28073 28074 28075 28076 28077 28078 28079 28080 28081 28082 28083 28084 28085 28086 28087 28088 28089 28090 28091 28092 28093 28094 28095 28096 28097 28098 28099 28100 28101 28102 28103 28104 28105 28106 28107 28108 28109 28110 28111 28112 28113 28114 28115 28116 28117 28118 28119 28120 28121 28122 28123 28124 28125 28126 28127 28128 28129 28130 28131 28132 28133 28134 28135 28136 28137 28138 28139 28140 28141 28142 28143 28144 28145 28146 28147 28148 28149 28150 28151 28152 28153 28154 28155 28156 28157 28158 28159 28160 28161 28162 28163 28164 28165 28166 28167 28168 28169 28170 28171 28172 28173 28174 28175 28176 28177 28178 28179 28180 28181 28182 28183 28184 28185 28186 28187 28188 28189 28190 28191 28192 28193 28194 28195 28196 28197 28198 28199 28200 28201 28202 28203 28204 28205 28206 28207 28208 28209 28210 28211 28212 28213 28214 28215 28216 28217 28218 28219 28220 28221 28222 28223 28224 28225 28226 28227 28228 28229 28230 28231 28232 28233 28234 28235 28236 28237 28238 28239 28240 28241 28242 28243 28244 28245 28246 28247 28248 28249 28250 28251 28252 28253 28254 28255 28256 28257 28258 28259 28260 28261 28262 28263 28264 28265 28266 28267 28268 28269 28270 28271 28272 28273 28274 28275 28276 28277 28278 28279 28280 28281 28282 28283 28284 28285 28286 28287 28288 28289 28290 28291 28292 28293 28294 28295 28296 28297 28298 28299 28300 28301 28302 28303 28304 28305 28306 28307 28308 28309 28310 28311 28312 28313 28314 28315 28316 28317 28318 28319 28320 28321 28322 28323 28324 28325 28326 28327 28328 28329 28330 28331 28332 28333 28334 28335 28336 28337 28338 28339 28340 28341 28342 28343 28344 28345 28346 28347 28348 28349 28350 28351 28352 28353 28354 28355 28356 28357 28358 28359 28360 28361 28362 28363 28364 28365 28366 28367 28368 28369 28370 28371 28372 28373 28374 28375 28376 28377 28378 28379 28380 28381 28382 28383 28384 28385 28386 28387 28388 28389 28390 28391 28392 28393 28394 28395 28396 28397 28398 28399 28400 28401 28402 28403 28404 28405 28406 28407 28408 28409 28410 28411 28412 28413 28414 28415 28416 28417 28418 28419 28420 28421 28422 28423 28424 28425 28426 28427 28428 28429 28430 28431 28432 28433 28434 28435 28436 28437 28438 28439 28440 28441 28442 28443 28444 28445 28446 28447 28448 28449 28450 28451 28452 28453 28454 28455 28456 28457 28458 28459 28460 28461 28462 28463 28464 28465 28466 28467 28468 28469 28470 28471 28472 28473 28474 28475 28476 28477 28478 28479 28480 28481 28482 28483 28484 28485 28486 28487 28488 28489 28490 28491 28492 28493 28494 28495 28496 28497 28498 28499 28500 28501 28502 28503 28504 28505 28506 28507 28508 28509 28510 28511 28512 28513 28514 28515 28516 28517 28518 28519 28520 28521 28522 28523 28524 28525 28526 28527 28528 28529 28530 28531 28532 28533 28534 28535 28536 28537 28538 28539 28540 28541 28542 28543 28544 28545 28546 28547 28548 28549 28550 28551 28552 28553 28554 28555 28556 28557 28558 28559 28560 28561 28562 28563 28564 28565 28566 28567 28568 28569 28570 28571 28572 28573 28574 28575 28576 28577 28578 28579 28580 28581 28582 28583 28584 28585 28586 28587 28588 28589 28590 28591 28592 28593 28594 28595 28596 28597 28598 28599 28600 28601 28602 28603 28604 28605 28606 28607 28608 28609 28610 28611 28612 28613 28614 28615 28616 28617 28618 28619 28620 28621 28622 28623 28624 28625 28626 28627 28628 28629 28630 28631 28632 28633 28634 28635 28636 28637 28638 28639 28640 28641 28642 28643 28644 28645 28646 28647 28648 28649 28650 28651 28652 28653 28654 28655 28656 28657 28658 28659 28660 28661 28662 28663 28664 28665 28666 28667 28668 28669 28670 28671 28672 28673 28674 28675 28676 28677 28678 28679 28680 28681 28682 28683 28684 28685 28686 28687 28688 28689 28690 28691 28692 28693 28694 28695 28696 28697 28698 28699 28700 28701 28702 28703 28704 28705 28706 28707 28708 28709 28710 28711 28712 28713 28714 28715 28716 28717 28718 28719 28720 28721 28722 28723 28724 28725 28726 28727 28728 28729 28730 28731 28732 28733 28734 28735 28736 28737 28738 28739 28740 28741 28742 28743 28744 28745 28746 28747 28748 28749 28750 28751 28752 28753 28754 28755 28756 28757 28758 28759 28760 28761 28762 28763 28764 28765 28766 28767 28768 28769 28770 28771 28772 28773 28774 28775 28776 28777 28778 28779 28780 28781 28782 28783 28784 28785 28786 28787 28788 28789 28790 28791 28792 28793 28794 28795 28796 28797 28798 28799 28800 28801 28802 28803 28804 28805 28806 28807 28808 28809 28810 28811 28812 28813 28814 28815 28816 28817 28818 28819 28820 28821 28822 28823 28824 28825 28826 28827 28828 28829 28830 28831 28832 28833 28834 28835 28836 28837 28838 28839 28840 28841 28842 28843 28844 28845 28846 28847 28848 28849 28850 28851 28852 28853 28854 28855 28856 28857 28858 28859 28860 28861 28862 28863 28864 28865 28866 28867 28868 28869 28870 28871 28872 28873 28874 28875 28876 28877 28878 28879 28880 28881 28882 28883 28884 28885 28886 28887 28888 28889 28890 28891 28892 28893 28894 28895 28896 28897 28898 28899 28900 28901 28902 28903 28904 28905 28906 28907 28908 28909 28910 28911 28912 28913 28914 28915 28916 28917 28918 28919 28920 28921 28922 28923 28924 28925 28926 28927 28928 28929 28930 28931 28932 28933 28934 28935 28936 28937 28938 28939 28940 28941 28942 28943 28944 28945 28946 28947 28948 28949 28950 28951 28952 28953 28954 28955 28956 28957 28958 28959 28960 28961 28962 28963 28964 28965 28966 28967 28968 28969 28970 28971 28972 28973 28974 28975 28976 28977 28978 28979 28980 28981 28982 28983 28984 28985 28986 28987 28988 28989 28990 28991 28992 28993 28994 28995 28996 28997 28998 28999 29000 29001 29002 29003 29004 29005 29006 29007 29008 29009 29010 29011 29012 29013 29014 29015 29016 29017 29018 29019 29020 29021 29022 29023 29024 29025 29026 29027 29028 29029 29030 29031 29032 29033 29034 29035 29036 29037 29038 29039 29040 29041 29042 29043 29044 29045 29046 29047 29048 29049 29050 29051 29052 29053 29054 29055 29056 29057 29058 29059 29060 29061 29062 29063 29064 29065 29066 29067 29068 29069 29070 29071 29072 29073 29074 29075 29076 29077 29078 29079 29080 29081 29082 29083 29084 29085 29086 29087 29088 29089 29090 29091 29092 29093 29094 29095 29096 29097 29098 29099 29100 29101 29102 29103 29104 29105 29106 29107 29108 29109 29110 29111 29112 29113 29114 29115 29116 29117 29118 29119 29120 29121 29122 29123 29124 29125 29126 29127 29128 29129 29130 29131 29132 29133 29134 29135 29136 29137 29138 29139 29140 29141 29142 29143 29144 29145 29146 29147 29148 29149 29150 29151 29152 29153 29154 29155 29156 29157 29158 29159 29160 29161 29162 29163 29164 29165 29166 29167 29168 29169 29170 29171 29172 29173 29174 29175 29176 29177 29178 29179 29180 29181 29182 29183 29184 29185 29186 29187 29188 29189 29190 29191 29192 29193 29194 29195 29196 29197 29198 29199 29200 29201 29202 29203 29204 29205 29206 29207 29208 29209 29210 29211 29212 29213 29214 29215 29216 29217 29218 29219 29220 29221 29222 29223 29224 29225 29226 29227 29228 29229 29230 29231 29232 29233 29234 29235 29236 29237 29238 29239 29240 29241 29242 29243 29244 29245 29246 29247 29248 29249 29250 29251 29252 29253 29254 29255 29256 29257 29258 29259 29260 29261 29262 29263 29264 29265 29266 29267 29268 29269 29270 29271 29272 29273 29274 29275 29276 29277 29278 29279 29280 29281 29282 29283 29284 29285 29286 29287 29288 29289 29290 29291 29292 29293 29294 29295 29296 29297 29298 29299 29300 29301 29302 29303 29304 29305 29306 29307 29308 29309 29310 29311 29312 29313 29314 29315 29316 29317 29318 29319 29320 29321 29322 29323 29324 29325 29326 29327 29328 29329 29330 29331 29332 29333 29334 29335 29336 29337 29338 29339 29340 29341 29342 29343 29344 29345 29346 29347 29348 29349 29350 29351 29352 29353 29354 29355 29356 29357 29358 29359 29360 29361 29362 29363 29364 29365 29366 29367 29368 29369 29370 29371 29372 29373 29374 29375 29376 29377 29378 29379 29380 29381 29382 29383 29384 29385 29386 29387 29388 29389 29390 29391 29392 29393 29394 29395 29396 29397 29398 29399 29400 29401 29402 29403 29404 29405 29406 29407 29408 29409 29410 29411 29412 29413 29414 29415 29416 29417 29418 29419 29420 29421 29422 29423 29424 29425 29426 29427 29428 29429 29430 29431 29432 29433 29434 29435 29436 29437 29438 29439 29440 29441 29442 29443 29444 29445 29446 29447 29448 29449 29450 29451 29452 29453 29454 29455 29456 29457 29458 29459 29460 29461 29462 29463 29464 29465 29466 29467 29468 29469 29470 29471 29472 29473 29474 29475 29476 29477 29478 29479 29480 29481 29482 29483 29484 29485 29486 29487 29488 29489 29490 29491 29492 29493 29494 29495 29496 29497 29498 29499 29500 29501 29502 29503 29504 29505 29506 29507 29508 29509 29510 29511 29512 29513 29514 29515 29516 29517 29518 29519 29520 29521 29522 29523 29524 29525 29526 29527 29528 29529 29530 29531 29532 29533 29534 29535 29536 29537 29538 29539 29540 29541 29542 29543 29544 29545 29546 29547 29548 29549 29550 29551 29552 29553 29554 29555 29556 29557 29558 29559 29560 29561 29562 29563 29564 29565 29566 29567 29568 29569 29570 29571 29572 29573 29574 29575 29576 29577 29578 29579 29580 29581 29582 29583 29584 29585 29586 29587 29588 29589 29590 29591 29592 29593 29594 29595 29596 29597 29598 29599 29600 29601 29602 29603 29604 29605 29606 29607 29608 29609 29610 29611 29612 29613 29614 29615 29616 29617 29618 29619 29620 29621 29622 29623 29624 29625 29626 29627 29628 29629 29630 29631 29632 29633 29634 29635 29636 29637 29638 29639 29640 29641 29642 29643 29644 29645 29646 29647 29648 29649 29650 29651 29652 29653 29654 29655 29656 29657 29658 29659 29660 29661 29662 29663 29664 29665 29666 29667 29668 29669 29670 29671 29672 29673 29674 29675 29676 29677 29678 29679 29680 29681 29682 29683 29684 29685 29686 29687 29688 29689 29690 29691 29692 29693 29694 29695 29696 29697 29698 29699 29700 29701 29702 29703 29704 29705 29706 29707 29708 29709 29710 29711 29712 29713 29714 29715 29716 29717 29718 29719 29720 29721 29722 29723 29724 29725 29726 29727 29728 29729 29730 29731 29732 29733 29734 29735 29736 29737 29738 29739 29740 29741 29742 29743 29744 29745 29746 29747 29748 29749 29750 29751 29752 29753 29754 29755 29756 29757 29758 29759 29760 29761 29762 29763 29764 29765 29766 29767 29768 29769 29770 29771 29772 29773 29774 29775 29776 29777 29778 29779 29780 29781 29782 29783 29784 29785 29786 29787 29788 29789 29790 29791 29792 29793 29794 29795 29796 29797 29798 29799 29800 29801 29802 29803 29804 29805 29806 29807 29808 29809 29810 29811 29812 29813 29814 29815 29816 29817 29818 29819 29820 29821 29822 29823 29824 29825 29826 29827 29828 29829 29830 29831 29832 29833 29834 29835 29836 29837 29838 29839 29840 29841 29842 29843 29844 29845 29846 29847 29848 29849 29850 29851 29852 29853 29854 29855 29856 29857 29858 29859 29860 29861 29862 29863 29864 29865 29866 29867 29868 29869 29870 29871 29872 29873 29874 29875 29876 29877 29878 29879 29880 29881 29882 29883 29884 29885 29886 29887 29888 29889 29890 29891 29892 29893 29894 29895 29896 29897 29898 29899 29900 29901 29902 29903 29904 29905 29906 29907 29908 29909 29910 29911 29912 29913 29914 29915 29916 29917 29918 29919 29920 29921 29922 29923 29924 29925 29926 29927 29928 29929 29930 29931 29932 29933 29934 29935 29936 29937 29938 29939 29940 29941 29942 29943 29944 29945 29946 29947 29948 29949 29950 29951 29952 29953 29954 29955 29956 29957 29958 29959 29960 29961 29962 29963 29964 29965 29966 29967 29968 29969 29970 29971 29972 29973 29974 29975 29976 29977 29978 29979 29980 29981 29982 29983 29984 29985 29986 29987 29988 29989 29990 29991 29992 29993 29994 29995 29996 29997 29998 29999 30000 30001 30002 30003 30004 30005 30006 30007 30008 30009 30010 30011 30012 30013 30014 30015 30016 30017 30018 30019 30020 30021 30022 30023 30024 30025 30026 30027 30028 30029 30030 30031 30032 30033 30034 30035 30036 30037 30038 30039 30040 30041 30042 30043 30044 30045 30046 30047 30048 30049 30050 30051 30052 30053 30054 30055 30056 30057 30058 30059 30060 30061 30062 30063 30064 30065 30066 30067 30068 30069 30070 30071 30072 30073 30074 30075 30076 30077 30078 30079 30080 30081 30082 30083 30084 30085 30086 30087 30088 30089 30090 30091 30092 30093 30094 30095 30096 30097 30098 30099 30100 30101 30102 30103 30104 30105 30106 30107 30108 30109 30110 30111 30112 30113 30114 30115 30116 30117 30118 30119 30120 30121 30122 30123 30124 30125 30126 30127 30128 30129 30130 30131 30132 30133 30134 30135 30136 30137 30138 30139 30140 30141 30142 30143 30144 30145 30146 30147 30148 30149 30150 30151 30152 30153 30154 30155 30156 30157 30158 30159 30160 30161 30162 30163 30164 30165 30166 30167 30168 30169 30170 30171 30172 30173 30174 30175 30176 30177 30178 30179 30180 30181 30182 30183 30184 30185 30186 30187 30188 30189 30190 30191 30192 30193 30194 30195 30196 30197 30198 30199 30200 30201 30202 30203 30204 30205 30206 30207 30208 30209 30210 30211 30212 30213 30214 30215 30216 30217 30218 30219 30220 30221 30222 30223 30224 30225 30226 30227 30228 30229 30230 30231 30232 30233 30234 30235 30236 30237 30238 30239 30240 30241 30242 30243 30244 30245 30246 30247 30248 30249 30250 30251 30252 30253 30254 30255 30256 30257 30258 30259 30260 30261 30262 30263 30264 30265 30266 30267 30268 30269 30270 30271 30272 30273 30274 30275 30276 30277 30278 30279 30280 30281 30282 30283 30284 30285 30286 30287 30288 30289 30290 30291 30292 30293 30294 30295 30296 30297 30298 30299 30300 30301 30302 30303 30304 30305 30306 30307 30308 30309 30310 30311 30312 30313 30314 30315 30316 30317 30318 30319 30320 30321 30322 30323 30324 30325 30326 30327 30328 30329 30330 30331 30332 30333 30334 30335 30336 30337 30338 30339 30340 30341 30342 30343 30344 30345 30346 30347 30348 30349 30350 30351 30352 30353 30354 30355 30356 30357 30358 30359 30360 30361 30362 30363 30364 30365 30366 30367 30368 30369 30370 30371 30372 30373 30374 30375 30376 30377 30378 30379 30380 30381 30382 30383 30384 30385 30386 30387 30388 30389 30390 30391 30392 30393 30394 30395 30396 30397 30398 30399 30400 30401 30402 30403 30404 30405 30406 30407 30408 30409 30410 30411 30412 30413 30414 30415 30416 30417 30418 30419 30420 30421 30422 30423 30424 30425 30426 30427 30428 30429 30430 30431 30432 30433 30434 30435 30436 30437 30438 30439 30440 30441 30442 30443 30444 30445 30446 30447 30448 30449 30450 30451 30452 30453 30454 30455 30456 30457 30458 30459 30460 30461 30462 30463 30464 30465 30466 30467 30468 30469 30470 30471 30472 30473 30474 30475 30476 30477 30478 30479 30480 30481 30482 30483 30484 30485 30486 30487 30488 30489 30490 30491 30492 30493 30494 30495 30496 30497 30498 30499 30500 30501 30502 30503 30504 30505 30506 30507 30508 30509 30510 30511 30512 30513 30514 30515 30516 30517 30518 30519 30520 30521 30522 30523 30524 30525 30526 30527 30528 30529 30530 30531 30532 30533 30534 30535 30536 30537 30538 30539 30540 30541 30542 30543 30544 30545 30546 30547 30548 30549 30550 30551 30552 30553 30554 30555 30556 30557 30558 30559 30560 30561 30562 30563 30564 30565 30566 30567 30568 30569 30570 30571 30572 30573 30574 30575 30576 30577 30578 30579 30580 30581 30582 30583 30584 30585 30586 30587 30588 30589 30590 30591 30592 30593 30594 30595 30596 30597 30598 30599 30600 30601 30602 30603 30604 30605 30606 30607 30608 30609 30610 30611 30612 30613 30614 30615 30616 30617 30618 30619 30620 30621 30622 30623 30624 30625 30626 30627 30628 30629 30630 30631 30632 30633 30634 30635 30636 30637 30638 30639 30640 30641 30642 30643 30644 30645 30646 30647 30648 30649 30650 30651 30652 30653 30654 30655 30656 30657 30658 30659 30660 30661 30662 30663 30664 30665 30666 30667 30668 30669 30670 30671 30672 30673 30674 30675 30676 30677 30678 30679 30680 30681 30682 30683 30684 30685 30686 30687 30688 30689 30690 30691 30692 30693 30694 30695 30696 30697 30698 30699 30700 30701 30702 30703 30704 30705 30706 30707 30708 30709 30710 30711 30712 30713 30714 30715 30716 30717 30718 30719 30720 30721 30722 30723 30724 30725 30726 30727 30728 30729 30730 30731 30732 30733 30734 30735 30736 30737 30738 30739 30740 30741 30742 30743 30744 30745 30746 30747 30748 30749 30750 30751 30752 30753 30754 30755 30756 30757 30758 30759 30760 30761 30762 30763 30764 30765 30766 30767 30768 30769 30770 30771 30772 30773 30774 30775 30776 30777 30778 30779 30780 30781 30782 30783 30784 30785 30786 30787 30788 30789 30790 30791 30792 30793 30794 30795 30796 30797 30798 30799 30800 30801 30802 30803 30804 30805 30806 30807 30808 30809 30810 30811 30812 30813 30814 30815 30816 30817 30818 30819 30820 30821 30822 30823 30824 30825 30826 30827 30828 30829 30830 30831 30832 30833 30834 30835 30836 30837 30838 30839 30840 30841 30842 30843 30844 30845 30846 30847 30848 30849 30850 30851 30852 30853 30854 30855 30856 30857 30858 30859 30860 30861 30862 30863 30864 30865 30866 30867 30868 30869 30870 30871 30872 30873 30874 30875 30876 30877 30878 30879 30880 30881 30882 30883 30884 30885 30886 30887 30888 30889 30890 30891 30892 30893 30894 30895 30896 30897 30898 30899 30900 30901 30902 30903 30904 30905 30906 30907 30908 30909 30910 30911 30912 30913 30914 30915 30916 30917 30918 30919 30920 30921 30922 30923 30924 30925 30926 30927 30928 30929 30930 30931 30932 30933 30934 30935 30936 30937 30938 30939 30940 30941 30942 30943 30944 30945 30946 30947 30948 30949 30950 30951 30952 30953 30954 30955 30956 30957 30958 30959 30960 30961 30962 30963 30964 30965 30966 30967 30968 30969 30970 30971 30972 30973 30974 30975 30976 30977 30978 30979 30980 30981 30982 30983 30984 30985 30986 30987 30988 30989 30990 30991 30992 30993 30994 30995 30996 30997 30998 30999 31000 31001 31002 31003 31004 31005 31006 31007 31008 31009 31010 31011 31012 31013 31014 31015 31016 31017 31018 31019 31020 31021 31022 31023 31024 31025 31026 31027 31028 31029 31030 31031 31032 31033 31034 31035 31036 31037 31038 31039 31040 31041 31042 31043 31044 31045 31046 31047 31048 31049 31050 31051 31052 31053 31054 31055 31056 31057 31058 31059 31060 31061 31062 31063 31064 31065 31066 31067 31068 31069 31070 31071 31072 31073 31074 31075 31076 31077 31078 31079 31080 31081 31082 31083 31084 31085 31086 31087 31088 31089 31090 31091 31092 31093 31094 31095 31096 31097 31098 31099 31100 31101 31102 31103 31104 31105 31106 31107 31108 31109 31110 31111 31112 31113 31114 31115 31116 31117 31118 31119 31120 31121 31122 31123 31124 31125 31126 31127 31128 31129 31130 31131 31132 31133 31134 31135 31136 31137 31138 31139 31140 31141 31142 31143 31144 31145 31146 31147 31148 31149 31150 31151 31152 31153 31154 31155 31156 31157 31158 31159 31160 31161 31162 31163 31164 31165 31166 31167 31168 31169 31170 31171 31172 31173 31174 31175 31176 31177 31178 31179 31180 31181 31182 31183 31184 31185 31186 31187 31188 31189 31190 31191 31192 31193 31194 31195 31196 31197 31198 31199 31200 31201 31202 31203 31204 31205 31206 31207 31208 31209 31210 31211 31212 31213 31214 31215 31216 31217 31218 31219 31220 31221 31222 31223 31224 31225 31226 31227 31228 31229 31230 31231 31232 31233 31234 31235 31236 31237 31238 31239 31240 31241 31242 31243 31244 31245 31246 31247 31248 31249 31250 31251 31252 31253 31254 31255 31256 31257 31258 31259 31260 31261 31262 31263 31264 31265 31266 31267 31268 31269 31270 31271 31272 31273 31274 31275 31276 31277 31278 31279 31280 31281 31282 31283 31284 31285 31286 31287 31288 31289 31290 31291 31292 31293 31294 31295 31296 31297 31298 31299 31300 31301 31302 31303 31304 31305 31306 31307 31308 31309 31310 31311 31312 31313 31314 31315 31316 31317 31318 31319 31320 31321 31322 31323 31324 31325 31326 31327 31328 31329 31330 31331 31332 31333 31334 31335 31336 31337 31338 31339 31340 31341 31342 31343 31344 31345 31346 31347 31348 31349 31350 31351 31352 31353 31354 31355 31356 31357 31358 31359 31360 31361 31362 31363 31364 31365 31366 31367 31368 31369 31370 31371 31372 31373 31374 31375 31376 31377 31378 31379 31380 31381 31382 31383 31384 31385 31386 31387 31388 31389 31390 31391 31392 31393 31394 31395 31396 31397 31398 31399 31400 31401 31402 31403 31404 31405 31406 31407 31408 31409 31410 31411 31412 31413 31414 31415 31416 31417 31418 31419 31420 31421 31422 31423 31424 31425 31426 31427 31428 31429 31430 31431 31432 31433 31434 31435 31436 31437 31438 31439 31440 31441 31442 31443 31444 31445 31446 31447 31448 31449 31450 31451 31452 31453 31454 31455 31456 31457 31458 31459 31460 31461 31462 31463 31464 31465 31466 31467 31468 31469 31470 31471 31472 31473 31474 31475 31476 31477 31478 31479 31480 31481 31482 31483 31484 31485 31486 31487 31488 31489 31490 31491 31492 31493 31494 31495 31496 31497 31498 31499 31500 31501 31502 31503 31504 31505 31506 31507 31508 31509 31510 31511 31512 31513 31514 31515 31516 31517 31518 31519 31520 31521 31522 31523 31524 31525 31526 31527 31528 31529 31530 31531 31532 31533 31534 31535 31536 31537 31538 31539 31540 31541 31542 31543 31544 31545 31546 31547 31548 31549 31550 31551 31552 31553 31554 31555 31556 31557 31558 31559 31560 31561 31562 31563 31564 31565 31566 31567 31568 31569 31570 31571 31572 31573 31574 31575 31576 31577 31578 31579 31580 31581 31582 31583 31584 31585 31586 31587 31588 31589 31590 31591 31592 31593 31594 31595 31596 31597 31598 31599 31600 31601 31602 31603 31604 31605 31606 31607 31608 31609 31610 31611 31612 31613 31614 31615 31616 31617 31618 31619 31620 31621 31622 31623 31624 31625 31626 31627 31628 31629 31630 31631 31632 31633 31634 31635 31636 31637 31638 31639 31640 31641 31642 31643 31644 31645 31646 31647 31648 31649 31650 31651 31652 31653 31654 31655 31656 31657 31658 31659 31660 31661 31662 31663 31664 31665 31666 31667 31668 31669 31670 31671 31672 31673 31674 31675 31676 31677 31678 31679 31680 31681 31682 31683 31684 31685 31686 31687 31688 31689 31690 31691 31692 31693 31694 31695 31696 31697 31698 31699 31700 31701 31702 31703 31704 31705 31706 31707 31708 31709 31710 31711 31712 31713 31714 31715 31716 31717 31718 31719 31720 31721 31722 31723 31724 31725 31726 31727 31728 31729 31730 31731 31732 31733 31734 31735 31736 31737 31738 31739 31740 31741 31742 31743 31744 31745 31746 31747 31748 31749 31750 31751 31752 31753 31754 31755 31756 31757 31758 31759 31760 31761 31762 31763 31764 31765 31766 31767 31768 31769 31770 31771 31772 31773 31774 31775 31776 31777 31778 31779 31780 31781 31782 31783 31784 31785 31786 31787 31788 31789 31790 31791 31792 31793 31794 31795 31796 31797 31798 31799 31800 31801 31802 31803 31804 31805 31806 31807 31808 31809 31810 31811 31812 31813 31814 31815 31816 31817 31818 31819 31820 31821 31822 31823 31824 31825 31826 31827 31828 31829 31830 31831 31832 31833 31834 31835 31836 31837 31838 31839 31840 31841 31842 31843 31844 31845 31846 31847 31848 31849 31850 31851 31852 31853 31854 31855 31856 31857 31858 31859 31860 31861 31862 31863 31864 31865 31866 31867 31868 31869 31870 31871 31872 31873 31874 31875 31876 31877 31878 31879 31880 31881 31882 31883 31884 31885 31886 31887 31888 31889 31890 31891 31892 31893 31894 31895 31896 31897 
</DataArray>
<DataArray type="UInt32" Name="offsets" format="ascii">
3 6 9 12 15 17 20 23 26 29 32 35 38 40 43 46 49 52 54 57 60 62 65 68 71 74 76 79 82 85 88 90 93 96 99 102 105 108 111 114 117 120 123 126 129 131 134 137 139 142 145 148 151 154 156 159 162 165 168 171 174 177 179 182 185 188 191 193 196 199 202 205 208 211 214 217 220 222 225 228 230 233 236 238 241 244 247 250 252 255 258 261 264 267 270 273 275 277 279 282 285 287 290 293 296 299 302 304 307 310 313 316 319 322 325 328 331 334 337 340 343 345 348 351 354 356 359 362 365 368 371 374 376 379 382 385 388 391 394 397 400 403 406 409 412 415 418 421 424 427 430 433 436 439 442 445 448 451 453 456 459 462 464 467 470 472 475 478 481 484 487 490 493 496 499 502 505 507 510 513 516 519 522 525 528 531 533 536 539 542 545 548 551 554 557 559 562 565 568 571 574 577 580 583 586 588 591 594 597 600 603 606 609 612 615 618 621 624 627 630 633 636 639 642 645 648 651 654 657 659 662 665 668 670 673 675 678 680 683 686 688 691 694 697 699 702 704 707 709 712 714 716 719 721 724 727 729 732 734 737 740 743 745 748 750 752 755 758 760 763 766 769 771 774 776 778 780 783 785 788 791 794 796 799 801 803 805 808 811 813 815 818 821 824 827 829 832 834 837 840 842 845 848 851 853 856 858 860 862 865 868 871 873 876 878 880 882 884 887 890 893 895 897 900 903 905 907 909 912 914 917 920 923 926 928 931 934 937 940 943 946 949 951 954 957 960 963 966 969 971 973 976 979 982 984 987 990 993 995 998 1000 1003 1005 1007 1010 1013 1016 1019 1021 1024 1027 1029 1032 1035 1038 1041 1043 1046 1048 1051 1054 1057 1060 1063 1065 1067 1070 1073 1076 1079 1082 1085 1088 1091 1093 1096 1099 1102 1104 1107 1110 1112 1115 1117 1120 1123 1126 1129 1132 1135 1138 1141 1144 1147 1150 1152 1155 1157 1160 1162 1165 1168 1171 1173 1176 1178 1181 1183 1186 1189 1192 1195 1198 1201 1203 1206 1208 1211 1214 1217 1219 1222 1225 1228 1230 1233 1235 1237 1240 1243 1246 1249 1251 1254 1257 1260 1263 1265 1267 1270 1273 1275 1278 1280 1283 1285 1287 1290 1293 1296 1298 1301 1304 1307 1310 1312 1315 1318 1321 1324 1327 1330 1333 1336 1339 1342 1345 1347 1350 1353 1356 1359 1361 1364 1367 1370 1372 1375 1377 1379 1381 1384 1387 1390 1392 1394 1397 1399 1402 1405 1407 1410 1413 1416 1419 1421 1424 1427 1430 1433 1436 1439 1442 1445 1448 1451 1454 1456 1458 1461 1464 1466 1469 1472 1475 1477 1480 1483 1486 1489 1492 1495 1497 1500 1503 1506 1508 1511 1514 1517 1519 1522 1525 1528 1531 1534 1537 1540 1543 1546 1549 1552 1554 1557 1560 1563 1565 1568 1571 1574 1577 1580 1583 1586 1588 1591 1594 1597 1600 1603 1605 1608 1611 1614 1617 1620 1623 1626 1629 1632 1635 1638 1641 1644 1647 1650 1653 1656 1659 1662 1664 1667 1670 1673 1676 1678 1681 1684 1686 1689 1692 1695 1698 1701 1704 1707 1709 1712 1715 1718 1721 1724 1727 1730 1733 1735 1738 1740 1743 1746 1748 1751 1754 1757 1759 1762 1765 1767 1770 1773 1776 1778 1781 1783 1786 1789 1791 1794 1796 1799 1802 1805 1808 1811 1814 1817 1820 1823 1826 1829 1832 1835 1838 1841 1844 1847 1850 1853 1856 1859 1862 1864 1867 1869 1872 1874 1877 1880 1883 1886 1889 1892 1895 1898 1901 1904 1907 1910 1913 1916 1919 1921 1924 1927 1930 1933 1936 1939 1942 1945 1948 1950 1953 1956 1959 1962 1965 1968 1971 1974 1977 1980 1983 1986 1989 1992 1995 1998 2001 2004 2007 2010 2013 2016 2019 2022 2025 2028 2031 2034 2037 2039 2042 2045 2047 2050 2053 2056 2058 2060 2063 2065 2068 2071 2074 2077 2080 2082 2085 2088 2091 2094 2097 2099 2102 2105 2108 2111 2114 2117 2120 2123 2126 2129 2132 2135 2138 2141 2144 2147 2150 2153 2156 2159 2162 2165 2168 2171 2174 2177 2180 2183 2186 2189 2192 2195 2198 2201 2204 2207 2210 2213 2216 2219 2222 2225 2228 2231 2234 2237 2240 2243 2246 2248 2251 2254 2257 2260 2263 2266 2269 2272 2275 2278 2281 2284 2287 2290 2293 2295 2298 2301 2304 2307 2309 2312 2315 2318 2321 2324 2327 2330 2333 2336 2339 2342 2345 2348 2351 2354 2357 2360 2363 2366 2369 2372 2375 2378 2381 2384 2387 2390 2392 2395 2398 2400 2403 2405 2407 2409 2411 2414 2417 2419 2422 2425 2428 2431 2434 2437 2440 2443 2446 2449 2452 2455 2458 2461 2464 2467 2470 2472 2475 2478 2480 2483 2485 2488 2491 2494 2497 2499 2502 2504 2507 2510 2513 2516 2518 2521 2524 2527 2529 2532 2535 2538 2541 2544 2546 2549 2551 2554 2557 2559 2561 2564 2566 2569 2572 2575 2578 2581 2584 2587 2590 2593 2596 2599 2601 2604 2607 2610 2612 2615 2618 2621 2623 2626 2629 2631 2633 2635 2638 2641 2644 2647 2650 2653 2656 2659 2662 2665 2668 2670 2673 2676 2679 2682 2685 2688 2691 2694 2696 2698 2700 2703 2706 2709 2712 2715 2718 2721 2724 2726 2728 2731 2734 2737 2739 2742 2745 2747 2750 2753 2756 2759 2762 2765 2768 2771 2774 2777 2780 2782 2785 2788 2791 2794 2797 2800 2803 2806 2808 2811 2814 2817 2820 2823 2826 2829 2832 2835 2838 2840 2843 2845 2847 2849 2852 2855 2858 2861 2864 2867 2870 2872 2874 2877 2879 2882 2885 2888 2891 2894 2896 2899 2901 2903 2906 2909 2912 2914 2917 2919 2922 2925 2928 2931 2933 2936 2939 2942 2945 2948 2951 2954 2957 2960 2963 2966 2969 2972 2975 2978 2981 2984 2986 2989 2992 2995 2997 3000 3003 3006 3009 3012 3014 3017 3020 3023 3026 3029 3032 3034 3037 3039 3042 3045 3048 3051 3054 3057 3060 3063 3065 3068 3071 3074 3076 3079 3082 3085 3088 3091 3094 3097 3100 3103 3106 3109 3112 3115 3118 3121 3124 3127 3130 3133 3136 3139 3142 3145 3148 3151 3153 3155 3157 3160 3163 3166 3169 3171 3174 3177 3180 3183 3185 3188 3191 3194 3197 3200 3203 3206 3208 3211 3214 3217 3220 3223 3226 3229 3232 3234 3237 3240 3243 3246 3249 3252 3255 3258 3261 3264 3267 3270 3272 3275 3278 3281 3284 3287 3290 3292 3295 3298 3301 3304 3307 3310 3313 3316 3318 3321 3324 3327 3329 3332 3335 3338 3341 3344 3347 3350 3353 3356 3359 3362 3365 3367 3370 3373 3376 3379 3382 3385 3388 3391 3394 3397 3400 3403 3406 3409 3412 3415 3418 3421 3424 3427 3430 3433 3436 3439 3442 3445 3448 3451 3454 3457 3460 3463 3466 3469 3472 3475 3478 3481 3484 3487 3490 3493 3496 3499 3502 3505 3508 3510 3513 3516 3519 3522 3525 3528 3531 3534 3537 3540 3543 3546 3549 3552 3555 3558 3561 3564 3567 3570 3573 3576 3579 3582 3584 3587 3590 3593 3596 3599 3602 3605 3608 3611 3614 3616 3619 3622 3624 3627 3630 3633 3636 3639 3642 3645 3648 3651 3653 3656 3658 3661 3664 3667 3670 3672 3675 3678 3680 3683 3685 3688 3691 3694 3697 3700 3702 3705 3708 3711 3714 3717 3720 3723 3726 3728 3731 3734 3737 3740 3743 3746 3749 3752 3755 3758 3761 3764 3767 3770 3772 3775 3777 3779 3782 3785 3788 3791 3794 3796 3799 3802 3805 3808 3811 3814 3817 3820 3823 3826 3829 3832 3835 3838 3841 3843 3846 3849 3852 3855 3858 3861 3864 3867 3870 3873 3876 3879 3882 3885 3888 3891 3893 3896 3899 3902 3905 3908 3910 3912 3915 3918 3920 3923 3926 3929 3932 3935 3938 3941 3944 3947 3950 3952 3955 3958 3961 3964 3967 3970 3973 3976 3979 3981 3984 3986 3989 3992 3995 3998 4001 4003 4006 4009 4012 4015 4017 4020 4023 4026 4028 4031 4034 4037 4039 4042 4045 4047 4050 4053 4056 4059 4062 4065 4068 4071 4074 4077 4080 4083 4086 4089 4092 4095 4097 4100 4103 4106 4109 4112 4115 4118 4120 4123 4126 4129 4132 4135 4138 4141 4144 4147 4150 4153 4156 4159 4162 4165 4168 4171 4174 4177 4180 4183 4186 4189 4192 4195 4198 4201 4203 4206 4209 4212 4215 4217 4220 4223 4226 4228 4231 4234 4237 4240 4243 4246 4249 4252 4255 4257 4260 4262 4265 4268 4271 4274 4277 4280 4283 4286 4289 4292 4295 4298 4301 4304 4307 4310 4313 4316 4318 4320 4323 4326 4329 4331 4334 4337 4339 4342 4345 4347 4350 4353 4356 4358 4361 4364 4366 4369 4372 4375 4378 4381 4384 4387 4390 4393 4396 4399 4402 4405 4408 4411 4414 4417 4420 4423 4426 4428 4431 4433 4436 4439 4442 4445 4448 4451 4454 4457 4460 4463 4466 4468 4471 4473 4476 4479 4482 4484 4487 4490 4493 4496 4499 4501 4504 4507 4510 4513 4516 4519 4521 4524 4527 4530 4533 4536 4539 4542 4545 4548 4551 4554 4556 4559 4562 4565 4568 4571 4574 4577 4580 4582 4585 4588 4591 4593 4596 4599 4601 4604 4607 4610 4613 4616 4618 4621 4624 4627 4630 4633 4636 4639 4642 4645 4647 4650 4653 4655 4658 4660 4663 4665 4667 4669 4672 4674 4677 4680 4683 4686 4689 4692 4694 4697 4700 4703 4706 4709 4712 4714 4717 4720 4723 4726 4729 4732 4735 4737 4740 4743 4746 4749 4751 4754 4757 4760 4763 4766 4768 4771 4773 4776 4779 4782 4785 4788 4791 4794 4797 4800 4803 4805 4808 4811 4814 4817 4820 4823 4826 4828 4831 4834 4837 4840 4843 4846 4849 4851 4854 4856 4859 4862 4865 4868 4871 4874 4877 4880 4882 4885 4888 4891 4893 4895 4898 4901 4904 4907 4910 4912 4914 4917 4919 4922 4925 4927 4930 4933 4935 4938 4941 4944 4947 4950 4953 4956 4959 4961 4964 4967 4970 4973 4976 4978 4981 4984 4987 4990 4992 4995 4998 5000 5003 5006 5009 5012 5015 5018 5021 5024 5027 5030 5033 5036 5039 5042 5045 5048 5051 5054 5057 5060 5063 5066 5069 5072 5075 5078 5081 5084 5087 5090 5093 5096 5099 5102 5105 5108 5111 5114 5117 5120 5123 5125 5128 5131 5133 5136 5139 5142 5145 5148 5150 5153 5156 5159 5162 5164 5167 5170 5173 5176 5179 5182 5185 5188 5191 5194 5197 5200 5203 5206 5209 5212 5215 5218 5221 5224 5227 5230 5233 5236 5238 5241 5244 5247 5249 5252 5255 5258 5261 5264 5267 5269 5272 5275 5278 5281 5284 5287 5290 5293 5296 5299 5302 5304 5307 5309 5311 5314 5317 5319 5322 5325 5328 5331 5334 5337 5340 5343 5346 5349 5352 5354 5357 5360 5362 5365 5368 5371 5374 5377 5380 5383 5386 5389 5392 5395 5398 5401 5404 5407 5409 5412 5415 5418 5421 5424 5427 5430 5432 5435 5437 5440 5443 5446 5449 5451 5454 5456 5459 5462 5465 5468 5471 5474 5477 5480 5483 5485 5488 5491 5494 5497 5500 5503 5506 5509 5512 5515 5518 5521 5524 5527 5530 5533 5536 5538 5541 5544 5547 5550 5553 5556 5559 5562 5565 5568 5571 5574 5577 5580 5583 5586 5589 5592 5595 5598 5601 5604 5607 5610 5613 5615 5617 5620 5623 5626 5629 5632 5635 5638 5641 5644 5647 5650 5652 5655 5658 5661 5664 5666 5669 5672 5675 5678 5680 5683 5686 5689 5692 5695 5698 5701 5704 5706 5709 5712 5715 5718 5721 5724 5727 5730 5733 5735 5738 5741 5744 5747 5750 5753 5756 5759 5762 5765 5768 5771 5774 5777 5780 5783 5786 5789 5792 5795 5797 5800 5803 5806 5809 5812 5815 5818 5821 5824 5827 5830 5833 5836 5839 5841 5844 5846 5849 5852 5855 5858 5861 5864 5867 5870 5872 5875 5878 5880 5883 5886 5889 5892 5895 5898 5901 5904 5907 5910 5913 5916 5919 5922 5925 5928 5931 5934 5937 5940 5943 5946 5949 5952 5955 5958 5961 5964 5967 5970 5973 5976 5979 5982 5985 5988 5990 5993 5996 5998 6001 6004 6007 6010 6012 6015 6017 6020 6023 6025 6028 6030 6033 6036 6039 6042 6045 6047 6050 6053 6056 6059 6062 6065 6068 6071 6074 6077 6080 6083 6085 6088 6091 6094 6096 6099 6102 6105 6108 6111 6114 6117 6120 6123 6125 6128 6131 6134 6137 6139 6141 6144 6147 6150 6153 6156 6159 6162 6165 6167 6170 6173 6176 6179 6182 6184 6187 6190 6193 6195 6198 6201 6204 6206 6209 6212 6215 6218 6220 6223 6226 6229 6232 6235 6238 6241 6244 6247 6250 6253 6256 6259 6262 6264 6267 6270 6273 6276 6279 6282 6284 6287 6289 6291 6294 6296 6299 6301 6304 6307 6310 6313 6315 6318 6321 6324 6327 6329 6332 6335 6338 6341 6344 6347 6350 6353 6356 6358 6361 6364 6367 6370 6373 6376 6379 6382 6385 6388 6391 6394 6397 6400 6402 6405 6408 6411 6413 6416 6419 6422 6424 6427 6429 6432 6435 6438 6441 6444 6447 6450 6453 6456 6459 6462 6465 6468 6471 6474 6477 6479 6482 6485 6488 6491 6494 6497 6499 6502 6505 6508 6511 6514 6517 6520 6523 6526 6529 6532 6535 6538 6541 6544 6547 6550 6553 6555 6558 6561 6564 6567 6570 6573 6576 6579 6582 6585 6588 6591 6594 6597 6600 6603 6606 6609 6612 6615 6618 6621 6624 6627 6630 6633 6636 6639 6642 6645 6648 6651 6654 6657 6659 6662 6665 6668 6671 6673 6676 6679 6682 6685 6688 6691 6694 6696 6699 6702 6705 6708 6711 6714 6717 6720 6723 6725 6728 6731 6733 6736 6739 6742 6745 6748 6750 6753 6756 6759 6761 6764 6767 6769 6772 6775 6778 6781 6784 6787 6790 6793 6796 6799 6802 6805 6808 6811 6814 6817 6820 6823 6826 6829 6831 6834 6837 6840 6843 6846 6849 6852 6855 6858 6861 6863 6865 6868 6870 6873 6876 6879 6882 6885 6887 6890 6893 6896 6899 6901 6904 6907 6910 6913 6916 6918 6921 6923 6926 6929 6931 6934 6937 6940 6943 6946 6949 6952 6955 6957 6960 6963 6966 6969 6972 6975 6977 6980 6983 6986 6989 6992 6995 6997 7000 7003 7006 7009 7011 7014 7017 7019 7022 7024 7027 7030 7032 7035 7038 7041 7044 7047 7050 7052 7055 7058 7061 7064 7066 7069 7072 7075 7078 7081 7084 7087 7090 7092 7094 7097 7100 7103 7106 7109 7112 7115 7118 7120 7123 7126 7129 7132 7135 7138 7140 7143 7146 7149 7152 7155 7158 7161 7163 7166 7169 7172 7174 7177 7180 7183 7186 7189 7192 7195 7198 7201 7204 7207 7210 7212 7215 7218 7221 7224 7226 7229 7232 7234 7237 7240 7243 7246 7248 7251 7254 7257 7259 7261 7264 7267 7270 7272 7275 7278 7281 7283 7286 7289 7292 7295 7298 7301 7304 7307 7310 7312 7315 7318 7321 7323 7326 7329 7332 7335 7338 7341 7344 7347 7350 7353 7356 7359 7361 7364 7366 7369 7372 7374 7377 7380 7382 7385 7388 7391 7394 7397 7400 7403 7405 7408 7411 7414 7417 7420 7422 7425 7427 7430 7433 7436 7438 7440 7443 7445 7447 7450 7452 7455 7458 7461 7464 7467 7470 7472 7475 7477 7480 7483 7486 7489 7492 7495 7498 7501 7504 7507 7510 7513 7516 7518 7521 7524 7526 7529 7531 7534 7537 7539 7542 7545 7548 7550 7552 7555 7558 7560 7563 7566 7569 7572 7575 7578 7581 7584 7587 7590 7593 7596 7599 7602 7605 7608 7611 7614 7617 7620 7623 7626 7629 7631 7633 7636 7638 7641 7643 7646 7649 7651 7653 7656 7659 7661 7664 7667 7669 7672 7675 7677 7680 7682 7685 7688 7691 7694 7696 7699 7702 7705 7708 7710 7713 7715 7717 7720 7722 7725 7728 7730 7732 7735 7738 7741 7743 7746 7749 7752 7755 7757 7759 7762 7765 7768 7771 7774 7776 7779 7782 7785 7788 7791 7794 7797 7800 7803 7806 7809 7811 7814 7816 7819 7821 7824 7827 7829 7832 7834 7837 7840 7843 7846 7849 7852 7855 7858 7860 7863 7866 7868 7871 7874 7877 7880 7882 7885 7888 7891 7894 7897 7900 7903 7906 7909 7912 7915 7918 7920 7923 7926 7929 7932 7935 7938 7941 7944 7947 7950 7953 7955 7958 7961 7964 7967 7970 7973 7975 7978 7980 7983 7986 7988 7991 7994 7997 8000 8003 8006 8009 8012 8015 8018 8021 8024 8027 8030 8033 8036 8039 8041 8043 8046 8049 8052 8054 8057 8060 8062 8065 8068 8071 8074 8077 8080 8083 8086 8089 8092 8095 8098 8101 8104 8107 8110 8113 8116 8119 8122 8125 8128 8131 8134 8137 8139 8141 8144 8147 8150 8153 8156 8159 8162 8165 8168 8171 8174 8176 8179 8182 8185 8188 8191 8194 8197 8200 8203 8206 8209 8212 8215 8218 8221 8224 8227 8230 8233 8236 8239 8242 8245 8248 8251 8254 8257 8260 8263 8266 8269 8272 8275 8277 8280 8283 8286 8289 8292 8294 8297 8300 8302 8305 8308 8310 8312 8315 8318 8321 8324 8327 8330 8333 8336 8339 8342 8345 8348 8351 8353 8356 8359 8361 8364 8367 8370 8373 8376 8379 8381 8384 8387 8389 8392 8395 8398 8401 8404 8407 8410 8413 8416 8419 8422 8425 8428 8430 8433 8436 8439 8442 8445 8448 8451 8453 8456 8459 8462 8465 8468 8471 8474 8477 8480 8483 8486 8489 8491 8494 8497 8499 8502 8505 8508 8511 8514 8517 8520 8523 8526 8529 8532 8535 8538 8541 8544 8547 8550 8553 8556 8559 8561 8564 8567 8569 8572 8574 8577 8580 8583 8585 8588 8591 8593 8596 8598 8601 8604 8607 8609 8612 8615 8618 8621 8623 8626 8629 8632 8635 8638 8641 8644 8646 8649 8652 8655 8657 8660 8663 8666 8669 8672 8675 8678 8681 8684 8687 8690 8693 8695 8698 8701 8704 8707 8710 8713 8716 8719 8721 8724 8727 8730 8733 8736 8739 8742 8745 8748 8751 8754 8756 8759 8762 8765 8768 8771 8774 8777 8780 8783 8786 8789 8792 8795 8798 8801 8804 8807 8810 8813 8815 8817 8820 8823 8826 8828 8831 8834 8837 8840 8843 8846 8849 8852 8855 8858 8861 8864 8866 8869 8872 8875 8878 8881 8884 8887 8890 8893 8895 8898 8901 8904 8907 8910 8913 8916 8919 8922 8925 8928 8931 8934 8937 8940 8943 8945 8948 8950 8953 8956 8959 8962 8965 8967 8970 8973 8976 8979 8981 8984 8987 8990 8992 8995 8998 9001 9003 9006 9009 9012 9015 9018 9021 9024 9027 9030 9032 9035 9038 9041 9043 9046 9049 9051 9054 9057 9060 9063 9066 9069 9071 9074 9077 9080 9083 9086 9089 9092 9095 9097 9100 9103 9106 9108 9111 9114 9117 9120 9123 9126 9129 9132 9135 9138 9141 9144 9147 9150 9153 9156 9159 9162 9165 9168 9171 9174 9177 9180 9183 9186 9189 9191 9194 9197 9200 9203 9206 9209 9212 9214 9217 9220 9223 9226 9229 9232 9235 9238 9241 9244 9247 9250 9253 9256 9259 9262 9265 9268 9271 9274 9277 9280 9283 9286 9289 9291 9294 9296 9299 9302 9305 9308 9311 9314 9316 9319 9322 9325 9327 9330 9333 9335 9338 9341 9344 9347 9350 9353 9356 9359 9362 9365 9368 9371 9373 9376 9379 9382 9385 9388 9390 9393 9396 9399 9402 9405 9408 9411 9414 9417 9420 9423 9426 9429 9431 9434 9437 9440 9442 9445 9448 9451 9454 9457 9460 9463 9466 9469 9472 9475 9478 9480 9482 9485 9488 9491 9494 9496 9499 9502 9505 9508 9511 9514 9517 9520 9523 9525 9527 9530 9533 9536 9539 9542 9544 9547 9550 9553 9556 9559 9561 9564 9567 9570 9573 9576 9578 9581 9583 9586 9589 9592 9595 9597 9600 9602 9605 9607 9609 9612 9615 9618 9621 9624 9627 9630 9632 9634 9637 9640 9643 9646 9649 9652 9654 9656 9658 9661 9663 9665 9668 9671 9674 9676 9679 9682 9685 9688 9691 9693 9695 9697 9700 9702 9705 9708 9711 9713 9716 9718 9720 9723 9726 9729 9732 9735 9738 9741 9743 9745 9748 9751 9753 9755 9757 9760 9763 9766 9769 9772 9775 9778 9781 9784 9787 9790 9793 9796 9799 9802 9805 9808 9811 9814 9817 9820 9823 9826 9829 9832 9835 9838 9841 9844 9847 9850 9853 9856 9859 9862 9865 9868 9871 9874 9877 9879 9882 9885 9888 9891 9894 9897 9900 9903 9906 9909 9911 9914 9917 9920 9923 9926 9929 9931 9934 9937 9939 9942 9945 9948 9951 9954 9957 9960 9963 9966 9969 9972 9975 9978 9980 9983 9985 9988 9991 9994 9997 9999 10002 10005 10008 10010 10013 10016 10018 10021 10024 10027 10029 10032 10035 10037 10040 10043 10046 10049 10052 10054 10057 10060 10063 10066 10069 10072 10075 10077 10080 10083 10086 10089 10092 10095 10098 10100 10103 10106 10108 10111 10114 10117 10120 10122 10125 10127 10130 10133 10136 10139 10142 10144 10147 10150 10153 10156 10158 10161 10164 10167 10170 10173 10176 10178 10180 10183 10186 10189 10192 10195 10197 10200 10203 10205 10208 10211 10214 10217 10220 10223 10226 10229 10232 10235 10237 10240 10243 10246 10249 10252 10255 10258 10261 10264 10267 10270 10273 10276 10279 10282 10285 10288 10291 10293 10296 10299 10302 10305 10308 10311 10313 10316 10319 10322 10325 10328 10331 10334 10336 10338 10341 10344 10347 10350 10352 10355 10358 10361 10364 10367 10370 10373 10375 10378 10381 10383 10386 10388 10390 10392 10395 10398 10401 10404 10407 10410 10412 10415 10418 10421 10424 10427 10429 10432 10435 10438 10441 10443 10446 10449 10452 10454 10457 10460 10463 10465 10468 10471 10474 10477 10480 10483 10486 10489 10492 10495 10498 10501 10504 10507 10510 10513 10516 10519 10522 10525 10528 10531 10534 10537 10540 10542 10545 10548 10551 10554 10557 10560 10563 10565 10568 10570 10573 10576 10579 10582 10585 10588 10590 10593 10596 10598 10601 10604 10607 10609 10612 10615 10617 10620 10623 10626 10629 10632 10634 10637 10640 10643 10645 10647 10650 10653 10656 10659 10662 10665 10668 10671 10674 10677 10680 10683 10685 10688 10691 10694 10697 10700 10703 10706 10709 10712 10714 10717 10720 10723 10726 10729 10731 10733 10736 10739 10742 10745 10748 10751 10754 10757 10760 10762 10765 10768 10771 10774 10777 10780 10783 10786 10788 10791 10794 10797 10800 10803 10806 10809 10812 10815 10818 10821 10824 10827 10830 10833 10836 10839 10842 10844 10847 10850 10853 10856 10858 10861 10863 10866 10868 10871 10874 10877 10880 10883 10886 10889 10892 10895 10898 10901 10904 10907 10910 10913 10916 10919 10921 10924 10927 10930 10933 10936 10938 10941 10944 10947 10949 10951 10954 10957 10960 10963 10966 10968 10971 10974 10977 10980 10982 10985 10988 10991 10994 10997 11000 11003 11006 11008 11011 11014 11017 11020 11023 11026 11029 11031 11034 11037 11040 11043 11046 11049 11052 11055 11058 11060 11063 11066 11069 11072 11075 11078 11081 11084 11087 11090 11093 11096 11099 11102 11105 11108 11111 11114 11116 11119 11122 11125 11128 11131 11134 11137 11140 11143 11146 11149 11152 11155 11157 11160 11163 11166 11169 11172 11175 11177 11180 11183 11185 11188 11191 11193 11196 11199 11202 11205 11208 11211 11214 11217 11220 11223 11226 11229 11232 11235 11238 11241 11244 11247 11250 11253 11256 11259 11262 11265 11268 11271 11273 11276 11278 11281 11283 11285 11288 11291 11294 11296 11299 11302 11305 11308 11311 11314 11317 11320 11323 11325 11327 11330 11332 11335 11338 11341 11344 11347 11350 11353 11356 11359 11362 11365 11368 11371 11374 11376 11379 11381 11383 11386 11388 11391 11394 11397 11400 11403 11406 11409 11412 11415 11417 11419 11422 11425 11428 11431 11434 11437 11440 11443 11446 11449 11452 11455 11458 11461 11464 11467 11470 11473 11476 11479 11482 11485 11487 11490 11493 11496 11499 11502 11504 11507 11510 11513 11516 11519 11521 11524 11527 11530 11532 11535 11538 11541 11544 11547 11550 11553 11556 11559 11561 11564 11567 11570 11573 11575 11578 11581 11584 11587 11590 11593 11595 11598 11601 11604 11607 11610 11613 11616 11618 11621 11624 11627 11630 11632 11635 11638 11641 11644 11647 11650 11653 11656 11659 11662 11664 11667 11670 11673 11676 11678 11681 11684 11687 11689 11692 11695 11698 11701 11704 11706 11709 11712 11715 11718 11721 11724 11727 11730 11733 11736 11739 11742 11745 11748 11750 11752 11755 11758 11760 11763 11766 11769 11772 11775 11778 11781 11783 11786 11789 11792 11795 11798 11801 11803 11806 11809 11812 11815 11818 11821 11824 11827 11830 11833 11836 11839 11842 11845 11848 11851 11854 11857 11860 11863 11866 11869 11872 11874 11877 11880 11883 11886 11889 11892 11895 11898 11900 11903 11906 11909 11912 11914 11917 11920 11923 11926 11929 11931 11934 11936 11939 11941 11944 11947 11950 11953 11956 11959 11962 11964 11967 11970 11973 11975 11978 11981 11984 11987 11990 11992 11995 11998 12001 12004 12007 12009 12012 12014 12017 12020 12022 12025 12027 12030 12033 12036 12039 12042 12044 12047 12050 12053 12055 12058 12061 12064 12067 12070 12073 12076 12079 12082 12085 12087 12090 12093 12096 12099 12102 12105 12108 12111 12114 12117 12120 12123 12126 12129 12132 12135 12138 12141 12144 12147 12150 12153 12155 12158 12161 12164 12167 12170 12173 12176 12179 12182 12185 12188 12191 12194 12197 12200 12203 12206 12209 12211 12214 12217 12220 12222 12225 12228 12231 12234 12237 12240 12242 12245 12248 12251 12253 12255 12258 12260 12263 12265 12267 12270 12272 12275 12278 12280 12283 12286 12288 12290 12293 12296 12299 12302 12305 12308 12311 12314 12316 12319 12321 12324 12327 12330 12333 12336 12339 12342 12345 12348 12351 12354 12357 12360 12363 12366 12369 12372 12375 12378 12381 12384 12387 12389 12392 12395 12398 12401 12404 12407 12410 12413 12415 12418 12421 12423 12426 12429 12431 12433 12436 12439 12441 12444 12447 12450 12453 12456 12459 12462 12465 12468 12471 12474 12477 12480 12483 12486 12489 12492 12495 12498 12501 12504 12507 12510 12513 12516 12519 12522 12525 12528 12531 12534 12537 12540 12543 12546 12549 12552 12555 12558 12560 12563 12565 12568 12571 12574 12577 12580 12583 12586 12589 12592 12595 12598 12601 12604 12607 12610 12613 12616 12619 12622 12625 12628 12631 12634 12637 12640 12643 12646 12649 12652 12655 12658 12661 12664 12667 12670 12673 12676 12679 12682 12685 12687 12690 12693 12695 12698 12701 12704 12707 12710 12712 12715 12717 12720 12723 12725 12728 12731 12734 12737 12740 12743 12745 12748 12751 12754 12757 12760 12763 12766 12769 12772 12775 12778 12780 12783 12786 12788 12790 12793 12795 12798 12801 12803 12806 12809 12812 12815 12817 12820 12823 12826 12829 12832 12835 12838 12841 12844 12846 12849 12851 12854 12857 12860 12863 12866 12869 12872 12874 12877 12879 12882 12885 12888 12891 12894 12897 12900 12903 12906 12908 12911 12913 12916 12919 12922 12925 12928 12931 12934 12937 12940 12943 12945 12948 12951 12954 12956 12959 12962 12964 12967 12970 12972 12975 12978 12981 12984 12986 12989 12992 12995 12997 13000 13003 13006 13009 13012 13015 13018 13021 13024 13027 13030 13033 13036 13039 13041 13044 13047 13050 13053 13056 13059 13061 13064 13066 13069 13071 13074 13077 13080 13082 13085 13088 13091 13094 13097 13100 13103 13106 13108 13111 13114 13117 13120 13123 13125 13128 13131 13133 13136 13139 13142 13145 13148 13151 13154 13157 13160 13162 13165 13168 13171 13173 13176 13179 13182 13185 13188 13191 13193 13196 13199 13202 13205 13208 13211 13214 13217 13220 13223 13226 13229 13232 13235 13238 13241 13244 13247 13250 13253 13256 13259 13262 13265 13268 13271 13274 13277 13280 13283 13286 13288 13291 13294 13297 13300 13303 13305 13308 13311 13313 13315 13318 13321 13324 13327 13329 13332 13335 13338 13341 13344 13346 13349 13352 13355 13358 13361 13364 13367 13370 13373 13376 13379 13382 13385 13388 13391 13394 13396 13399 13402 13405 13408 13411 13414 13417 13420 13422 13424 13427 13430 13433 13436 13439 13442 13444 13447 13450 13453 13456 13458 13461 13464 13467 13470 13473 13476 13479 13482 13485 13488 13491 13494 13497 13500 13503 13506 13509 13512 13515 13518 13521 13524 13527 13530 13532 13535 13538 13540 13543 13546 13549 13552 13555 13558 13561 13564 13567 13570 13573 13576 13579 13582 13585 13588 13591 13594 13597 13600 13603 13606 13609 13612 13615 13618 13621 13623 13626 13628 13631 13634 13637 13640 13643 13645 13648 13651 13654 13657 13660 13663 13666 13669 13672 13675 13678 13681 13684 13687 13690 13693 13696 13699 13702 13705 13707 13709 13712 13714 13717 13720 13723 13726 13729 13732 13735 13738 13741 13744 13747 13750 13753 13756 13759 13762 13764 13767 13770 13773 13775 13778 13781 13784 13787 13790 13793 13796 13799 13802 13805 13808 13811 13814 13816 13819 13822 13825 13828 13831 13834 13837 13840 13843 13846 13849 13852 13855 13858 13861 13864 13867 13870 13873 13876 13879 13882 13884 13887 13890 13893 13896 13899 13902 13905 13908 13911 13914 13917 13920 13923 13925 13928 13930 13933 13936 13938 13940 13943 13946 13949 13952 13955 13958 13961 13964 13967 13970 13973 13976 13979 13982 13985 13988 13991 13994 13997 14000 14002 14005 14008 14010 14013 14016 14019 14021 14024 14027 14030 14033 14036 14039 14041 14044 14047 14050 14052 14055 14058 14061 14064 14067 14070 14073 14076 14078 14081 14084 14086 14089 14092 14094 14097 14099 14102 14105 14108 14111 14113 14115 14118 14121 14123 14125 14128 14131 14133 14136 14139 14142 14145 14147 14150 14153 14155 14157 14160 14162 14165 14168 14171 14174 14177 14180 14183 14186 14189 14192 14195 14198 14201 14204 14207 14210 14213 14216 14219 14222 14224 14227 14230 14233 14236 14238 14241 14244 14247 14250 14252 14254 14257 14260 14263 14266 14269 14272 14275 14278 14281 14284 14287 14290 14292 14295 14298 14301 14303 14306 14309 14312 14315 14318 14321 14324 14326 14329 14332 14335 14337 14340 14343 14345 14347 14350 14353 14356 14358 14361 14364 14367 14369 14372 14375 14378 14381 14384 14387 14390 14393 14396 14399 14402 14405 14408 14411 14414 14417 14420 14423 14425 14428 14431 14434 14437 14440 14443 14446 14449 14452 14455 14458 14461 14464 14467 14470 14473 14476 14479 14481 14483 14486 14489 14492 14495 14498 14500 14502 14505 14507 14510 14513 14516 14519 14522 14525 14528 14531 14534 14536 14539 14542 14545 14547 14550 14553 14556 14559 14562 14565 14568 14571 14574 14577 14580 14583 14586 14589 14591 14594 14597 14600 14603 14606 14609 14612 14614 14617 14620 14622 14625 14628 14631 14634 14637 14640 14642 14645 14648 14651 14654 14656 14659 14662 14665 14668 14671 14674 14676 14679 14682 14685 14688 14691 14694 14697 14700 14702 14704 14707 14710 14713 14715 14717 14720 14723 14726 14729 14732 14734 14737 14740 14743 14746 14749 14752 14754 14757 14760 14763 14766 14768 14771 14774 14777 14780 14783 14785 14788 14791 14794 14797 14799 14802 14805 14808 14811 14814 14817 14820 14823 14826 14829 14832 14835 14838 14841 14844 14847 14850 14853 14856 14859 14862 14865 14868 14871 14874 14876 14879 14882 14885 14888 14890 14893 14895 14898 14900 14903 14906 14908 14911 14914 14916 14919 14922 14924 14927 14930 14933 14936 14939 14942 14944 14947 14950 14952 14955 14957 14959 14961 14964 14967 14969 14972 14974 14976 14979 14982 14985 14987 14990 14992 14995 14998 15001 15004 15007 15010 15012 15015 15018 15021 15023 15026 15029 15032 15035 15038 15041 15044 15046 15049 15052 15055 15057 15060 15062 15064 15067 15070 15073 15076 15079 15082 15085 15087 15090 15093 15096 15099 15102 15105 15108 15111 15113 15115 15118 15121 15124 15127 15129 15132 15135 15137 15140 15143 15146 15148 15151 15154 15157 15159 15161 15164 15167 15170 15173 15175 15178 15181 15184 15187 15190 15192 15194 15197 15200 15203 15206 15209 15212 15215 15218 15221 15224 15227 15230 15233 15236 15239 15242 15245 15248 15251 15254 15257 15260 15263 15266 15269 15272 15275 15278 15281 15284 15287 15289 15292 15295 15298 15300 15303 15306 15309 15312 15315 15318 15321 15324 15327 15330 15333 15336 15339 15342 15345 15347 15350 15352 15354 15357 15360 15362 15365 15368 15371 15374 15377 15380 15383 15386 15389 15392 15395 15398 15401 15404 15407 15410 15413 15416 15419 15422 15425 15428 15431 15433 15436 15439 15441 15443 15446 15449 15452 15455 15458 15461 15464 15466 15469 15472 15475 15477 15480 15483 15486 15489 15491 15493 15496 15499 15502 15505 15508 15511 15514 15516 15519 15522 15525 15528 15530 15533 15536 15539 15542 15544 15547 15550 15553 15556 15559 15562 15565 15568 15571 15574 15577 15580 15583 15586 15589 15592 15595 15598 15601 15603 15606 15609 15612 15615 15618 15621 15624 15627 15630 15633 15636 15639 15642 15645 15648 15651 15653 15656 15659 15662 15664 15667 15670 15673 15676 15679 15682 15685 15688 15691 15693 15696 15699 15702 15705 15708 15711 15714 15717 15720 15723 15726 15729 15732 15735 15738 15741 15744 15747 15750 15753 15756 15758 15761 15764 15767 15770 15773 15776 15779 15782 15785 15788 15791 15794 15797 15800 15803 15806 15809 15811 15814 15817 15820 15823 15826 15828 15831 15834 15837 15840 15843 15846 15849 15852 15855 15858 15861 15864 15867 15870 15873 15876 15879 15882 15885 15888 15891 15894 15897 15900 15903 15906 15909 15911 15914 15917 15919 15922 15925 15928 15930 15933 15936 15939 15942 15945 15948 15951 15954 15957 15960 15963 15966 15969 15972 15975 15977 15980 15982 15985 15988 15991 15994 15997 16000 16003 16006 16009 16011 16014 16017 16020 16023 16026 16029 16032 16035 16038 16040 16042 16045 16048 16051 16054 16057 16060 16063 16066 16069 16072 16075 16078 16081 16084 16087 16090 16093 16096 16099 16102 16105 16108 16111 16114 16117 16120 16123 16126 16129 16132 16135 16138 16141 16144 16147 16150 16153 16156 16159 16162 16165 16168 16171 16174 16177 16180 16183 16186 16189 16192 16195 16198 16201 16204 16207 16210 16213 16216 16219 16222 16225 16228 16231 16234 16237 16240 16243 16246 16249 16252 16255 16257 16260 16263 16266 16269 16272 16275 16277 16280 16283 16286 16289 16292 16295 16298 16301 16304 16306 16309 16311 16314 16317 16320 16323 16326 16329 16332 16335 16338 16341 16344 16347 16350 16353 16356 16359 16362 16365 16368 16371 16374 16377 16380 16383 16386 16389 16392 16395 16398 16401 16404 16407 16410 16413 16415 16418 16421 16424 16426 16428 16431 16434 16437 16440 16443 16446 16449 16452 16455 16458 16461 16464 16467 16470 16473 16476 16479 16482 16485 16488 16491 16494 16496 16498 16501 16504 16507 16510 16513 16516 16519 16522 16524 16527 16530 16533 16536 16539 16542 16544 16547 16550 16553 16556 16559 16561 16564 16567 16570 16573 16575 16578 16581 16584 16586 16589 16592 16595 16597 16600 16603 16605 16608 16611 16614 16617 16620 16623 16626 16629 16632 16635 16638 16641 16644 16646 16649 16652 16655 16658 16661 16664 16667 16670 16672 16675 16678 16681 16684 16687 16690 16693 16696 16699 16702 16705 16707 16710 16713 16716 16718 16721 16724 16727 16730 16732 16735 16738 16741 16744 16747 16750 16753 16756 16758 16761 16763 16766 16769 16771 16774 16777 16780 16783 16786 16788 16791 16794 16797 16800 16803 16806 16809 16812 16815 16818 16821 16824 16826 16829 16832 16835 16838 16841 16844 16847 16850 16853 16855 16858 16861 16864 16867 16870 16873 16875 16878 16881 16884 16887 16890 16893 16896 16898 16901 16904 16907 16910 16913 16915 16918 16921 16924 16927 16930 16933 16936 16939 16942 16945 16948 16951 16954 16957 16960 16963 16966 16969 16972 16975 16978 16981 16984 16987 16990 16993 16996 16999 17002 17005 17008 17011 17014 17017 17020 17023 17026 17029 17032 17035 17038 17041 17044 17047 17050 17053 17056 17058 17061 17063 17066 17069 17072 17075 17078 17081 17084 17087 17090 17093 17096 17099 17102 17105 17107 17110 17113 17116 17119 17122 17125 17128 17131 17134 17137 17140 17143 17146 17149 17152 17154 17157 17160 17162 17165 17167 17170 17173 17176 17179 17182 17184 17187 17190 17193 17196 17199 17202 17205 17208 17211 17214 17217 17220 17223 17226 17229 17232 17235 17238 17241 17244 17246 17249 17252 17255 17258 17261 17264 17267 17270 17273 17276 17279 17281 17284 17286 17289 17292 17294 17297 17299 17302 17305 17308 17311 17314 17317 17320 17322 17325 17327 17330 17333 17336 17339 17341 17344 17347 17350 17353 17355 17357 17360 17363 17365 17368 17371 17374 17377 17380 17383 17386 17389 17392 17395 17398 17401 17404 17407 17410 17413 17415 17418 17421 17424 17427 17430 17433 17436 17439 17442 17445 17448 17451 17454 17457 17459 17462 17464 17467 17470 17473 17476 17479 17482 17485 17487 17490 17492 17495 17498 17501 17504 17507 17510 17513 17516 17519 17521 17523 17526 17529 17532 17534 17537 17540 17543 17546 17548 17551 17553 17556 17559 17561 17564 17566 17568 17570 17573 17576 17578 17581 17584 17587 17589 17591 17593 17596 17599 17602 17605 17608 17611 17614 17617 17620 17623 17626 17628 17631 17634 17637 17640 17643 17646 17648 17651 17654 17657 17659 17662 17665 17668 17671 17674 17677 17680 17683 17685 17688 17691 17694 17696 17699 17702 17705 17708 17711 17714 17717 17720 17723 17726 17729 17732 17735 17738 17741 17744 17747 17750 17753 17756 17759 17762 17765 17768 17771 17774 17777 17780 17783 17786 17789 17792 17795 17798 17801 17804 17807 17810 17813 17816 17819 17822 17825 17828 17831 17834 17837 17840 17843 17846 17849 17852 17855 17858 17861 17864 17867 17870 17873 17876 17878 17881 17884 17887 17890 17893 17895 17898 17901 17904 17907 17909 17912 17915 17918 17920 17923 17926 17929 17932 17935 17938 17941 17944 17947 17950 17953 17956 17959 17962 17965 17968 17971 17974 17977 17980 17983 17986 17989 17992 17995 17998 18001 18004 18007 18010 18013 18016 18019 18022 18025 18028 18031 18034 18037 18040 18042 18045 18048 18050 18053 18056 18059 18062 18065 18068 18071 18073 18076 18079 18082 18085 18088 18091 18094 18097 18100 18103 18106 18108 18111 18114 18116 18119 18121 18124 18127 18130 18132 18135 18138 18141 18144 18147 18150 18153 18156 18158 18161 18164 18167 18170 18172 18175 18178 18181 18184 18186 18189 18191 18194 18197 18200 18203 18206 18209 18212 18215 18218 18221 18224 18227 18229 18232 18234 18237 18240 18243 18246 18249 18252 18255 18258 18261 18264 18267 18270 18273 18275 18278 18281 18284 18287 18290 18293 18296 18299 18302 18304 18307 18310 18313 18315 18318 18321 18324 18327 18330 18333 18336 18339 18342 18345 18348 18351 18354 18357 18360 18363 18366 18369 18372 18375 18378 18381 18384 18387 18390 18393 18396 18399 18402 18405 18408 18411 18414 18417 18420 18422 18425 18428 18430 18433 18436 18439 18442 18444 18447 18450 18453 18456 18459 18462 18465 18468 18471 18474 18477 18480 18483 18486 18489 18491 18494 18497 18500 18503 18506 18509 18512 18515 18518 18520 18523 18525 18528 18531 18534 18537 18540 18543 18546 18548 18551 18554 18557 18560 18563 18566 18569 18572 18575 18578 18581 18584 18587 18590 18592 18595 18598 18601 18604 18607 18610 18613 18616 18619 18622 18625 18627 18630 18633 18636 18639 18642 18645 18648 18651 18654 18657 18660 18663 18666 18669 18672 18675 18678 18681 18684 18687 18690 18693 18696 18698 18701 18703 18706 18709 18712 18715 18718 18721 18723 18726 18728 18731 18734 18737 18739 18742 18745 18748 18750 18753 18756 18759 18761 18764 18767 18769 18772 18775 18778 18781 18784 18787 18790 18792 18795 18798 18801 18804 18807 18810 18813 18815 18818 18821 18824 18827 18830 18833 18836 18839 18842 18845 18848 18851 18854 18856 18859 18862 18865 18868 18871 18874 18877 18880 18882 18885 18888 18891 18894 18897 18900 18903 18906 18909 18912 18915 18918 18921 18924 18927 18930 18933 18936 18939 18942 18944 18947 18950 18953 18956 18959 18962 18965 18968 18971 18974 18977 18980 18983 18986 18989 18992 18995 18998 19001 19004 19007 19010 19013 19016 19019 19022 19025 19028 19031 19034 19037 19040 19043 19046 19049 19052 19055 19058 19061 19064 19067 19070 19073 19076 19079 19082 19085 19088 19091 19094 19096 19099 19101 19104 19107 19110 19112 19115 19118 19120 19122 19125 19127 19130 19133 19136 19139 19142 19145 19148 19151 19154 19157 19160 19163 19166 19169 19172 19175 19178 19181 19184 19187 19190 19193 19196 19199 19202 19205 19208 19211 19214 19217 19220 19223 19226 19229 19232 19234 19237 19240 19243 19246 19248 19251 19254 19256 19259 19262 19265 19267 19270 19273 19276 19279 19281 19284 19286 19288 19291 19294 19297 19300 19302 19305 19308 19311 19313 19316 19319 19322 19324 19327 19330 19333 19336 19339 19342 19344 19347 19350 19353 19356 19359 19362 19365 19368 19371 19374 19377 19380 19383 19386 19389 19392 19395 19398 19401 19404 19406 19409 19412 19415 19418 19421 19424 19427 19430 19433 19436 19439 19442 19445 19448 19451 19454 19457 19460 19462 19465 19468 19470 19473 19476 19478 19481 19484 19487 19490 19493 19496 19499 19502 19505 19508 19511 19513 19516 19519 19522 19525 19527 19530 19533 19536 19539 19541 19544 19547 19550 19552 19555 19558 19561 19564 19567 19570 19573 19576 19579 19582 19585 19588 19591 19594 19597 19600 19603 19606 19609 19612 19615 19618 19621 19624 19627 19629 19632 19635 19638 19641 19644 19647 19650 19653 19655 19658 19661 19664 19666 19669 19672 19675 19678 19681 19684 19687 19690 19693 19696 19699 19702 19705 19708 19711 19714 19717 19720 19723 19726 19729 19732 19735 19738 19740 19743 19746 19749 19751 19754 19757 19760 19763 19766 19769 19772 19775 19777 19780 19783 19785 19788 19791 19794 19797 19799 19802 19805 19808 19811 19814 19817 19820 19822 19825 19827 19830 19833 19835 19838 19841 19843 19845 19848 19851 19854 19857 19860 19863 19866 19869 19872 19875 19878 19881 19884 19887 19890 19893 19896 19899 19902 19905 19908 19910 19913 19916 19919 19922 19924 19927 19930 19933 19936 19939 19942 19945 19948 19951 19954 19957 19960 19963 19965 19968 19971 19973 19976 19979 19982 19985 19988 19991 19994 19997 20000 20003 20006 20009 20012 20015 20018 20021 20024 20027 20030 20033 20036 20039 20042 20045 20048 20051 20054 20057 20060 20063 20066 20069 20072 20075 20078 20081 20084 20087 20090 20093 20096 20099 20102 20105 20108 20111 20114 20117 20120 20123 20126 20129 20132 20135 20138 20141 20144 20147 20150 20153 20156 20159 20162 20165 20168 20171 20174 20177 20180 20183 20186 20189 20192 20195 20198 20201 20204 20207 20210 20213 20216 20219 20222 20225 20228 20231 20234 20237 20240 20243 20246 20249 20252 20255 20258 20261 20264 20267 20270 20273 20276 20279 20282 20285 20288 20291 20294 20297 20300 20303 20306 20309 20312 20315 20318 20321 20324 20327 20330 20333 20336 20339 20342 20345 20348 20351 20354 20357 20359 20362 20365 20368 20371 20374 20377 20380 20382 20385 20388 20391 20394 20397 20400 20403 20406 20409 20411 20414 20416 20419 20422 20425 20427 20430 20433 20435 20438 20441 20444 20447 20450 20453 20456 20459 20462 20465 20468 20471 20474 20477 20480 20483 20486 20489 20492 20495 20498 20501 20504 20507 20510 20513 20516 20519 20522 20525 20528 20531 20534 20537 20540 20543 20546 20548 20551 20554 20556 20558 20561 20564 20566 20569 20572 20574 20577 20580 20583 20585 20588 20591 20594 20597 20600 20603 20606 20609 20612 20614 20617 20620 20623 20626 20629 20632 20634 20637 20640 20643 20646 20649 20652 20655 20658 20661 20664 20667 20670 20673 20676 20679 20682 20685 20688 20691 20694 20697 20700 20703 20706 20709 20712 20715 20718 20721 20724 20727 20729 20732 20735 20738 20741 20744 20747 20750 20753 20756 20759 20762 20765 20768 20771 20774 20777 20780 20783 20786 20789 20792 20795 20798 20801 20804 20807 20810 20813 20816 20819 20822 20825 20828 20831 20834 20837 20840 20843 20846 20849 20852 20855 20858 20861 20864 20867 20869 20872 20874 20877 20880 20883 20886 20888 20891 20894 20897 20900 20902 20905 20908 20911 20914 20916 20919 20922 20925 20928 20931 20934 20937 20940 20942 20945 20948 20950 20953 20955 20958 20961 20964 20967 20969 20972 20975 20977 20979 20982 20985 20988 20991 20994 20997 20999 21002 21005 21008 21011 21014 21017 21020 21023 21026 21029 21031 21033 21036 21039 21042 21045 21048 21050 21053 21056 21058 21061 21064 21067 21070 21072 21075 21078 21080 21083 21086 21089 21092 21095 21098 21101 21104 21107 21110 21113 21116 21119 21122 21125 21128 21131 21134 21137 21140 21143 21146 21149 21152 21155 21158 21161 21164 21167 21169 21172 21174 21177 21180 21183 21186 21189 21192 21195 21198 21201 21204 21207 21210 21213 21215 21218 21221 21224 21227 21229 21231 21234 21237 21240 21243 21246 21249 21252 21255 21258 21261 21264 21267 21270 21273 21276 21279 21282 21285 21288 21291 21294 21297 21300 21303 21306 21309 21312 21315 21318 21321 21324 21327 21330 21333 21336 21339 21342 21345 21348 21351 21354 21357 21359 21362 21365 21368 21370 21373 21376 21379 21382 21385 21388 21391 21394 21397 21400 21403 21406 21409 21412 21415 21418 21421 21424 21427 21430 21432 21435 21438 21440 21443 21446 21449 21452 21455 21458 21461 21464 21467 21469 21472 21475 21478 21481 21484 21486 21489 21492 21495 21498 21501 21503 21506 21508 21511 21514 21517 21520 21523 21526 21529 21532 21535 21538 21541 21544 21547 21549 21552 21555 21558 21560 21562 21565 21568 21571 21574 21577 21580 21583 21586 21588 21591 21594 21596 21599 21602 21604 21606 21609 21612 21615 21618 21621 21623 21626 21629 21632 21635 21638 21641 21644 21646 21649 21652 21654 21656 21659 21662 21665 21668 21671 21674 21676 21678 21681 21684 21687 21689 21692 21695 21698 21701 21704 21707 21710 21712 21715 21718 21721 21724 21727 21730 21733 21736 21739 21742 21745 21748 21751 21754 21757 21760 21763 21766 21769 21772 21775 21778 21781 21784 21787 21790 21792 21795 21798 21801 21804 21807 21810 21813 21815 21818 21821 21824 21827 21830 21833 21836 21839 21842 21845 21848 21850 21853 21856 21859 21862 21865 21868 21871 21874 21876 21879 21882 21885 21888 21891 21894 21897 21900 21903 21906 21909 21912 21915 21918 21921 21924 21926 21929 21932 21935 21937 21940 21943 21946 21949 21952 21954 21957 21960 21963 21966 21969 21972 21975 21978 21981 21984 21987 21990 21993 21996 21998 22001 22004 22007 22010 22012 22015 22018 22020 22023 22026 22029 22032 22035 22037 22040 22043 22046 22049 22052 22055 22058 22061 22064 22067 22070 22073 22076 22079 22081 22084 22086 22089 22092 22095 22097 22100 22102 22105 22107 22110 22113 22116 22119 22122 22125 22127 22129 22132 22135 22138 22141 22144 22147 22149 22152 22154 22157 22160 22163 22166 22169 22172 22175 22178 22181 22184 22187 22190 22193 22196 22199 22202 22205 22207 22210 22213 22216 22218 22220 22223 22226 22229 22232 22235 22237 22240 22243 22245 22247 22250 22253 22256 22259 22262 22265 22268 22271 22274 22277 22280 22283 22286 22289 22292 22295 22298 22301 22304 22307 22310 22313 22316 22319 22322 22325 22328 22331 22334 22337 22340 22343 22346 22349 22352 22355 22358 22361 22364 22367 22370 22373 22376 22379 22381 22384 22387 22389 22391 22393 22396 22399 22402 22405 22408 22411 22413 22416 22419 22422 22425 22428 22431 22434 22437 22440 22442 22445 22448 22451 22453 22456 22459 22462 22465 22468 22471 22474 22477 22480 22483 22486 22489 22492 22495 22498 22501 22504 22507 22510 22513 22515 22518 22521 22524 22527 22529 22532 22535 22538 22541 22544 22547 22550 22553 22556 22559 22562 22565 22568 22571 22574 22577 22580 22583 22586 22589 22592 22595 22598 22601 22604 22607 22610 22613 22616 22619 22622 22625 22628 22631 22633 22636 22638 22641 22644 22647 22650 22653 22656 22659 22662 22664 22667 22670 22673 22675 22678 22680 22683 22686 22689 22692 22695 22698 22701 22704 22706 22709 22712 22715 22718 22720 22723 22726 22729 22732 22734 22737 22740 22743 22746 22749 22752 22755 22757 22760 22763 22766 22769 22771 22774 22777 22780 22783 22786 22789 22792 22795 22798 22801 22804 22807 22810 22813 22816 22819 22822 22825 22828 22831 22834 22837 22840 22843 22846 22849 22852 22855 22858 22861 22864 22867 22870 22873 22876 22879 22882 22885 22888 22891 22894 22897 22900 22903 22906 22909 22911 22914 22917 22920 22923 22925 22927 22930 22933 22935 22937 22940 22943 22946 22949 22952 22955 22958 22961 22964 22967 22970 22973 22976 22979 22982 22985 22988 22991 22994 22996 22999 23002 23005 23007 23009 23012 23015 23018 23021 23024 23027 23030 23033 23036 23039 23042 23045 23048 23051 23054 23057 23060 23063 23066 23069 23072 23075 23078 23081 23084 23087 23090 23092 23095 23098 23101 23104 23107 23110 23113 23115 23118 23121 23124 23127 23130 23133 23136 23139 23142 23145 23148 23151 23154 23157 23160 23162 23165 23168 23171 23174 23177 23180 23183 23186 23188 23191 23193 23195 23198 23201 23204 23207 23210 23213 23216 23219 23222 23225 23228 23231 23233 23236 23239 23242 23245 23248 23251 23254 23257 23260 23263 23266 23269 23272 23275 23278 23281 23284 23287 23289 23292 23295 23298 23300 23303 23306 23309 23312 23315 23318 23321 23324 23326 23329 23332 23335 23338 23341 23344 23347 23350 23353 23356 23359 23362 23365 23368 23371 23373 23376 23379 23382 23384 23387 23390 23393 23396 23399 23402 23405 23408 23411 23414 23417 23420 23423 23426 23429 23432 23435 23438 23441 23444 23447 23450 23453 23456 23459 23462 23465 23468 23471 23474 23477 23480 23483 23485 23488 23490 23493 23496 23499 23502 23505 23508 23511 23514 23516 23519 23522 23525 23528 23531 23534 23537 23540 23543 23545 23548 23551 23553 23556 23559 23562 23565 23568 23570 23573 23576 23579 23582 23584 23587 23590 23593 23596 23598 23601 23604 23607 23609 23612 23614 23617 23620 23622 23625 23628 23631 23634 23637 23640 23643 23646 23649 23652 23655 23658 23661 23664 23666 23669 23672 23674 23677 23679 23682 23685 23688 23690 23693 23696 23698 23701 23704 23707 23710 23712 23715 23717 23720 23723 23726 23729 23732 23735 23737 23740 23742 23745 23748 23751 23754 23757 23759 23762 23765 23768 23771 23773 23776 23779 23782 23785 23788 23791 23793 23796 23799 23802 23805 23808 23811 23814 23817 23820 23823 23826 23829 23832 23835 23838 23841 23844 23847 23850 23853 23856 23859 23862 23865 23868 23871 23874 23877 23880 23883 23886 23889 23892 23894 23896 23899 23902 23905 23908 23911 23914 23917 23920 23923 23926 23928 23931 23934 23936 23938 23941 23943 23946 23949 23952 23955 23958 23961 23964 23966 23969 23972 23975 23978 23981 23984 23987 23990 23993 23996 23999 24002 24004 24007 24010 24013 24016 24018 24021 24024 24027 24030 24033 24036 24039 24042 24045 24048 24051 24054 24056 24059 24062 24065 24068 24071 24074 24077 24080 24083 24086 24089 24092 24095 24098 24101 24104 24107 24109 24112 24115 24118 24121 24124 24126 24129 24132 24135 24137 24140 24143 24146 24149 24152 24155 24157 24160 24162 24165 24168 24171 24173 24176 24179 24182 24185 24188 24191 24194 24197 24200 24202 24205 24208 24210 24213 24216 24219 24222 24225 24228 24231 24233 24236 24239 24242 24245 24248 24251 24254 24257 24260 24263 24266 24269 24272 24274 24277 24280 24282 24285 24288 24291 24294 24297 24300 24302 24305 24308 24311 24314 24317 24320 24322 24325 24328 24331 24334 24337 24340 24343 24345 24348 24351 24354 24357 24360 24363 24366 24369 24372 24375 24378 24381 24384 24387 24390 24393 24396 24399 24402 24405 24408 24411 24413 24416 24419 24422 24425 24428 24431 24434 24437 24440 24443 24445 24448 24451 24454 24457 24459 24461 24464 24467 24470 24473 24475 24478 24481 24484 24487 24490 24493 24496 24499 24502 24504 24507 24510 24513 24516 24519 24522 24525 24528 24531 24534 24537 24539 24542 24545 24548 24550 24553 24556 24559 24561 24564 24567 24570 24573 24576 24579 24582 24585 24588 24591 24594 24597 24599 24602 24605 24608 24611 24614 24616 24619 24622 24624 24627 24630 24633 24636 24639 24642 24645 24648 24651 24654 24657 24660 24663 24666 24668 24671 24674 24677 24680 24683 24686 24689 24691 24694 24697 24700 24702 24705 24708 24711 24714 24717 24719 24722 24725 24728 24731 24734 24737 24740 24743 24746 24748 24751 24754 24757 24760 24763 24766 24769 24772 24774 24777 24780 24783 24786 24789 24791 24794 24797 24800 24803 24806 24809 24812 24814 24817 24820 24823 24826 24829 24832 24835 24838 24841 24844 24847 24850 24853 24856 24859 24862 24865 24868 24871 24874 24877 24880 24883 24886 24889 24892 24895 24898 24901 24904 24907 24910 24913 24916 24919 24922 24925 24928 24931 24934 24937 24940 24943 24946 24949 24952 24955 24958 24960 24963 24966 24969 24972 24975 24978 24981 24983 24986 24989 24992 24995 24998 25001 25004 25007 25010 25013 25016 25019 25022 25025 25028 25031 25034 25037 25040 25043 25046 25049 25051 25053 25056 25059 25061 25063 25066 25069 25072 25075 25078 25081 25084 25086 25089 25092 25095 25098 25101 25104 25107 25110 25113 25116 25119 25122 25125 25128 25130 25133 25136 25139 25142 25145 25148 25151 25154 25156 25159 25162 25164 25167 25170 25173 25175 25178 25181 25184 25187 25190 25193 25196 25199 25202 25205 25208 25211 25214 25217 25220 25223 25226 25229 25232 25235 25238 25241 25244 25247 25250 25253 25256 25259 25261 25264 25267 25270 25273 25276 25279 25282 25285 25287 25290 25293 25296 25299 25302 25305 25307 25309 25312 25315 25318 25321 25323 25326 25329 25331 25334 25337 25339 25342 25345 25348 25351 25354 25357 25359 25362 25365 25368 25371 25374 25377 25380 25383 25385 25388 25391 25394 25397 25400 25403 25406 25409 25412 25415 25418 25420 25423 25426 25428 25431 25434 25437 25440 25443 25446 25449 25451 25454 25457 25460 25462 25465 25467 25470 25472 25475 25478 25481 25484 25487 25490 25493 25496 25499 25502 25505 25508 25511 25514 25517 25520 25523 25525 25528 25530 25533 25536 25539 25542 25545 25548 25551 25554 25557 25560 25562 25565 25568 25571 25574 25577 25580 25583 25585 25588 25591 25594 25596 25599 25601 25603 25606 25609 25611 25614 25617 25620 25623 25625 25628 25631 25634 25636 25639 25642 25645 25647 25650 25652 25654 25657 25660 25663 25666 25669 25672 25674 25677 25680 25683 25686 25689 25692 25695 25698 25700 25702 25704 25707 25709 25712 25715 25717 25719 25722 25725 25727 25730 25733 25736 25739 25742 25745 25748 25751 25754 25757 25760 25762 25765 25768 25771 25774 25777 25780 25783 25786 25789 25792 25795 25798 25801 25803 25805 25808 25811 25814 25817 25819 25822 25825 25828 25830 25833 25836 25839 25842 25845 25847 25849 25852 25855 25858 25860 25863 25866 25869 25872 25875 25878 25881 25884 25887 25890 25893 25896 25899 25902 25905 25907 25910 25913 25916 25918 25921 25924 25927 25929 25932 25935 25938 25941 25944 25947 25949 25952 25955 25958 25961 25964 25966 25969 25972 25975 25978 25981 25984 25987 25990 25992 25995 25998 26001 26004 26007 26010 26013 26016 26019 26021 26024 26027 26030 26033 26035 26038 26040 26043 26046 26048 26051 26053 26056 26059 26062 26065 26068 26071 26073 26076 26078 26080 26083 26086 26089 26092 26095 26098 26101 26104 26106 26109 26111 26114 26116 26119 26121 26124 26127 26130 26133 26136 26139 26142 26145 26148 26151 26154 26156 26159 26162 26165 26167 26170 26173 26176 26179 26182 26185 26188 26191 26193 26196 26199 26202 26205 26208 26211 26214 26217 26220 26222 26225 26228 26231 26234 26236 26239 26242 26244 26247 26250 26253 26256 26259 26262 26265 26268 26271 26273 26276 26279 26282 26284 26287 26290 26293 26296 26299 26302 26305 26308 26311 26314 26317 26320 26323 26326 26329 26332 26335 26338 26341 26343 26346 26349 26352 26355 26358 26361 26364 26367 26370 26373 26375 26378 26381 26384 26387 26390 26393 26396 26399 26402 26405 26408 26411 26414 26417 26420 26423 26426 26429 26432 26435 26438 26441 26444 26447 26450 26453 26456 26459 26462 26465 26468 26471 26474 26477 26480 26483 26486 26489 26492 26495 26498 26501 26504 26507 26510 26512 26514 26517 26520 26523 26526 26529 26532 26535 26538 26541 26544 26547 26550 26553 26555 26557 26560 26563 26566 26568 26571 26574 26576 26579 26582 26585 26587 26590 26593 26596 26598 26601 26604 26607 26610 26613 26616 26619 26622 26624 26627 26630 26632 26635 26637 26639 26642 26645 26648 26651 26654 26657 26659 26662 26664 26666 26668 26671 26674 26676 26679 26682 26684 26686 26689 26692 26695 26698 26701 26704 26707 26710 26713 26716 26719 26722 26725 26728 26731 26734 26737 26740 26743 26746 26749 26751 26754 26757 26760 26763 26766 26769 26772 26775 26778 26780 26783 26786 26789 26792 26795 26798 26801 26803 26805 26808 26811 26814 26817 26820 26823 26826 26829 26832 26835 26838 26841 26844 26847 26850 26853 26856 26859 26862 26865 26868 26871 26874 26876 26879 26881 26884 26887 26890 26893 26896 26899 26902 26904 26907 26910 26913 26915 26917 26920 26923 26925 26928 26931 26934 26937 26939 26942 26945 26948 26950 26953 26956 26959 26961 26964 26967 26970 26973 26976 26979 26982 26985 26988 26990 26992 26995 26998 27001 27004 27007 27009 27012 27015 27017 27019 27021 27024 27027 27030 27033 27036 27038 27041 27044 27047 27050 27053 27056 27059 27062 27065 27067 27070 27072 27075 27078 27081 27084 27087 27090 27093 27096 27099 27102 27105 27108 27111 27114 27117 27120 27123 27126 27129 27132 27135 27138 27141 27144 27146 27149 27152 27155 27158 27160 27162 27165 27168 27171 27173 27176 27179 27182 27185 27188 27191 27194 27197 27200 27203 27206 27209 27212 27215 27218 27221 27223 27226 27229 27232 27234 27237 27240 27242 27245 27248 27251 27254 27257 27260 27263 27266 27269 27272 27275 27278 27281 27283 27286 27289 27291 27294 27297 27300 27302 27305 27307 27310 27312 27315 27317 27319 27321 27324 27327 27330 27333 27336 27339 27342 27345 27347 27350 27353 27356 27359 27362 27365 27368 27371 27373 27376 27379 27381 27384 27387 27390 27393 27396 27399 27402 27405 27408 27411 27414 27417 27420 27423 27426 27429 27432 27435 27438 27441 27444 27446 27449 27452 27455 27458 27461 27464 27467 27470 27473 27476 27478 27481 27483 27486 27489 27491 27494 27496 27499 27501 27504 27507 27509 27512 27514 27517 27520 27522 27525 27528 27531 27533 27536 27539 27542 27545 27548 27551 27554 27557 27560 27563 27566 27569 27572 27575 27578 27581 27584 27587 27590 27593 27596 27599 27602 27605 27608 27611 27614 27617 27620 27623 27626 27629 27632 27635 27638 27641 27644 27647 27650 27653 27656 27659 27662 27665 27668 27671 27674 27677 27680 27683 27686 27689 27692 27695 27698 27701 27704 27707 27710 27713 27716 27718 27721 27724 27726 27729 27732 27735 27738 27741 27744 27746 27748 27751 27754 27757 27760 27763 27766 27769 27772 27775 27778 27781 27784 27787 27790 27793 27796 27799 27802 27804 27807 27810 27813 27815 27818 27821 27824 27827 27830 27833 27836 27839 27842 27845 27848 27851 27854 27857 27860 27863 27865 27868 27871 27874 27877 27880 27883 27886 27888 27891 27894 27897 27900 27903 27906 27909 27912 27914 27917 27919 27922 27925 27928 27931 27934 27937 27940 27943 27946 27949 27952 27955 27958 27961 27964 27967 27969 27972 27975 27978 27981 27984 27987 27990 27992 27995 27998 28001 28004 28006 28009 28012 28015 28018 28021 28024 28027 28029 28032 28035 28037 28039 28042 28045 28047 28050 28053 28056 28059 28062 28065 28067 28070 28073 28076 28079 28082 28085 28088 28091 28094 28096 28099 28102 28104 28107 28110 28112 28115 28118 28120 28123 28126 28129 28132 28135 28137 28140 28143 28146 28149 28152 28155 28158 28161 28163 28166 28169 28172 28175 28178 28181 28184 28186 28189 28192 28195 28198 28201 28204 28207 28210 28213 28216 28219 28222 28224 28227 28230 28233 28236 28239 28242 28245 28247 28249 28252 28254 28257 28259 28262 28265 28268 28271 28274 28277 28280 28283 28286 28289 28292 28295 28298 28301 28304 28306 28309 28311 28314 28317 28320 28323 28326 28329 28332 28335 28337 28340 28342 28345 28347 28350 28352 28355 28357 28360 28363 28365 28368 28371 28374 28377 28380 28382 28385 28388 28391 28394 28397 28400 28403 28406 28408 28411 28414 28417 28420 28423 28425 28428 28431 28433 28436 28438 28440 28443 28446 28449 28452 28455 28458 28461 28464 28466 28469 28472 28475 28478 28481 28484 28487 28490 28493 28496 28499 28502 28505 28507 28510 28513 28516 28519 28522 28525 28528 28530 28533 28536 28539 28541 28544 28547 28550 28553 28556 28559 28562 28565 28568 28571 28574 28577 28580 28583 28586 28589 28592 28594 28597 28600 28603 28606 28609 28612 28615 28617 28620 28623 28625 28628 28631 28634 28637 28640 28643 28646 28649 28652 28655 28658 28661 28664 28667 28670 28672 28675 28678 28681 28684 28686 28689 28692 28695 28698 28701 28704 28707 28710 28713 28716 28719 28722 28725 28728 28731 28734 28737 28740 28743 28746 28749 28752 28755 28758 28761 28763 28766 28769 28772 28775 28778 28781 28783 28786 28789 28792 28795 28798 28801 28804 28807 28810 28812 28814 28817 28820 28823 28825 28828 28830 28833 28836 28839 28842 28845 28848 28851 28854 28857 28860 28863 28866 28869 28872 28875 28877 28880 28883 28886 28889 28892 28895 28898 28901 28904 28907 28910 28913 28915 28917 28920 28923 28926 28929 28932 28935 28938 28941 28943 28946 28949 28951 28954 28957 28959 28961 28964 28967 28970 28973 28976 28979 28982 28984 28987 28990 28993 28996 28999 29002 29005 29008 29011 29013 29016 29019 29022 29024 29027 29030 29033 29036 29039 29041 29044 29047 29050 29053 29056 29059 29062 29065 29068 29071 29074 29077 29079 29082 29085 29088 29090 29093 29096 29099 29101 29104 29107 29110 29113 29116 29119 29122 29125 29128 29131 29134 29137 29140 29143 29146 29149 29152 29155 29158 29161 29164 29167 29170 29173 29176 29179 29182 29185 29188 29191 29194 29197 29199 29202 29205 29208 29211 29214 29217 29220 29223 29226 29229 29232 29235 29238 29241 29244 29247 29250 29253 29256 29259 29262 29265 29268 29271 29273 29276 29278 29281 29284 29286 29289 29292 29295 29298 29301 29304 29307 29310 29313 29315 29318 29321 29324 29327 29330 29333 29336 29339 29342 29345 29348 29351 29354 29357 29359 29362 29365 29368 29371 29373 29376 29379 29382 29384 29387 29390 29393 29396 29399 29402 29405 29408 29411 29414 29417 29420 29423 29426 29429 29432 29435 29438 29441 29444 29447 29450 29453 29456 29459 29462 29465 29468 29471 29474 29477 29480 29483 29486 29489 29492 29495 29498 29501 29504 29507 29510 29513 29516 29519 29522 29525 29528 29531 29534 29537 29540 29543 29546 29549 29552 29555 29558 29561 29564 29567 29570 29573 29576 29579 29582 29585 29588 29591 29594 29597 29600 29603 29606 29609 29612 29615 29618 29621 29624 29627 29630 29633 29636 29639 29642 29645 29648 29651 29654 29657 29660 29663 29666 29669 29672 29675 29678 29681 29684 29687 29690 29693 29696 29699 29702 29705 29708 29711 29714 29717 29720 29723 29726 29729 29732 29735 29738 29741 29744 29747 29750 29753 29756 29759 29762 29765 29768 29771 29774 29777 29780 29783 29786 29789 29792 29795 29798 29801 29804 29807 29810 29813 29816 29819 29822 29825 29828 29831 29834 29837 29840 29843 29846 29849 29852 29855 29858 29861 29864 29867 29870 29873 29876 29879 29882 29885 29888 29891 29894 29897 29900 29903 29906 29909 29912 29915 29918 29921 29924 29927 29930 29933 29936 29939 29942 29945 29948 29951 29953 29956 29959 29962 29965 29968 29971 29974 29977 29980 29983 29986 29989 29992 29995 29998 30001 30003 30006 30009 30012 30015 30018 30021 30024 30027 30029 30032 30035 30038 30041 30043 30046 30049 30052 30055 30058 30061 30064 30067 30070 30073 30076 30079 30082 30085 30088 30091 30094 30097 30100 30103 30106 30109 30111 30114 30117 30120 30123 30126 30129 30132 30135 30138 30141 30144 30147 30150 30152 30154 30157 30160 30163 30166 30169 30171 30174 30176 30179 30182 30185 30188 30191 30194 30197 30200 30203 30206 30209 30211 30214 30217 30220 30223 30226 30229 30232 30234 30237 30240 30243 30246 30249 30252 30255 30258 30261 30264 30267 30270 30273 30276 30279 30281 30283 30286 30289 30292 30295 30298 30301 30304 30307 30310 30313 30316 30319 30321 30324 30327 30330 30333 30336 30339 30342 30345 30348 30351 30354 30357 30360 30363 30366 30369 30371 30374 30377 30380 30383 30386 30389 30392 30394 30397 30400 30403 30406 30409 30412 30415 30418 30421 30424 30426 30428 30431 30434 30437 30440 30443 30446 30449 30452 30455 30458 30461 30464 30467 30470 30473 30476 30479 30482 30485 30488 30491 30494 30497 30500 30503 30506 30509 30512 30515 30518 30520 30523 30526 30529 30532 30535 30537 30540 30543 30546 30549 30552 30555 30558 30561 30564 30567 30569 30572 30575 30578 30581 30583 30586 30589 30592 30595 30598 30601 30604 30607 30610 30613 30615 30618 30620 30623 30626 30629 30632 30635 30638 30641 30644 30647 30650 30653 30656 30659 30662 30665 30668 30671 30674 30677 30680 30683 30686 30689 30692 30695 30698 30701 30704 30707 30710 30713 30715 30718 30721 30724 30727 30730 30732 30735 30738 30741 30744 30747 30750 30753 30756 30759 30762 30765 30768 30771 30774 30777 30780 30783 30786 30788 30791 30794 30796 30799 30802 30805 30807 30810 30813 30816 30819 30822 30824 30827 30830 30833 30836 30839 30842 30845 30848 30851 30854 30856 30859 30862 30865 30868 30871 30874 30876 30879 30882 30885 30888 30891 30893 30895 30898 30901 30903 30906 30909 30911 30914 30917 30920 30923 30926 30929 30932 30935 30938 30941 30943 30946 30949 30951 30954 30957 30959 30962 30965 30967 30970 30973 30975 30978 30981 30983 30986 30989 30992 30995 30998 31001 31003 31006 31009 31012 31015 31018 31021 31024 31027 31030 31033 31036 31038 31041 31044 31047 31050 31053 31056 31059 31061 31064 31067 31070 31073 31075 31078 31081 31084 31086 31089 31092 31095 31098 31101 31104 31107 31110 31113 31116 31119 31121 31124 31127 31130 31133 31136 31139 31142 31145 31148 31151 31154 31157 31160 31163 31166 31169 31172 31175 31178 31181 31184 31187 31190 31193 31195 31198 31201 31204 31207 31210 31212 31215 31218 31221 31224 31227 31230 31233 31236 31239 31242 31245 31248 31251 31254 31256 31259 31262 31264 31267 31269 31272 31275 31278 31281 31283 31286 31288 31290 31293 31295 31298 31301 31304 31307 31310 31313 31316 31318 31321 31323 31326 31329 31332 31335 31338 31341 31343 31346 31349 31352 31355 31358 31361 31363 31366 31369 31372 31375 31377 31380 31383 31386 31389 31392 31394 31397 31400 31402 31405 31408 31411 31414 31416 31419 31422 31425 31428 31430 31433 31436 31439 31442 31445 31448 31450 31453 31456 31459 31462 31465 31468 31471 31474 31477 31479 31482 31485 31488 31491 31494 31497 31499 31502 31505 31508 31511 31513 31516 31519 31522 31525 31528 31531 31534 31537 31540 31543 31546 31549 31552 31555 31558 31561 31563 31566 31569 31572 31574 31577 31580 31582 31585 31588 31591 31594 31597 31600 31603 31606 31609 31612 31615 31618 31621 31624 31627 31630 31632 31635 31637 31640 31643 31646 31649 31652 31655 31658 31661 31664 31667 31670 31673 31676 31679 31682 31685 31688 31691 31694 31697 31700 31703 31706 31709 31712 31715 31717 31720 31723 31725 31728 31731 31734 31737 31740 31743 31746 31749 31752 31755 31757 31760 31763 31766 31769 31771 31774 31777 31780 31783 31785 31788 31791 31794 31797 31800 31803 31806 31809 31812 31814 31817 31820 31823 31826 31829 31832 31835 31838 31841 31844 31847 31850 31853 31856 31859 31862 31865 31868 31871 31874 31877 31880 31883 31886 31889 31892 31895 31898 
</DataArray>
<DataArray type="UInt32" Name="types" format="ascii">
5 5 5 5 5 3 5 5 5 5 5 5 5 3 5 5 5 5 3 5 5 3 5 5 5 5 3 5 5 5 5 3 5 5 5 5 5 5 5 5 5 5 5 5 5 3 5 5 3 5 5 5 5 5 3 5 5 5 5 5 5 5 3 5 5 5 5 3 5 5 5 5 5 5 5 5 5 3 5 5 3 5 5 3 5 5 5 5 3 5 5 5 5 5 5 5 3 3 3 5 5 3 5 5 5 5 5 3 5 5 5 5 5 5 5 5 5 5 5 5 5 3 5 5 5 3 5 5 5 5 5 5 3 5 5 5 5 5 5 5 5 5 5 5 5 5 5 5 5 5 5 5 5 5 5 5 5 5 3 5 5 5 3 5 5 3 5 5 5 5 5 5 5 5 5 5 5 3 5 5 5 5 5 5 5 5 3 5 5 5 5 5 5 5 5 3 5 5 5 5 5 5 5 5 5 3 5 5 5 5 5 5 5 5 5 5 5 5 5 5 5 5 5 5 5 5 5 5 5 3 5 5 5 3 5 3 5 3 5 5 3 5 5 5 3 5 3 5 3 5 3 3 5 3 5 5 3 5 3 5 5 5 3 5 3 3 5 5 3 5 5 5 3 5 3 3 3 5 3 5 5 5 3 5 3 3 3 5 5 3 3 5 5 5 5 3 5 3 5 5 3 5 5 5 3 5 3 3 3 5 5 5 3 5 3 3 3 3 5 5 5 3 3 5 5 3 3 3 5 3 5 5 5 5 3 5 5 5 5 5 5 5 3 5 5 5 5 5 5 3 3 5 5 5 3 5 5 5 3 5 3 5 3 3 5 5 5 5 3 5 5 3 5 5 5 5 3 5 3 5 5 5 5 5 3 3 5 5 5 5 5 5 5 5 3 5 5 5 3 5 5 3 5 3 5 5 5 5 5 5 5 5 5 5 5 3 5 3 5 3 5 5 5 3 5 3 5 3 5 5 5 5 5 5 3 5 3 5 5 5 3 5 5 5 3 5 3 3 5 5 5 5 3 5 5 5 5 3 3 5 5 3 5 3 5 3 3 5 5 5 3 5 5 5 5 3 5 5 5 5 5 5 5 5 5 5 5 3 5 5 5 5 3 5 5 5 3 5 3 3 3 5 5 5 3 3 5 3 5 5 3 5 5 5 5 3 5 5 5 5 5 5 5 5 5 5 5 3 3 5 5 3 5 5 5 3 5 5 5 5 5 5 3 5 5 5 3 5 5 5 3 5 5 5 5 5 5 5 5 5 5 5 3 5 5 5 3 5 5 5 5 5 5 5 3 5 5 5 5 5 3 5 5 5 5 5 5 5 5 5 5 5 5 5 5 5 5 5 5 5 3 5 5 5 5 3 5 5 3 5 5 5 5 5 5 5 3 5 5 5 5 5 5 5 5 3 5 3 5 5 3 5 5 5 3 5 5 3 5 5 5 3 5 3 5 5 3 5 3 5 5 5 5 5 5 5 5 5 5 5 5 5 5 5 5 5 5 5 5 5 5 3 5 3 5 3 5 5 5 5 5 5 5 5 5 5 5 5 5 5 5 3 5 5 5 5 5 5 5 5 5 3 5 5 5 5 5 5 5 5 5 5 5 5 5 5 5 5 5 5 5 5 5 5 5 5 5 5 5 5 5 3 5 5 3 5 5 5 3 3 5 3 5 5 5 5 5 3 5 5 5 5 5 3 5 5 5 5 5 5 5 5 5 5 5 5 5 5 5 5 5 5 5 5 5 5 5 5 5 5 5 5 5 5 5 5 5 5 5 5 5 5 5 5 5 5 5 5 5 5 5 5 5 3 5 5 5 5 5 5 5 5 5 5 5 5 5 5 5 3 5 5 5 5 3 5 5 5 5 5 5 5 5 5 5 5 5 5 5 5 5 5 5 5 5 5 5 5 5 5 5 5 3 5 5 3 5 3 3 3 3 5 5 3 5 5 5 5 5 5 5 5 5 5 5 5 5 5 5 5 5 3 5 5 3 5 3 5 5 5 5 3 5 3 5 5 5 5 3 5 5 5 3 5 5 5 5 5 3 5 3 5 5 3 3 5 3 5 5 5 5 5 5 5 5 5 5 5 3 5 5 5 3 5 5 5 3 5 5 3 3 3 5 5 5 5 5 5 5 5 5 5 5 3 5 5 5 5 5 5 5 5 3 3 3 5 5 5 5 5 5 5 5 3 3 5 5 5 3 5 5 3 5 5 5 5 5 5 5 5 5 5 5 3 5 5 5 5 5 5 5 5 3 5 5 5 5 5 5 5 5 5 5 3 5 3 3 3 5 5 5 5 5 5 5 3 3 5 3 5 5 5 5 5 3 5 3 3 5 5 5 3 5 3 5 5 5 5 3 5 5 5 5 5 5 5 5 5 5 5 5 5 5 5 5 5 3 5 5 5 3 5 5 5 5 5 3 5 5 5 5 5 5 3 5 3 5 5 5 5 5 5 5 5 3 5 5 5 3 5 5 5 5 5 5 5 5 5 5 5 5 5 5 5 5 5 5 5 5 5 5 5 5 5 3 3 3 5 5 5 5 3 5 5 5 5 3 5 5 5 5 5 5 5 3 5 5 5 5 5 5 5 5 3 5 5 5 5 5 5 5 5 5 5 5 5 3 5 5 5 5 5 5 3 5 5 5 5 5 5 5 5 3 5 5 5 3 5 5 5 5 5 5 5 5 5 5 5 5 3 5 5 5 5 5 5 5 5 5 5 5 5 5 5 5 5 5 5 5 5 5 5 5 5 5 5 5 5 5 5 5 5 5 5 5 5 5 5 5 5 5 5 5 5 5 5 5 3 5 5 5 5 5 5 5 5 5 5 5 5 5 5 5 5 5 5 5 5 5 5 5 5 3 5 5 5 5 5 5 5 5 5 5 3 5 5 3 5 5 5 5 5 5 5 5 5 3 5 3 5 5 5 5 3 5 5 3 5 3 5 5 5 5 5 3 5 5 5 5 5 5 5 5 3 5 5 5 5 5 5 5 5 5 5 5 5 5 5 3 5 3 3 5 5 5 5 5 3 5 5 5 5 5 5 5 5 5 5 5 5 5 5 5 3 5 5 5 5 5 5 5 5 5 5 5 5 5 5 5 5 3 5 5 5 5 5 3 3 5 5 3 5 5 5 5 5 5 5 5 5 5 3 5 5 5 5 5 5 5 5 5 3 5 3 5 5 5 5 5 3 5 5 5 5 3 5 5 5 3 5 5 5 3 5 5 3 5 5 5 5 5 5 5 5 5 5 5 5 5 5 5 5 3 5 5 5 5 5 5 5 3 5 5 5 5 5 5 5 5 5 5 5 5 5 5 5 5 5 5 5 5 5 5 5 5 5 5 5 3 5 5 5 5 3 5 5 5 3 5 5 5 5 5 5 5 5 5 3 5 3 5 5 5 5 5 5 5 5 5 5 5 5 5 5 5 5 5 5 3 3 5 5 5 3 5 5 3 5 5 3 5 5 5 3 5 5 3 5 5 5 5 5 5 5 5 5 5 5 5 5 5 5 5 5 5 5 5 3 5 3 5 5 5 5 5 5 5 5 5 5 5 3 5 3 5 5 5 3 5 5 5 5 5 3 5 5 5 5 5 5 3 5 5 5 5 5 5 5 5 5 5 5 3 5 5 5 5 5 5 5 5 3 5 5 5 3 5 5 3 5 5 5 5 5 3 5 5 5 5 5 5 5 5 5 3 5 5 3 5 3 5 3 3 3 5 3 5 5 5 5 5 5 3 5 5 5 5 5 5 3 5 5 5 5 5 5 5 3 5 5 5 5 3 5 5 5 5 5 3 5 3 5 5 5 5 5 5 5 5 5 5 3 5 5 5 5 5 5 5 3 5 5 5 5 5 5 5 3 5 3 5 5 5 5 5 5 5 5 3 5 5 5 3 3 5 5 5 5 5 3 3 5 3 5 5 3 5 5 3 5 5 5 5 5 5 5 5 3 5 5 5 5 5 3 5 5 5 5 3 5 5 3 5 5 5 5 5 5 5 5 5 5 5 5 5 5 5 5 5 5 5 5 5 5 5 5 5 5 5 5 5 5 5 5 5 5 5 5 5 5 5 5 5 3 5 5 3 5 5 5 5 5 3 5 5 5 5 3 5 5 5 5 5 5 5 5 5 5 5 5 5 5 5 5 5 5 5 5 5 5 5 5 3 5 5 5 3 5 5 5 5 5 5 3 5 5 5 5 5 5 5 5 5 5 5 3 5 3 3 5 5 3 5 5 5 5 5 5 5 5 5 5 5 3 5 5 3 5 5 5 5 5 5 5 5 5 5 5 5 5 5 5 3 5 5 5 5 5 5 5 3 5 3 5 5 5 5 3 5 3 5 5 5 5 5 5 5 5 5 3 5 5 5 5 5 5 5 5 5 5 5 5 5 5 5 5 5 3 5 5 5 5 5 5 5 5 5 5 5 5 5 5 5 5 5 5 5 5 5 5 5 5 5 3 3 5 5 5 5 5 5 5 5 5 5 5 3 5 5 5 5 3 5 5 5 5 3 5 5 5 5 5 5 5 5 3 5 5 5 5 5 5 5 5 5 3 5 5 5 5 5 5 5 5 5 5 5 5 5 5 5 5 5 5 5 5 3 5 5 5 5 5 5 5 5 5 5 5 5 5 5 3 5 3 5 5 5 5 5 5 5 5 3 5 5 3 5 5 5 5 5 5 5 5 5 5 5 5 5 5 5 5 5 5 5 5 5 5 5 5 5 5 5 5 5 5 5 5 5 5 5 5 3 5 5 3 5 5 5 5 3 5 3 5 5 3 5 3 5 5 5 5 5 3 5 5 5 5 5 5 5 5 5 5 5 5 3 5 5 5 3 5 5 5 5 5 5 5 5 5 3 5 5 5 5 3 3 5 5 5 5 5 5 5 5 3 5 5 5 5 5 3 5 5 5 3 5 5 5 3 5 5 5 5 3 5 5 5 5 5 5 5 5 5 5 5 5 5 5 3 5 5 5 5 5 5 3 5 3 3 5 3 5 3 5 5 5 5 3 5 5 5 5 3 5 5 5 5 5 5 5 5 5 3 5 5 5 5 5 5 5 5 5 5 5 5 5 5 3 5 5 5 3 5 5 5 3 5 3 5 5 5 5 5 5 5 5 5 5 5 5 5 5 5 5 3 5 5 5 5 5 5 3 5 5 5 5 5 5 5 5 5 5 5 5 5 5 5 5 5 5 3 5 5 5 5 5 5 5 5 5 5 5 5 5 5 5 5 5 5 5 5 5 5 5 5 5 5 5 5 5 5 5 5 5 5 3 5 5 5 5 3 5 5 5 5 5 5 5 3 5 5 5 5 5 5 5 5 5 3 5 5 3 5 5 5 5 5 3 5 5 5 3 5 5 3 5 5 5 5 5 5 5 5 5 5 5 5 5 5 5 5 5 5 5 5 3 5 5 5 5 5 5 5 5 5 5 3 3 5 3 5 5 5 5 5 3 5 5 5 5 3 5 5 5 5 5 3 5 3 5 5 3 5 5 5 5 5 5 5 5 3 5 5 5 5 5 5 3 5 5 5 5 5 5 3 5 5 5 5 3 5 5 3 5 3 5 5 3 5 5 5 5 5 5 3 5 5 5 5 3 5 5 5 5 5 5 5 5 3 3 5 5 5 5 5 5 5 5 3 5 5 5 5 5 5 3 5 5 5 5 5 5 5 3 5 5 5 3 5 5 5 5 5 5 5 5 5 5 5 5 3 5 5 5 5 3 5 5 3 5 5 5 5 3 5 5 5 3 3 5 5 5 3 5 5 5 3 5 5 5 5 5 5 5 5 5 3 5 5 5 3 5 5 5 5 5 5 5 5 5 5 5 5 3 5 3 5 5 3 5 5 3 5 5 5 5 5 5 5 3 5 5 5 5 5 3 5 3 5 5 5 3 3 5 3 3 5 3 5 5 5 5 5 5 3 5 3 5 5 5 5 5 5 5 5 5 5 5 5 5 3 5 5 3 5 3 5 5 3 5 5 5 3 3 5 5 3 5 5 5 5 5 5 5 5 5 5 5 5 5 5 5 5 5 5 5 5 5 5 5 3 3 5 3 5 3 5 5 3 3 5 5 3 5 5 3 5 5 3 5 3 5 5 5 5 3 5 5 5 5 3 5 3 3 5 3 5 5 3 3 5 5 5 3 5 5 5 5 3 3 5 5 5 5 5 3 5 5 5 5 5 5 5 5 5 5 5 3 5 3 5 3 5 5 3 5 3 5 5 5 5 5 5 5 5 3 5 5 3 5 5 5 5 3 5 5 5 5 5 5 5 5 5 5 5 5 3 5 5 5 5 5 5 5 5 5 5 5 3 5 5 5 5 5 5 3 5 3 5 5 3 5 5 5 5 5 5 5 5 5 5 5 5 5 5 5 5 5 3 3 5 5 5 3 5 5 3 5 5 5 5 5 5 5 5 5 5 5 5 5 5 5 5 5 5 5 5 5 5 5 5 5 3 3 5 5 5 5 5 5 5 5 5 5 5 3 5 5 5 5 5 5 5 5 5 5 5 5 5 5 5 5 5 5 5 5 5 5 5 5 5 5 5 5 5 5 5 5 5 3 5 5 5 5 5 3 5 5 3 5 5 3 3 5 5 5 5 5 5 5 5 5 5 5 5 5 3 5 5 3 5 5 5 5 5 5 3 5 5 3 5 5 5 5 5 5 5 5 5 5 5 5 5 3 5 5 5 5 5 5 5 3 5 5 5 5 5 5 5 5 5 5 5 5 3 5 5 3 5 5 5 5 5 5 5 5 5 5 5 5 5 5 5 5 5 5 5 5 3 5 5 3 5 3 5 5 5 3 5 5 3 5 3 5 5 5 3 5 5 5 5 3 5 5 5 5 5 5 5 3 5 5 5 3 5 5 5 5 5 5 5 5 5 5 5 5 3 5 5 5 5 5 5 5 5 3 5 5 5 5 5 5 5 5 5 5 5 3 5 5 5 5 5 5 5 5 5 5 5 5 5 5 5 5 5 5 5 3 3 5 5 5 3 5 5 5 5 5 5 5 5 5 5 5 5 3 5 5 5 5 5 5 5 5 5 3 5 5 5 5 5 5 5 5 5 5 5 5 5 5 5 5 3 5 3 5 5 5 5 5 3 5 5 5 5 3 5 5 5 3 5 5 5 3 5 5 5 5 5 5 5 5 5 3 5 5 5 3 5 5 3 5 5 5 5 5 5 3 5 5 5 5 5 5 5 5 3 5 5 5 3 5 5 5 5 5 5 5 5 5 5 5 5 5 5 5 5 5 5 5 5 5 5 5 5 5 5 5 3 5 5 5 5 5 5 5 3 5 5 5 5 5 5 5 5 5 5 5 5 5 5 5 5 5 5 5 5 5 5 5 5 5 3 5 3 5 5 5 5 5 5 3 5 5 5 3 5 5 3 5 5 5 5 5 5 5 5 5 5 5 5 3 5 5 5 5 5 3 5 5 5 5 5 5 5 5 5 5 5 5 5 3 5 5 5 3 5 5 5 5 5 5 5 5 5 5 5 5 3 3 5 5 5 5 3 5 5 5 5 5 5 5 5 5 3 3 5 5 5 5 5 3 5 5 5 5 5 3 5 5 5 5 5 3 5 3 5 5 5 5 3 5 3 5 3 3 5 5 5 5 5 5 5 3 3 5 5 5 5 5 5 3 3 3 5 3 3 5 5 5 3 5 5 5 5 5 3 3 3 5 3 5 5 5 3 5 3 3 5 5 5 5 5 5 5 3 3 5 5 3 3 3 5 5 5 5 5 5 5 5 5 5 5 5 5 5 5 5 5 5 5 5 5 5 5 5 5 5 5 5 5 5 5 5 5 5 5 5 5 5 5 5 3 5 5 5 5 5 5 5 5 5 5 3 5 5 5 5 5 5 3 5 5 3 5 5 5 5 5 5 5 5 5 5 5 5 5 3 5 3 5 5 5 5 3 5 5 5 3 5 5 3 5 5 5 3 5 5 3 5 5 5 5 5 3 5 5 5 5 5 5 5 3 5 5 5 5 5 5 5 3 5 5 3 5 5 5 5 3 5 3 5 5 5 5 5 3 5 5 5 5 3 5 5 5 5 5 5 3 3 5 5 5 5 5 3 5 5 3 5 5 5 5 5 5 5 5 5 5 3 5 5 5 5 5 5 5 5 5 5 5 5 5 5 5 5 5 5 3 5 5 5 5 5 5 3 5 5 5 5 5 5 5 3 3 5 5 5 5 3 5 5 5 5 5 5 5 3 5 5 3 5 3 3 3 5 5 5 5 5 5 3 5 5 5 5 5 3 5 5 5 5 3 5 5 5 3 5 5 5 3 5 5 5 5 5 5 5 5 5 5 5 5 5 5 5 5 5 5 5 5 5 5 5 5 5 3 5 5 5 5 5 5 5 3 5 3 5 5 5 5 5 5 3 5 5 3 5 5 5 3 5 5 3 5 5 5 5 5 3 5 5 5 3 3 5 5 5 5 5 5 5 5 5 5 5 5 3 5 5 5 5 5 5 5 5 5 3 5 5 5 5 5 3 3 5 5 5 5 5 5 5 5 5 3 5 5 5 5 5 5 5 5 3 5 5 5 5 5 5 5 5 5 5 5 5 5 5 5 5 5 5 3 5 5 5 5 3 5 3 5 3 5 5 5 5 5 5 5 5 5 5 5 5 5 5 5 5 5 3 5 5 5 5 5 3 5 5 5 3 3 5 5 5 5 5 3 5 5 5 5 3 5 5 5 5 5 5 5 5 3 5 5 5 5 5 5 5 3 5 5 5 5 5 5 5 5 5 3 5 5 5 5 5 5 5 5 5 5 5 5 5 5 5 5 5 5 3 5 5 5 5 5 5 5 5 5 5 5 5 5 3 5 5 5 5 5 5 3 5 5 3 5 5 3 5 5 5 5 5 5 5 5 5 5 5 5 5 5 5 5 5 5 5 5 5 5 5 5 5 5 3 5 3 5 3 3 5 5 5 3 5 5 5 5 5 5 5 5 5 3 3 5 3 5 5 5 5 5 5 5 5 5 5 5 5 5 5 3 5 3 3 5 3 5 5 5 5 5 5 5 5 5 3 3 5 5 5 5 5 5 5 5 5 5 5 5 5 5 5 5 5 5 5 5 5 5 3 5 5 5 5 5 3 5 5 5 5 5 3 5 5 5 3 5 5 5 5 5 5 5 5 5 3 5 5 5 5 3 5 5 5 5 5 5 3 5 5 5 5 5 5 5 3 5 5 5 5 3 5 5 5 5 5 5 5 5 5 5 3 5 5 5 5 3 5 5 5 3 5 5 5 5 5 3 5 5 5 5 5 5 5 5 5 5 5 5 5 5 3 3 5 5 3 5 5 5 5 5 5 5 3 5 5 5 5 5 5 3 5 5 5 5 5 5 5 5 5 5 5 5 5 5 5 5 5 5 5 5 5 5 5 3 5 5 5 5 5 5 5 5 3 5 5 5 5 3 5 5 5 5 5 3 5 3 5 3 5 5 5 5 5 5 5 3 5 5 5 3 5 5 5 5 5 3 5 5 5 5 5 3 5 3 5 5 3 5 3 5 5 5 5 5 3 5 5 5 3 5 5 5 5 5 5 5 5 5 5 3 5 5 5 5 5 5 5 5 5 5 5 5 5 5 5 5 5 5 5 5 5 5 3 5 5 5 5 5 5 5 5 5 5 5 5 5 5 5 5 5 5 3 5 5 5 3 5 5 5 5 5 5 3 5 5 5 3 3 5 3 5 3 3 5 3 5 5 3 5 5 3 3 5 5 5 5 5 5 5 5 3 5 3 5 5 5 5 5 5 5 5 5 5 5 5 5 5 5 5 5 5 5 5 5 5 3 5 5 5 5 5 5 5 5 3 5 5 3 5 5 3 3 5 5 3 5 5 5 5 5 5 5 5 5 5 5 5 5 5 5 5 5 5 5 5 5 5 5 5 5 5 5 5 5 5 5 5 5 5 5 5 5 5 5 3 5 3 5 5 5 5 5 5 5 5 5 5 5 5 5 5 5 5 5 5 5 5 5 5 5 5 5 5 5 5 5 5 5 5 5 5 5 5 5 5 5 5 3 5 5 3 5 5 5 5 5 3 5 3 5 5 3 5 5 5 5 5 5 3 5 5 5 5 5 5 5 5 5 5 5 3 5 5 3 3 5 3 5 5 3 5 5 5 5 3 5 5 5 5 5 5 5 5 5 3 5 3 5 5 5 5 5 5 5 3 5 3 5 5 5 5 5 5 5 5 5 3 5 3 5 5 5 5 5 5 5 5 5 5 3 5 5 5 3 5 5 3 5 5 3 5 5 5 5 3 5 5 5 3 5 5 5 5 5 5 5 5 5 5 5 5 5 5 3 5 5 5 5 5 5 3 5 3 5 3 5 5 5 3 5 5 5 5 5 5 5 5 3 5 5 5 5 5 3 5 5 3 5 5 5 5 5 5 5 5 5 3 5 5 5 3 5 5 5 5 5 5 3 5 5 5 5 5 5 5 5 5 5 5 5 5 5 5 5 5 5 5 5 5 5 5 5 5 5 5 5 5 5 5 3 5 5 5 5 5 3 5 5 3 3 5 5 5 5 3 5 5 5 5 5 3 5 5 5 5 5 5 5 5 5 5 5 5 5 5 5 5 3 5 5 5 5 5 5 5 5 3 3 5 5 5 5 5 5 3 5 5 5 5 3 5 5 5 5 5 5 5 5 5 5 5 5 5 5 5 5 5 5 5 5 5 5 5 5 3 5 5 3 5 5 5 5 5 5 5 5 5 5 5 5 5 5 5 5 5 5 5 5 5 5 5 5 5 5 5 3 5 3 5 5 5 5 5 3 5 5 5 5 5 5 5 5 5 5 5 5 5 5 5 5 5 5 5 5 3 3 5 3 5 5 5 5 5 5 5 5 5 5 5 5 5 5 5 5 3 5 5 5 3 5 5 5 5 5 5 5 5 5 5 5 5 5 3 5 5 5 5 5 5 5 5 5 5 5 5 5 5 5 5 5 5 5 5 5 5 3 5 5 5 5 5 5 5 5 5 5 5 5 5 3 5 3 5 5 3 3 5 5 5 5 5 5 5 5 5 5 5 5 5 5 5 5 5 5 5 5 3 5 5 3 5 5 5 3 5 5 5 5 5 5 3 5 5 5 3 5 5 5 5 5 5 5 5 3 5 5 3 5 5 3 5 3 5 5 5 5 3 3 5 5 3 3 5 5 3 5 5 5 5 3 5 5 3 3 5 3 5 5 5 5 5 5 5 5 5 5 5 5 5 5 5 5 5 5 5 5 3 5 5 5 5 3 5 5 5 5 3 3 5 5 5 5 5 5 5 5 5 5 5 5 3 5 5 5 3 5 5 5 5 5 5 5 3 5 5 5 3 5 5 3 3 5 5 5 3 5 5 5 3 5 5 5 5 5 5 5 5 5 5 5 5 5 5 5 5 5 5 3 5 5 5 5 5 5 5 5 5 5 5 5 5 5 5 5 5 5 3 3 5 5 5 5 5 3 3 5 3 5 5 5 5 5 5 5 5 5 3 5 5 5 3 5 5 5 5 5 5 5 5 5 5 5 5 5 5 3 5 5 5 5 5 5 5 3 5 5 3 5 5 5 5 5 5 3 5 5 5 5 3 5 5 5 5 5 5 3 5 5 5 5 5 5 5 5 3 3 5 5 5 3 3 5 5 5 5 5 3 5 5 5 5 5 5 3 5 5 5 5 3 5 5 5 5 5 3 5 5 5 5 3 5 5 5 5 5 5 5 5 5 5 5 5 5 5 5 5 5 5 5 5 5 5 5 5 5 3 5 5 5 5 3 5 3 5 3 5 5 3 5 5 3 5 5 3 5 5 5 5 5 5 3 5 5 3 5 3 3 3 5 5 3 5 3 3 5 5 5 3 5 3 5 5 5 5 5 5 3 5 5 5 3 5 5 5 5 5 5 5 3 5 5 5 3 5 3 3 5 5 5 5 5 5 5 3 5 5 5 5 5 5 5 5 3 3 5 5 5 5 3 5 5 3 5 5 5 3 5 5 5 3 3 5 5 5 5 3 5 5 5 5 5 3 3 5 5 5 5 5 5 5 5 5 5 5 5 5 5 5 5 5 5 5 5 5 5 5 5 5 5 5 5 5 5 5 3 5 5 5 3 5 5 5 5 5 5 5 5 5 5 5 5 5 5 5 3 5 3 3 5 5 3 5 5 5 5 5 5 5 5 5 5 5 5 5 5 5 5 5 5 5 5 5 5 5 3 5 5 3 3 5 5 5 5 5 5 5 3 5 5 5 3 5 5 5 5 3 3 5 5 5 5 5 5 5 3 5 5 5 5 3 5 5 5 5 3 5 5 5 5 5 5 5 5 5 5 5 5 5 5 5 5 5 5 5 3 5 5 5 5 5 5 5 5 5 5 5 5 5 5 5 5 3 5 5 5 3 5 5 5 5 5 5 5 5 5 3 5 5 5 5 5 5 5 5 5 5 5 5 5 5 5 5 5 5 5 5 5 3 5 5 5 5 5 5 5 5 5 5 5 5 5 5 5 5 5 3 5 5 5 5 5 3 5 5 5 5 5 5 5 5 5 5 5 5 5 5 5 5 5 5 5 5 5 5 5 5 5 5 5 3 5 5 3 5 5 5 3 5 5 5 5 5 5 5 5 5 5 5 5 5 5 5 3 5 3 5 5 5 5 5 5 5 5 5 3 5 5 5 5 5 5 5 5 5 3 3 5 5 5 5 5 5 5 5 5 5 5 5 5 5 5 5 5 5 5 5 5 5 5 5 5 5 5 5 5 5 5 5 5 5 5 5 5 5 5 5 5 5 5 5 5 5 5 5 5 5 5 5 5 5 5 5 5 5 5 5 5 5 5 5 5 5 5 5 5 5 5 3 5 5 5 5 5 5 3 5 5 5 5 5 5 5 5 5 3 5 3 5 5 5 5 5 5 5 5 5 5 5 5 5 5 5 5 5 5 5 5 5 5 5 5 5 5 5 5 5 5 5 5 5 5 3 5 5 5 3 3 5 5 5 5 5 5 5 5 5 5 5 5 5 5 5 5 5 5 5 5 5 5 3 3 5 5 5 5 5 5 5 5 3 5 5 5 5 5 5 3 5 5 5 5 5 3 5 5 5 5 3 5 5 5 3 5 5 5 3 5 5 3 5 5 5 5 5 5 5 5 5 5 5 5 5 3 5 5 5 5 5 5 5 5 3 5 5 5 5 5 5 5 5 5 5 5 3 5 5 5 3 5 5 5 5 3 5 5 5 5 5 5 5 5 3 5 3 5 5 3 5 5 5 5 5 3 5 5 5 5 5 5 5 5 5 5 5 5 3 5 5 5 5 5 5 5 5 5 3 5 5 5 5 5 5 3 5 5 5 5 5 5 5 3 5 5 5 5 5 3 5 5 5 5 5 5 5 5 5 5 5 5 5 5 5 5 5 5 5 5 5 5 5 5 5 5 5 5 5 5 5 5 5 5 5 5 5 5 5 5 5 5 5 5 5 5 5 3 5 3 5 5 5 5 5 5 5 5 5 5 5 5 5 5 3 5 5 5 5 5 5 5 5 5 5 5 5 5 5 5 3 5 5 3 5 3 5 5 5 5 5 3 5 5 5 5 5 5 5 5 5 5 5 5 5 5 5 5 5 5 5 5 3 5 5 5 5 5 5 5 5 5 5 5 3 5 3 5 5 3 5 3 5 5 5 5 5 5 5 3 5 3 5 5 5 5 3 5 5 5 5 3 3 5 5 3 5 5 5 5 5 5 5 5 5 5 5 5 5 5 5 5 3 5 5 5 5 5 5 5 5 5 5 5 5 5 5 3 5 3 5 5 5 5 5 5 5 3 5 3 5 5 5 5 5 5 5 5 5 3 3 5 5 5 3 5 5 5 5 3 5 3 5 5 3 5 3 3 3 5 5 3 5 5 5 3 3 3 5 5 5 5 5 5 5 5 5 5 5 3 5 5 5 5 5 5 3 5 5 5 3 5 5 5 5 5 5 5 5 3 5 5 5 3 5 5 5 5 5 5 5 5 5 5 5 5 5 5 5 5 5 5 5 5 5 5 5 5 5 5 5 5 5 5 5 5 5 5 5 5 5 5 5 5 5 5 5 5 5 5 5 5 5 5 5 5 5 5 5 5 5 5 5 5 3 5 5 5 5 5 3 5 5 5 5 3 5 5 5 3 5 5 5 5 5 5 5 5 5 5 5 5 5 5 5 5 5 5 5 5 5 5 5 5 5 5 5 5 5 5 5 5 5 5 5 5 5 5 5 5 3 5 5 3 5 5 5 5 5 5 5 3 5 5 5 5 5 5 5 5 5 5 5 3 5 5 3 5 3 5 5 5 3 5 5 5 5 5 5 5 5 3 5 5 5 5 3 5 5 5 5 3 5 3 5 5 5 5 5 5 5 5 5 5 5 5 3 5 3 5 5 5 5 5 5 5 5 5 5 5 5 5 3 5 5 5 5 5 5 5 5 5 3 5 5 5 3 5 5 5 5 5 5 5 5 5 5 5 5 5 5 5 5 5 5 5 5 5 5 5 5 5 5 5 5 5 5 5 5 5 5 5 3 5 5 3 5 5 5 5 3 5 5 5 5 5 5 5 5 5 5 5 5 5 5 5 3 5 5 5 5 5 5 5 5 5 3 5 3 5 5 5 5 5 5 5 3 5 5 5 5 5 5 5 5 5 5 5 5 5 5 3 5 5 5 5 5 5 5 5 5 5 5 3 5 5 5 5 5 5 5 5 5 5 5 5 5 5 5 5 5 5 5 5 5 5 5 3 5 3 5 5 5 5 5 5 3 5 3 5 5 5 3 5 5 5 3 5 5 5 3 5 5 3 5 5 5 5 5 5 5 3 5 5 5 5 5 5 5 3 5 5 5 5 5 5 5 5 5 5 5 5 5 3 5 5 5 5 5 5 5 5 3 5 5 5 5 5 5 5 5 5 5 5 5 5 5 5 5 5 5 5 5 3 5 5 5 5 5 5 5 5 5 5 5 5 5 5 5 5 5 5 5 5 5 5 5 5 5 5 5 5 5 5 5 5 5 5 5 5 5 5 5 5 5 5 5 5 5 5 5 5 5 5 3 5 3 5 5 5 3 5 5 3 3 5 3 5 5 5 5 5 5 5 5 5 5 5 5 5 5 5 5 5 5 5 5 5 5 5 5 5 5 5 5 5 5 5 5 5 5 5 3 5 5 5 5 3 5 5 3 5 5 5 3 5 5 5 5 3 5 3 3 5 5 5 5 3 5 5 5 3 5 5 5 3 5 5 5 5 5 5 3 5 5 5 5 5 5 5 5 5 5 5 5 5 5 5 5 5 5 5 5 3 5 5 5 5 5 5 5 5 5 5 5 5 5 5 5 5 5 5 3 5 5 3 5 5 3 5 5 5 5 5 5 5 5 5 5 5 3 5 5 5 5 3 5 5 5 5 3 5 5 5 3 5 5 5 5 5 5 5 5 5 5 5 5 5 5 5 5 5 5 5 5 5 5 5 5 5 3 5 5 5 5 5 5 5 5 3 5 5 5 3 5 5 5 5 5 5 5 5 5 5 5 5 5 5 5 5 5 5 5 5 5 5 5 5 3 5 5 5 3 5 5 5 5 5 5 5 5 3 5 5 3 5 5 5 5 3 5 5 5 5 5 5 5 3 5 3 5 5 3 5 5 3 3 5 5 5 5 5 5 5 5 5 5 5 5 5 5 5 5 5 5 5 5 5 3 5 5 5 5 3 5 5 5 5 5 5 5 5 5 5 5 5 5 3 5 5 3 5 5 5 5 5 5 5 5 5 5 5 5 5 5 5 5 5 5 5 5 5 5 5 5 5 5 5 5 5 5 5 5 5 5 5 5 5 5 5 5 5 5 5 5 5 5 5 5 5 5 5 5 5 5 5 5 5 5 5 5 5 5 5 5 5 5 5 5 5 5 5 5 5 5 5 5 5 5 5 5 5 5 5 5 5 5 5 5 5 5 5 5 5 5 5 5 5 5 5 5 5 5 5 5 5 5 5 5 5 5 5 5 5 5 5 5 5 5 5 5 5 5 5 5 5 5 5 5 3 5 5 5 5 5 5 5 3 5 5 5 5 5 5 5 5 5 3 5 3 5 5 5 3 5 5 3 5 5 5 5 5 5 5 5 5 5 5 5 5 5 5 5 5 5 5 5 5 5 5 5 5 5 5 5 5 5 5 5 5 5 5 5 5 3 5 5 3 3 5 5 3 5 5 3 5 5 5 3 5 5 5 5 5 5 5 5 5 3 5 5 5 5 5 5 3 5 5 5 5 5 5 5 5 5 5 5 5 5 5 5 5 5 5 5 5 5 5 5 5 5 5 5 5 5 5 5 3 5 5 5 5 5 5 5 5 5 5 5 5 5 5 5 5 5 5 5 5 5 5 5 5 5 5 5 5 5 5 5 5 5 5 5 5 5 5 5 5 5 5 5 5 5 5 3 5 3 5 5 5 5 3 5 5 5 5 3 5 5 5 5 3 5 5 5 5 5 5 5 5 3 5 5 3 5 3 5 5 5 5 3 5 5 3 3 5 5 5 5 5 5 3 5 5 5 5 5 5 5 5 5 5 3 3 5 5 5 5 5 3 5 5 3 5 5 5 5 3 5 5 3 5 5 5 5 5 5 5 5 5 5 5 5 5 5 5 5 5 5 5 5 5 5 5 5 5 5 5 5 5 3 5 3 5 5 5 5 5 5 5 5 5 5 5 5 5 3 5 5 5 5 3 3 5 5 5 5 5 5 5 5 5 5 5 5 5 5 5 5 5 5 5 5 5 5 5 5 5 5 5 5 5 5 5 5 5 5 5 5 5 5 5 5 5 5 3 5 5 5 3 5 5 5 5 5 5 5 5 5 5 5 5 5 5 5 5 5 5 5 5 3 5 5 3 5 5 5 5 5 5 5 5 5 3 5 5 5 5 5 3 5 5 5 5 5 3 5 3 5 5 5 5 5 5 5 5 5 5 5 5 5 3 5 5 5 3 3 5 5 5 5 5 5 5 5 3 5 5 3 5 5 3 3 5 5 5 5 5 3 5 5 5 5 5 5 5 3 5 5 3 3 5 5 5 5 5 5 3 3 5 5 5 3 5 5 5 5 5 5 5 3 5 5 5 5 5 5 5 5 5 5 5 5 5 5 5 5 5 5 5 5 5 5 5 5 5 5 3 5 5 5 5 5 5 5 3 5 5 5 5 5 5 5 5 5 5 5 3 5 5 5 5 5 5 5 5 3 5 5 5 5 5 5 5 5 5 5 5 5 5 5 5 5 3 5 5 5 3 5 5 5 5 5 3 5 5 5 5 5 5 5 5 5 5 5 5 5 5 3 5 5 5 5 3 5 5 3 5 5 5 5 5 3 5 5 5 5 5 5 5 5 5 5 5 5 5 5 3 5 3 5 5 5 3 5 3 5 3 5 5 5 5 5 5 3 3 5 5 5 5 5 5 3 5 3 5 5 5 5 5 5 5 5 5 5 5 5 5 5 5 5 5 3 5 5 5 3 3 5 5 5 5 5 3 5 5 3 3 5 5 5 5 5 5 5 5 5 5 5 5 5 5 5 5 5 5 5 5 5 5 5 5 5 5 5 5 5 5 5 5 5 5 5 5 5 5 5 5 5 5 5 5 3 5 5 3 3 3 5 5 5 5 5 5 3 5 5 5 5 5 5 5 5 5 3 5 5 5 3 5 5 5 5 5 5 5 5 5 5 5 5 5 5 5 5 5 5 5 5 3 5 5 5 5 3 5 5 5 5 5 5 5 5 5 5 5 5 5 5 5 5 5 5 5 5 5 5 5 5 5 5 5 5 5 5 5 5 5 5 3 5 3 5 5 5 5 5 5 5 5 3 5 5 5 3 5 3 5 5 5 5 5 5 5 5 3 5 5 5 5 3 5 5 5 5 3 5 5 5 5 5 5 5 3 5 5 5 5 3 5 5 5 5 5 5 5 5 5 5 5 5 5 5 5 5 5 5 5 5 5 5 5 5 5 5 5 5 5 5 5 5 5 5 5 5 5 5 5 5 5 5 5 5 5 5 3 5 5 5 5 3 3 5 5 3 3 5 5 5 5 5 5 5 5 5 5 5 5 5 5 5 5 5 5 5 3 5 5 5 3 3 5 5 5 5 5 5 5 5 5 5 5 5 5 5 5 5 5 5 5 5 5 5 5 5 5 5 5 3 5 5 5 5 5 5 5 3 5 5 5 5 5 5 5 5 5 5 5 5 5 5 5 3 5 5 5 5 5 5 5 5 3 5 3 3 5 5 5 5 5 5 5 5 5 5 5 5 3 5 5 5 5 5 5 5 5 5 5 5 5 5 5 5 5 5 5 3 5 5 5 3 5 5 5 5 5 5 5 5 3 5 5 5 5 5 5 5 5 5 5 5 5 5 5 5 3 5 5 5 3 5 5 5 5 5 5 5 5 5 5 5 5 5 5 5 5 5 5 5 5 5 5 5 5 5 5 5 5 5 5 5 5 5 3 5 3 5 5 5 5 5 5 5 5 3 5 5 5 5 5 5 5 5 5 3 5 5 3 5 5 5 5 5 3 5 5 5 5 3 5 5 5 5 3 5 5 5 3 5 3 5 5 3 5 5 5 5 5 5 5 5 5 5 5 5 5 5 3 5 5 3 5 3 5 5 5 3 5 5 3 5 5 5 5 3 5 3 5 5 5 5 5 5 3 5 3 5 5 5 5 5 3 5 5 5 5 3 5 5 5 5 5 5 3 5 5 5 5 5 5 5 5 5 5 5 5 5 5 5 5 5 5 5 5 5 5 5 5 5 5 5 5 5 5 5 5 5 3 3 5 5 5 5 5 5 5 5 5 5 3 5 5 3 3 5 3 5 5 5 5 5 5 5 3 5 5 5 5 5 5 5 5 5 5 5 5 3 5 5 5 5 3 5 5 5 5 5 5 5 5 5 5 5 5 3 5 5 5 5 5 5 5 5 5 5 5 5 5 5 5 5 5 3 5 5 5 5 5 3 5 5 5 3 5 5 5 5 5 5 3 5 3 5 5 5 3 5 5 5 5 5 5 5 5 5 3 5 5 3 5 5 5 5 5 5 5 3 5 5 5 5 5 5 5 5 5 5 5 5 5 3 5 5 3 5 5 5 5 5 5 3 5 5 5 5 5 5 3 5 5 5 5 5 5 5 3 5 5 5 5 5 5 5 5 5 5 5 5 5 5 5 5 5 5 5 5 5 5 3 5 5 5 5 5 5 5 5 5 5 3 5 5 5 5 3 3 5 5 5 5 3 5 5 5 5 5 5 5 5 5 3 5 5 5 5 5 5 5 5 5 5 5 3 5 5 5 3 5 5 5 3 5 5 5 5 5 5 5 5 5 5 5 5 3 5 5 5 5 5 3 5 5 3 5 5 5 5 5 5 5 5 5 5 5 5 5 5 3 5 5 5 5 5 5 5 3 5 5 5 3 5 5 5 5 5 3 5 5 5 5 5 5 5 5 5 3 5 5 5 5 5 5 5 5 3 5 5 5 5 5 3 5 5 5 5 5 5 5 3 5 5 5 5 5 5 5 5 5 5 5 5 5 5 5 5 5 5 5 5 5 5 5 5 5 5 5 5 5 5 5 5 5 5 5 5 5 5 5 5 5 5 5 5 5 5 5 5 3 5 5 5 5 5 5 5 3 5 5 5 5 5 5 5 5 5 5 5 5 5 5 5 5 5 5 5 5 5 5 3 3 5 5 3 3 5 5 5 5 5 5 5 3 5 5 5 5 5 5 5 5 5 5 5 5 5 5 3 5 5 5 5 5 5 5 5 3 5 5 3 5 5 5 3 5 5 5 5 5 5 5 5 5 5 5 5 5 5 5 5 5 5 5 5 5 5 5 5 5 5 5 5 3 5 5 5 5 5 5 5 5 3 5 5 5 5 5 5 3 3 5 5 5 5 3 5 5 3 5 5 3 5 5 5 5 5 5 3 5 5 5 5 5 5 5 5 3 5 5 5 5 5 5 5 5 5 5 5 3 5 5 3 5 5 5 5 5 5 5 3 5 5 5 3 5 3 5 3 5 5 5 5 5 5 5 5 5 5 5 5 5 5 5 5 5 3 5 3 5 5 5 5 5 5 5 5 5 5 3 5 5 5 5 5 5 5 3 5 5 5 3 5 3 3 5 5 3 5 5 5 5 3 5 5 5 3 5 5 5 3 5 3 3 5 5 5 5 5 5 3 5 5 5 5 5 5 5 5 3 3 3 5 3 5 5 3 3 5 5 3 5 5 5 5 5 5 5 5 5 5 5 3 5 5 5 5 5 5 5 5 5 5 5 5 5 3 3 5 5 5 5 3 5 5 5 3 5 5 5 5 5 3 3 5 5 5 3 5 5 5 5 5 5 5 5 5 5 5 5 5 5 5 3 5 5 5 3 5 5 5 3 5 5 5 5 5 5 3 5 5 5 5 5 3 5 5 5 5 5 5 5 5 3 5 5 5 5 5 5 5 5 5 3 5 5 5 5 3 5 3 5 5 3 5 3 5 5 5 5 5 5 3 5 3 3 5 5 5 5 5 5 5 5 3 5 3 5 3 5 3 5 5 5 5 5 5 5 5 5 5 5 3 5 5 5 3 5 5 5 5 5 5 5 5 3 5 5 5 5 5 5 5 5 5 3 5 5 5 5 3 5 5 3 5 5 5 5 5 5 5 5 5 3 5 5 5 3 5 5 5 5 5 5 5 5 5 5 5 5 5 5 5 5 5 5 5 3 5 5 5 5 5 5 5 5 5 5 3 5 5 5 5 5 5 5 5 5 5 5 5 5 5 5 5 5 5 5 5 5 5 5 5 5 5 5 5 5 5 5 5 5 5 5 5 5 5 5 5 5 5 5 5 5 3 3 5 5 5 5 5 5 5 5 5 5 5 5 5 3 3 5 5 5 3 5 5 3 5 5 5 3 5 5 5 3 5 5 5 5 5 5 5 5 3 5 5 3 5 3 3 5 5 5 5 5 5 3 5 3 3 3 5 5 3 5 5 3 3 5 5 5 5 5 5 5 5 5 5 5 5 5 5 5 5 5 5 5 5 5 3 5 5 5 5 5 5 5 5 5 3 5 5 5 5 5 5 5 3 3 5 5 5 5 5 5 5 5 5 5 5 5 5 5 5 5 5 5 5 5 5 5 5 3 5 3 5 5 5 5 5 5 5 3 5 5 5 3 3 5 5 3 5 5 5 5 3 5 5 5 3 5 5 5 3 5 5 5 5 5 5 5 5 5 3 3 5 5 5 5 5 3 5 5 3 3 3 5 5 5 5 5 3 5 5 5 5 5 5 5 5 5 3 5 3 5 5 5 5 5 5 5 5 5 5 5 5 5 5 5 5 5 5 5 5 5 5 5 5 3 5 5 5 5 3 3 5 5 5 3 5 5 5 5 5 5 5 5 5 5 5 5 5 5 5 5 3 5 5 5 3 5 5 3 5 5 5 5 5 5 5 5 5 5 5 5 5 3 5 5 3 5 5 5 3 5 3 5 3 5 3 3 3 5 5 5 5 5 5 5 5 3 5 5 5 5 5 5 5 5 3 5 5 3 5 5 5 5 5 5 5 5 5 5 5 5 5 5 5 5 5 5 5 5 5 3 5 5 5 5 5 5 5 5 5 5 3 5 3 5 5 3 5 3 5 3 5 5 3 5 3 5 5 3 5 5 5 3 5 5 5 5 5 5 5 5 5 5 5 5 5 5 5 5 5 5 5 5 5 5 5 5 5 5 5 5 5 5 5 5 5 5 5 5 5 5 5 5 5 5 5 5 5 5 5 5 5 5 5 5 5 5 5 5 5 5 5 5 5 3 5 5 3 5 5 5 5 5 5 3 3 5 5 5 5 5 5 5 5 5 5 5 5 5 5 5 5 5 5 3 5 5 5 3 5 5 5 5 5 5 5 5 5 5 5 5 5 5 5 5 3 5 5 5 5 5 5 5 3 5 5 5 5 5 5 5 5 3 5 3 5 5 5 5 5 5 5 5 5 5 5 5 5 5 5 5 3 5 5 5 5 5 5 5 3 5 5 5 5 3 5 5 5 5 5 5 5 3 5 5 3 3 5 5 3 5 5 5 5 5 5 3 5 5 5 5 5 5 5 5 5 3 5 5 3 5 5 3 5 5 3 5 5 5 5 5 3 5 5 5 5 5 5 5 5 3 5 5 5 5 5 5 5 3 5 5 5 5 5 5 5 5 5 5 5 5 3 5 5 5 5 5 5 5 3 3 5 3 5 3 5 5 5 5 5 5 5 5 5 5 5 5 5 5 5 3 5 3 5 5 5 5 5 5 5 5 3 5 3 5 3 5 3 5 3 5 5 3 5 5 5 5 5 3 5 5 5 5 5 5 5 5 3 5 5 5 5 5 3 5 5 3 5 3 3 5 5 5 5 5 5 5 5 3 5 5 5 5 5 5 5 5 5 5 5 5 5 3 5 5 5 5 5 5 5 3 5 5 5 3 5 5 5 5 5 5 5 5 5 5 5 5 5 5 5 5 5 3 5 5 5 5 5 5 5 3 5 5 3 5 5 5 5 5 5 5 5 5 5 5 5 5 5 5 3 5 5 5 5 3 5 5 5 5 5 5 5 5 5 5 5 5 5 5 5 5 5 5 5 5 5 5 5 5 5 3 5 5 5 5 5 5 3 5 5 5 5 5 5 5 5 5 3 3 5 5 5 3 5 3 5 5 5 5 5 5 5 5 5 5 5 5 5 5 5 3 5 5 5 5 5 5 5 5 5 5 5 5 3 3 5 5 5 5 5 5 5 5 3 5 5 3 5 5 3 3 5 5 5 5 5 5 5 3 5 5 5 5 5 5 5 5 5 3 5 5 5 3 5 5 5 5 5 3 5 5 5 5 5 5 5 5 5 5 5 5 3 5 5 5 3 5 5 5 3 5 5 5 5 5 5 5 5 5 5 5 5 5 5 5 5 5 5 5 5 5 5 5 5 5 5 5 5 5 5 5 5 3 5 5 5 5 5 5 5 5 5 5 5 5 5 5 5 5 5 5 5 5 5 5 5 5 3 5 3 5 5 3 5 5 5 5 5 5 5 5 5 3 5 5 5 5 5 5 5 5 5 5 5 5 5 5 3 5 5 5 5 3 5 5 5 3 5 5 5 5 5 5 5 5 5 5 5 5 5 5 5 5 5 5 5 5 5 5 5 5 5 5 5 5 5 5 5 5 5 5 5 5 5 5 5 5 5 5 5 5 5 5 5 5 5 5 5 5 5 5 5 5 5 5 5 5 5 5 5 5 5 5 5 5 5 5 5 5 5 5 5 5 5 5 5 5 5 5 5 5 5 5 5 5 5 5 5 5 5 5 5 5 5 5 5 5 5 5 5 5 5 5 5 5 5 5 5 5 5 5 5 5 5 5 5 5 5 5 5 5 5 5 5 5 5 5 5 5 5 5 5 5 5 5 5 5 5 5 5 5 5 5 5 5 5 5 5 5 5 5 5 5 5 5 5 5 5 5 5 5 5 5 5 5 5 5 5 5 5 5 5 5 5 5 5 5 5 5 5 5 5 5 5 5 5 3 5 5 5 5 5 5 5 5 5 5 5 5 5 5 5 5 3 5 5 5 5 5 5 5 5 3 5 5 5 5 3 5 5 5 5 5 5 5 5 5 5 5 5 5 5 5 5 5 5 5 5 5 5 3 5 5 5 5 5 5 5 5 5 5 5 5 5 3 3 5 5 5 5 5 3 5 3 5 5 5 5 5 5 5 5 5 5 5 3 5 5 5 5 5 5 5 3 5 5 5 5 5 5 5 5 5 5 5 5 5 5 5 3 3 5 5 5 5 5 5 5 5 5 5 5 5 3 5 5 5 5 5 5 5 5 5 5 5 5 5 5 5 5 3 5 5 5 5 5 5 5 3 5 5 5 5 5 5 5 5 5 5 3 3 5 5 5 5 5 5 5 5 5 5 5 5 5 5 5 5 5 5 5 5 5 5 5 5 5 5 5 5 5 5 3 5 5 5 5 5 3 5 5 5 5 5 5 5 5 5 5 3 5 5 5 5 3 5 5 5 5 5 5 5 5 5 5 3 5 3 5 5 5 5 5 5 5 5 5 5 5 5 5 5 5 5 5 5 5 5 5 5 5 5 5 5 5 5 5 5 5 3 5 5 5 5 5 3 5 5 5 5 5 5 5 5 5 5 5 5 5 5 5 5 5 5 3 5 5 3 5 5 5 3 5 5 5 5 5 3 5 5 5 5 5 5 5 5 5 5 3 5 5 5 5 5 5 3 5 5 5 5 5 3 3 5 5 3 5 5 3 5 5 5 5 5 5 5 5 5 5 3 5 5 3 5 5 3 5 5 3 5 5 3 5 5 3 5 5 5 5 5 5 3 5 5 5 5 5 5 5 5 5 5 5 3 5 5 5 5 5 5 5 3 5 5 5 5 3 5 5 5 3 5 5 5 5 5 5 5 5 5 5 5 3 5 5 5 5 5 5 5 5 5 5 5 5 5 5 5 5 5 5 5 5 5 5 5 5 3 5 5 5 5 5 3 5 5 5 5 5 5 5 5 5 5 5 5 5 5 3 5 5 3 5 3 5 5 5 5 3 5 3 3 5 3 5 5 5 5 5 5 5 3 5 3 5 5 5 5 5 5 3 5 5 5 5 5 5 3 5 5 5 5 3 5 5 5 5 5 3 5 5 3 5 5 5 5 3 5 5 5 5 3 5 5 5 5 5 5 3 5 5 5 5 5 5 5 5 5 3 5 5 5 5 5 5 3 5 5 5 5 3 5 5 5 5 5 5 5 5 5 5 5 5 5 5 5 5 3 5 5 5 3 5 5 3 5 5 5 5 5 5 5 5 5 5 5 5 5 5 5 5 3 5 3 5 5 5 5 5 5 5 5 5 5 5 5 5 5 5 5 5 5 5 5 5 5 5 5 5 5 3 5 5 3 5 5 5 5 5 5 5 5 5 5 3 5 5 5 5 3 5 5 5 5 3 5 5 5 5 5 5 5 5 5 3 5 5 5 5 5 5 5 5 5 5 5 5 5 5 5 5 5 5 5 5 5 5 5 5 5 5 5 5 
</DataArray>
</Cells>
<PointData Scalars="" Vectors="displacement," Tensors="">
<DataArray type="Float64" Name="displacement" NumberOfComponents="3" format="ascii">
0.034997120334374215 2.6772196401233375e-07 0 0.034114525940974492 0.00017771960157708511 0 0.034997656496407591 7.4136441091351558e-07 0 0.034997120334374215 2.6772196401233375e-07 0 0.033468221622244172 0.00011778761509685424 0 0.034114525940974492 0.00017771960157708511 0 0.034997120334374215 2.6772196401233375e-07 0 0.033468221622244172 0.00011778761509685424 0 0.031404210564702932 2.5958988022520727e-07 0 0.033468221622244172 0.00011778761509685424 0 0.031404210564702932 2.5958988022520727e-07 0 0.032844400399725644 -8.2285855394614423e-05 0 0.031404210564702932 2.5958988022520727e-07 0 0.032844400399725644 -8.2285855394614423e-05 0 0.031208798212722461 6.7408339517904001e-05 0 0.033174431208371193 -0.00021907912145190933 0 0.033347269150404896 -0.00021981831138915303 0 0.032844400399725644 -8.2285855394614423e-05 0 0.032238833058047395 -0.00034878662286569903 0 0.032183619811138729 -0.00011216836486099062 0 0.032844400399725644 -8.2285855394614423e-05 0 0.032183619811138729 -0.00011216836486099062 0 0.032238024793396658 -1.0815470497621737e-05 0 0.033468221622244172 0.00011778761509685424 0 0.032844400399725644 -8.2285855394614423e-05 0 0.034114525940974492 0.00017771960157708511 0 0.032844400399725644 -8.2285855394614423e-05 0 0.034114525940974492 0.00017771960157708511 0 0.034443388726214351 -0.00027108710981355987 0 0.034114525940974492 0.00017771960157708511 0 0.034884728996395595 2.8579360097853207e-05 0 0.034443388726214351 -0.00027108710981355987 0 0.034114525940974492 0.00017771960157708511 0 0.034997656496407591 7.4136441091351558e-07 0 0.034884728996395595 2.8579360097853207e-05 0 0.034999998808932058 -9.987765733388598e-11 0 0.034998520916504711 4.2112126332768918e-07 0 0.03499999819116955 5.4021849005506305e-10 0 0.034998922670310371 -4.2395226513173733e-07 0 0.034467100378814529 -0.00013530485975914335 0 0.03499999819116955 5.4021849005506305e-10 0 0.034998253755788564 7.6783440210225852e-07 0 0.034999259597117909 1.2532243881626461e-06 0 0.03499999819116955 5.4021849005506305e-10 0 0.034999997017938482 1.896179547578819e-09 0 0.034999259597117909 1.2532243881626461e-06 0 0.034998520916504711 4.2112126332768918e-07 0 0.03499999819116955 5.4021849005506305e-10 0 0.034998253755788564 7.6783440210225852e-07 0 0.034998520916504711 4.2112126332768918e-07 0 0.034998253755788564 7.6783440210225852e-07 0 0.034996348813466638 6.031612156477168e-07 0 0.034467100378814529 -0.00013530485975914335 0 0.03364604315254225 -0.00016069626287863024 0 0.034998253755788564 7.6783440210225852e-07 0 0.034997837523995302 8.282982836878277e-07 0 0.034996348813466638 6.031612156477168e-07 0 0.034998253755788564 7.6783440210225852e-07 0 0.034997837523995302 8.282982836878277e-07 0 0.034999259597117909 1.2532243881626461e-06 0 0.034174098086439064 -6.6987496629535362e-05 0 0.03364604315254225 -0.00016069626287863024 0 0.033485721191257638 -0.00014621696282624618 0 0.033302507391931371 -0.00036238827385450391 0 0.033041816668775564 -0.0002565199755694647 0 0.033485721191257638 -0.00014621696282624618 0 0.033302507391931371 -0.00036238827385450391 0 0.033535821193042173 -0.00041464149258639142 0 0.033302507391931371 -0.00036238827385450391 0 0.033041816668775564 -0.0002565199755694647 0 0.033254367512832866 -0.00062904879747857612 0 0.031923888255025519 -0.00040892616340933521 0 0.031803245193947983 -0.00021019334823204865 0 0.032040630659268453 -0.00024662156514911797 0 0.03364604315254225 -0.00016069626287863024 0 0.032781256471300625 -0.00037881091966102798 0 0.031803245193947983 -0.00021019334823204865 0 0.032040630659268453 -0.00024662156514911797 0 0.031973237882125173 -0.00012457110546280144 0 0.033254367512832866 -0.00062904879747857612 0 0.033535821193042173 -0.00041464149258639142 0 0.033606538728918535 -0.00064609386525860384 0 0.033302507391931371 -0.00036238827385450391 0 0.033254367512832866 -0.00062904879747857612 0 0.033535821193042173 -0.00041464149258639142 0 0.031923888255025519 -0.00040892616340933521 0 0.032238833058047395 -0.00034878662286569903 0 0.032040630659268453 -0.00024662156514911797 0 0.03364604315254225 -0.00016069626287863024 0 0.033347269150404896 -0.00021981831138915303 0 0.034884728996395595 2.8579360097853207e-05 0 0.035007302789719641 -0.00024169948185927663 0 0.034443388726214351 -0.00027108710981355987 0 0.032040630659268453 -0.00024662156514911797 0 0.032183619811138729 -0.00011216836486099062 0 0.032089083477502264 -0.00013523851880362783 0 0.032040630659268453 -0.00024662156514911797 0 0.032089083477502264 -0.00013523851880362783 0 0.031973237882125173 -0.00012457110546280144 0 0.032238833058047395 -0.00034878662286569903 0 0.032040630659268453 -0.00024662156514911797 0 0.032183619811138729 -0.00011216836486099062 0 0.032183619811138729 -0.00011216836486099062 0 0.032182910513104464 -6.7543948447252729e-05 0 0.032238024793396658 -1.0815470497621737e-05 0 0.032182910513104464 -6.7543948447252729e-05 0 0.032188828474385381 -0.00011171293840721285 0 0.032238024793396658 -1.0815470497621737e-05 0 0.032182910513104464 -6.7543948447252729e-05 0 0.032157294537705071 -7.2396293332285913e-05 0 0.032166946829699554 -8.4454321006230916e-05 0 0.032182910513104464 -6.7543948447252729e-05 0 0.032143520845750846 -8.6667498999939502e-05 0 0.032157294537705071 -7.2396293332285913e-05 0 0.032183619811138729 -0.00011216836486099062 0 0.032182910513104464 -6.7543948447252729e-05 0 0.032143520845750846 -8.6667498999939502e-05 0 0.032183619811138729 -0.00011216836486099062 0 0.032089083477502264 -0.00013523851880362783 0 0.032143520845750846 -8.6667498999939502e-05 0 0.032089083477502264 -0.00013523851880362783 0 0.032143520845750846 -8.6667498999939502e-05 0 0.032095024779689556 -7.3746300019525494e-05 0 0.032089083477502264 -0.00013523851880362783 0 0.032095024779689556 -7.3746300019525494e-05 0 0.031973237882125173 -0.00012457110546280144 0 0.032095024779689556 -7.3746300019525494e-05 0 0.031973237882125173 -0.00012457110546280144 0 0.031972397370580344 -9.7715418420183547e-06 0 0.028895656096046426 -0.00081664049381170516 0 0.028790890216443613 -0.00087357645891956428 0 0.032095024779689556 -7.3746300019525494e-05 0 0.032133760801879921 -6.0150585976923585e-05 0 0.032101951420498306 -5.4218662404328458e-06 0 0.032095024779689556 -7.3746300019525494e-05 0 0.0320684601701825 4.6731301870757731e-05 0 0.031972397370580344 -9.7715418420183547e-06 0 0.028890741493610487 -0.00090698798208315064 0 0.028790890216443613 -0.00087357645891956428 0 0.032133760801879921 -6.0150585976923585e-05 0 0.032166946829699554 -8.4454321006230916e-05 0 0.032175149673459649 -8.9151460104176222e-05 0 0.032143520845750846 -8.6667498999939502e-05 0 0.032157294537705071 -7.2396293332285913e-05 0 0.032133760801879921 -6.0150585976923585e-05 0 0.032143520845750846 -8.6667498999939502e-05 0 0.032095024779689556 -7.3746300019525494e-05 0 0.032133760801879921 -6.0150585976923585e-05 0 0.032157294537705071 -7.2396293332285913e-05 0 0.032133760801879921 -6.0150585976923585e-05 0 0.032166946829699554 -8.4454321006230916e-05 0 0.032166946829699554 -8.4454321006230916e-05 0 0.032175149673459649 -8.9151460104176222e-05 0 0.032174481329156249 -0.00011720309287968858 0 0.028790890216443613 -0.00087357645891956428 0 0.028019335258035984 -0.00068652735420207819 0 0.032175149673459649 -8.9151460104176222e-05 0 0.032174481329156249 -0.00011720309287968858 0 0.032187327591985233 -0.00014888173743963837 0 0.032174481329156249 -0.00011720309287968858 0 0.032188828474385381 -0.00011171293840721285 0 0.032161319994962391 -0.00015800941576680233 0 0.032188828474385381 -0.00011171293840721285 0 0.032161319994962391 -0.00015800941576680233 0 0.032167067756337361 -0.00018016198994072664 0 0.032166946829699554 -8.4454321006230916e-05 0 0.032174481329156249 -0.00011720309287968858 0 0.032188828474385381 -0.00011171293840721285 0 0.032182910513104464 -6.7543948447252729e-05 0 0.032166946829699554 -8.4454321006230916e-05 0 0.032188828474385381 -0.00011171293840721285 0 0.031803245193947983 -0.00021019334823204865 0 0.031652500660490454 7.8626555901455577e-06 0 0.031844335151585287 -2.4228819750333595e-05 0 0.033254367512832866 -0.00062904879747857612 0 0.033464616093674522 -0.00098749638175015799 0 0.033606538728918535 -0.00064609386525860384 0 0.032781256471300625 -0.00037881091966102798 0 0.032109453414384918 -0.0007314181326212721 0 0.031652500660490454 7.8626555901455577e-06 0 0.031844335151585287 -2.4228819750333595e-05 0 0.03176586355038221 8.6432918109361393e-05 0 0.031803245193947983 -0.00021019334823204865 0 0.031844335151585287 -2.4228819750333595e-05 0 0.031973237882125173 -0.00012457110546280144 0 0.031844335151585287 -2.4228819750333595e-05 0 0.031973237882125173 -0.00012457110546280144 0 0.031972397370580344 -9.7715418420183547e-06 0 0.0320684601701825 4.6731301870757731e-05 0 0.031893479425309068 0.00012788114378940835 0 0.031902477511276436 0.00032208061444463225 0 0.028790890216443613 -0.00087357645891956428 0 0.028138268542097392 -0.00097072925563722768 0 0.031844335151585287 -2.4228819750333595e-05 0 0.031972397370580344 -9.7715418420183547e-06 0 0.031893479425309068 0.00012788114378940835 0 0.0320684601701825 4.6731301870757731e-05 0 0.031972397370580344 -9.7715418420183547e-06 0 0.031893479425309068 0.00012788114378940835 0 0.031844335151585287 -2.4228819750333595e-05 0 0.031893479425309068 0.00012788114378940835 0 0.03176586355038221 8.6432918109361393e-05 0 0.031893479425309068 0.00012788114378940835 0 0.03176586355038221 8.6432918109361393e-05 0 0.031673749748695246 0.00023568450918843063 0 0.031652500660490454 7.8626555901455577e-06 0 0.031673749748695246 0.00023568450918843063 0 0.031511086313047616 0.00023792278652960688 0 0.031652500660490454 7.8626555901455577e-06 0 0.03176586355038221 8.6432918109361393e-05 0 0.031673749748695246 0.00023568450918843063 0 0.031673749748695246 0.00023568450918843063 0 0.031718117431894829 0.00040216973033489653 0 0.031902477511276436 0.00032208061444463225 0 0.031673749748695246 0.00023568450918843063 0 0.031718117431894829 0.00040216973033489653 0 0.031567854075434346 0.00042278631163593985 0 0.031893479425309068 0.00012788114378940835 0 0.031673749748695246 0.00023568450918843063 0 0.031902477511276436 0.00032208061444463225 0 0.028138268542097392 -0.00097072925563722768 0 0.026395176476510573 -0.0011193067666699708 0 0.027461159339738622 -0.00086292116771756098 0 0.027552646279847721 -0.0005213476009085649 0 0.027265759151731437 -0.0005259001043259082 0 0.027461159339738622 -0.00086292116771756098 0 0.027552646279847721 -0.0005213476009085649 0 0.027604821624741788 -0.00086067890509058205 0 0.026400315516814554 -0.00042747415698976175 0 0.026395176476510573 -0.0011193067666699708 0 0.031725917386091172 0.00063083599128114858 0 0.031567854075434346 0.00042278631163593985 0 0.031482292374818963 0.00063180970975423531 0 0.031718117431894829 0.00040216973033489653 0 0.031725917386091172 0.00063083599128114858 0 0.031567854075434346 0.00042278631163593985 0 0.026395176476510573 -0.0011193067666699708 0 0.027957722360389875 -0.0010313957423021517 0 0.031718117431894829 0.00040216973033489653 0 0.031902477511276436 0.00032208061444463225 0 0.031725917386091172 0.00063083599128114858 0 0.027658366960285865 -0.0011994326146305117 0 0.027461159339738622 -0.00086292116771756098 0 0.027604821624741788 -0.00086067890509058205 0 0.032174481329156249 -0.00011720309287968858 0 0.032161319994962391 -0.00015800941576680233 0 0.032187327591985233 -0.00014888173743963837 0 0.032177801454730211 -0.00018158682626512597 0 0.032161319994962391 -0.00015800941576680233 0 0.032187327591985233 -0.00014888173743963837 0 0.026400315516814554 -0.00042747415698976175 0 0.028019335258035984 -0.00068652735420207819 0 0.032177801454730211 -0.00018158682626512597 0 0.032161319994962391 -0.00015800941576680233 0 0.032148470896372405 -0.00018384123902500177 0 0.032161319994962391 -0.00015800941576680233 0 0.032148335476965544 -0.00017029081595537764 0 0.032148470896372405 -0.00018384123902500177 0 0.032148335476965544 -0.00017029081595537764 0 0.032117941737831598 -0.00018966830343384005 0 0.032148470896372405 -0.00018384123902500177 0 0.032161319994962391 -0.00015800941576680233 0 0.032148335476965544 -0.00017029081595537764 0 0.032167067756337361 -0.00018016198994072664 0 0.032148335476965544 -0.00017029081595537764 0 0.032143487607712823 -0.00017027969687170524 0 0.032167067756337361 -0.00018016198994072664 0 0.0316843165330832 -0.00062037585353270409 0 0.02970273286161482 -0.00073457969055399557 0 0.031066640220885029 -0.00021332762302435045 0 0.023767643688861816 -0.0016571121368922257 0 0.023979232596105637 -0.00085271022805218847 0 0.024924364637721293 -0.0010489888136904493 0 0.028304653790880898 0.00056209846729980868 0 0.027402423774591539 4.3502124515683942e-05 0 0.028304653790880898 0.00056209846729980868 0 0.028313987588625134 0.0005586698117901732 0 0.028304653790880898 0.00056209846729980868 0 0.027540497910376223 -0.00017612503940680387 0 0.032148335476965544 -0.00017029081595537764 0 0.032143487607712823 -0.00017027969687170524 0 0.032129486793999212 -0.00017527790300399869 0 0.032148335476965544 -0.00017029081595537764 0 0.032129486793999212 -0.00017527790300399869 0 0.032117941737831598 -0.00018966830343384005 0 0.027540497910376223 -0.00017612503940680387 0 0.02670953136640427 -0.00072482910321820262 0 0.023979232596105637 -0.00085271022805218847 0 0.024526494991541619 -0.00055683307928541153 0 0.024193313440764815 -2.7638965687002655e-05 0 0.024526494991541619 -0.00055683307928541153 0 0.024924364637721293 -0.0010489888136904493 0 0.024839955083594 -7.6594937821258943e-06 0 0.024924364637721293 -0.0010489888136904493 0 0.025531080994559689 0.00012675795482954507 0 0.024839955083594 -7.6594937821258943e-06 0 0.024526494991541619 -0.00055683307928541153 0 0.024839955083594 -7.6594937821258943e-06 0 0.024193313440764815 -2.7638965687002655e-05 0 0.023979232596105637 -0.00085271022805218847 0 0.024526494991541619 -0.00055683307928541153 0 0.024924364637721293 -0.0010489888136904493 0 0.026667562613235211 -1.9152834945251784e-07 0 0.027402423774591539 4.3502124515683942e-05 0 0.026663346807475685 -1.7923262107602588e-06 0 0.024924364637721293 -0.0010489888136904493 0 0.025531080994559689 0.00012675795482954507 0 0.026669736938708478 -2.8288842814269937e-06 0 0.02970273286161482 -0.00073457969055399557 0 0.028698737989604931 5.0586783756505325e-07 0 0.02970273286161482 -0.00073457969055399557 0 0.031066640220885029 -0.00021332762302435045 0 0.028698737989604931 5.0586783756505325e-07 0 0.031066640220885029 -0.00021332762302435045 0 0.028698737989604931 5.0586783756505325e-07 0 0.031208798212722461 6.7408339517904001e-05 0 0.031404210564702932 2.5958988022520727e-07 0 0.028698737989604931 5.0586783756505325e-07 0 0.031208798212722461 6.7408339517904001e-05 0 0.031066640220885029 -0.00021332762302435045 0 0.031208798212722461 6.7408339517904001e-05 0 0.031935200335601953 -2.5233594470637932e-05 0 0.032844400399725644 -8.2285855394614423e-05 0 0.031208798212722461 6.7408339517904001e-05 0 0.031935200335601953 -2.5233594470637932e-05 0 0.032844400399725644 -8.2285855394614423e-05 0 0.031935200335601953 -2.5233594470637932e-05 0 0.032238024793396658 -1.0815470497621737e-05 0 0.031935200335601953 -2.5233594470637932e-05 0 0.032238024793396658 -1.0815470497621737e-05 0 0.031941631525559011 -0.00014182160992507934 0 0.032238024793396658 -1.0815470497621737e-05 0 0.032167067756337361 -0.00018016198994072664 0 0.031941631525559011 -0.00014182160992507934 0 0.032188828474385381 -0.00011171293840721285 0 0.032238024793396658 -1.0815470497621737e-05 0 0.032167067756337361 -0.00018016198994072664 0 0.031725005103786681 -0.00059061661672488001 0 0.032167067756337361 -0.00018016198994072664 0 0.031744651602024658 -0.0004882393243197545 0 0.032167067756337361 -0.00018016198994072664 0 0.031744651602024658 -0.0004882393243197545 0 0.031941631525559011 -0.00014182160992507934 0 0.028304653790880898 0.00056209846729980868 0 0.029238656161165857 0.00079206848438839056 0 0.031066640220885029 -0.00021332762302435045 0 0.031744651602024658 -0.0004882393243197545 0 0.031941631525559011 -0.00014182160992507934 0 0.0316843165330832 -0.00062037585353270409 0 0.031066640220885029 -0.00021332762302435045 0 0.031744651602024658 -0.0004882393243197545 0 0.031066640220885029 -0.00021332762302435045 0 0.031935200335601953 -2.5233594470637932e-05 0 0.031941631525559011 -0.00014182160992507934 0 0.032285978393958054 -0.00037246897609866645 0 0.030787295354070897 -0.0013138735051362908 0 0.034775238406870065 0.00033844313091150805 0 0.034823352274570701 0.0014696669607650919 0 0.034219173957923073 0.00055527129217550794 0 0.034934837649332827 -0.00010385750024549545 0 0.034955942023457122 -7.972147028660548e-05 0 0.034960975962385482 -0.00013504055414831776 0 0.034934837649332827 -0.00010385750024549545 0 0.034928805404314596 -0.00015031981763737143 0 0.034960975962385482 -0.00013504055414831776 0 0.034934837649332827 -0.00010385750024549545 0 0.034904590778560264 -0.00014733437252363127 0 0.034928805404314596 -0.00015031981763737143 0 0.034934837649332827 -0.00010385750024549545 0 0.034939015580380206 -5.736182992574804e-05 0 0.034944394939127821 -5.3380806959052165e-05 0 0.034934837649332827 -0.00010385750024549545 0 0.034939015580380206 -5.736182992574804e-05 0 0.034955942023457122 -7.972147028660548e-05 0 0.032285978393958054 -0.00037246897609866645 0 0.032736895341393464 -0.00026999008392535517 0 0.034939015580380206 -5.736182992574804e-05 0 0.034955942023457122 -7.972147028660548e-05 0 0.034892130218615855 -5.6318068273792786e-05 0 0.034775238406870065 0.00033844313091150805 0 0.034892130218615855 -5.6318068273792786e-05 0 0.034287701761639082 -4.8711105041310768e-05 0 0.034892130218615855 -5.6318068273792786e-05 0 0.034999899126139898 -1.1370914692756551e-07 0 0.0349586673315255 -3.5628590995848449e-05 0 0.034892130218615855 -5.6318068273792786e-05 0 0.034999899126139898 -1.1370914692756551e-07 0 0.034724994538178101 -6.8406514372937387e-05 0 0.034999899126139898 -1.1370914692756551e-07 0 0.0349586673315255 -3.5628590995848449e-05 0 0.034999931162392098 3.8471729313484124e-09 0 0.034939015580380206 -5.736182992574804e-05 0 0.034892130218615855 -5.6318068273792786e-05 0 0.0349586673315255 -3.5628590995848449e-05 0 0.034939015580380206 -5.736182992574804e-05 0 0.0349586673315255 -3.5628590995848449e-05 0 0.034944394939127821 -5.3380806959052165e-05 0 0.034944394939127821 -5.3380806959052165e-05 0 0.034963991147106729 -1.0325300330142419e-05 0 0.034930910935381039 -4.0228888204533457e-05 0 0.0349586673315255 -3.5628590995848449e-05 0 0.034944394939127821 -5.3380806959052165e-05 0 0.034963991147106729 -1.0325300330142419e-05 0 0.034999931162392098 3.8471729313484124e-09 0 0.034963991147106729 -1.0325300330142419e-05 0 0.034999927104765481 -9.6358675889646465e-09 0 0.0349586673315255 -3.5628590995848449e-05 0 0.034999931162392098 3.8471729313484124e-09 0 0.034963991147106729 -1.0325300330142419e-05 0 0.034963991147106729 -1.0325300330142419e-05 0 0.034999927104765481 -9.6358675889646465e-09 0 0.034947439424676645 9.3449210818396729e-06 0 0.034947439424676645 9.3449210818396729e-06 0 0.034930910935381039 -4.0228888204533457e-05 0 0.034846306986963699 -3.3732118667543201e-05 0 0.034963991147106729 -1.0325300330142419e-05 0 0.034947439424676645 9.3449210818396729e-06 0 0.034930910935381039 -4.0228888204533457e-05 0 0.034930910935381039 -4.0228888204533457e-05 0 0.034871181920936606 -9.273668119911994e-05 0 0.034846306986963699 -3.3732118667543201e-05 0 0.034871181920936606 -9.273668119911994e-05 0 0.034866256418590903 -0.0001421936752307489 0 0.034818509563586508 -0.000138597081097297 0 0.034871181920936606 -9.273668119911994e-05 0 0.03491618003200235 -9.6049545904744167e-05 0 0.034866256418590903 -0.0001421936752307489 0 0.034930910935381039 -4.0228888204533457e-05 0 0.034871181920936606 -9.273668119911994e-05 0 0.03491618003200235 -9.6049545904744167e-05 0 0.034934837649332827 -0.00010385750024549545 0 0.034944394939127821 -5.3380806959052165e-05 0 0.03491618003200235 -9.6049545904744167e-05 0 0.034944394939127821 -5.3380806959052165e-05 0 0.034930910935381039 -4.0228888204533457e-05 0 0.03491618003200235 -9.6049545904744167e-05 0 0.034934837649332827 -0.00010385750024549545 0 0.03491618003200235 -9.6049545904744167e-05 0 0.034904590778560264 -0.00014733437252363127 0 0.03491618003200235 -9.6049545904744167e-05 0 0.034904590778560264 -0.00014733437252363127 0 0.034866256418590903 -0.0001421936752307489 0 0.034904590778560264 -0.00014733437252363127 0 0.034866256418590903 -0.0001421936752307489 0 0.034855174768242639 -0.00019053291577632327 0 0.034866256418590903 -0.0001421936752307489 0 0.034797689181188592 -0.00018279252675013137 0 0.034855174768242639 -0.00019053291577632327 0 0.034866256418590903 -0.0001421936752307489 0 0.034818509563586508 -0.000138597081097297 0 0.034797689181188592 -0.00018279252675013137 0 0.03276826583412433 -0.0011337307009500655 0 0.032995235531514087 -0.00099983778210315562 0 0.034755595618911402 -0.0002169227328070517 0 0.034690829494430517 -0.00022135784316295072 0 0.034731159711805057 -0.00013856509335809691 0 0.034818509563586508 -0.000138597081097297 0 0.034797689181188592 -0.00018279252675013137 0 0.034731159711805057 -0.00013856509335809691 0 0.034517617092963117 -0.0008740170618935692 0 0.034441197594432621 -0.00059416447754555496 0 0.034699454950366589 -8.12090956045306e-05 0 0.032742580022026041 -0.0010293122784791409 0 0.033258260232654609 -0.0010126432507247213 0 0.034517617092963117 -0.0008740170618935692 0 0.034441197594432621 -0.00059416447754555496 0 0.034155239774545133 -0.00056432499445226852 0 0.034441197594432621 -0.00059416447754555496 0 0.034699454950366589 -8.12090956045306e-05 0 0.034511114700983954 -0.00021012801302430184 0 0.032742580022026041 -0.0010293122784791409 0 0.033424794198716384 -0.00027249575107320963 0 0.034690829494430517 -0.00022135784316295072 0 0.034699454950366589 -8.12090956045306e-05 0 0.034731159711805057 -0.00013856509335809691 0 0.034441197594432621 -0.00059416447754555496 0 0.034396119689046337 -0.00035180965021778973 0 0.034253772087102931 -0.00039511464505590633 0 0.034441197594432621 -0.00059416447754555496 0 0.034396119689046337 -0.00035180965021778973 0 0.034511114700983954 -0.00021012801302430184 0 0.034396119689046337 -0.00035180965021778973 0 0.034340644651530909 -0.00019557466467823561 0 0.034253772087102931 -0.00039511464505590633 0 0.034396119689046337 -0.00035180965021778973 0 0.034340644651530909 -0.00019557466467823561 0 0.034511114700983954 -0.00021012801302430184 0 0.034699454950366589 -8.12090956045306e-05 0 0.034798630453671826 -0.00010142218779710131 0 0.034846306986963699 -3.3732118667543201e-05 0 0.034699454950366589 -8.12090956045306e-05 0 0.034731159711805057 -0.00013856509335809691 0 0.034798630453671826 -0.00010142218779710131 0 0.034871181920936606 -9.273668119911994e-05 0 0.034818509563586508 -0.000138597081097297 0 0.034798630453671826 -0.00010142218779710131 0 0.034818509563586508 -0.000138597081097297 0 0.034731159711805057 -0.00013856509335809691 0 0.034798630453671826 -0.00010142218779710131 0 0.034871181920936606 -9.273668119911994e-05 0 0.034798630453671826 -0.00010142218779710131 0 0.034846306986963699 -3.3732118667543201e-05 0 0.034947439424676645 9.3449210818396729e-06 0 0.034846306986963699 -3.3732118667543201e-05 0 0.034684472195730114 8.8373947397981696e-05 0 0.034807013717855655 3.6248674929221374e-05 0 0.034723331548127193 2.686732872232886e-05 0 0.034947439424676645 9.3449210818396729e-06 0 0.034986762556929396 2.1016281568307237e-06 0 0.035000453855145899 1.1146527958339497e-05 0 0.034699454950366589 -8.12090956045306e-05 0 0.034846306986963699 -3.3732118667543201e-05 0 0.034684472195730114 8.8373947397981696e-05 0 0.034999927104765481 -9.6358675889646465e-09 0 0.035000012951104935 3.6663364611613913e-09 0 0.0349967190207639 1.2231807298770813e-06 0 0.034999927104765481 -9.6358675889646465e-09 0 0.034986762556929396 2.1016281568307237e-06 0 0.0349967190207639 1.2231807298770813e-06 0 0.034999927104765481 -9.6358675889646465e-09 0 0.034947439424676645 9.3449210818396729e-06 0 0.034986762556929396 2.1016281568307237e-06 0 0.034986762556929396 2.1016281568307237e-06 0 0.0349967190207639 1.2231807298770813e-06 0 0.035000453855145899 1.1146527958339497e-05 0 0.0349967190207639 1.2231807298770813e-06 0 0.035000453855145899 1.1146527958339497e-05 0 0.035000733393707711 2.6922826714800178e-06 0 0.035000012951104935 3.6663364611613913e-09 0 0.0349967190207639 1.2231807298770813e-06 0 0.035000733393707711 2.6922826714800178e-06 0 0.034723331548127193 2.686732872232886e-05 0 0.034491975350021055 -1.03165972548937e-05 0 0.035000453855145899 1.1146527958339497e-05 0 0.034999901111411255 2.6552245204118016e-06 0 0.035000733393707711 2.6922826714800178e-06 0 0.034340644651530909 -0.00019557466467823561 0 0.034684472195730114 8.8373947397981696e-05 0 0.034046281299453252 4.2018319787514181e-06 0 0.034699454950366589 -8.12090956045306e-05 0 0.034511114700983954 -0.00021012801302430184 0 0.034684472195730114 8.8373947397981696e-05 0 0.034340644651530909 -0.00019557466467823561 0 0.034511114700983954 -0.00021012801302430184 0 0.034684472195730114 8.8373947397981696e-05 0 0.034999901111411255 2.6552245204118016e-06 0 0.035000733393707711 2.6922826714800178e-06 0 0.034999259597117909 1.2532243881626461e-06 0 0.035000012951104935 3.6663364611613913e-09 0 0.035000733393707711 2.6922826714800178e-06 0 0.034999997017938482 1.896179547578819e-09 0 0.035000733393707711 2.6922826714800178e-06 0 0.034999997017938482 1.896179547578819e-09 0 0.034999259597117909 1.2532243881626461e-06 0 0.034997837523995302 8.282982836878277e-07 0 0.034999901111411255 2.6552245204118016e-06 0 0.034999259597117909 1.2532243881626461e-06 0 0.034174098086439064 -6.6987496629535362e-05 0 0.034491975350021055 -1.03165972548937e-05 0 0.033485721191257638 -0.00014621696282624618 0 0.033535821193042173 -0.00041464149258639142 0 0.033796399993588265 -0.0002550533163992552 0 0.033485721191257638 -0.00014621696282624618 0 0.034046281299453252 4.2018319787514181e-06 0 0.033796399993588265 -0.0002550533163992552 0 0.033535821193042173 -0.00041464149258639142 0 0.033796399993588265 -0.0002550533163992552 0 0.033759780192953018 -0.00046073936005201017 0 0.034046281299453252 4.2018319787514181e-06 0 0.033796399993588265 -0.0002550533163992552 0 0.034102381703113034 -0.00028470101624143539 0 0.034340644651530909 -0.00019557466467823561 0 0.034046281299453252 4.2018319787514181e-06 0 0.034102381703113034 -0.00028470101624143539 0 0.034340644651530909 -0.00019557466467823561 0 0.034102381703113034 -0.00028470101624143539 0 0.034253772087102931 -0.00039511464505590633 0 0.034102381703113034 -0.00028470101624143539 0 0.034253772087102931 -0.00039511464505590633 0 0.034155239774545133 -0.00056432499445226852 0 0.033796399993588265 -0.0002550533163992552 0 0.034005042039510845 -0.00048504866881935159 0 0.033759780192953018 -0.00046073936005201017 0 0.033796399993588265 -0.0002550533163992552 0 0.034102381703113034 -0.00028470101624143539 0 0.034155239774545133 -0.00056432499445226852 0 0.033338576421789876 -0.00094048941931427869 0 0.033258260232654609 -0.0010126432507247213 0 0.034005042039510845 -0.00048504866881935159 0 0.033852711637159041 -0.00058361906542949305 0 0.033759780192953018 -0.00046073936005201017 0 0.034441197594432621 -0.00059416447754555496 0 0.034253772087102931 -0.00039511464505590633 0 0.034155239774545133 -0.00056432499445226852 0 0.034005042039510845 -0.00048504866881935159 0 0.034029430866063519 -0.00060100816509547656 0 0.033852711637159041 -0.00058361906542949305 0 0.034220138997392346 -0.00068204611597557144 0 0.034005042039510845 -0.00048504866881935159 0 0.034029430866063519 -0.00060100816509547656 0 0.034029430866063519 -0.00060100816509547656 0 0.033914472821283764 -0.00070566686389330734 0 0.033968246407290535 -0.00083873111683151658 0 0.034029430866063519 -0.00060100816509547656 0 0.033914472821283764 -0.00070566686389330734 0 0.033852711637159041 -0.00058361906542949305 0 0.033914472821283764 -0.00070566686389330734 0 0.033852711637159041 -0.00058361906542949305 0 0.033753761089053362 -0.00081328932444361111 0 0.033852711637159041 -0.00058361906542949305 0 0.033606538728918535 -0.00064609386525860384 0 0.033753761089053362 -0.00081328932444361111 0 0.033535821193042173 -0.00041464149258639142 0 0.033606538728918535 -0.00064609386525860384 0 0.033759780192953018 -0.00046073936005201017 0 0.033852711637159041 -0.00058361906542949305 0 0.033606538728918535 -0.00064609386525860384 0 0.033759780192953018 -0.00046073936005201017 0 0.033464616093674522 -0.00098749638175015799 0 0.033606538728918535 -0.00064609386525860384 0 0.033753761089053362 -0.00081328932444361111 0 0.033464616093674522 -0.00098749638175015799 0 0.033753761089053362 -0.00081328932444361111 0 0.033723354893540086 -0.0010651212458580297 0 0.033753761089053362 -0.00081328932444361111 0 0.033889327650549965 -0.0010026883422634162 0 0.033723354893540086 -0.0010651212458580297 0 0.034029430866063519 -0.00060100816509547656 0 0.033968246407290535 -0.00083873111683151658 0 0.034172616349788777 -0.00096029456532161666 0 0.033914472821283764 -0.00070566686389330734 0 0.033753761089053362 -0.00081328932444361111 0 0.033968246407290535 -0.00083873111683151658 0 0.033968246407290535 -0.00083873111683151658 0 0.034036874083357482 -0.00099224110521390751 0 0.033889327650549965 -0.0010026883422634162 0 0.033968246407290535 -0.00083873111683151658 0 0.034036874083357482 -0.00099224110521390751 0 0.034172616349788777 -0.00096029456532161666 0 0.033753761089053362 -0.00081328932444361111 0 0.033968246407290535 -0.00083873111683151658 0 0.033889327650549965 -0.0010026883422634162 0 0.033889327650549965 -0.0010026883422634162 0 0.033860148420624896 -0.0011759694848498209 0 0.033723354893540086 -0.0010651212458580297 0 0.033860148420624896 -0.0011759694848498209 0 0.033659770938879702 -0.0013321580567932157 0 0.034072740513620144 -0.0013408488386597534 0 0.033889327650549965 -0.0010026883422634162 0 0.034008988268301114 -0.0010928995024866227 0 0.033860148420624896 -0.0011759694848498209 0 0.034036874083357482 -0.00099224110521390751 0 0.033889327650549965 -0.0010026883422634162 0 0.034008988268301114 -0.0010928995024866227 0 0.034036874083357482 -0.00099224110521390751 0 0.034008988268301114 -0.0010928995024866227 0 0.034146904920761577 -0.001067520904702542 0 0.031960214685973633 -0.0014338868822687284 0 0.031760230598061781 -0.0014701441547634456 0 0.034008988268301114 -0.0010928995024866227 0 0.033860148420624896 -0.0011759694848498209 0 0.034072740513620144 -0.0013408488386597534 0 0.034008988268301114 -0.0010928995024866227 0 0.034072740513620144 -0.0013408488386597534 0 0.034136256045511959 -0.0010694519744312021 0 0.033464616093674522 -0.00098749638175015799 0 0.033723354893540086 -0.0010651212458580297 0 0.033659770938879702 -0.0013321580567932157 0 0.032109453414384918 -0.0007314181326212721 0 0.031248096252838507 -0.0011905373416230504 0 0.033860148420624896 -0.0011759694848498209 0 0.033723354893540086 -0.0010651212458580297 0 0.033659770938879702 -0.0013321580567932157 0 0.031333785354897586 -0.0010869295760994001 0 0.031248096252838507 -0.0011905373416230504 0 0.031673749748695246 0.00023568450918843063 0 0.031464304277512185 0.00023336405196245803 0 0.031567854075434346 0.00042278631163593985 0 0.031248096252838507 -0.0011905373416230504 0 0.029942747018534079 -0.0010581070843496169 0 0.031464304277512185 0.00023336405196245803 0 0.031567854075434346 0.00042278631163593985 0 0.031347574119574576 0.00042978513184651501 0 0.031567854075434346 0.00042278631163593985 0 0.031347574119574576 0.00042978513184651501 0 0.031482292374818963 0.00063180970975423531 0 0.027957722360389875 -0.0010313957423021517 0 0.028569702523513409 -0.0012039926965823938 0 0.031347574119574576 0.00042978513184651501 0 0.031482292374818963 0.00063180970975423531 0 0.031230216572536957 0.0006279278464881114 0 0.029949137719839605 -0.0012449210514760515 0 0.029885760875864975 -0.0011545698023360047 0 0.029848046169471679 -0.0013311544126145122 0 0.029330921405061976 -0.0017570780393263426 0 0.029387097947190782 -0.0015280663251691614 0 0.029439711816145308 -0.0016518004148108347 0 0.028554138875670213 -0.0012754596550008739 0 0.030798645461082311 -0.0013476204228711833 0 0.028500108370188324 -0.0012733503820844094 0 0.028207065352211423 -0.0012774005642685188 0 0.028516914365655063 -0.0012013900204401547 0 0.028554138875670213 -0.0012754596550008739 0 0.028204057110636251 -0.0016958877686977245 0 0.02840251819924865 -0.0011919385227893173 0 0.028278492830425123 -0.0011937435964210876 0 0.028365737472286257 -0.0013497477568755109 0 0.028554138875670213 -0.0012754596550008739 0 0.028569702523513409 -0.0012039926965823938 0 0.029949137719839605 -0.0012449210514760515 0 0.029885760875864975 -0.0011545698023360047 0 0.029896286923008449 -0.0011544133684598438 0 0.029942747018534079 -0.0010581070843496169 0 0.028569702523513409 -0.0012039926965823938 0 0.031248096252838507 -0.0011905373416230504 0 0.030798645461082311 -0.0013476204228711833 0 0.030001710943838248 -0.0013355171165459275 0 0.029949137719839605 -0.0012449210514760515 0 0.029848046169471679 -0.0013311544126145122 0 0.030798645461082311 -0.0013476204228711833 0 0.030354447168789458 -0.0017403943859955434 0 0.029507463586809134 -0.001531840369575175 0 0.029439711816145308 -0.0016518004148108347 0 0.029571368022853435 -0.0016860170904067953 0 0.029387097947190782 -0.0015280663251691614 0 0.029507463586809134 -0.001531840369575175 0 0.029439711816145308 -0.0016518004148108347 0 0.028204057110636251 -0.0016958877686977245 0 0.028174576056002376 -0.0027272925741331348 0 0.029439711816145308 -0.0016518004148108347 0 0.029401349919298738 -0.0017562187398796323 0 0.029571368022853435 -0.0016860170904067953 0 0.028204057110636251 -0.0016958877686977245 0 0.028829815129540384 -0.0022967189808394701 0 0.029330921405061976 -0.0017570780393263426 0 0.029439711816145308 -0.0016518004148108347 0 0.029401349919298738 -0.0017562187398796323 0 0.028439141650188876 -0.0023487629067396169 0 0.028350036035036982 -0.0023511376961752122 0 0.028363226221921084 -0.0023814357336487662 0 0.02870656796451693 -0.0030945739648416465 0 0.028751867625991533 -0.0031994623387104982 0 0.028482009377359632 -0.0031973255052397368 0 0.028174576056002376 -0.0027272925741331348 0 0.028829815129540384 -0.0022967189808394701 0 0.029719627149335272 -0.0020909061001430458 0 0.029704664578486358 -0.0020588761189534038 0 0.02966853395829994 -0.0020901085932952972 0 0.030354447168789458 -0.0017403943859955434 0 0.028829815129540384 -0.0022967189808394701 0 0.030354447168789458 -0.0017403943859955434 0 0.030194714151798148 -0.0023106914914385302 0 0.031039872915266942 -0.0018149625437767531 0 0.030993015344814551 -0.001855485926921241 0 0.030920917902228652 -0.0018124404245426359 0 0.030993015344814551 -0.001855485926921241 0 0.031070262057235749 -0.0018832335419585802 0 0.030985913597651103 -0.0018990325650127713 0 0.03165543076628919 -0.0015248551878835554 0 0.031972594055471648 -0.0015856598260044991 0 0.030993015344814551 -0.001855485926921241 0 0.030985913597651103 -0.0018990325650127713 0 0.030948070969823306 -0.0018678779296906853 0 0.030990980439043657 -0.0016740719258699593 0 0.031110243775601901 -0.0014083484619952845 0 0.031051030946587711 -0.0014193315461020531 0 0.030990980439043657 -0.0016740719258699593 0 0.03122535484439708 -0.0016805490838539545 0 0.031110243775601901 -0.0014083484619952845 0 0.030354447168789458 -0.0017403943859955434 0 0.03165543076628919 -0.0015248551878835554 0 0.031039872915266942 -0.0018149625437767531 0 0.030993015344814551 -0.001855485926921241 0 0.031070262057235749 -0.0018832335419585802 0 0.030798645461082311 -0.0013476204228711833 0 0.031760230598061781 -0.0014701441547634456 0 0.031760230598061781 -0.0014701441547634456 0 0.031974790680857429 -0.0014197698692507261 0 0.03165543076628919 -0.0015248551878835554 0 0.031974790680857429 -0.0014197698692507261 0 0.032068028641241461 -0.0016711466591868025 0 0.031897059388658944 -0.00170296814230888 0 0.031962213033829311 -0.001423396115844125 0 0.03165543076628919 -0.0015248551878835554 0 0.031760230598061781 -0.0014701441547634456 0 0.034220138997392346 -0.00068204611597557144 0 0.034029430866063519 -0.00060100816509547656 0 0.034158349493177004 -0.00092730813832887305 0 0.032325220526470445 -0.001414018213980323 0 0.032362787922901114 -0.0012499704945071618 0 0.032111369028586884 -0.0012343423785859634 0 0.032337799490084577 -0.0011922187129331321 0 0.032362787922901114 -0.0012499704945071618 0 0.032111369028586884 -0.0012343423785859634 0 0.03233980538876912 -0.0013588941432557927 0 0.031974790680857429 -0.0014197698692507261 0 0.034036874083357482 -0.00099224110521390751 0 0.034146904920761577 -0.001067520904702542 0 0.034172616349788777 -0.00096029456532161666 0 0.032742580022026041 -0.0010293122784791409 0 0.031974790680857429 -0.0014197698692507261 0 0.032742580022026041 -0.0010293122784791409 0 0.031972594055471648 -0.0015856598260044991 0 0.03276826583412433 -0.0011337307009500655 0 0.03200534013622653 -0.0015316167195466111 0 0.034755595618911402 -0.0002169227328070517 0 0.034690829494430517 -0.00022135784316295072 0 0.034759389026950312 -0.00028516085053360591 0 0.034755595618911402 -0.0002169227328070517 0 0.034759389026950312 -0.00028516085053360591 0 0.034777232986118532 -0.00028198177380791357 0 0.031972594055471648 -0.0015856598260044991 0 0.03200534013622653 -0.0015316167195466111 0 0.03200534013622653 -0.0015316167195466111 0 0.031791210214423306 -0.0014065179716091869 0 0.034797689181188592 -0.00018279252675013137 0 0.034824799263783193 -0.00023968059649957902 0 0.034855174768242639 -0.00019053291577632327 0 0.031144868089357524 -0.0016926161240062671 0 0.031176150143028832 -0.0016864918311311047 0 0.031151628107398993 -0.0017088864843584619 0 0.034824799263783193 -0.00023968059649957902 0 0.034855174768242639 -0.00019053291577632327 0 0.034897675920615642 -0.00022654700800014342 0 0.034904590778560264 -0.00014733437252363127 0 0.034855174768242639 -0.00019053291577632327 0 0.034897675920615642 -0.00022654700800014342 0 0.031791210214423306 -0.0014065179716091869 0 0.031802015150509462 -0.0012964222232717856 0 0.030250323331845616 -0.0025187563294028774 0 0.030098474270454607 -0.0023755413863532663 0 0.029969743613065893 -0.002570296109376688 0 0.032061504611012086 -0.0010176292526179632 0 0.031791210214423306 -0.0014065179716091869 0 0.034904590778560264 -0.00014733437252363127 0 0.034898704894290929 -0.00016499044730013349 0 0.034928805404314596 -0.00015031981763737143 0 0.030250323331845616 -0.0025187563294028774 0 0.030098474270454607 -0.0023755413863532663 0 0.030276814013697678 -0.0022259856135518809 0 0.031791210214423306 -0.0014065179716091869 0 0.030567155420607551 -0.0020445053105063943 0 0.030098474270454607 -0.0023755413863532663 0 0.030113857253345512 -0.002236478258077925 0 0.030276814013697678 -0.0022259856135518809 0 0.03074455467129987 -0.0021856047450497743 0 0.030577915144932771 -0.0018325992175224413 0 0.030458105909083689 -0.0019454998389065786 0 0.031176150143028832 -0.0016864918311311047 0 0.031151628107398993 -0.0017088864843584619 0 0.031170965787336441 -0.001726588881581664 0 0.031292958605698529 -0.0017961030347003509 0 0.030567155420607551 -0.0020445053105063943 0 0.030993015344814551 -0.001855485926921241 0 0.030948070969823306 -0.0018678779296906853 0 0.030920917902228652 -0.0018124404245426359 0 0.031292958605698529 -0.0017961030347003509 0 0.030194714151798148 -0.0023106914914385302 0 0.031972594055471648 -0.0015856598260044991 0 0.031292958605698529 -0.0017961030347003509 0 0.03200534013622653 -0.0015316167195466111 0 0.031292958605698529 -0.0017961030347003509 0 0.031649293962638325 -0.0019127973471216126 0 0.031572985339390743 -0.0019269297376488023 0 0.0315119497401758 -0.0017971616809250189 0 0.029704664578486358 -0.0020588761189534038 0 0.02966853395829994 -0.0020901085932952972 0 0.029662113179398278 -0.0020771464525977789 0 0.030577915144932771 -0.0018325992175224413 0 0.030468839145289195 -0.0018297063647635574 0 0.030458105909083689 -0.0019454998389065786 0 0.030194714151798148 -0.0023106914914385302 0 0.030106573862955351 -0.0024331051517838547 0 0.029843466443369382 -0.0023821017538458254 0 0.029848869299734317 -0.0023946577117843781 0 0.029850304971699416 -0.0023823263567892775 0 0.030194714151798148 -0.0023106914914385302 0 0.029695909549731881 -0.0026144042325783232 0 0.029695909549731881 -0.0026144042325783232 0 0.030106573862955351 -0.0024331051517838547 0 0.028174576056002376 -0.0027272925741331348 0 0.028250817937149845 -0.0041633282367072311 0 0.028829815129540384 -0.0022967189808394701 0 0.029695909549731881 -0.0026144042325783232 0 0.028751867625991533 -0.0031994623387104982 0 0.028432899126091937 -0.0033315654335643158 0 0.028482009377359632 -0.0031973255052397368 0 0.02870656796451693 -0.0030945739648416465 0 0.028482009377359632 -0.0031973255052397368 0 0.028454062323309125 -0.0030995733803669944 0 0.028432899126091937 -0.0033315654335643158 0 0.028482009377359632 -0.0031973255052397368 0 0.028450269328714309 -0.0031334984178235836 0 0.029695909549731881 -0.0026144042325783232 0 0.028345572293939258 -0.0040990628037885762 0 0.028335526569232012 -0.0040642969710284202 0 0.028345572293939258 -0.0040990628037885762 0 0.028482009377359632 -0.0031973255052397368 0 0.028450893438041292 -0.0031334463181327031 0 0.028454062323309125 -0.0030995733803669944 0 0.028222993122355475 -0.0045209827834996399 0 0.028258264550166383 -0.0041517924634292564 0 0.028046413382599531 -0.0041548873248702378 0 0.028345572293939258 -0.0040990628037885762 0 0.02824858131711255 -0.0042785137591986972 0 0.028345572293939258 -0.0040990628037885762 0 0.028250817937149845 -0.0041633282367072311 0 0.028250817937149845 -0.0041633282367072311 0 0.02824858131711255 -0.0042785137591986972 0 0.028588383959747207 -0.00388853069060368 0 0.028439447457956003 -0.0040253947534590294 0 0.028346165782780999 -0.0040083141929844468 0 0.02824858131711255 -0.0042785137591986972 0 0.027413521750381111 -0.0057881086547422189 0 0.028588383959747207 -0.00388853069060368 0 0.028346165782780999 -0.0040083141929844468 0 0.028259368835647461 -0.0038956337833284775 0 0.028606627557427915 -0.0039259474639953074 0 0.028588383959747207 -0.00388853069060368 0 0.028519055573012948 -0.004004130706503628 0 0.028588383959747207 -0.00388853069060368 0 0.028519055573012948 -0.004004130706503628 0 0.028439447457956003 -0.0040253947534590294 0 0.028588288855093232 -0.0041447552356572454 0 0.028606627557427915 -0.0039259474639953074 0 0.028519055573012948 -0.004004130706503628 0 0.029695909549731881 -0.0026144042325783232 0 0.029685009751073632 -0.002769166449891666 0 0.02858463284776442 -0.0041454391272770976 0 0.028519055573012948 -0.004004130706503628 0 0.02847298082944915 -0.0041132237996823976 0 0.028519055573012948 -0.004004130706503628 0 0.028439447457956003 -0.0040253947534590294 0 0.02847298082944915 -0.0041132237996823976 0 0.028439447457956003 -0.0040253947534590294 0 0.028389011524626986 -0.0040901990064759986 0 0.02847298082944915 -0.0041132237996823976 0 0.028389011524626986 -0.0040901990064759986 0 0.028306449041939033 -0.0041458171579175553 0 0.028346165782780999 -0.0040083141929844468 0 0.028439447457956003 -0.0040253947534590294 0 0.028389011524626986 -0.0040901990064759986 0 0.028346165782780999 -0.0040083141929844468 0 0.028408877070410798 -0.004168316130283076 0 0.028574441968127796 -0.0042499611579626855 0 0.028302482288611732 -0.0042421987224780982 0 0.028389011524626986 -0.0040901990064759986 0 0.028408877070410798 -0.004168316130283076 0 0.028306449041939033 -0.0041458171579175553 0 0.030106573862955351 -0.0024331051517838547 0 0.028999702198376352 -0.0032167124656525266 0 0.030283126391347101 -0.0021638251140243202 0 0.03022719395733495 -0.002184770385051606 0 0.030017660449098756 -0.0021573854141824387 0 0.028389011524626986 -0.0040901990064759986 0 0.028408877070410798 -0.004168316130283076 0 0.02847298082944915 -0.0041132237996823976 0 0.028408877070410798 -0.004168316130283076 0 0.02847298082944915 -0.0041132237996823976 0 0.028574441968127796 -0.0042499611579626855 0 0.02858463284776442 -0.0041454391272770976 0 0.02847298082944915 -0.0041132237996823976 0 0.028574441968127796 -0.0042499611579626855 0 0.030113857253345512 -0.002236478258077925 0 0.03022719395733495 -0.002184770385051606 0 0.030276814013697678 -0.0022259856135518809 0 0.030283126391347101 -0.0021638251140243202 0 0.03022719395733495 -0.002184770385051606 0 0.030277639017632352 -0.0022271916967823986 0 0.030106573862955351 -0.0024331051517838547 0 0.030567155420607551 -0.0020445053105063943 0 0.03056170294010567 -0.002043472232650132 0 0.030567155420607551 -0.0020445053105063943 0 0.030113857253345512 -0.002236478258077925 0 0.03022719395733495 -0.002184770385051606 0 0.030017660449098756 -0.0021573854141824387 0 0.028306449041939033 -0.0041458171579175553 0 0.02820441406298585 -0.0039218071403171271 0 0.028049392500267542 -0.0042328938317592159 0 0.028302482288611732 -0.0042421987224780982 0 0.028306449041939033 -0.0041458171579175553 0 0.028049392500267542 -0.0042328938317592159 0 0.028999702198376352 -0.0032167124656525266 0 0.027671325236978371 -0.0040005442437150993 0 0.030017660449098756 -0.0021573854141824387 0 0.029752630174524931 -0.0021515275943967895 0 0.029913460901266314 -0.0023279507914660226 0 0.028408877070410798 -0.004168316130283076 0 0.028302482288611732 -0.0042421987224780982 0 0.028306449041939033 -0.0041458171579175553 0 0.028306449041939033 -0.0041458171579175553 0 0.02820441406298585 -0.0039218071403171271 0 0.028260693271283478 -0.0039214639310370322 0 0.027441391365307342 -0.0052098269592954823 0 0.027413521750381111 -0.0057881086547422189 0 0.028306449041939033 -0.0041458171579175553 0 0.028346165782780999 -0.0040083141929844468 0 0.028259368835647461 -0.0038956337833284775 0 0.027238773698582165 -0.006006053806262345 0 0.027413521750381111 -0.0057881086547422189 0 0.022508720396701612 -0.0080099819900862103 0 0.023916222551916257 -0.007101544794143615 0 0.023766353332120248 -0.0054353364722280082 0 0.027238773698582165 -0.006006053806262345 0 0.026537576016686458 -0.0070390928680750947 0 0.027238773698582165 -0.006006053806262345 0 0.027671325236978371 -0.0040005442437150993 0 0.022508720396701612 -0.0080099819900862103 0 0.023916222551916257 -0.007101544794143615 0 0.025372571917149769 -0.0079858452771581125 0 0.023916222551916257 -0.007101544794143615 0 0.024752854548236992 -0.0061835456603487769 0 0.025372571917149769 -0.0079858452771581125 0 0.023916222551916257 -0.007101544794143615 0 0.024752854548236992 -0.0061835456603487769 0 0.023766353332120248 -0.0054353364722280082 0 0.023512223133813626 -0.0052591518006941153 0 0.024538966666467675 -0.004954551548838176 0 0.026144443913972127 -0.0052840938523110803 0 0.027671325236978371 -0.0040005442437150993 0 0.026832519521297546 -0.0043916308266296229 0 0.024752854548236992 -0.0061835456603487769 0 0.023766353332120248 -0.0054353364722280082 0 0.025771670446699604 -0.0054310852931570876 0 0.023512223133813626 -0.0052591518006941153 0 0.024538966666467675 -0.004954551548838176 0 0.02442109235011862 -0.0033949654211910389 0 0.027671325236978371 -0.0040005442437150993 0 0.028335675682725086 -0.0029038246386049664 0 0.029752630174524931 -0.0021515275943967895 0 0.029663878059174496 -0.0023344229858221987 0 0.029913460901266314 -0.0023279507914660226 0 0.029663878059174496 -0.0023344229858221987 0 0.029913460901266314 -0.0023279507914660226 0 0.029809210758982733 -0.0024633211574203125 0 0.024309646742936071 -0.0034653656906861469 0 0.024519597704150617 -0.003009845803110599 0 0.023950802078227505 -0.00026850765841837068 0 0.024538966666467675 -0.004954551548838176 0 0.024345226750748811 -0.0034318057392339631 0 0.025139516100573828 -0.0041586679094624572 0 0.028164817115791736 -0.0031226068965686145 0 0.028335675682725086 -0.0029038246386049664 0 0.024345226750748811 -0.0034318057392339631 0 0.024519597704150617 -0.003009845803110599 0 0.025301773473731581 -0.0030889960122187101 0 0.028335675682725086 -0.0029038246386049664 0 0.028308682659316263 -0.002926310494231111 0 0.030098474270454607 -0.0023755413863532663 0 0.029913460901266314 -0.0023279507914660226 0 0.029969743613065893 -0.002570296109376688 0 0.030113857253345512 -0.002236478258077925 0 0.030017660449098756 -0.0021573854141824387 0 0.029913460901266314 -0.0023279507914660226 0 0.030098474270454607 -0.0023755413863532663 0 0.030113857253345512 -0.002236478258077925 0 0.029913460901266314 -0.0023279507914660226 0 0.029913460901266314 -0.0023279507914660226 0 0.029969743613065893 -0.002570296109376688 0 0.029809210758982733 -0.0024633211574203125 0 0.029969743613065893 -0.002570296109376688 0 0.029809210758982733 -0.0024633211574203125 0 0.02969017830261109 -0.0026204497379337974 0 0.028335675682725086 -0.0029038246386049664 0 0.030787295354070897 -0.0013138735051362908 0 0.031802015150509462 -0.0012964222232717856 0 0.030787295354070897 -0.0013138735051362908 0 0.029663878059174496 -0.0023344229858221987 0 0.029809210758982733 -0.0024633211574203125 0 0.02969017830261109 -0.0026204497379337974 0 0.024519597704150617 -0.003009845803110599 0 0.023950802078227505 -0.00026850765841837068 0 0.024899289992888166 -0.0020001616100353242 0 0.026928101930995475 -0.0090592381020545305 0 0.026686420195882854 -0.0093784173398409835 0 0.027249355719756067 -0.0087078984832067701 0 0.026928101930995475 -0.0090592381020545305 0 0.026713720930038692 -0.0092831835299326034 0 0.02671660186251985 -0.0090138880346937889 0 0.026928101930995475 -0.0090592381020545305 0 0.026955050722665373 -0.0088639182837141183 0 0.02671660186251985 -0.0090138880346937889 0 0.026955050722665373 -0.0088639182837141183 0 0.02691014886794766 -0.0085815524671093574 0 0.02671660186251985 -0.0090138880346937889 0 0.026928101930995475 -0.0090592381020545305 0 0.026955050722665373 -0.0088639182837141183 0 0.027249355719756067 -0.0087078984832067701 0 0.028067233756683612 -0.0099695381220027083 0 0.028527636514629223 -0.0092656592922499628 0 0.028057246189106561 -0.0088283086189852832 0 0.027369544896047822 -0.0087146186069428713 0 0.027309242418884175 -0.0087557930259207634 0 0.027515725491658843 -0.0092044560089819712 0 0.027249355719756067 -0.0087078984832067701 0 0.027321075720625813 -0.0085170152952313213 0 0.028067233756683612 -0.0099695381220027083 0 0.028057246189106561 -0.0088283086189852832 0 0.027321075720625813 -0.0085170152952313213 0 0.027474115936149193 -0.0092058945907156197 0 0.027515725491658843 -0.0092044560089819712 0 0.027249355719756067 -0.0087078984832067701 0 0.028135194604500383 -0.0067796351723447383 0 0.02824608966121267 -0.0079536972815257862 0 0.027474115936149193 -0.0092058945907156197 0 0.027361879300080969 -0.0093866542863539001 0 0.027249355719756067 -0.0087078984832067701 0 0.027509790069384109 -0.0092005667468710323 0 0.027361879300080969 -0.0093866542863539001 0 0.02762661900565646 -0.0095096708309793249 0 0.028135194604500383 -0.0067796351723447383 0 0.027985619196938469 -0.0064800580504785167 0 0.027474115936149193 -0.0092058945907156197 0 0.027509790069384109 -0.0092005667468710323 0 0.027361879300080969 -0.0093866542863539001 0 0.028129247751766735 -0.006784383346297539 0 0.028135194604500383 -0.0067796351723447383 0 0.026686420195882854 -0.0093784173398409835 0 0.02674310938284338 -0.0092873643151492498 0 0.026670965610806903 -0.0093298090364096458 0 0.026928101930995475 -0.0090592381020545305 0 0.026686420195882854 -0.0093784173398409835 0 0.02674310938284338 -0.0092873643151492498 0 0.026928101930995475 -0.0090592381020545305 0 0.02674310938284338 -0.0092873643151492498 0 0.026713720930038692 -0.0092831835299326034 0 0.02674310938284338 -0.0092873643151492498 0 0.026713720930038692 -0.0092831835299326034 0 0.026670965610806903 -0.0093298090364096458 0 0.026713720930038692 -0.0092831835299326034 0 0.026670965610806903 -0.0093298090364096458 0 0.026643845780881914 -0.0094081965211889364 0 0.026686420195882854 -0.0093784173398409835 0 0.026670965610806903 -0.0093298090364096458 0 0.026557346090112746 -0.0091715890772603986 0 0.026670965610806903 -0.0093298090364096458 0 0.026612830772981294 -0.0091727783678228932 0 0.026643845780881914 -0.0094081965211889364 0 0.026670965610806903 -0.0093298090364096458 0 0.026557346090112746 -0.0091715890772603986 0 0.026612830772981294 -0.0091727783678228932 0 0.026375419778569411 -0.0088979788601609468 0 0.026497341243483592 -0.0089850942901022069 0 0.026622087079931352 -0.008695842100237933 0 0.026612830772981294 -0.0091727783678228932 0 0.026497341243483592 -0.0089850942901022069 0 0.026622087079931352 -0.008695842100237933 0 0.026557346090112746 -0.0091715890772603986 0 0.026612830772981294 -0.0091727783678228932 0 0.026497341243483592 -0.0089850942901022069 0 0.027381498159980294 -0.0065171792551341279 0 0.027985619196938469 -0.0064800580504785167 0 0.027477288479565619 -0.0059811250458410648 0 0.027808961218314311 -0.0059763621542348565 0 0.027718818800143111 -0.0054888468693181005 0 0.027413521750381111 -0.0057881086547422189 0 0.027381498159980294 -0.0065171792551341279 0 0.026375419778569411 -0.0088979788601609468 0 0.026497341243483592 -0.0089850942901022069 0 0.02633700193962667 -0.008977066774137293 0 0.027238773698582165 -0.006006053806262345 0 0.027381498159980294 -0.0065171792551341279 0 0.026557346090112746 -0.0091715890772603986 0 0.026497341243483592 -0.0089850942901022069 0 0.02633700193962667 -0.008977066774137293 0 0.026686420195882854 -0.0093784173398409835 0 0.026557346090112746 -0.0091715890772603986 0 0.02633700193962667 -0.008977066774137293 0 0.027361879300080969 -0.0093866542863539001 0 0.027459470404368358 -0.0098326645205759587 0 0.02762661900565646 -0.0095096708309793249 0 0.027369544896047822 -0.0087146186069428713 0 0.027381498159980294 -0.0065171792551341279 0 0.027854773427362752 -0.0054879036087294771 0 0.027582873171966543 -0.0053420519422955511 0 0.027777702261335829 -0.0056443974865486536 0 0.027985619196938469 -0.0064800580504785167 0 0.028013866127061686 -0.0063685505749518081 0 0.027946374306636362 -0.0054308762622879087 0 0.028134393215378119 -0.0054813511060118848 0 0.028052241021908769 -0.0056535624352871917 0 0.02824858131711255 -0.0042785137591986972 0 0.027985619196938469 -0.0064800580504785167 0 0.027946374306636362 -0.0054308762622879087 0 0.028124811321776671 -0.0054305307421516954 0 0.028134393215378119 -0.0054813511060118848 0 0.027637365445853705 -0.0050315199788691905 0 0.027854773427362752 -0.0054879036087294771 0 0.027582873171966543 -0.0053420519422955511 0 0.027612584118307967 -0.0050317841209468984 0 0.027637365445853705 -0.0050315199788691905 0 0.027582873171966543 -0.0053420519422955511 0 0.027775479158927779 -0.0035904171539121576 0 0.028041348792041784 -0.0035878818886353149 0 0.02794830155692557 -0.003707893675184191 0 0.027775479158927779 -0.0035904171539121576 0 0.02794830155692557 -0.003707893675184191 0 0.027883289974344964 -0.0038456110215630075 0 0.028041348792041784 -0.0035878818886353149 0 0.02794830155692557 -0.003707893675184191 0 0.02801674554502781 -0.00384416826894369 0 0.028250817937149845 -0.0041633282367072311 0 0.027745777706223593 -0.0044656117090533486 0 0.02794830155692557 -0.003707893675184191 0 0.027883289974344964 -0.0038456110215630075 0 0.02801674554502781 -0.00384416826894369 0 0.027508515825650337 -0.0033816568822130043 0 0.027237318333181673 -0.0046019362697433848 0 0.026039662540720428 -0.0024763758777042455 0 0.026263059529221224 -0.0029904910269425351 0 0.025973846351477585 -0.0028348493153447876 0 0.027582873171966543 -0.0053420519422955511 0 0.027555247479286653 -0.005649778479186904 0 0.027777702261335829 -0.0056443974865486536 0 0.027883289974344964 -0.0038456110215630075 0 0.02801674554502781 -0.00384416826894369 0 0.027991765568635762 -0.0041026360097750547 0 0.027745777706223593 -0.0044656117090533486 0 0.027237318333181673 -0.0046019362697433848 0 0.026014121453757175 -0.0030711692953312416 0 0.026263059529221224 -0.0029904910269425351 0 0.025973846351477585 -0.0028348493153447876 0 0.026014121453757175 -0.0030711692953312416 0 0.026263059529221224 -0.0029904910269425351 0 0.026229755834304713 -0.0033477429163107477 0 0.026014121453757175 -0.0030711692953312416 0 0.026063987227631494 -0.003378883253958475 0 0.026229755834304713 -0.0033477429163107477 0 0.027237318333181673 -0.0046019362697433848 0 0.026742707119362913 -0.0049644440822322871 0 0.026567150702766648 -0.0047092471772746331 0 0.026860923810048173 -0.0053955152654009374 0 0.026933192020102598 -0.0046404259507604566 0 0.027248941685229133 -0.0055368166830984285 0 0.027237318333181673 -0.0046019362697433848 0 0.028135194604500383 -0.0067796351723447383 0 0.027248941685229133 -0.0055368166830984285 0 0.027985794397293099 -0.0057718229376113378 0 0.027637044190888825 -0.0058367642573725802 0 0.027777702261335829 -0.0056443974865486536 0 0.027985794397293099 -0.0057718229376113378 0 0.02785120585868384 -0.0054953142400523923 0 0.027777702261335829 -0.0056443974865486536 0 0.027637044190888825 -0.0058367642573725802 0 0.027555247479286653 -0.005649778479186904 0 0.027777702261335829 -0.0056443974865486536 0 0.029267574771454075 -0.009732253426163337 0 0.028527636514629223 -0.0092656592922499628 0 0.028914473067098302 -0.0089052183211901555 0 0.027248941685229133 -0.0055368166830984285 0 0.027823109609343529 -0.0066359775992844497 0 0.028067233756683612 -0.0099695381220027083 0 0.029267574771454075 -0.009732253426163337 0 0.028527636514629223 -0.0092656592922499628 0 0.028527636514629223 -0.0092656592922499628 0 0.028914473067098302 -0.0089052183211901555 0 0.028464120063734642 -0.0086850767370473016 0 0.028527636514629223 -0.0092656592922499628 0 0.028464120063734642 -0.0086850767370473016 0 0.028057246189106561 -0.0088283086189852832 0 0.022313783322417059 -0.0037341003277484787 0 0.022294684871099531 -0.003710828427329462 0 0.022256073482320286 -0.0037578999095897389 0 0.026592656357560095 -0.0051050207760857244 0 0.025867696102776377 -0.004537419879658589 0 0.025867696102776377 -0.004537419879658589 0 0.026742707119362913 -0.0049644440822322871 0 0.026513342625697975 -0.0039247209309079892 0 0.027844753986429289 -0.0054771749678515676 0 0.026337833184950633 -0.0057602187810759098 0 0.027471218096739795 -0.0055030801241192154 0 0.027666151678705394 -0.0059541508980883555 0 0.027265950110841188 -0.0057530062638171536 0 0.027248941685229133 -0.0055368166830984285 0 0.026742707119362913 -0.0049644440822322871 0 0.027471218096739795 -0.0055030801241192154 0 0.027265950110841188 -0.0057530062638171536 0 0.027286435837098728 -0.0055376970156703976 0 0.026592656357560095 -0.0051050207760857244 0 0.026742707119362913 -0.0049644440822322871 0 0.022294684871099531 -0.003710828427329462 0 0.022256073482320286 -0.0037578999095897389 0 0.022204432844781092 -0.0037235260161767115 0 0.025867696102776377 -0.004537419879658589 0 0.023282735889520848 -0.0036510683570894764 0 0.023282735889520848 -0.0036510683570894764 0 0.019540874953185926 -0.00296654027258683 0 0.025448257274680485 -0.0034464233814254265 0 0.02507104332522685 -0.0028333650241685678 0 0.024854152124205702 -0.0035553617552353278 0 0.025448257274680485 -0.0034464233814254265 0 0.025579010361087767 -0.0028020376395944484 0 0.02507104332522685 -0.0028333650241685678 0 0.026014121453757175 -0.0030711692953312416 0 0.026063987227631494 -0.003378883253958475 0 0.025579010361087767 -0.0028020376395944484 0 0.025867696102776377 -0.004537419879658589 0 0.025501646184607006 -0.0037788818463221434 0 0.026029883804749757 -0.0033382346883202387 0 0.025448257274680485 -0.0034464233814254265 0 0.025579010361087767 -0.0028020376395944484 0 0.026014121453757175 -0.0030711692953312416 0 0.025973846351477585 -0.0028348493153447876 0 0.025579010361087767 -0.0028020376395944484 0 0.026039662540720428 -0.0024763758777042455 0 0.025973846351477585 -0.0028348493153447876 0 0.025579010361087767 -0.0028020376395944484 0 0.026039662540720428 -0.0024763758777042455 0 0.025579010361087767 -0.0028020376395944484 0 0.02541609209188718 -0.0025307597257061098 0 0.028174576056002376 -0.0027272925741331348 0 0.027508515825650337 -0.0033816568822130043 0 0.025825432948361197 -0.0019754205325881354 0 0.026039662540720428 -0.0024763758777042455 0 0.025506323114963841 -0.002225795548118443 0 0.026039662540720428 -0.0024763758777042455 0 0.025506323114963841 -0.002225795548118443 0 0.02541609209188718 -0.0025307597257061098 0 0.025186564566015129 -0.0019857401207310681 0 0.025825432948361197 -0.0019754205325881354 0 0.025506323114963841 -0.002225795548118443 0 0.025186564566015129 -0.0019857401207310681 0 0.025154783832322603 -0.0021801024738615691 0 0.025506323114963841 -0.002225795548118443 0 0.025506323114963841 -0.002225795548118443 0 0.025136870653309537 -0.0023880699957508026 0 0.02541609209188718 -0.0025307597257061098 0 0.025154783832322603 -0.0021801024738615691 0 0.025506323114963841 -0.002225795548118443 0 0.025136870653309537 -0.0023880699957508026 0 0.025579010361087767 -0.0028020376395944484 0 0.02541609209188718 -0.0025307597257061098 0 0.02507104332522685 -0.0028333650241685678 0 0.025136870653309537 -0.0023880699957508026 0 0.02541609209188718 -0.0025307597257061098 0 0.02507104332522685 -0.0028333650241685678 0 0.025136870653309537 -0.0023880699957508026 0 0.02507104332522685 -0.0028333650241685678 0 0.024926709420853267 -0.0024398529995115865 0 0.02507104332522685 -0.0028333650241685678 0 0.024711449843681416 -0.0025599173780210265 0 0.024527320122904903 -0.002975756988284783 0 0.02507104332522685 -0.0028333650241685678 0 0.024711449843681416 -0.0025599173780210265 0 0.024926709420853267 -0.0024398529995115865 0 0.027809140092212737 -0.0013141844534694329 0 0.028108954976415797 -0.0013892127857348675 0 0.025136870653309537 -0.0023880699957508026 0 0.024926709420853267 -0.0024398529995115865 0 0.024919603593396608 -0.0021516581300885526 0 0.026088604751969925 -0.00068197623431879629 0 0.026944127436078727 -0.00066807523675714467 0 0.026980759073182703 -0.00084957803266416405 0 0.024711449843681416 -0.0025599173780210265 0 0.024926709420853267 -0.0024398529995115865 0 0.024919603593396608 -0.0021516581300885526 0 0.025186564566015129 -0.0019857401207310681 0 0.025154783832322603 -0.0021801024738615691 0 0.024942125118295799 -0.0020886081473569544 0 0.028204057110636251 -0.0016958877686977245 0 0.028108954976415797 -0.0013892127857348675 0 0.028207065352211423 -0.0012774005642685188 0 0.028516914365655063 -0.0012013900204401547 0 0.028530449978274534 -0.0011433881661421434 0 0.026944127436078727 -0.00066807523675714467 0 0.026999903652943389 -0.00076808920924828028 0 0.026980759073182703 -0.00084957803266416405 0 0.025154783832322603 -0.0021801024738615691 0 0.025136870653309537 -0.0023880699957508026 0 0.024942125118295799 -0.0020886081473569544 0 0.028569702523513409 -0.0012039926965823938 0 0.028392551083923384 -0.0012544570477708988 0 0.025136870653309537 -0.0023880699957508026 0 0.024919603593396608 -0.0021516581300885526 0 0.024935580105746986 -0.0020861784036612478 0 0.028554138875670213 -0.0012754596550008739 0 0.028392551083923384 -0.0012544570477708988 0 0.028392551083923384 -0.0012544570477708988 0 0.028108954976415797 -0.0013892127857348675 0 0.028098883685476531 -0.0014011520815493765 0 0.028108954976415797 -0.0013892127857348675 0 0.026088604751969925 -0.00068197623431879629 0 0.026980759073182703 -0.00084957803266416405 0 0.025638550284875744 -0.0014068393819492233 0 0.024711449843681416 -0.0025599173780210265 0 0.024919603593396608 -0.0021516581300885526 0 0.02419546155808313 -0.0023914692273896334 0 0.024919603593396608 -0.0021516581300885526 0 0.024935446479221905 -0.0020866664880128246 0 0.02419546155808313 -0.0023914692273896334 0 0.028108954976415797 -0.0013892127857348675 0 0.023357421333365175 -0.0012112702060788154 0 0.020934525255248009 -0.0021448301080160973 0 0.023357421333365175 -0.0012112702060788154 0 0.024711449843681416 -0.0025599173780210265 0 0.024527320122904903 -0.002975756988284783 0 0.02419546155808313 -0.0023914692273896334 0 0.020934525255248009 -0.0021448301080160973 0 0.019540874953185926 -0.00296654027258683 0 0.014148484286761812 -0.0028097458817213667 0 0.013859249581451755 -0.0022810391690325821 0 0.014349896929608313 -0.0025299927561942123 0 0.02507104332522685 -0.0028333650241685678 0 0.024527320122904903 -0.002975756988284783 0 0.024854152124205702 -0.0035553617552353278 0 0.019540874953185926 -0.00296654027258683 0 0.015942001441095279 -0.0028425260876157534 0 0.013859249581451755 -0.0022810391690325821 0 0.014347816012882984 -0.0021816893772187598 0 0.014349896929608313 -0.0025299927561942123 0 0.014143874636954441 -0.0019759546576922698 0 0.013859090199080423 -0.001614366551136837 0 0.014312000160152822 -0.0014637021280798574 0 0.013693992264329663 -0.0020389680243139228 0 0.014143874636954441 -0.0019759546576922698 0 0.013859090199080423 -0.001614366551136837 0 0.013693992264329663 -0.0020389680243139228 0 0.013859090199080423 -0.001614366551136837 0 0.01340345451674675 -0.0014759740796524777 0 0.019540874953185926 -0.00296654027258683 0 0.018746494319925974 -0.0023513260501931599 0 0.013859090199080423 -0.001614366551136837 0 0.013963015669296875 -0.0011135841483467933 0 0.01340345451674675 -0.0014759740796524777 0 0.013859090199080423 -0.001614366551136837 0 0.013963015669296875 -0.0011135841483467933 0 0.014312000160152822 -0.0014637021280798574 0 0.013963015669296875 -0.0011135841483467933 0 0.013919679261799406 -0.00071366697372669504 0 0.01360725715732688 -0.00089039706276654448 0 0.013963015669296875 -0.0011135841483467933 0 0.013919679261799406 -0.00071366697372669504 0 0.014113374936106792 -0.00070769356424503168 0 0.013919679261799406 -0.00071366697372669504 0 0.014048526915708981 -0.00053907732745112655 0 0.013955468794084431 -0.00049995807036261363 0 0.013919679261799406 -0.00071366697372669504 0 0.014113374936106792 -0.00070769356424503168 0 0.014048526915708981 -0.00053907732745112655 0 0.013919679261799406 -0.00071366697372669504 0 0.01360725715732688 -0.00089039706276654448 0 0.013813906025001868 -0.00051251038344635842 0 0.01360725715732688 -0.00089039706276654448 0 0.013813906025001868 -0.00051251038344635842 0 0.013410159434745368 -0.00055635286248127615 0 0.013963015669296875 -0.0011135841483467933 0 0.01360725715732688 -0.00089039706276654448 0 0.01340345451674675 -0.0014759740796524777 0 0.022225538164284457 -0.0039167178560181991 0 0.022247113453308223 -0.0038907876409139384 0 0.022171331262358145 -0.0038306228490042416 0 0.01360725715732688 -0.00089039706276654448 0 0.013130750314317607 -0.00094667943986650137 0 0.01340345451674675 -0.0014759740796524777 0 0.019059146179699268 -0.0022126482802117993 0 0.018746494319925974 -0.0023513260501931599 0 0.019059146179699268 -0.0022126482802117993 0 0.016254461736196265 -0.0021782320190920287 0 0.01360725715732688 -0.00089039706276654448 0 0.013130750314317607 -0.00094667943986650137 0 0.013410159434745368 -0.00055635286248127615 0 0.017835227116865228 -0.0019029211756431176 0 0.017497876680815976 -0.0023814397211898929 0 0.017868403902055158 -0.0025004048447959297 0 0.019059146179699268 -0.0022126482802117993 0 0.022274886738441087 -0.0040489330929353732 0 0.022232388125976828 -0.0039128748720113913 0 0.022283939150545079 -0.0039098217216585462 0 0.022279340424951406 -0.0039838389631464211 0 0.017835227116865228 -0.0019029211756431176 0 0.017868403902055158 -0.0025004048447959297 0 0.018173535074641547 -0.0024913226344139071 0 0.022232388125976828 -0.0039128748720113913 0 0.022247113453308223 -0.0038907876409139384 0 0.022283939150545079 -0.0039098217216585462 0 0.019059146179699268 -0.0022126482802117993 0 0.019185415382856411 -0.0022361601910566259 0 0.022247113453308223 -0.0038907876409139384 0 0.02224336682850464 -0.0038270763310430883 0 0.022298278776003468 -0.003826337703723333 0 0.022247113453308223 -0.0038907876409139384 0 0.02224336682850464 -0.0038270763310430883 0 0.022171331262358145 -0.0038306228490042416 0 0.022256073482320286 -0.0037578999095897389 0 0.022204432844781092 -0.0037235260161767115 0 0.022171331262358145 -0.0038306228490042416 0 0.022204432844781092 -0.0037235260161767115 0 0.022112336199524681 -0.0037374768905570508 0 0.022171331262358145 -0.0038306228490042416 0 0.022256073482320286 -0.0037578999095897389 0 0.02224336682850464 -0.0038270763310430883 0 0.022171331262358145 -0.0038306228490042416 0 0.022256073482320286 -0.0037578999095897389 0 0.02224336682850464 -0.0038270763310430883 0 0.022298278776003468 -0.003826337703723333 0 0.026592656357560095 -0.0051050207760857244 0 0.025654125539405315 -0.0053855373333010839 0 0.022313783322417059 -0.0037341003277484787 0 0.022256073482320286 -0.0037578999095897389 0 0.022298278776003468 -0.003826337703723333 0 0.029957671872795074 -0.0090727750291931687 0 0.029560389624702352 -0.0083242389973223786 0 0.030114733143651769 -0.007625663752224991 0 0.029560389624702352 -0.0083242389973223786 0 0.029424821085113639 -0.007820311490540988 0 0.030114733143651769 -0.007625663752224991 0 0.026592656357560095 -0.0051050207760857244 0 0.028024511408106387 -0.0069283691589461507 0 0.029957671872795074 -0.0090727750291931687 0 0.029560389624702352 -0.0083242389973223786 0 0.028828760882098275 -0.0078442101452604156 0 0.027666151678705394 -0.0059541508980883555 0 0.027265950110841188 -0.0057530062638171536 0 0.027861131729423616 -0.0064058675296214847 0 0.028914473067098302 -0.0089052183211901555 0 0.028464120063734642 -0.0086850767370473016 0 0.028559730681312633 -0.0080765574278952885 0 0.027823109609343529 -0.0066359775992844497 0 0.028024511408106387 -0.0069283691589461507 0 0.028464120063734642 -0.0086850767370473016 0 0.028559730681312633 -0.0080765574278952885 0 0.028257339282641791 -0.0083543557317817003 0 0.029560389624702352 -0.0083242389973223786 0 0.029253779604856395 -0.0079013994630006204 0 0.029424821085113639 -0.007820311490540988 0 0.029560389624702352 -0.0083242389973223786 0 0.028828760882098275 -0.0078442101452604156 0 0.029253779604856395 -0.0079013994630006204 0 0.029253779604856395 -0.0079013994630006204 0 0.029424821085113639 -0.007820311490540988 0 0.029157100060049328 -0.0076385110041105268 0 0.028828760882098275 -0.0078442101452604156 0 0.029253779604856395 -0.0079013994630006204 0 0.029157100060049328 -0.0076385110041105268 0 0.029157100060049328 -0.0076385110041105268 0 0.029386491930547966 -0.0074309837308432197 0 0.02885950859376317 -0.0071014271001162291 0 0.029424821085113639 -0.007820311490540988 0 0.029157100060049328 -0.0076385110041105268 0 0.029386491930547966 -0.0074309837308432197 0 0.028828760882098275 -0.0078442101452604156 0 0.029157100060049328 -0.0076385110041105268 0 0.02885950859376317 -0.0071014271001162291 0 0.029386491930547966 -0.0074309837308432197 0 0.02885950859376317 -0.0071014271001162291 0 0.029422946348771083 -0.0067381316998701927 0 0.029386491930547966 -0.0074309837308432197 0 0.030114733143651769 -0.007625663752224991 0 0.029422946348771083 -0.0067381316998701927 0 0.030114733143651769 -0.007625663752224991 0 0.03030394152547972 -0.0061188384392564538 0 0.029422946348771083 -0.0067381316998701927 0 0.025654125539405315 -0.0053855373333010839 0 0.024470727279764043 -0.0048005510553049812 0 0.029424821085113639 -0.007820311490540988 0 0.029386491930547966 -0.0074309837308432197 0 0.030114733143651769 -0.007625663752224991 0 0.022247113453308223 -0.0038907876409139384 0 0.022298278776003468 -0.003826337703723333 0 0.022283939150545079 -0.0039098217216585462 0 0.03030394152547972 -0.0061188384392564538 0 0.029335579390021398 -0.0055622281117207626 0 0.029422946348771083 -0.0067381316998701927 0 0.024470727279764043 -0.0048005510553049812 0 0.022274886738441087 -0.0040489330929353732 0 0.03030394152547972 -0.0061188384392564538 0 0.029335579390021398 -0.0055622281117207626 0 0.030491741665874032 -0.0045454905580019312 0 0.029335579390021398 -0.0055622281117207626 0 0.028709994006423555 -0.0062136479460523095 0 0.028210038730297923 -0.0051109220844317441 0 0.029335579390021398 -0.0055622281117207626 0 0.028210038730297923 -0.0051109220844317441 0 0.029442771217699653 -0.0044824769172874535 0 0.029335579390021398 -0.0055622281117207626 0 0.028709994006423555 -0.0062136479460523095 0 0.029422946348771083 -0.0067381316998701927 0 0.02885950859376317 -0.0071014271001162291 0 0.028709994006423555 -0.0062136479460523095 0 0.029422946348771083 -0.0067381316998701927 0 0.028709994006423555 -0.0062136479460523095 0 0.027717139444464852 -0.0065388995684077886 0 0.028210038730297923 -0.0051109220844317441 0 0.02885950859376317 -0.0071014271001162291 0 0.028709994006423555 -0.0062136479460523095 0 0.027717139444464852 -0.0065388995684077886 0 0.027644994618967685 -0.0065517088539836692 0 0.027118308155321652 -0.005950693456539191 0 0.027717139444464852 -0.0065388995684077886 0 0.028210038730297923 -0.0051109220844317441 0 0.026525395045703504 -0.0052822867004793349 0 0.027664638385166883 -0.0068133650878659906 0 0.026179089466050104 -0.006594068910086918 0 0.026525395045703504 -0.0052822867004793349 0 0.027664638385166883 -0.0068133650878659906 0 0.026805021738056743 -0.0076542416660690376 0 0.026179089466050104 -0.006594068910086918 0 0.027664638385166883 -0.0068133650878659906 0 0.026805021738056743 -0.0076542416660690376 0 0.027360073802856856 -0.0078744613953782121 0 0.028828760882098275 -0.0078442101452604156 0 0.02885950859376317 -0.0071014271001162291 0 0.027717139444464852 -0.0065388995684077886 0 0.028024511408106387 -0.0069283691589461507 0 0.027644994618967685 -0.0065517088539836692 0 0.027664638385166883 -0.0068133650878659906 0 0.027360073802856856 -0.0078744613953782121 0 0.02791936682662003 -0.0081319048761675072 0 0.028559730681312633 -0.0080765574278952885 0 0.027664638385166883 -0.0068133650878659906 0 0.02791936682662003 -0.0081319048761675072 0 0.027360073802856856 -0.0078744613953782121 0 0.02791936682662003 -0.0081319048761675072 0 0.02758537636339756 -0.0082494267326404438 0 0.02758537636339756 -0.0082494267326404438 0 0.027974847985207375 -0.0083858121540447816 0 0.027740811750356618 -0.0084912243151438853 0 0.02791936682662003 -0.0081319048761675072 0 0.02758537636339756 -0.0082494267326404438 0 0.027974847985207375 -0.0083858121540447816 0 0.02758537636339756 -0.0082494267326404438 0 0.027740811750356618 -0.0084912243151438853 0 0.027321075720625813 -0.0085170152952313213 0 0.028559730681312633 -0.0080765574278952885 0 0.02791936682662003 -0.0081319048761675072 0 0.028257339282641791 -0.0083543557317817003 0 0.02791936682662003 -0.0081319048761675072 0 0.027974847985207375 -0.0083858121540447816 0 0.028257339282641791 -0.0083543557317817003 0 0.028464120063734642 -0.0086850767370473016 0 0.028257339282641791 -0.0083543557317817003 0 0.028057246189106561 -0.0088283086189852832 0 0.027974847985207375 -0.0083858121540447816 0 0.028257339282641791 -0.0083543557317817003 0 0.028057246189106561 -0.0088283086189852832 0 0.027974847985207375 -0.0083858121540447816 0 0.028057246189106561 -0.0088283086189852832 0 0.027740811750356618 -0.0084912243151438853 0 0.028057246189106561 -0.0088283086189852832 0 0.027740811750356618 -0.0084912243151438853 0 0.027321075720625813 -0.0085170152952313213 0 0.026955050722665373 -0.0088639182837141183 0 0.027249355719756067 -0.0087078984832067701 0 0.02691014886794766 -0.0085815524671093574 0 0.026805021738056743 -0.0076542416660690376 0 0.027360073802856856 -0.0078744613953782121 0 0.02691014886794766 -0.0085815524671093574 0 0.027249355719756067 -0.0087078984832067701 0 0.027321075720625813 -0.0085170152952313213 0 0.02691014886794766 -0.0085815524671093574 0 0.027360073802856856 -0.0078744613953782121 0 0.02758537636339756 -0.0082494267326404438 0 0.027321075720625813 -0.0085170152952313213 0 0.027360073802856856 -0.0078744613953782121 0 0.027321075720625813 -0.0085170152952313213 0 0.02691014886794766 -0.0085815524671093574 0 0.024266627348042337 0.00017242668361797019 0 0.024542355470772766 4.4332848334590084e-05 0 0.024588187143027719 0.00046003803375062514 0 0.024266627348042337 0.00017242668361797019 0 0.024542355470772766 4.4332848334590084e-05 0 0.024046780841043246 -0.00027704041890294298 0 0.020855476958616715 -0.0012005007482804395 0 0.021005722233347453 -0.001417384659935259 0 0.024542355470772766 4.4332848334590084e-05 0 0.024588187143027719 0.00046003803375062514 0 0.024967422509597267 0.00023926769368702228 0 0.01673807581557113 -0.0027553002831839095 0 0.016633598266599985 -0.0021934300051462303 0 0.015895434960502181 -0.0022747267672974451 0 0.01673807581557113 -0.0027553002831839095 0 0.016633598266599985 -0.0021934300051462303 0 0.017244403219597491 -0.0018487788028596483 0 0.016633598266599985 -0.0021934300051462303 0 0.017244403219597491 -0.0018487788028596483 0 0.016837166890317785 -0.0013709659434053452 0 0.020855476958616715 -0.0012005007482804395 0 0.021249341151629873 -0.00071609380857924599 0 0.01673807581557113 -0.0027553002831839095 0 0.017244403219597491 -0.0018487788028596483 0 0.018596534476997009 -0.0021080179739191986 0 0.024046780841043246 -0.00027704041890294298 0 0.023409267994458596 4.1939843412174593e-05 0 0.023960179969884532 2.8799354495454628e-05 0 0.021249341151629873 -0.00071609380857924599 0 0.021723848670331655 -1.1424692158157803e-06 0 0.023409267994458596 4.1939843412174593e-05 0 0.023371089141273154 5.0532696024280138e-07 0 0.021726831470407458 -1.3387645405872262e-06 0 0.024046780841043246 -0.00027704041890294298 0 0.023409267994458596 4.1939843412174593e-05 0 0.021726831470407458 -1.3387645405872262e-06 0 0.023409267994458596 4.1939843412174593e-05 0 0.024166552650205429 0.0001904438020235662 0 0.023371089141273154 5.0532696024280138e-07 0 0.024266627348042337 0.00017242668361797019 0 0.023960179969884532 2.8799354495454628e-05 0 0.024143987761251179 0.00044756569489616803 0 0.024166552650205429 0.0001904438020235662 0 0.023960179969884532 2.8799354495454628e-05 0 0.024562321093714451 0.0002641952046691229 0 0.023409267994458596 4.1939843412174593e-05 0 0.024166552650205429 0.0001904438020235662 0 0.023960179969884532 2.8799354495454628e-05 0 0.024266627348042337 0.00017242668361797019 0 0.024046780841043246 -0.00027704041890294298 0 0.023960179969884532 2.8799354495454628e-05 0 0.025463118255499913 -8.8406697099259793e-05 0 0.025781627959958493 -0.00014972605143557125 0 0.024166552650205429 0.0001904438020235662 0 0.024562321093714451 0.0002641952046691229 0 0.02485187675834076 0.00018683010579555946 0 0.024166552650205429 0.0001904438020235662 0 0.025019331805743825 1.0494269690400858e-06 0 0.02485187675834076 0.00018683010579555946 0 0.024166552650205429 0.0001904438020235662 0 0.023371089141273154 5.0532696024280138e-07 0 0.025019331805743825 1.0494269690400858e-06 0 0.026663346807475685 -1.7923262107602588e-06 0 0.025019331805743825 1.0494269690400858e-06 0 0.025531080994559689 0.00012675795482954507 0 0.025019331805743825 1.0494269690400858e-06 0 0.02485187675834076 0.00018683010579555946 0 0.025531080994559689 0.00012675795482954507 0 0.024562321093714451 0.0002641952046691229 0 0.02485187675834076 0.00018683010579555946 0 0.024839955083594 -7.6594937821258943e-06 0 0.024562321093714451 0.0002641952046691229 0 0.024839955083594 -7.6594937821258943e-06 0 0.024650520192443157 -1.6345123462635582e-05 0 0.02485187675834076 0.00018683010579555946 0 0.025531080994559689 0.00012675795482954507 0 0.024839955083594 -7.6594937821258943e-06 0 0.026324012062487762 -0.00069083933758718765 0 0.02670953136640427 -0.00072482910321820262 0 0.024143987761251179 0.00044756569489616803 0 0.024268196883550374 0.00084459826734533674 0 0.024588187143027719 0.00046003803375062514 0 0.025781627959958493 -0.00014972605143557125 0 0.02670953136640427 -0.00072482910321820262 0 0.024266627348042337 0.00017242668361797019 0 0.024143987761251179 0.00044756569489616803 0 0.024588187143027719 0.00046003803375062514 0 0.024268196883550374 0.00084459826734533674 0 0.024588187143027719 0.00046003803375062514 0 0.024812927161461652 0.00084291820876210212 0 0.02670953136640427 -0.00072482910321820262 0 0.027978297682502273 -0.00029908953399958776 0 0.024588187143027719 0.00046003803375062514 0 0.024812927161461652 0.00084291820876210212 0 0.025079419298237121 0.00059247596801396117 0 0.025342124039627517 0.0008438408049233001 0 0.024812927161461652 0.00084291820876210212 0 0.025079419298237121 0.00059247596801396117 0 0.025342124039627517 0.0008438408049233001 0 0.025079419298237121 0.00059247596801396117 0 0.025397864678957334 0.00042112084398713786 0 0.026400315516814554 -0.00042747415698976175 0 0.027978297682502273 -0.00029908953399958776 0 0.025079419298237121 0.00059247596801396117 0 0.025397864678957334 0.00042112084398713786 0 0.024967422509597267 0.00023926769368702228 0 0.01500638004179052 -0.0030579893123281053 0 0.015019614885061558 -0.003137702147764097 0 0.015713822494657869 -0.002966174611720065 0 0.023009310690567233 -0.0010635356984084591 0 0.021005722233347453 -0.001417384659935259 0 0.024588187143027719 0.00046003803375062514 0 0.025079419298237121 0.00059247596801396117 0 0.024967422509597267 0.00023926769368702228 0 0.024964832072889593 -0.00077460393911932149 0 0.025023790652092218 -0.0008823171389669782 0 0.024846065455854348 -0.00095582807021538552 0 0.025235065348366968 -0.00069679037724939413 0 0.026088604751969925 -0.00068197623431879629 0 0.025638550284875744 -0.0014068393819492233 0 0.026395176476510573 -0.0011193067666699708 0 0.023357421333365175 -0.0012112702060788154 0 0.024824122110646232 -0.00077649844101553402 0 0.024964832072889593 -0.00077460393911932149 0 0.024846065455854348 -0.00095582807021538552 0 0.026400315516814554 -0.00042747415698976175 0 0.023009310690567233 -0.0010635356984084591 0 0.0150211785042369 -0.0031249099161558894 0 0.014616766920443258 -0.0029926003402185818 0 0.014819413882858647 -0.0029183691853483114 0 0.01500638004179052 -0.0030579893123281053 0 0.0150211785042369 -0.0031249099161558894 0 0.014819413882858647 -0.0029183691853483114 0 0.022981186030698549 -0.0010803563397994292 0 0.023009310690567233 -0.0010635356984084591 0 0.014148484286761812 -0.0028097458817213667 0 0.014455741944486782 -0.003339351636114242 0 0.014616766920443258 -0.0029926003402185818 0 0.023357421333365175 -0.0012112702060788154 0 0.023009310690567233 -0.0010635356984084591 0 0.014455741944486782 -0.003339351636114242 0 0.0150211785042369 -0.0031249099161558894 0 0.014616766920443258 -0.0029926003402185818 0 0.014148484286761812 -0.0028097458817213667 0 0.014349896929608313 -0.0025299927561942123 0 0.014616766920443258 -0.0029926003402185818 0 0.014349896929608313 -0.0025299927561942123 0 0.014616766920443258 -0.0029926003402185818 0 0.014685167176435841 -0.0025603010033559618 0 0.014616766920443258 -0.0029926003402185818 0 0.014685167176435841 -0.0025603010033559618 0 0.014819413882858647 -0.0029183691853483114 0 0.01500638004179052 -0.0030579893123281053 0 0.014935622453349187 -0.0027073332243201477 0 0.015265716670974937 -0.0025718784583798732 0 0.014685167176435841 -0.0025603010033559618 0 0.014819413882858647 -0.0029183691853483114 0 0.014935622453349187 -0.0027073332243201477 0 0.014685167176435841 -0.0025603010033559618 0 0.014935622453349187 -0.0027073332243201477 0 0.014938338551856441 -0.0024086930356483466 0 0.01500638004179052 -0.0030579893123281053 0 0.014819413882858647 -0.0029183691853483114 0 0.014935622453349187 -0.0027073332243201477 0 0.014935622453349187 -0.0027073332243201477 0 0.014938338551856441 -0.0024086930356483466 0 0.015265716670974937 -0.0025718784583798732 0 0.014685167176435841 -0.0025603010033559618 0 0.014938338551856441 -0.0024086930356483466 0 0.014837550807522346 -0.0020564170042217272 0 0.014938338551856441 -0.0024086930356483466 0 0.015325962535729055 -0.0018703412080307935 0 0.014837550807522346 -0.0020564170042217272 0 0.014347816012882984 -0.0021816893772187598 0 0.014685167176435841 -0.0025603010033559618 0 0.014837550807522346 -0.0020564170042217272 0 0.014347816012882984 -0.0021816893772187598 0 0.014349896929608313 -0.0025299927561942123 0 0.014685167176435841 -0.0025603010033559618 0 0.015713822494657869 -0.002966174611720065 0 0.015265716670974937 -0.0025718784583798732 0 0.015895434960502181 -0.0022747267672974451 0 0.01673807581557113 -0.0027553002831839095 0 0.015713822494657869 -0.002966174611720065 0 0.015895434960502181 -0.0022747267672974451 0 0.01500638004179052 -0.0030579893123281053 0 0.015713822494657869 -0.002966174611720065 0 0.015265716670974937 -0.0025718784583798732 0 0.015265716670974937 -0.0025718784583798732 0 0.015895434960502181 -0.0022747267672974451 0 0.015325962535729055 -0.0018703412080307935 0 0.014938338551856441 -0.0024086930356483466 0 0.015265716670974937 -0.0025718784583798732 0 0.015325962535729055 -0.0018703412080307935 0 0.015895434960502181 -0.0022747267672974451 0 0.015325962535729055 -0.0018703412080307935 0 0.015972926758471284 -0.0015247223038220975 0 0.015325962535729055 -0.0018703412080307935 0 0.015187576671441671 -0.0013243017547719628 0 0.01479920736625513 -0.0015463034143294208 0 0.015325962535729055 -0.0018703412080307935 0 0.015187576671441671 -0.0013243017547719628 0 0.015972926758471284 -0.0015247223038220975 0 0.015187576671441671 -0.0013243017547719628 0 0.015972926758471284 -0.0015247223038220975 0 0.015466458009956599 -0.00093481521133954469 0 0.016026218107123624 -0.0013015723858935463 0 0.015648667665926017 -0.00069251753942658134 0 0.016199590918994672 -0.00083536893424042673 0 0.015764005476843954 -0.00033383760165941773 0 0.01651883983726778 -0.00033181092573435661 0 0.015942001441095279 -0.0028425260876157534 0 0.01525247071560178 -0.0025904806010671627 0 0.014143874636954441 -0.0019759546576922698 0 0.01464439476144576 -0.0019395043225268933 0 0.014312000160152822 -0.0014637021280798574 0 0.015255806352920731 -0.002476437606145953 0 0.01525247071560178 -0.0025904806010671627 0 0.015325962535729055 -0.0018703412080307935 0 0.01464439476144576 -0.0019395043225268933 0 0.01479920736625513 -0.0015463034143294208 0 0.01464439476144576 -0.0019395043225268933 0 0.01479920736625513 -0.0015463034143294208 0 0.014312000160152822 -0.0014637021280798574 0 0.015187576671441671 -0.0013243017547719628 0 0.01479920736625513 -0.0015463034143294208 0 0.014631763775732979 -0.0011875398919519475 0 0.01479920736625513 -0.0015463034143294208 0 0.014312000160152822 -0.0014637021280798574 0 0.014631763775732979 -0.0011875398919519475 0 0.013963015669296875 -0.0011135841483467933 0 0.014312000160152822 -0.0014637021280798574 0 0.014283147646898087 -0.00093391741475296844 0 0.014312000160152822 -0.0014637021280798574 0 0.014283147646898087 -0.00093391741475296844 0 0.014631763775732979 -0.0011875398919519475 0 0.013963015669296875 -0.0011135841483467933 0 0.014283147646898087 -0.00093391741475296844 0 0.014113374936106792 -0.00070769356424503168 0 0.015187576671441671 -0.0013243017547719628 0 0.014631763775732979 -0.0011875398919519475 0 0.014707709025253318 -0.00077893996148647234 0 0.014283147646898087 -0.00093391741475296844 0 0.014631763775732979 -0.0011875398919519475 0 0.014707709025253318 -0.00077893996148647234 0 0.014707709025253318 -0.00077893996148647234 0 0.014222487527044027 -0.00054468940649293935 0 0.014426521842531083 -0.00039219568302267246 0 0.014707709025253318 -0.00077893996148647234 0 0.015032062571714046 -0.00032633700976425766 0 0.014426521842531083 -0.00039219568302267246 0 0.014283147646898087 -0.00093391741475296844 0 0.014707709025253318 -0.00077893996148647234 0 0.014222487527044027 -0.00054468940649293935 0 0.014283147646898087 -0.00093391741475296844 0 0.014222487527044027 -0.00054468940649293935 0 0.014113374936106792 -0.00070769356424503168 0 0.014222487527044027 -0.00054468940649293935 0 0.014113374936106792 -0.00070769356424503168 0 0.014048526915708981 -0.00053907732745112655 0 0.015187576671441671 -0.0013243017547719628 0 0.014707709025253318 -0.00077893996148647234 0 0.015466458009956599 -0.00093481521133954469 0 0.015648667665926017 -0.00069251753942658134 0 0.015443282669133994 -0.00040157301377097775 0 0.014707709025253318 -0.00077893996148647234 0 0.015466458009956599 -0.00093481521133954469 0 0.015032062571714046 -0.00032633700976425766 0 0.015764005476843954 -0.00033383760165941773 0 0.016239121099682004 -1.3220275315979986e-05 0 0.015032062571714046 -0.00032633700976425766 0 0.016239121099682004 -1.3220275315979986e-05 0 0.017431530201812772 -4.7885588458221306e-05 0 0.017049972195379664 0.00017164487288638753 0 0.016239121099682004 -1.3220275315979986e-05 0 0.017431530201812772 -4.7885588458221306e-05 0 0.01651883983726778 -0.00033181092573435661 0 0.015764005476843954 -0.00033383760165941773 0 0.016239121099682004 -1.3220275315979986e-05 0 0.01651883983726778 -0.00033181092573435661 0 0.016199590918994672 -0.00083536893424042673 0 0.01651883983726778 -0.00033181092573435661 0 0.017460405064425522 -0.00084750664347579428 0 0.017431530201812772 -4.7885588458221306e-05 0 0.01651883983726778 -0.00033181092573435661 0 0.017460405064425522 -0.00084750664347579428 0 0.017244403219597491 -0.0018487788028596483 0 0.017460405064425522 -0.00084750664347579428 0 0.016837166890317785 -0.0013709659434053452 0 0.017244403219597491 -0.0018487788028596483 0 0.018596534476997009 -0.0021080179739191986 0 0.017460405064425522 -0.00084750664347579428 0 0.016275587787347234 -0.0017587582015607508 0 0.016026218107123624 -0.0013015723858935463 0 0.016633598266599985 -0.0021934300051462303 0 0.015895434960502181 -0.0022747267672974451 0 0.015972926758471284 -0.0015247223038220975 0 0.016633598266599985 -0.0021934300051462303 0 0.016199590918994672 -0.00083536893424042673 0 0.016837166890317785 -0.0013709659434053452 0 0.016199590918994672 -0.00083536893424042673 0 0.017460405064425522 -0.00084750664347579428 0 0.016837166890317785 -0.0013709659434053452 0 0.018596534476997009 -0.0021080179739191986 0 0.021719755984097068 -4.7858524882509206e-06 0 0.019039882143593267 -0.00016932767045507344 0 0.018596534476997009 -0.0021080179739191986 0 0.017460405064425522 -0.00084750664347579428 0 0.019039882143593267 -0.00016932767045507344 0 0.017431530201812772 -4.7885588458221306e-05 0 0.017460405064425522 -0.00084750664347579428 0 0.019039882143593267 -0.00016932767045507344 0 0.019039882143593267 -0.00016932767045507344 0 0.019773736183614818 1.3135918543974235e-06 0 0.018189999344385095 9.8013049654798351e-05 0 0.021719755984097068 -4.7858524882509206e-06 0 0.019039882143593267 -0.00016932767045507344 0 0.019773736183614818 1.3135918543974235e-06 0 0.019773736183614818 1.3135918543974235e-06 0 0.018189999344385095 9.8013049654798351e-05 0 0.017822860386214896 1.9325034703051008e-07 0 0.017431530201812772 -4.7885588458221306e-05 0 0.019039882143593267 -0.00016932767045507344 0 0.018189999344385095 9.8013049654798351e-05 0 0.017431530201812772 -4.7885588458221306e-05 0 0.018189999344385095 9.8013049654798351e-05 0 0.017049972195379664 0.00017164487288638753 0 0.018189999344385095 9.8013049654798351e-05 0 0.017049972195379664 0.00017164487288638753 0 0.017822860386214896 1.9325034703051008e-07 0 0.017822860386214896 1.9325034703051008e-07 0 0.016227313921839459 0.0002535465680983958 0 0.015873413159882593 4.5103231838572358e-07 0 0.017049972195379664 0.00017164487288638753 0 0.017822860386214896 1.9325034703051008e-07 0 0.016227313921839459 0.0002535465680983958 0 0.017049972195379664 0.00017164487288638753 0 0.016227313921839459 0.0002535465680983958 0 0.016190827991238235 0.00029928429732397206 0 0.016227313921839459 0.0002535465680983958 0 0.016190827991238235 0.00029928429732397206 0 0.015351360181705319 0.00037371916021290751 0 0.016227313921839459 0.0002535465680983958 0 0.015873413159882593 4.5103231838572358e-07 0 0.015351360181705319 0.00037371916021290751 0 0.016239121099682004 -1.3220275315979986e-05 0 0.016190827991238235 0.00029928429732397206 0 0.015652260823621148 0.00011578201787239066 0 0.016239121099682004 -1.3220275315979986e-05 0 0.017049972195379664 0.00017164487288638753 0 0.016190827991238235 0.00029928429732397206 0 0.016190827991238235 0.00029928429732397206 0 0.015807347904927712 0.0003952277704320381 0 0.015351360181705319 0.00037371916021290751 0 0.016190827991238235 0.00029928429732397206 0 0.015807347904927712 0.0003952277704320381 0 0.015652260823621148 0.00011578201787239066 0 0.015807347904927712 0.0003952277704320381 0 0.015715714913346376 0.00027642546882944636 0 0.015361545506843034 0.00056354505964502529 0 0.015807347904927712 0.0003952277704320381 0 0.015715714913346376 0.00027642546882944636 0 0.015351360181705319 0.00037371916021290751 0 0.015715714913346376 0.00027642546882944636 0 0.015351360181705319 0.00037371916021290751 0 0.015004847234144905 -0.00020856359903533342 0 0.015873413159882593 4.5103231838572358e-07 0 0.015351360181705319 0.00037371916021290751 0 0.013923316704911103 1.219020395872963e-06 0 0.015351360181705319 0.00037371916021290751 0 0.013854873492086585 -2.4230648373688503e-05 0 0.015004847234144905 -0.00020856359903533342 0 0.015351360181705319 0.00037371916021290751 0 0.013923316704911103 1.219020395872963e-06 0 0.013854873492086585 -2.4230648373688503e-05 0 0.013923316704911103 1.219020395872963e-06 0 0.013854873492086585 -2.4230648373688503e-05 0 0.01197589849590967 -2.6954663180950501e-06 0 0.013854873492086585 -2.4230648373688503e-05 0 0.01197589849590967 -2.6954663180950501e-06 0 0.013173382976293115 -0.00090997736070115088 0 0.01197242308889053 -3.1337232744262753e-07 0 0.011879009598958729 -4.6687150089562241e-05 0 0.011970891487028418 -2.1041534805544334e-10 0 0.011546639184521201 3.6424275208060282e-07 0 0.011135441701684861 1.2204111359166951e-09 0 0.0099744821028153186 -0.00075594623456142385 0 0.011130638586249946 -1.4463622028017344e-06 0 0.0098792264890280798 -0.00013433843382670781 0 0.011879009598958729 -4.6687150089562241e-05 0 0.011135862278669114 -1.0268906699246925e-06 0 0.014630586698686984 -0.00072915346478221712 0 0.014282827844414769 -0.000735594523754095 0 0.014226760861064258 -0.00098725347763108334 0 0.014630586698686984 -0.00072915346478221712 0 0.014282827844414769 -0.000735594523754095 0 0.014286561309526411 -0.00046680208972204755 0 0.0099744821028153186 -0.00075594623456142385 0 0.0098792264890280798 -0.00013433843382670781 0 0.0088807989353935895 -3.4669364394615735e-05 0 0.011879009598958729 -4.6687150089562241e-05 0 0.011622389102787466 -0.00024573477291947235 0 0.011879009598958729 -4.6687150089562241e-05 0 0.013745438370981753 3.0661746870194532e-05 0 0.013854873492086585 -2.4230648373688503e-05 0 0.013173382976293115 -0.00090997736070115088 0 0.015004847234144905 -0.00020856359903533342 0 0.014266485502303587 -8.2771853742219157e-05 0 0.013745438370981753 3.0661746870194532e-05 0 0.013707479751880608 -0.001201960626946898 0 0.014226760861064258 -0.00098725347763108334 0 0.013986378209954653 -0.0007556070494565795 0 0.013707479751880608 -0.001201960626946898 0 0.013986378209954653 -0.0007556070494565795 0 0.01359794575692911 -0.00096987103167445437 0 0.013986378209954653 -0.0007556070494565795 0 0.013691855311335618 -0.00062987598430171165 0 0.01359794575692911 -0.00096987103167445437 0 0.014282827844414769 -0.000735594523754095 0 0.013986378209954653 -0.0007556070494565795 0 0.014286561309526411 -0.00046680208972204755 0 0.014282827844414769 -0.000735594523754095 0 0.014226760861064258 -0.00098725347763108334 0 0.013986378209954653 -0.0007556070494565795 0 0.011158888586824805 -0.0002963407775817231 0 0.011622389102787466 -0.00024573477291947235 0 0.0090173754241814827 1.0392363152657432e-05 0 0.0088269953722352138 5.5607686881856919e-05 0 0.0088807989353935895 -3.4669364394615735e-05 0 0.013986378209954653 -0.0007556070494565795 0 0.014017075371263545 -0.00016527598475098054 0 0.014286561309526411 -0.00046680208972204755 0 0.014017075371263545 -0.00016527598475098054 0 0.013690843241995024 -0.00014042527523733798 0 0.013691855311335618 -0.00062987598430171165 0 0.013986378209954653 -0.0007556070494565795 0 0.014017075371263545 -0.00016527598475098054 0 0.013691855311335618 -0.00062987598430171165 0 0.014017075371263545 -0.00016527598475098054 0 0.013690843241995024 -0.00014042527523733798 0 0.013703348380473443 0.00036737258867749247 0 0.011158888586824805 -0.0002963407775817231 0 0.010248860588433568 -0.00029052603689297483 0 0.0090173754241814827 1.0392363152657432e-05 0 0.0088269953722352138 5.5607686881856919e-05 0 0.0089675819152171387 -0.00016456580334613702 0 0.0088269953722352138 5.5607686881856919e-05 0 0.0083121683703131256 -0.00013268076863585531 0 0.0093949685594247045 6.1849135551971242e-05 0 0.0088269953722352138 5.5607686881856919e-05 0 0.0083121683703131256 -0.00013268076863585531 0 0.0089675819152171387 -0.00016456580334613702 0 0.0090675164347122032 2.333167604896148e-07 0 0.0083121683703131256 -0.00013268076863585531 0 0.0093949685594247045 6.1849135551971242e-05 0 0.011130638586249946 -1.4463622028017344e-06 0 0.0090675164347122032 2.333167604896148e-07 0 0.0093949685594247045 6.1849135551971242e-05 0 0.011130638586249946 -1.4463622028017344e-06 0 0.0093949685594247045 6.1849135551971242e-05 0 0.0098792264890280798 -0.00013433843382670781 0 0.0093949685594247045 6.1849135551971242e-05 0 0.0098792264890280798 -0.00013433843382670781 0 0.0088807989353935895 -3.4669364394615735e-05 0 0.0088269953722352138 5.5607686881856919e-05 0 0.0093949685594247045 6.1849135551971242e-05 0 0.0088807989353935895 -3.4669364394615735e-05 0 0.013036410533583499 -0.00069064360381003833 0 0.012514783116486227 -0.00074572127006430867 0 0.012775911851825982 -0.00017558327514581088 0 0.012514783116486227 -0.00074572127006430867 0 0.012251510467453748 -1.4493949827515278e-05 0 0.012775911851825982 -0.00017558327514581088 0 0.013036410533583499 -0.00069064360381003833 0 0.012775911851825982 -0.00017558327514581088 0 0.01314790209288297 -0.00017028763508727178 0 0.012514783116486227 -0.00074572127006430867 0 0.012251510467453748 -1.4493949827515278e-05 0 0.011331243383806649 -0.00018721921952050461 0 0.012514783116486227 -0.00074572127006430867 0 0.012069001057223623 -0.0012688540802867658 0 0.011331243383806649 -0.00018721921952050461 0 0.012251510467453748 -1.4493949827515278e-05 0 0.011867149640729591 0.00059899160733457846 0 0.011331243383806649 -0.00018721921952050461 0 0.012251510467453748 -1.4493949827515278e-05 0 0.011867149640729591 0.00059899160733457846 0 0.012575145272411901 0.00043117899927671817 0 0.012251510467453748 -1.4493949827515278e-05 0 0.012575145272411901 0.00043117899927671817 0 0.012775911851825982 -0.00017558327514581088 0 0.012775911851825982 -0.00017558327514581088 0 0.012927632943760264 0.00027318941061781066 0 0.01314790209288297 -0.00017028763508727178 0 0.012575145272411901 0.00043117899927671817 0 0.012775911851825982 -0.00017558327514581088 0 0.012927632943760264 0.00027318941061781066 0 0.012575145272411901 0.00043117899927671817 0 0.012927632943760264 0.00027318941061781066 0 0.012887526230481325 0.00061948862864113932 0 0.012927632943760264 0.00027318941061781066 0 0.013238849697797117 0.00022315557693108982 0 0.013096774890067577 0.00054454872243012316 0 0.013238849697797117 0.00022315557693108982 0 0.013334214592202224 0.00046236844695799682 0 0.013096774890067577 0.00054454872243012316 0 0.013238849697797117 0.00022315557693108982 0 0.013411763172671403 -8.1394726797903179e-05 0 0.01347838901687903 0.00019543227784828265 0 0.013238849697797117 0.00022315557693108982 0 0.01347838901687903 0.00019543227784828265 0 0.013334214592202224 0.00046236844695799682 0 0.013238849697797117 0.00022315557693108982 0 0.013411763172671403 -8.1394726797903179e-05 0 0.01314790209288297 -0.00017028763508727178 0 0.012927632943760264 0.00027318941061781066 0 0.013238849697797117 0.00022315557693108982 0 0.01314790209288297 -0.00017028763508727178 0 0.01347838901687903 0.00019543227784828265 0 0.013690843241995024 -0.00014042527523733798 0 0.013703348380473443 0.00036737258867749247 0 0.013411763172671403 -8.1394726797903179e-05 0 0.01347838901687903 0.00019543227784828265 0 0.013690843241995024 -0.00014042527523733798 0 0.013690843241995024 -0.00014042527523733798 0 0.013397836499453315 -0.00047500396931225843 0 0.013691855311335618 -0.00062987598430171165 0 0.013411763172671403 -8.1394726797903179e-05 0 0.013690843241995024 -0.00014042527523733798 0 0.013397836499453315 -0.00047500396931225843 0 0.013036410533583499 -0.00069064360381003833 0 0.01314790209288297 -0.00017028763508727178 0 0.013397836499453315 -0.00047500396931225843 0 0.013411763172671403 -8.1394726797903179e-05 0 0.01314790209288297 -0.00017028763508727178 0 0.013397836499453315 -0.00047500396931225843 0 0.013036410533583499 -0.00069064360381003833 0 0.013397836499453315 -0.00047500396931225843 0 0.013317376978604356 -0.0010149120699806538 0 0.013397836499453315 -0.00047500396931225843 0 0.013317376978604356 -0.0010149120699806538 0 0.013691855311335618 -0.00062987598430171165 0 0.013317376978604356 -0.0010149120699806538 0 0.013691855311335618 -0.00062987598430171165 0 0.01359794575692911 -0.00096987103167445437 0 0.013707479751880608 -0.001201960626946898 0 0.01359794575692911 -0.00096987103167445437 0 0.013387228797335936 -0.0011455481429369591 0 0.013317376978604356 -0.0010149120699806538 0 0.01359794575692911 -0.00096987103167445437 0 0.013387228797335936 -0.0011455481429369591 0 0.013317376978604356 -0.0010149120699806538 0 0.013225511070543374 -0.0012673494165454644 0 0.013387228797335936 -0.0011455481429369591 0 0.013225511070543374 -0.0012673494165454644 0 0.012854040822053152 -0.0012257982887037421 0 0.013000504752303087 -0.0014114716942111231 0 0.013317376978604356 -0.0010149120699806538 0 0.013225511070543374 -0.0012673494165454644 0 0.012854040822053152 -0.0012257982887037421 0 0.013225511070543374 -0.0012673494165454644 0 0.013000504752303087 -0.0014114716942111231 0 0.01329918525559534 -0.0012315003871798496 0 0.013036410533583499 -0.00069064360381003833 0 0.013317376978604356 -0.0010149120699806538 0 0.012854040822053152 -0.0012257982887037421 0 0.013036410533583499 -0.00069064360381003833 0 0.012514783116486227 -0.00074572127006430867 0 0.012854040822053152 -0.0012257982887037421 0 0.012069001057223623 -0.0012688540802867658 0 0.012595508904645785 -0.0015097402885113789 0 0.011713751568476644 -0.0018044541937166222 0 0.012854040822053152 -0.0012257982887037421 0 0.012069001057223623 -0.0012688540802867658 0 0.012595508904645785 -0.0015097402885113789 0 0.012514783116486227 -0.00074572127006430867 0 0.012854040822053152 -0.0012257982887037421 0 0.012069001057223623 -0.0012688540802867658 0 0.012595508904645785 -0.0015097402885113789 0 0.011713751568476644 -0.0018044541937166222 0 0.012657650443120177 -0.0014661372409012388 0 0.012854040822053152 -0.0012257982887037421 0 0.012595508904645785 -0.0015097402885113789 0 0.013000504752303087 -0.0014114716942111231 0 0.012595508904645785 -0.0015097402885113789 0 0.013000504752303087 -0.0014114716942111231 0 0.013092367602298153 -0.0015033725936857546 0 0.012595508904645785 -0.0015097402885113789 0 0.013092367602298153 -0.0015033725936857546 0 0.012657650443120177 -0.0014661372409012388 0 0.013093249055151752 -0.0019431736109831389 0 0.012977246036434593 -0.0021432905401648356 0 0.013092367602298153 -0.0015033725936857546 0 0.012522227878830476 -0.0023250487742984454 0 0.012657650443120177 -0.0014661372409012388 0 0.013092367602298153 -0.0015033725936857546 0 0.013481294877376463 -0.0010828750758404236 0 0.013966036956468223 -0.00094973005450495391 0 0.013481294877376463 -0.0010828750758404236 0 0.013724497501692107 -0.00078802446103689227 0 0.013966036956468223 -0.00094973005450495391 0 0.013481294877376463 -0.0010828750758404236 0 0.01329918525559534 -0.0012315003871798496 0 0.01364446043254345 -0.00084528509965123787 0 0.013092367602298153 -0.0015033725936857546 0 0.013481294877376463 -0.0010828750758404236 0 0.01329918525559534 -0.0012315003871798496 0 0.013000504752303087 -0.0014114716942111231 0 0.013092367602298153 -0.0015033725936857546 0 0.01329918525559534 -0.0012315003871798496 0 0.013225511070543374 -0.0012673494165454644 0 0.01329918525559534 -0.0012315003871798496 0 0.013502964739055772 -0.0010402148460245105 0 0.01329918525559534 -0.0012315003871798496 0 0.01364446043254345 -0.00084528509965123787 0 0.013502964739055772 -0.0010402148460245105 0 0.01364446043254345 -0.00084528509965123787 0 0.013849364017388732 -0.00056906914846628187 0 0.014132090925725965 -0.00018509723148087603 0 0.01364446043254345 -0.00084528509965123787 0 0.013502964739055772 -0.0010402148460245105 0 0.014132090925725965 -0.00018509723148087603 0 0.013849364017388732 -0.00056906914846628187 0 0.013724497501692107 -0.00078802446103689227 0 0.013933241254405423 -0.00059781602046525648 0 0.013849364017388732 -0.00056906914846628187 0 0.013973965728598901 -0.00042447274372494573 0 0.013933241254405423 -0.00059781602046525648 0 0.013724497501692107 -0.00078802446103689227 0 0.013966036956468223 -0.00094973005450495391 0 0.013933241254405423 -0.00059781602046525648 0 0.01364446043254345 -0.00084528509965123787 0 0.013849364017388732 -0.00056906914846628187 0 0.013724497501692107 -0.00078802446103689227 0 0.013481294877376463 -0.0010828750758404236 0 0.01364446043254345 -0.00084528509965123787 0 0.013724497501692107 -0.00078802446103689227 0 0.014266485502303587 -8.2771853742219157e-05 0 0.014296748426774239 -0.00015124190374235131 0 0.013707479751880608 -0.001201960626946898 0 0.013387228797335936 -0.0011455481429369591 0 0.013306559491677812 -0.00101321635165774 0 0.013387228797335936 -0.0011455481429369591 0 0.013502964739055772 -0.0010402148460245105 0 0.013306559491677812 -0.00101321635165774 0 0.013225511070543374 -0.0012673494165454644 0 0.013387228797335936 -0.0011455481429369591 0 0.013502964739055772 -0.0010402148460245105 0 0.013502964739055772 -0.0010402148460245105 0 0.013306559491677812 -0.00101321635165774 0 0.014132090925725965 -0.00018509723148087603 0 0.014296748426774239 -0.00015124190374235131 0 0.014258469345638854 -0.00017264834155938328 0 0.015807347904927712 0.0003952277704320381 0 0.015361545506843034 0.00056354505964502529 0 0.015652260823621148 0.00011578201787239066 0 0.015361545506843034 0.00056354505964502529 0 0.015652260823621148 0.00011578201787239066 0 0.014132090925725965 -0.00018509723148087603 0 0.015652260823621148 0.00011578201787239066 0 0.015032062571714046 -0.00032633700976425766 0 0.014132090925725965 -0.00018509723148087603 0 0.016239121099682004 -1.3220275315979986e-05 0 0.015652260823621148 0.00011578201787239066 0 0.015032062571714046 -0.00032633700976425766 0 0.013973965728598901 -0.00042447274372494573 0 0.014119382794042165 -0.00036863954805103026 0 0.014005233505661055 -0.00041998888504259736 0 0.013973965728598901 -0.00042447274372494573 0 0.014007325434235985 -0.00047799058456991512 0 0.013933241254405423 -0.00059781602046525648 0 0.013973965728598901 -0.00042447274372494573 0 0.014005233505661055 -0.00041998888504259736 0 0.014007325434235985 -0.00047799058456991512 0 0.014132090925725965 -0.00018509723148087603 0 0.014426521842531083 -0.00039219568302267246 0 0.014119382794042165 -0.00036863954805103026 0 0.013849364017388732 -0.00056906914846628187 0 0.013973965728598901 -0.00042447274372494573 0 0.014132090925725965 -0.00018509723148087603 0 0.013973965728598901 -0.00042447274372494573 0 0.014132090925725965 -0.00018509723148087603 0 0.014119382794042165 -0.00036863954805103026 0 0.015032062571714046 -0.00032633700976425766 0 0.014132090925725965 -0.00018509723148087603 0 0.014426521842531083 -0.00039219568302267246 0 0.014222487527044027 -0.00054468940649293935 0 0.014426521842531083 -0.00039219568302267246 0 0.014119382794042165 -0.00036863954805103026 0 0.014222487527044027 -0.00054468940649293935 0 0.014119382794042165 -0.00036863954805103026 0 0.014073446491374271 -0.00043854821505401949 0 0.014119382794042165 -0.00036863954805103026 0 0.014073446491374271 -0.00043854821505401949 0 0.014005233505661055 -0.00041998888504259736 0 0.014222487527044027 -0.00054468940649293935 0 0.014073446491374271 -0.00043854821505401949 0 0.014048526915708981 -0.00053907732745112655 0 0.014048526915708981 -0.00053907732745112655 0 0.013955468794084431 -0.00049995807036261363 0 0.014004161282860183 -0.00043430920868000971 0 0.014073446491374271 -0.00043854821505401949 0 0.014048526915708981 -0.00053907732745112655 0 0.014004161282860183 -0.00043430920868000971 0 0.013919679261799406 -0.00071366697372669504 0 0.013955468794084431 -0.00049995807036261363 0 0.013813906025001868 -0.00051251038344635842 0 0.013955468794084431 -0.00049995807036261363 0 0.013923652059051442 -0.0004620707993663707 0 0.013813906025001868 -0.00051251038344635842 0 0.013955468794084431 -0.00049995807036261363 0 0.013923652059051442 -0.0004620707993663707 0 0.013965957704199672 -0.00043729329079093837 0 0.013923652059051442 -0.0004620707993663707 0 0.013965957704199672 -0.00043729329079093837 0 0.013955053323416528 -0.00040669413978750756 0 0.013955468794084431 -0.00049995807036261363 0 0.013965957704199672 -0.00043729329079093837 0 0.014004161282860183 -0.00043430920868000971 0 0.013965957704199672 -0.00043729329079093837 0 0.014004161282860183 -0.00043430920868000971 0 0.013982505365667379 -0.00042111326086010677 0 0.013965957704199672 -0.00043729329079093837 0 0.013982505365667379 -0.00042111326086010677 0 0.013955053323416528 -0.00040669413978750756 0 0.014073446491374271 -0.00043854821505401949 0 0.014004161282860183 -0.00043430920868000971 0 0.014005233505661055 -0.00041998888504259736 0 0.013982505365667379 -0.00042111326086010677 0 0.014007325434235985 -0.00047799058456991512 0 0.014114850169984167 -0.00056376678341256957 0 0.014005233505661055 -0.00041998888504259736 0 0.013982505365667379 -0.00042111326086010677 0 0.014007325434235985 -0.00047799058456991512 0 0.013182127433579867 -0.0019799895095536828 0 0.012933820147667793 -0.0023556168545982061 0 0.014004161282860183 -0.00043430920868000971 0 0.014005233505661055 -0.00041998888504259736 0 0.013982505365667379 -0.00042111326086010677 0 0.013982505365667379 -0.00042111326086010677 0 0.013955053323416528 -0.00040669413978750756 0 0.014114850169984167 -0.00056376678341256957 0 0.013577230439064289 -0.0027302600597019595 0 0.012120378239311934 -0.0031530823921600368 0 0.012940439742880805 -0.0025597492516530691 0 0.013084263858366101 -0.0027319448951472862 0 0.013167832906697818 -0.0022319575755847471 0 0.013577230439064289 -0.0027302600597019595 0 0.013978895205795117 -0.0030864498599193087 0 0.013577230439064289 -0.0027302600597019595 0 0.012933820147667793 -0.0023556168545982061 0 0.013577230439064289 -0.0027302600597019595 0 0.013182127433579867 -0.0019799895095536828 0 0.013577230439064289 -0.0027302600597019595 0 0.016254461736196265 -0.0021782320190920287 0 0.0137066411560456 -0.00014216564962892374 0 0.013847122304108206 -0.00030962763711748755 0 0.013813906025001868 -0.00051251038344635842 0 0.0137066411560456 -0.00014216564962892374 0 0.013813906025001868 -0.00051251038344635842 0 0.013410159434745368 -0.00055635286248127615 0 0.013182127433579867 -0.0019799895095536828 0 0.013230563893681876 -0.0017776894147493495 0 0.013923652059051442 -0.0004620707993663707 0 0.013955053323416528 -0.00040669413978750756 0 0.013813906025001868 -0.00051251038344635842 0 0.017144324810017143 -0.0028782692768108266 0 0.017497876680815976 -0.0023814397211898929 0 0.017592972178619916 -0.0027915772299018302 0 0.017497876680815976 -0.0023814397211898929 0 0.017868403902055158 -0.0025004048447959297 0 0.017592972178619916 -0.0027915772299018302 0 0.017992917270431875 -0.0027011492867188062 0 0.01813113631322124 -0.0029078248134790266 0 0.018173535074641547 -0.0024913226344139071 0 0.017868403902055158 -0.0025004048447959297 0 0.017827446629020915 -0.0027302534989053591 0 0.017992917270431875 -0.0027011492867188062 0 0.017868403902055158 -0.0025004048447959297 0 0.017827446629020915 -0.0027302534989053591 0 0.017592972178619916 -0.0027915772299018302 0 0.017868403902055158 -0.0025004048447959297 0 0.017992917270431875 -0.0027011492867188062 0 0.018173535074641547 -0.0024913226344139071 0 0.01813113631322124 -0.0029078248134790266 0 0.01796946769594784 -0.0031247328543585044 0 0.018206442276478593 -0.0033270980606065611 0 0.017992917270431875 -0.0027011492867188062 0 0.01813113631322124 -0.0029078248134790266 0 0.017888930065256648 -0.0028986921812691364 0 0.017827446629020915 -0.0027302534989053591 0 0.017888930065256648 -0.0028986921812691364 0 0.017592972178619916 -0.0027915772299018302 0 0.017827446629020915 -0.0027302534989053591 0 0.017992917270431875 -0.0027011492867188062 0 0.017888930065256648 -0.0028986921812691364 0 0.017888930065256648 -0.0028986921812691364 0 0.01796946769594784 -0.0031247328543585044 0 0.017735627904456357 -0.0030559125026565466 0 0.01813113631322124 -0.0029078248134790266 0 0.017888930065256648 -0.0028986921812691364 0 0.01796946769594784 -0.0031247328543585044 0 0.017144324810017143 -0.0028782692768108266 0 0.017592972178619916 -0.0027915772299018302 0 0.01746102699202292 -0.0031097829002416726 0 0.013553005987462461 -0.0031118349375291914 0 0.013169433961490363 -0.0028258947557822478 0 0.013053312096276347 -0.0025067841235150976 0 0.017888930065256648 -0.0028986921812691364 0 0.017592972178619916 -0.0027915772299018302 0 0.017735627904456357 -0.0030559125026565466 0 0.017592972178619916 -0.0027915772299018302 0 0.017735627904456357 -0.0030559125026565466 0 0.01746102699202292 -0.0031097829002416726 0 0.013978895205795117 -0.0030864498599193087 0 0.013627106092045722 -0.0031143943569943377 0 0.017735627904456357 -0.0030559125026565466 0 0.01746102699202292 -0.0031097829002416726 0 0.017766372107410024 -0.0033553053329338158 0 0.013169433961490363 -0.0028258947557822478 0 0.013053312096276347 -0.0025067841235150976 0 0.012798385065351924 -0.0025220035731729385 0 0.012120378239311934 -0.0031530823921600368 0 0.013627106092045722 -0.0031143943569943377 0 0.016406090489525516 -0.0037660302406509047 0 0.015821161706098198 -0.0038002707000785452 0 0.01565504262154669 -0.0031410706295011042 0 0.013627106092045722 -0.0031143943569943377 0 0.01741440747951687 -0.0030811875596611599 0 0.0087680361194880738 -0.0060034847230669135 0 0.0080185262108508938 -0.0060522311682661232 0 0.0073200877177015036 -0.0044599861399033077 0 0.01796946769594784 -0.0031247328543585044 0 0.017766372107410024 -0.0033553053329338158 0 0.018206442276478593 -0.0033270980606065611 0 0.01796946769594784 -0.0031247328543585044 0 0.017735627904456357 -0.0030559125026565466 0 0.017766372107410024 -0.0033553053329338158 0 0.01099275204811046 -0.0032802008095417232 0 0.010543281932067817 -0.0027744389133299041 0 0.010439555368598967 -0.0027152517874414828 0 0.013627106092045722 -0.0031143943569943377 0 0.011797575738627036 -0.0027908295054529264 0 0.0080185262108508938 -0.0060522311682661232 0 0.0073200877177015036 -0.0044599861399033077 0 0.0060503017139004692 -0.0044729534741539245 0 0.012120378239311934 -0.0031530823921600368 0 0.0096480585653909677 -0.0028320524552869933 0 0.010528277102872487 -0.0027688499602413121 0 0.010777407471350503 -0.0025430936676779036 0 0.01050289039202032 -0.002459334567840356 0 0.010543281932067817 -0.0027744389133299041 0 0.010439555368598967 -0.0027152517874414828 0 0.010102544684360462 -0.0022691344599015161 0 0.010942682287573804 -0.0032573716523354172 0 0.011018149110762192 -0.0027770189555149185 0 0.011433179245115353 -0.002808086777924987 0 0.010942682287573804 -0.0032573716523354172 0 0.010528277102872487 -0.0027688499602413121 0 0.011018149110762192 -0.0027770189555149185 0 0.012120378239311934 -0.0031530823921600368 0 0.011269381651002329 -0.0026298580939604719 0 0.010528277102872487 -0.0027688499602413121 0 0.011018149110762192 -0.0027770189555149185 0 0.010777407471350503 -0.0025430936676779036 0 0.011018149110762192 -0.0027770189555149185 0 0.011271948916301937 -0.0023622737508621626 0 0.010777407471350503 -0.0025430936676779036 0 0.011018149110762192 -0.0027770189555149185 0 0.011433179245115353 -0.002808086777924987 0 0.011271948916301937 -0.0023622737508621626 0 0.012659804692038075 -0.0024906447472040063 0 0.011659324331681068 -0.002526311090668427 0 0.011433179245115353 -0.002808086777924987 0 0.01181889151785254 -0.0031999142560880899 0 0.011939437877410376 -0.0024637629201948582 0 0.012522227878830476 -0.0023250487742984454 0 0.012296942929019618 -0.0014121802710392894 0 0.012657650443120177 -0.0014661372409012388 0 0.012522227878830476 -0.0023250487742984454 0 0.012092272924039556 -0.0026866663308387218 0 0.012296942929019618 -0.0014121802710392894 0 0.012522227878830476 -0.0023250487742984454 0 0.012092272924039556 -0.0026866663308387218 0 0.012271196282721978 -0.0026882729711567794 0 0.012784640481047826 -0.002665942151188528 0 0.012659385879127176 -0.0026646702884225494 0 0.012824365025032751 -0.0024258889827754801 0 0.012659804692038075 -0.0024906447472040063 0 0.012812600673298005 -0.0024129839270710142 0 0.013966036956468223 -0.00094973005450495391 0 0.014079057683107705 -0.0007285628329926977 0 0.013933241254405423 -0.00059781602046525648 0 0.012977246036434593 -0.0021432905401648356 0 0.012812600673298005 -0.0024129839270710142 0 0.014079057683107705 -0.0007285628329926977 0 0.013933241254405423 -0.00059781602046525648 0 0.014114850169984167 -0.00056376678341256957 0 0.014007325434235985 -0.00047799058456991512 0 0.013933241254405423 -0.00059781602046525648 0 0.014114850169984167 -0.00056376678341256957 0 0.012659804692038075 -0.0024906447472040063 0 0.012933820147667793 -0.0023556168545982061 0 0.012812600673298005 -0.0024129839270710142 0 0.012933820147667793 -0.0023556168545982061 0 0.010942682287573804 -0.0032573716523354172 0 0.011433179245115353 -0.002808086777924987 0 0.01181889151785254 -0.0031999142560880899 0 0.012120378239311934 -0.0031530823921600368 0 0.012659804692038075 -0.0024906447472040063 0 0.012855967286111908 -0.002759332849786343 0 0.012946747688492598 -0.0027530965504775858 0 0.012943538329861681 -0.0027734727108418671 0 0.012910372030837029 -0.0028220386701363967 0 0.012855967286111908 -0.002759332849786343 0 0.012943538329861681 -0.0027734727108418671 0 0.027296325153329075 -0.0038386329764294042 0 0.027026149365786824 -0.0025018483144900595 0 0.025688452359530784 -0.0034720943988124993 0 0.027296325153329075 -0.0038386329764294042 0 0.028222933563824604 -0.0025045429099642504 0 0.027026149365786824 -0.0025018483144900595 0 0.028210038730297923 -0.0051109220844317441 0 0.027296325153329075 -0.0038386329764294042 0 0.026525395045703504 -0.0052822867004793349 0 0.028210038730297923 -0.0051109220844317441 0 0.027296325153329075 -0.0038386329764294042 0 0.028729920756392 -0.0036648614548985378 0 0.027296325153329075 -0.0038386329764294042 0 0.028729920756392 -0.0036648614548985378 0 0.028222933563824604 -0.0025045429099642504 0 0.028729920756392 -0.0036648614548985378 0 0.029369729693554999 -0.0024614503442280068 0 0.028222933563824604 -0.0025045429099642504 0 0.028729920756392 -0.0036648614548985378 0 0.029442771217699653 -0.0044824769172874535 0 0.029939783884414338 -0.0035126262153244159 0 0.028729920756392 -0.0036648614548985378 0 0.029939783884414338 -0.0035126262153244159 0 0.029369729693554999 -0.0024614503442280068 0 0.028210038730297923 -0.0051109220844317441 0 0.028729920756392 -0.0036648614548985378 0 0.029442771217699653 -0.0044824769172874535 0 0.022274886738441087 -0.0040489330929353732 0 0.022360579591818173 -0.003644211616811349 0 0.029442771217699653 -0.0044824769172874535 0 0.030491741665874032 -0.0045454905580019312 0 0.029939783884414338 -0.0035126262153244159 0 0.029335579390021398 -0.0055622281117207626 0 0.029442771217699653 -0.0044824769172874535 0 0.030491741665874032 -0.0045454905580019312 0 0.01813113631322124 -0.0029078248134790266 0 0.018173535074641547 -0.0024913226344139071 0 0.01841025064002642 -0.0028931362695205918 0 0.022360579591818173 -0.003644211616811349 0 0.02166769257319397 -0.0029078655016651386 0 0.01813113631322124 -0.0029078248134790266 0 0.01841025064002642 -0.0028931362695205918 0 0.018206442276478593 -0.0033270980606065611 0 0.01841025064002642 -0.0028931362695205918 0 0.018206442276478593 -0.0033270980606065611 0 0.018648401117637624 -0.0032984535934793891 0 0.015821161706098198 -0.0038002707000785452 0 0.01565504262154669 -0.0031410706295011042 0 0.015229103308363577 -0.0038397720792263026 0 0.01741440747951687 -0.0030811875596611599 0 0.02166769257319397 -0.0029078655016651386 0 0.01565504262154669 -0.0031410706295011042 0 0.014852262385769321 -0.0031875244590110377 0 0.015229103308363577 -0.0038397720792263026 0 0.028969635306387465 -0.00090680249159525263 0 0.029742906449937229 -0.0023028755253791575 0 0.028387151872114935 -0.0023929008447627163 0 0.019905573391876215 -0.0027697995138584943 0 0.02166769257319397 -0.0029078655016651386 0 0.02166769257319397 -0.0029078655016651386 0 0.025681840145593583 -0.0026405236135994192 0 0.025681840145593583 -0.0026405236135994192 0 0.026361350239070519 -0.0025921214304611261 0 0.028969635306387465 -0.00090680249159525263 0 0.028387151872114935 -0.0023929008447627163 0 0.027377835952410154 -0.0010896856098869274 0 0.028969635306387465 -0.00090680249159525263 0 0.027377835952410154 -0.0010896856098869274 0 0.028176910540747259 0.00052060526823762086 0 0.027377835952410154 -0.0010896856098869274 0 0.025992664800617984 -0.0017909278823664747 0 0.026257409548832437 -0.00046683206698845453 0 0.027377835952410154 -0.0010896856098869274 0 0.026938505371024043 -6.3511511952576871e-05 0 0.026257409548832437 -0.00046683206698845453 0 0.027377835952410154 -0.0010896856098869274 0 0.027026149365786824 -0.0025018483144900595 0 0.025992664800617984 -0.0017909278823664747 0 0.028387151872114935 -0.0023929008447627163 0 0.027377835952410154 -0.0010896856098869274 0 0.027026149365786824 -0.0025018483144900595 0 0.027350177585895811 0.0019651472071227113 0 0.027136327660557829 0.0014979385208972417 0 0.028176910540747259 0.00052060526823762086 0 0.026625555365010746 0.0018247848646427696 0 0.027136327660557829 0.0014979385208972417 0 0.026966971172637119 0.0022923975707969612 0 0.026625555365010746 0.0018247848646427696 0 0.027136327660557829 0.0014979385208972417 0 0.026566639802905485 0.0012195464078765229 0 0.026625555365010746 0.0018247848646427696 0 0.026566639802905485 0.0012195464078765229 0 0.026062807797989876 0.0017685268847655541 0 0.027350177585895811 0.0019651472071227113 0 0.027136327660557829 0.0014979385208972417 0 0.026940847816009993 0.0022821165133306968 0 0.012508815178577689 -0.0013249444481655578 0 0.011891068857264271 -0.0014573693098603418 0 0.027136327660557829 0.0014979385208972417 0 0.027194082284486183 0.00068716541271117882 0 0.028176910540747259 0.00052060526823762086 0 0.027136327660557829 0.0014979385208972417 0 0.026566639802905485 0.0012195464078765229 0 0.027194082284486183 0.00068716541271117882 0 0.026566639802905485 0.0012195464078765229 0 0.026472920544837113 0.00045939731236777282 0 0.027194082284486183 0.00068716541271117882 0 0.027377835952410154 -0.0010896856098869274 0 0.026938505371024043 -6.3511511952576871e-05 0 0.028176910540747259 0.00052060526823762086 0 0.026472920544837113 0.00045939731236777282 0 0.026938505371024043 -6.3511511952576871e-05 0 0.027194082284486183 0.00068716541271117882 0 0.026938505371024043 -6.3511511952576871e-05 0 0.027194082284486183 0.00068716541271117882 0 0.028176910540747259 0.00052060526823762086 0 0.026472920544837113 0.00045939731236777282 0 0.026938505371024043 -6.3511511952576871e-05 0 0.026257409548832437 -0.00046683206698845453 0 0.014852262385769321 -0.0031875244590110377 0 0.014465455851373417 -0.002518422288815545 0 0.014880375812095703 -0.0024948709638240906 0 0.019905573391876215 -0.0027697995138584943 0 0.0171280145603315 -0.0024524937884960003 0 0.012173930163672325 -0.0016447157250996289 0 0.010865654246256507 -0.0019503939434114004 0 0.012173930163672325 -0.0016447157250996289 0 0.0171280145603315 -0.0024524937884960003 0 0.014079741600384898 -0.0018312882370376585 0 0.014465455851373417 -0.002518422288815545 0 0.014880375812095703 -0.0024948709638240906 0 0.0028651112032612859 -0.0016966180027255542 0 0.003846067779764221 -0.0018677403423905488 0 0.0042238992905999943 -0.0029402223328670028 0 0.003846067779764221 -0.0018677403423905488 0 0.0048676161255019283 -0.0020279448677833901 0 0.0039458227394266916 -0.0012219510586760404 0 0.0045250163091315214 -0.0020891442927809395 0 0.0053442600114916826 -0.0019371544240059581 0 0.0045553595578169065 -0.0013457280768157619 0 0.0048676161255019283 -0.0020279448677833901 0 0.0042238992905999943 -0.0029402223328670028 0 0.0050999498552077738 -0.0028683604418648827 0 0.003846067779764221 -0.0018677403423905488 0 0.0048676161255019283 -0.0020279448677833901 0 0.0042238992905999943 -0.0029402223328670028 0 0.01565504262154669 -0.0031410706295011042 0 0.014852262385769321 -0.0031875244590110377 0 0.014880375812095703 -0.0024948709638240906 0 0.0060503017139004692 -0.0044729534741539245 0 0.0042238992905999943 -0.0029402223328670028 0 0.0050999498552077738 -0.0028683604418648827 0 0.011797575738627036 -0.0027908295054529264 0 0.010865654246256507 -0.0019503939434114004 0 0.0072334931400744188 -0.0020866920643643136 0 0.0074976760352356599 -0.0020865192089016904 0 0.0073200877177015036 -0.0044599861399033077 0 0.0060503017139004692 -0.0044729534741539245 0 0.0059138271105669948 -0.0029772547074721121 0 0.0060503017139004692 -0.0044729534741539245 0 0.0050999498552077738 -0.0028683604418648827 0 0.0059138271105669948 -0.0029772547074721121 0 0.010439555368598967 -0.0027152517874414828 0 0.009906061967725064 -0.002148882164243711 0 0.010102544684360462 -0.0022691344599015161 0 0.0096480585653909677 -0.0028320524552869933 0 0.0074976760352356599 -0.0020865192089016904 0 0.0052801048355951528 -0.0030973433152778917 0 0.0053442600114916826 -0.0019371544240059581 0 0.0061901870981355186 -0.00240983844117389 0 0.0045250163091315214 -0.0020891442927809395 0 0.0052801048355951528 -0.0030973433152778917 0 0.0053442600114916826 -0.0019371544240059581 0 0.0062827866961809187 -0.0015734794064850004 0 0.0074976760352356599 -0.0020865192089016904 0 0.0048676161255019283 -0.0020279448677833901 0 0.0050999498552077738 -0.0028683604418648827 0 0.0058108111077400364 -0.0029693475259965989 0 0.0051430579681615409 -0.00093601383173608839 0 0.0061859225204232357 -0.0014322949305295212 0 0.0058769133586031889 -0.00017175098584015227 0 0.0053442600114916826 -0.0019371544240059581 0 0.0051430579681615409 -0.00093601383173608839 0 0.0061859225204232357 -0.0014322949305295212 0 0.0053442600114916826 -0.0019371544240059581 0 0.0051430579681615409 -0.00093601383173608839 0 0.0045553595578169065 -0.0013457280768157619 0 0.0051430579681615409 -0.00093601383173608839 0 0.0049472795263716986 -0.00013852503462933501 0 0.0058769133586031889 -0.00017175098584015227 0 0.0049472795263716986 -0.00013852503462933501 0 0.0058769133586031889 -0.00017175098584015227 0 0.0052466459158276553 0.00054438336128746236 0 0.0049472795263716986 -0.00013852503462933501 0 0.0041985905181984393 -0.00049633813748650214 0 0.0043953251335491503 0.00044812495169218355 0 0.0051430579681615409 -0.00093601383173608839 0 0.0049472795263716986 -0.00013852503462933501 0 0.0041985905181984393 -0.00049633813748650214 0 0.0041985905181984393 -0.00049633813748650214 0 0.0045553595578169065 -0.0013457280768157619 0 0.0039458227394266916 -0.0012219510586760404 0 0.0051430579681615409 -0.00093601383173608839 0 0.0041985905181984393 -0.00049633813748650214 0 0.0045553595578169065 -0.0013457280768157619 0 0.0045250163091315214 -0.0020891442927809395 0 0.0045553595578169065 -0.0013457280768157619 0 0.0039458227394266916 -0.0012219510586760404 0 0.0062827866961809187 -0.0015734794064850004 0 0.0058213013391152464 -0.0013179705750123373 0 0.0028651112032612859 -0.0016966180027255542 0 0.003846067779764221 -0.0018677403423905488 0 0.003440638058821408 -0.0012786840580293367 0 0.003846067779764221 -0.0018677403423905488 0 0.0039458227394266916 -0.0012219510586760404 0 0.003440638058821408 -0.0012786840580293367 0 0.0028651112032612859 -0.0016966180027255542 0 0.003440638058821408 -0.0012786840580293367 0 0.0029788537243699369 -0.0010850747124971729 0 0.003440638058821408 -0.0012786840580293367 0 0.0032587072935897064 -0.00067676580000300163 0 0.0029788537243699369 -0.0010850747124971729 0 0.003440638058821408 -0.0012786840580293367 0 0.0036849914427915529 -0.00077103685592034849 0 0.0032587072935897064 -0.00067676580000300163 0 0.0039458227394266916 -0.0012219510586760404 0 0.003440638058821408 -0.0012786840580293367 0 0.0036849914427915529 -0.00077103685592034849 0 0.0041985905181984393 -0.00049633813748650214 0 0.0039458227394266916 -0.0012219510586760404 0 0.0036849914427915529 -0.00077103685592034849 0 0.0041985905181984393 -0.00049633813748650214 0 0.0036849914427915529 -0.00077103685592034849 0 0.0033989611187443913 -0.00028040793837559504 0 0.0034224565443871694 -0.00025092023331736013 0 0.0030717257411109421 3.0078687359709873e-05 0 0.0041985905181984393 -0.00049633813748650214 0 0.0033989611187443913 -0.00028040793837559504 0 0.0034267840132608134 0.00045331919925576763 0 0.0033989611187443913 -0.00028040793837559504 0 0.0030170438078479943 -0.00034310982712233191 0 0.0029829540154033204 2.6279833924958998e-05 0 0.0033989611187443913 -0.00028040793837559504 0 0.0029829540154033204 2.6279833924958998e-05 0 0.0034267840132608134 0.00045331919925576763 0 0.0033989611187443913 -0.00028040793837559504 0 0.0032587072935897064 -0.00067676580000300163 0 0.0030170438078479943 -0.00034310982712233191 0 0.0036849914427915529 -0.00077103685592034849 0 0.0033989611187443913 -0.00028040793837559504 0 0.0032587072935897064 -0.00067676580000300163 0 0.0032587072935897064 -0.00067676580000300163 0 0.0028006839988640687 -0.00059692229192071942 0 0.0030170438078479943 -0.00034310982712233191 0 0.0028006839988640687 -0.00059692229192071942 0 0.0030170438078479943 -0.00034310982712233191 0 0.0026525715190063798 -0.00020362491949260029 0 0.0029829540154033204 2.6279833924958998e-05 0 0.0026525715190063798 -0.00020362491949260029 0 0.0027519239448819035 0.00037213488491496545 0 0.0030170438078479943 -0.00034310982712233191 0 0.0029829540154033204 2.6279833924958998e-05 0 0.0026525715190063798 -0.00020362491949260029 0 0.0026525715190063798 -0.00020362491949260029 0 0.0024781185022423914 -0.00027237080011320022 0 0.0027519239448819035 0.00037213488491496545 0 0.007295367919342953 -0.0014727782911422959 0 0.0073987151118450074 -0.0014526199868852021 0 0.0088675256732103983 -0.00095155743022460107 0 0.0089462225858985677 -0.0013056635990369679 0 0.0087641506672603512 -0.00099181761744874457 0 0.0073987151118450074 -0.0014526199868852021 0 0.010002954190247387 -0.0012888322286632337 0 0.0073987151118450074 -0.0014526199868852021 0 0.007476397889800937 -0.0014015419871473657 0 0.010002954190247387 -0.0012888322286632337 0 0.007476397889800937 -0.0014015419871473657 0 0.0028006839988640687 -0.00059692229192071942 0 0.0024459993322638912 -0.00028215894223590764 0 0.0025600763679175177 -0.001022058128516092 0 0.0028006839988640687 -0.00059692229192071942 0 0.0026525715190063798 -0.00020362491949260029 0 0.0024459993322638912 -0.00028215894223590764 0 0.010486813444065374 -0.00073246673662333316 0 0.010652423475703048 -0.0015076908104026696 0 0.0086858650814728988 9.3053462661259447e-05 0 0.0032587072935897064 -0.00067676580000300163 0 0.0028006839988640687 -0.00059692229192071942 0 0.0029788537243699369 -0.0010850747124971729 0 0.0028006839988640687 -0.00059692229192071942 0 0.0025600763679175177 -0.001022058128516092 0 0.0029788537243699369 -0.0010850747124971729 0 0.011068138433808024 -0.0019024110046038602 0 0.010836563559010944 -0.0014991760871915596 0 0.010893710476896407 -0.0017617570740734046 0 0.0028651112032612859 -0.0016966180027255542 0 0.0025600763679175177 -0.001022058128516092 0 0.0029788537243699369 -0.0010850747124971729 0 0.012173930163672325 -0.0016447157250996289 0 0.010002954190247387 -0.0012888322286632337 0 0.012173930163672325 -0.0016447157250996289 0 0.011891068857264271 -0.0014573693098603418 0 0.026625555365010746 0.0018247848646427696 0 0.026966971172637119 0.0022923975707969612 0 0.02615493500779582 0.0023395976816132738 0 0.010002954190247387 -0.0012888322286632337 0 0.011891068857264271 -0.0014573693098603418 0 0.010181484454495996 -0.002686025050034378 0 0.0089315441353424972 -0.0016528148397241015 0 0.010597279330778578 -0.0011888273304809091 0 0.010181484454495996 -0.002686025050034378 0 0.0089315441353424972 -0.0016528148397241015 0 0.0088399094373913037 -0.0038036502759176867 0 0.010181484454495996 -0.002686025050034378 0 0.011713751568476644 -0.0018044541937166222 0 0.010597279330778578 -0.0011888273304809091 0 0.012069001057223623 -0.0012688540802867658 0 0.011713751568476644 -0.0018044541937166222 0 0.010597279330778578 -0.0011888273304809091 0 0.010181484454495996 -0.002686025050034378 0 0.011713751568476644 -0.0018044541937166222 0 0.011255961671704218 -0.0042844104455570069 0 0.011712189015828059 -0.0022590452822951585 0 0.011659324331681068 -0.002526311090668427 0 0.011713751568476644 -0.0018044541937166222 0 0.012605166427174661 -0.0014943505918247686 0 0.012657650443120177 -0.0014661372409012388 0 0.011659324331681068 -0.002526311090668427 0 0.011711423220231913 -0.0025129355049376034 0 0.011659324331681068 -0.002526311090668427 0 0.010220057109901537 -0.0025694303334912925 0 0.011433179245115353 -0.002808086777924987 0 0.011939437877410376 -0.0024637629201948582 0 0.011271948916301937 -0.0023622737508621626 0 0.010181484454495996 -0.002686025050034378 0 0.011255961671704218 -0.0042844104455570069 0 0.0088399094373913037 -0.0038036502759176867 0 0.0088399094373913037 -0.0038036502759176867 0 0.0069022060209068987 -0.0034759719325936538 0 0.0073537658491851145 -0.0021668756672055538 0 0.010220057109901537 -0.0025694303334912925 0 0.0088558607594814483 -0.0024152819207038292 0 0.011271948916301937 -0.0023622737508621626 0 0.010777407471350503 -0.0025430936676779036 0 0.010599576432233443 -0.0022554263666631057 0 0.0074976760352356599 -0.0020865192089016904 0 0.0088558607594814483 -0.0024152819207038292 0 0.009906061967725064 -0.002148882164243711 0 0.010102544684360462 -0.0022691344599015161 0 0.010599576432233443 -0.0022554263666631057 0 0.0052801048355951528 -0.0030973433152778917 0 0.0069022060209068987 -0.0034759719325936538 0 0.0061901870981355186 -0.00240983844117389 0 0.010528277102872487 -0.0027688499602413121 0 0.010102544684360462 -0.0022691344599015161 0 0.01050289039202032 -0.002459334567840356 0 0.010102544684360462 -0.0022691344599015161 0 0.01050289039202032 -0.002459334567840356 0 0.010599576432233443 -0.0022554263666631057 0 0.011269381651002329 -0.0026298580939604719 0 0.010964683213265007 -0.0024146161812928437 0 0.010777407471350503 -0.0025430936676779036 0 0.01050289039202032 -0.002459334567840356 0 0.010599576432233443 -0.0022554263666631057 0 0.0069022060209068987 -0.0034759719325936538 0 0.0061901870981355186 -0.00240983844117389 0 0.0073537658491851145 -0.0021668756672055538 0 0.0061901870981355186 -0.00240983844117389 0 0.0073537658491851145 -0.0021668756672055538 0 0.0061859225204232357 -0.0014322949305295212 0 0.0053442600114916826 -0.0019371544240059581 0 0.0061901870981355186 -0.00240983844117389 0 0.0061859225204232357 -0.0014322949305295212 0 0.0089315441353424972 -0.0016528148397241015 0 0.0088399094373913037 -0.0038036502759176867 0 0.0073537658491851145 -0.0021668756672055538 0 0.0089315441353424972 -0.0016528148397241015 0 0.0073537658491851145 -0.0021668756672055538 0 0.0074271533830211215 -0.0008638635293698189 0 0.0074271533830211215 -0.0008638635293698189 0 0.0061859225204232357 -0.0014322949305295212 0 0.0058769133586031889 -0.00017175098584015227 0 0.0073537658491851145 -0.0021668756672055538 0 0.0074271533830211215 -0.0008638635293698189 0 0.0061859225204232357 -0.0014322949305295212 0 0.0074271533830211215 -0.0008638635293698189 0 0.0058769133586031889 -0.00017175098584015227 0 0.0074086942285063063 0.00043686679107003972 0 0.0074271533830211215 -0.0008638635293698189 0 0.0074086942285063063 0.00043686679107003972 0 0.0093362048974856855 -0.00037951866256320435 0 0.0074086942285063063 0.00043686679107003972 0 0.0093362048974856855 -0.00037951866256320435 0 0.010115056231558469 0.0012703683809891563 0 0.0089315441353424972 -0.0016528148397241015 0 0.0093362048974856855 -0.00037951866256320435 0 0.010597279330778578 -0.0011888273304809091 0 0.0089315441353424972 -0.0016528148397241015 0 0.0074271533830211215 -0.0008638635293698189 0 0.0093362048974856855 -0.00037951866256320435 0 0.0093362048974856855 -0.00037951866256320435 0 0.010597279330778578 -0.0011888273304809091 0 0.011331243383806649 -0.00018721921952050461 0 0.012069001057223623 -0.0012688540802867658 0 0.010597279330778578 -0.0011888273304809091 0 0.011331243383806649 -0.00018721921952050461 0 0.011867149640729591 0.00059899160733457846 0 0.011331243383806649 -0.00018721921952050461 0 0.010115056231558469 0.0012703683809891563 0 0.0093362048974856855 -0.00037951866256320435 0 0.011331243383806649 -0.00018721921952050461 0 0.010115056231558469 0.0012703683809891563 0 0.0088327545714201143 0.00086570791280993393 0 0.009171132244371093 0.0009695702949391831 0 0.0079028205531401618 0.00062947449893083251 0 0.0080921319086385366 0.0010398980693167579 0 0.0086959459525128117 0.00085997668713068713 0 0.011867149640729591 0.00059899160733457846 0 0.010115056231558469 0.0012703683809891563 0 0.011865571026241216 0.0013083685661693305 0 0.0080921319086385366 0.0010398980693167579 0 0.0078011201477287632 0.0015122496586533083 0 0.0086277248509661949 0.0012605497725840201 0 0.0054242973509155508 0.0012123471559784844 0 0.0058962789403260198 0.0009849559273172161 0 0.0028862059107521024 0.0010747761055300961 0 0.0025941484641622179 0.00093424671098930076 0 0.0026502510974886115 0.00066231830507642361 0 0.0078011201477287632 0.0015122496586533083 0 0.0074106101649137361 0.00094326685778013826 0 0.0065102987458207848 0.0018054977329348286 0 0.0080921319086385366 0.0010398980693167579 0 0.0078011201477287632 0.0015122496586533083 0 0.0074106101649137361 0.00094326685778013826 0 0.0079028205531401618 0.00062947449893083251 0 0.0080921319086385366 0.0010398980693167579 0 0.0074106101649137361 0.00094326685778013826 0 0.0074086942285063063 0.00043686679107003972 0 0.0079028205531401618 0.00062947449893083251 0 0.0074106101649137361 0.00094326685778013826 0 0.0083370828556336637 0.00072342444432770957 0 0.0088327545714201143 0.00086570791280993393 0 0.0074086942285063063 0.00043686679107003972 0 0.0074106101649137361 0.00094326685778013826 0 0.0063699208859559582 0.00083004140219778495 0 0.0058769133586031889 -0.00017175098584015227 0 0.0074086942285063063 0.00043686679107003972 0 0.0063699208859559582 0.00083004140219778495 0 0.0058769133586031889 -0.00017175098584015227 0 0.0063699208859559582 0.00083004140219778495 0 0.0052466459158276553 0.00054438336128746236 0 0.0063699208859559582 0.00083004140219778495 0 0.0053422824823611608 0.0011069994768538951 0 0.0052466459158276553 0.00054438336128746236 0 0.0063699208859559582 0.00083004140219778495 0 0.0053422824823611608 0.0011069994768538951 0 0.0065102987458207848 0.0018054977329348286 0 0.0074106101649137361 0.00094326685778013826 0 0.0063699208859559582 0.00083004140219778495 0 0.0065102987458207848 0.0018054977329348286 0 0.0054242973509155508 0.0012123471559784844 0 0.0051070505884164164 0.0013616047799209505 0 0.0028862059107521024 0.0010747761055300961 0 0.0033600382739652932 0.0014040611955318284 0 0.0031585547381107427 0.00099975165534735289 0 0.0051070505884164164 0.0013616047799209505 0 0.0049199197609498943 0.0014113056777659394 0 0.0033600382739652932 0.0014040611955318284 0 0.0031585547381107427 0.00099975165534735289 0 0.0043454324759803122 0.0014818321732785608 0 0.0053422824823611608 0.0011069994768538951 0 0.0065102987458207848 0.0018054977329348286 0 0.0043454324759803122 0.0014818321732785608 0 0.0031585547381107427 0.00099975165534735289 0 0.0043454324759803122 0.0014818321732785608 0 0.0034745697163198097 0.00090060733980164211 0 0.0031585547381107427 0.00099975165534735289 0 0.0028102069521747522 0.00080191302143683692 0 0.002835266309685325 0.00073096503318807293 0 0.0028102069521747522 0.00080191302143683692 0 0.002835266309685325 0.00073096503318807293 0 0.002694379518884858 0.0005975671099519305 0 0.0028102069521747522 0.00080191302143683692 0 0.002694379518884858 0.0005975671099519305 0 0.0026502510974886115 0.00066231830507642361 0 0.0028862059107521024 0.0010747761055300961 0 0.0028102069521747522 0.00080191302143683692 0 0.0026502510974886115 0.00066231830507642361 0 0.0028862059107521024 0.0010747761055300961 0 0.0031585547381107427 0.00099975165534735289 0 0.0028102069521747522 0.00080191302143683692 0 0.0024029259950284739 0.00020296121362993084 0 0.0030717257411109421 3.0078687359709873e-05 0 0.0027578396635950958 0.0013431323632876197 0 0.0027519239448819035 0.00037213488491496545 0 0.002286625107390547 0.00078532477565415994 0 0.0024781185022423914 -0.00027237080011320022 0 0.0027519239448819035 0.00037213488491496545 0 0.002286625107390547 0.00078532477565415994 0 0.0027578396635950958 0.0013431323632876197 0 0.0027519239448819035 0.00037213488491496545 0 0.0034267840132608134 0.00045331919925576763 0 0.0073987151118450074 -0.0014526199868852021 0 0.0041294612445557481 -0.00035411027298578083 0 0.0029829540154033204 2.6279833924958998e-05 0 0.0027519239448819035 0.00037213488491496545 0 0.0034267840132608134 0.00045331919925576763 0 0.0034764855137821957 0.00091401024934790001 0 0.0036970617953641489 0.00045344002934527778 0 0.0037080525489719216 0.0010554209663259306 0 0.0036970617953641489 0.00045344002934527778 0 0.0040404977951204709 0.0010319972503419375 0 0.0037080525489719216 0.0010554209663259306 0 0.0040404977951204709 0.0010319972503419375 0 0.0045844374905355647 0.00095721562816953308 0 0.0043454324759803122 0.0014818321732785608 0 0.0040404977951204709 0.0010319972503419375 0 0.0043953251335491503 0.00044812495169218355 0 0.0045844374905355647 0.00095721562816953308 0 0.0041985905181984393 -0.00049633813748650214 0 0.0036970617953641489 0.00045344002934527778 0 0.0043953251335491503 0.00044812495169218355 0 0.0036970617953641489 0.00045344002934527778 0 0.0040404977951204709 0.0010319972503419375 0 0.0043953251335491503 0.00044812495169218355 0 0.0043953251335491503 0.00044812495169218355 0 0.0052466459158276553 0.00054438336128746236 0 0.0045844374905355647 0.00095721562816953308 0 0.0049472795263716986 -0.00013852503462933501 0 0.0043953251335491503 0.00044812495169218355 0 0.0052466459158276553 0.00054438336128746236 0 0.0053422824823611608 0.0011069994768538951 0 0.0045844374905355647 0.00095721562816953308 0 0.0043454324759803122 0.0014818321732785608 0 0.0053422824823611608 0.0011069994768538951 0 0.0052466459158276553 0.00054438336128746236 0 0.0045844374905355647 0.00095721562816953308 0 0.0043454324759803122 0.0014818321732785608 0 0.0039708036523562118 0.0011298516420514607 0 0.0039782704069759789 0.0012262486175137288 0 0.0043454324759803122 0.0014818321732785608 0 0.0039708036523562118 0.0011298516420514607 0 0.0034745697163198097 0.00090060733980164211 0 0.0039708036523562118 0.0011298516420514607 0 0.0039782704069759789 0.0012262486175137288 0 0.003779065088298705 0.0010599979301692279 0 0.0039782704069759789 0.0012262486175137288 0 0.0036710230414286151 0.0011484565682724351 0 0.003779065088298705 0.0010599979301692279 0 0.0040404977951204709 0.0010319972503419375 0 0.0043454324759803122 0.0014818321732785608 0 0.0039782704069759789 0.0012262486175137288 0 0.0040404977951204709 0.0010319972503419375 0 0.0039782704069759789 0.0012262486175137288 0 0.0037080525489719216 0.0010554209663259306 0 0.0039782704069759789 0.0012262486175137288 0 0.0037080525489719216 0.0010554209663259306 0 0.0036710230414286151 0.0011484565682724351 0 0.0037080525489719216 0.0010554209663259306 0 0.0036710230414286151 0.0011484565682724351 0 0.0035280456535415278 0.0010898135096543385 0 0.0036710230414286151 0.0011484565682724351 0 0.0034494749031976938 0.0011442469339118118 0 0.0034395984943637876 0.0011038531970015112 0 0.0036710230414286151 0.0011484565682724351 0 0.0034494749031976938 0.0011442469339118118 0 0.0035280456535415278 0.0010898135096543385 0 0.0034494749031976938 0.0011442469339118118 0 0.0035280456535415278 0.0010898135096543385 0 0.0033805539457164198 0.0011034009366447841 0 0.0034494749031976938 0.0011442469339118118 0 0.0033684235681626295 0.001167772272928098 0 0.0033805539457164198 0.0011034009366447841 0 0.0034764855137821957 0.00091401024934790001 0 0.0035280456535415278 0.0010898135096543385 0 0.0033805539457164198 0.0011034009366447841 0 0.0034764855137821957 0.00091401024934790001 0 0.0037080525489719216 0.0010554209663259306 0 0.0035280456535415278 0.0010898135096543385 0 0.0024029259950284739 0.00020296121362993084 0 0.0017340847775631774 -0.00059489707747628943 0 0.00019970786074301148 -0.0025606703600121652 0 0.00079006534340377336 -0.001823547019513662 0 0.00097871132914300165 -0.0013462110792120746 0 0.0010904438272041125 -0.0014119701050776413 0 -0.0010546803442564787 -0.0041514648688992899 0 -0.0013735874147632048 -0.0045720975638381496 0 -0.0015540980252568258 -0.0054687567984704234 0 0.00067653391291279375 -0.0021475781924068815 0 0.00054929955415906006 -0.0027475498488291222 0 0.00080898112717703362 -0.0018080581391575555 0 0.0030559578094455542 0.0010689439627405563 0 0.0032160102021665539 0.0011458849473033898 0 0.0033684235681626295 0.001167772272928098 0 -0.0010546803442564787 -0.0041514648688992899 0 -0.0013735874147632048 -0.0045720975638381496 0 -0.0012008219584971624 -0.003618151974771569 0 0.00048359302433080076 -0.0024509393681296588 0 0.00019970786074301148 -0.0025606703600121652 0 0.0030559578094455542 0.0010689439627405563 0 0.0029265777653148645 0.0011881771571389988 0 0.0022638928646895955 0.00058932337446839921 0 0.0029265777653148645 0.0011881771571389988 0 0.0032160102021665539 0.0011458849473033898 0 0.0032509855803315737 0.0011085135050377252 0 0.0030559578094455542 0.0010689439627405563 0 0.0029265777653148645 0.0011881771571389988 0 0.0032160102021665539 0.0011458849473033898 0 0.0033527829914179025 0.0011374211306270875 0 0.0032160102021665539 0.0011458849473033898 0 0.0033684235681626295 0.001167772272928098 0 0.00048359302433080076 -0.0024509393681296588 0 0.0010904438272041125 -0.0014119701050776413 0 0.0034494749031976938 0.0011442469339118118 0 0.0033527829914179025 0.0011374211306270875 0 0.0033684235681626295 0.001167772272928098 0 0.0034494749031976938 0.0011442469339118118 0 0.0033527829914179025 0.0011374211306270875 0 0.0034395984943637876 0.0011038531970015112 0 0.0033527829914179025 0.0011374211306270875 0 0.0032160102021665539 0.0011458849473033898 0 0.0034395984943637876 0.0011038531970015112 0 0.0032160102021665539 0.0011458849473033898 0 0.0034395984943637876 0.0011038531970015112 0 0.0032509855803315737 0.0011085135050377252 0 0.0034395984943637876 0.0011038531970015112 0 0.0034576966942723615 0.0010643517269072194 0 0.0032509855803315737 0.0011085135050377252 0 0.0034395984943637876 0.0011038531970015112 0 0.0034576966942723615 0.0010643517269072194 0 0.003779065088298705 0.0010599979301692279 0 0.0036710230414286151 0.0011484565682724351 0 0.0034395984943637876 0.0011038531970015112 0 0.003779065088298705 0.0010599979301692279 0 0.0027738808441125852 0.00080842308222250036 0 0.0026255720507510835 0.00070533662971112698 0 0.0029265777653148645 0.0011881771571389988 0 0.0012201296679367419 0.00061325704575163108 0 0.0022638928646895955 0.00058932337446839921 0 0.0029265777653148645 0.0011881771571389988 0 0.0034576966942723615 0.0010643517269072194 0 0.0037980062648937116 0.001041114821714496 0 0.0029265777653148645 0.0011881771571389988 0 0.0034576966942723615 0.0010643517269072194 0 0.0032509855803315737 0.0011085135050377252 0 0.0034576966942723615 0.0010643517269072194 0 0.0037980062648937116 0.001041114821714496 0 0.003779065088298705 0.0010599979301692279 0 0.0037980062648937116 0.001041114821714496 0 0.003779065088298705 0.0010599979301692279 0 0.0037815394307686686 0.00091487139013758754 0 0.0039708036523562118 0.0011298516420514607 0 0.0037815394307686686 0.00091487139013758754 0 0.0034745697163198097 0.00090060733980164211 0 0.0039708036523562118 0.0011298516420514607 0 0.003779065088298705 0.0010599979301692279 0 0.0037815394307686686 0.00091487139013758754 0 0.0037980062648937116 0.001041114821714496 0 0.0037815394307686686 0.00091487139013758754 0 0.0035308644767477115 0.00052309541768083188 0 0.0026255720507510835 0.00070533662971112698 0 0.0025212377773441252 0.00053807182110371984 0 0.0012201296679367419 0.00061325704575163108 0 0.0012292974487654938 0.00032339661477410867 0 0.0015340955693008227 0.00010503397175087579 0 0.0012292974487654938 0.00032339661477410867 0 0.0014044991102911263 0.00036118599498319721 0 0.0015340955693008227 0.00010503397175087579 0 0.0012292974487654938 0.00032339661477410867 0 0.0014044991102911263 0.00036118599498319721 0 0.0011615073123034203 0.00018883910660877606 0 0.0014044991102911263 0.00036118599498319721 0 0.0011615073123034203 0.00018883910660877606 0 0.0011932824590055733 0.00032933783259513798 0 0.0012292974487654938 0.00032339661477410867 0 0.0011615073123034203 0.00018883910660877606 0 0.0014508494866733175 0.00024245172626159543 0 0.0011615073123034203 0.00018883910660877606 0 0.0011214524948929855 6.9413076353952516e-06 0 0.00088636128910890935 0.0001197771915373332 0 0.0011615073123034203 0.00018883910660877606 0 0.0014508494866733175 0.00024245172626159543 0 0.0011214524948929855 6.9413076353952516e-06 0 0.0012201296679367419 0.00061325704575163108 0 0.0012292974487654938 0.00032339661477410867 0 0.0014508494866733175 0.00024245172626159543 0 0.0012201296679367419 0.00061325704575163108 0 0.0022638928646895955 0.00058932337446839921 0 0.0014508494866733175 0.00024245172626159543 0 0.0022638928646895955 0.00058932337446839921 0 0.0017751345488337626 0.0002364351691724422 0 0.0019332543694751147 4.5699353057951659e-05 0 0.0022638928646895955 0.00058932337446839921 0 0.0017751345488337626 0.0002364351691724422 0 0.0014508494866733175 0.00024245172626159543 0 0.0014508494866733175 0.00024245172626159543 0 0.001560092776198885 0.000133423187482533 0 0.0011214524948929855 6.9413076353952516e-06 0 0.0009531919001289199 -0.00096376197320406697 0 0.00097294340376079399 -0.0006233856526907766 0 0.0011214524948929855 6.9413076353952516e-06 0 0.0019332543694751147 4.5699353057951659e-05 0 0.00047430146502416539 -0.0001789792920715837 0 0.0017751345488337626 0.0002364351691724422 0 0.0014508494866733175 0.00024245172626159543 0 0.001560092776198885 0.000133423187482533 0 0.001560092776198885 0.000133423187482533 0 0.0011214524948929855 6.9413076353952516e-06 0 0.0019332543694751147 4.5699353057951659e-05 0 0.0017751345488337626 0.0002364351691724422 0 0.001560092776198885 0.000133423187482533 0 0.0019332543694751147 4.5699353057951659e-05 0 -0.0010487893502016765 -0.0030791191443432318 0 -0.0012356460552509858 -0.0022432842625660187 0 -0.00065962556791949903 -0.00096810199723908869 0 -0.0003872272046645728 -0.0026534842712527245 0 -0.00098838866620881488 -0.0027341865092345655 0 -0.00065962556791949903 -0.00096810199723908869 0 -0.00026699268558941106 -0.0027345938750195516 0 -0.00026613102291433505 -0.0023269214760176381 0 -0.001449304918093066 -0.0018153271343178238 0 -0.0012356460552509858 -0.0022432842625660187 0 -0.00065962556791949903 -0.00096810199723908869 0 -0.0016323746865259726 -0.0024924551950387479 0 -0.0020136154697847873 -0.0028831312080191277 0 -0.0020492001091309791 -0.0020840463137933411 0 -0.001449304918093066 -0.0018153271343178238 0 -0.0016323746865259726 -0.0024924551950387479 0 -0.0020492001091309791 -0.0020840463137933411 0 -0.001449304918093066 -0.0018153271343178238 0 -0.0012356460552509858 -0.0022432842625660187 0 -0.0016323746865259726 -0.0024924551950387479 0 -0.0012356460552509858 -0.0022432842625660187 0 -0.0016323746865259726 -0.0024924551950387479 0 -0.0014511006562404022 -0.0027249186707786533 0 -0.0016323746865259726 -0.0024924551950387479 0 -0.0014511006562404022 -0.0027249186707786533 0 -0.0020136154697847873 -0.0028831312080191277 0 -0.0010487893502016765 -0.0030791191443432318 0 -0.0014511006562404022 -0.0027249186707786533 0 -0.0020136154697847873 -0.0028831312080191277 0 -0.0010487893502016765 -0.0030791191443432318 0 -0.0012356460552509858 -0.0022432842625660187 0 -0.0014511006562404022 -0.0027249186707786533 0 -0.00026699268558941106 -0.0027345938750195516 0 0.00019970786074301148 -0.0025606703600121652 0 -0.0010546803442564787 -0.0041514648688992899 0 -0.0003872272046645728 -0.0026534842712527245 0 -0.0012008219584971624 -0.003618151974771569 0 0.00049632597910184587 -0.0024289175287267122 0 0.00054315043840206829 -0.0022522379348625726 0 0.00076050716454363133 -0.0022794799023232535 0 0.0030559578094455542 0.0010689439627405563 0 0.0022638928646895955 0.00058932337446839921 0 0.0019332543694751147 4.5699353057951659e-05 0 0.00097871132914300165 -0.0013462110792120746 0 0.0009531919001289199 -0.00096376197320406697 0 -0.0003872272046645728 -0.0026534842712527245 0 -0.00098838866620881488 -0.0027341865092345655 0 -0.0012008219584971624 -0.003618151974771569 0 0.0026741015408485165 0.00053812030092029151 0 0.0029675314107921089 0.00068095166621556856 0 0.0025543209881517138 0.00030017768042623244 0 0.0026741015408485165 0.00053812030092029151 0 0.0025543209881517138 0.00030017768042623244 0 0.0026031344599673823 0.00049257224127368401 0 0.0026741015408485165 0.00053812030092029151 0 0.0026031344599673823 0.00049257224127368401 0 0.0026897800907449434 0.00052564603534052895 0 0.002694379518884858 0.0005975671099519305 0 0.0026741015408485165 0.00053812030092029151 0 0.0026897800907449434 0.00052564603534052895 0 0.002835266309685325 0.00073096503318807293 0 0.002694379518884858 0.0005975671099519305 0 0.0026741015408485165 0.00053812030092029151 0 0.002835266309685325 0.00073096503318807293 0 0.0026741015408485165 0.00053812030092029151 0 0.0029675314107921089 0.00068095166621556856 0 0.0031585547381107427 0.00099975165534735289 0 0.002835266309685325 0.00073096503318807293 0 0.0029675314107921089 0.00068095166621556856 0 0.0031585547381107427 0.00099975165534735289 0 0.0029675314107921089 0.00068095166621556856 0 0.0034745697163198097 0.00090060733980164211 0 0.0029675314107921089 0.00068095166621556856 0 0.0034745697163198097 0.00090060733980164211 0 0.0035308644767477115 0.00052309541768083188 0 0.0037815394307686686 0.00091487139013758754 0 0.0034745697163198097 0.00090060733980164211 0 0.0035308644767477115 0.00052309541768083188 0 0.0029675314107921089 0.00068095166621556856 0 0.0035308644767477115 0.00052309541768083188 0 0.0025543209881517138 0.00030017768042623244 0 0.0025212377773441252 0.00053807182110371984 0 0.0024964942320425611 0.00047561611061087316 0 0.0015340955693008227 0.00010503397175087579 0 0.0020067134544243582 0.00060186261923790552 0 0.0025543209881517138 0.00030017768042623244 0 0.0014044991102911263 0.00036118599498319721 0 0.0015340955693008227 0.00010503397175087579 0 0.0020067134544243582 0.00060186261923790552 0 0.0014044991102911263 0.00036118599498319721 0 0.0020067134544243582 0.00060186261923790552 0 0.0014125169264352481 0.00061507292230571654 0 0.0020067134544243582 0.00060186261923790552 0 0.0024223109923296065 0.00066054949238314204 0 0.0025543209881517138 0.00030017768042623244 0 0.0024223109923296065 0.00066054949238314204 0 0.0025543209881517138 0.00030017768042623244 0 0.0026031344599673823 0.00049257224127368401 0 0.0024223109923296065 0.00066054949238314204 0 0.0026031344599673823 0.00049257224127368401 0 0.0025896891289447057 0.00067699541729926438 0 0.0025896891289447057 0.00067699541729926438 0 0.0028624708312235147 0.00063445729379094876 0 0.0027595083592760355 0.00055015965632104779 0 0.0025896891289447057 0.00067699541729926438 0 0.0028624708312235147 0.00063445729379094876 0 0.0025916248815487696 0.00085979274909439433 0 0.0028624708312235147 0.00063445729379094876 0 0.0027595083592760355 0.00055015965632104779 0 0.0029649004829251954 0.00055430150093214612 0 0.0026031344599673823 0.00049257224127368401 0 0.0025896891289447057 0.00067699541729926438 0 0.0027595083592760355 0.00055015965632104779 0 0.0027595083592760355 0.00055015965632104779 0 0.0028270687170635668 0.00051360487904552579 0 0.0026897800907449434 0.00052564603534052895 0 0.0026031344599673823 0.00049257224127368401 0 0.0027595083592760355 0.00055015965632104779 0 0.0026897800907449434 0.00052564603534052895 0 0.0027595083592760355 0.00055015965632104779 0 0.0028270687170635668 0.00051360487904552579 0 0.0029649004829251954 0.00055430150093214612 0 0.0028270687170635668 0.00051360487904552579 0 0.0027603536252044673 0.00050695262745011234 0 0.0029203163187070994 0.00042943306111003609 0 0.0028270687170635668 0.00051360487904552579 0 0.0026897800907449434 0.00052564603534052895 0 0.0027603536252044673 0.00050695262745011234 0 0.002694379518884858 0.0005975671099519305 0 0.0026897800907449434 0.00052564603534052895 0 0.0027603536252044673 0.00050695262745011234 0 0.0032230900135296757 0.00047754686705892544 0 0.0032199358770740772 0.00053880520932871826 0 0.0035003752032447483 0.00045782206193970096 0 0.0032230900135296757 0.00047754686705892544 0 0.0030487546028478648 0.00050193829306603992 0 0.0031288867498236151 0.00036931103426947413 0 0.0032230900135296757 0.00047754686705892544 0 0.0035003752032447483 0.00045782206193970096 0 0.0034179125324343487 0.00018329579327228042 0 0.0030487546028478648 0.00050193829306603992 0 0.0029203163187070994 0.00042943306111003609 0 0.0031288867498236151 0.00036931103426947413 0 0.0028270687170635668 0.00051360487904552579 0 0.0030487546028478648 0.00050193829306603992 0 0.0029203163187070994 0.00042943306111003609 0 0.0028270687170635668 0.00051360487904552579 0 0.0030487546028478648 0.00050193829306603992 0 0.0029649004829251954 0.00055430150093214612 0 0.0030487546028478648 0.00050193829306603992 0 0.0032199358770740772 0.00053880520932871826 0 0.0029649004829251954 0.00055430150093214612 0 0.0032230900135296757 0.00047754686705892544 0 0.0030487546028478648 0.00050193829306603992 0 0.0032199358770740772 0.00053880520932871826 0 0.0032199358770740772 0.00053880520932871826 0 0.0030792411274578181 0.0005770482256020991 0 0.003167296967309267 0.00053658108022638831 0 0.0032199358770740772 0.00053880520932871826 0 0.0030792411274578181 0.0005770482256020991 0 0.0029649004829251954 0.00055430150093214612 0 0.0028624708312235147 0.00063445729379094876 0 0.0030792411274578181 0.0005770482256020991 0 0.0029649004829251954 0.00055430150093214612 0 0.0028624708312235147 0.00063445729379094876 0 0.0030792411274578181 0.0005770482256020991 0 0.0030475875935555871 0.00067564914295719931 0 0.0030792411274578181 0.0005770482256020991 0 0.0031029682413839842 0.00052663137601541548 0 0.0030475875935555871 0.00067564914295719931 0 0.0031029682413839842 0.00052663137601541548 0 0.0027944048354331947 0.00045900008384329953 0 0.0030394720266247728 0.00044339615733908277 0 0.0027944048354331947 0.00045900008384329953 0 0.0030394720266247728 0.00044339615733908277 0 0.0028612970733853859 0.00034881214282643221 0 0.0031029682413839842 0.00052663137601541548 0 0.0030394720266247728 0.00044339615733908277 0 0.0032718997073174628 0.00049609973480858394 0 0.0030394720266247728 0.00044339615733908277 0 0.0032897307023246071 0.00040910632112739709 0 0.0031048529946471428 0.00029598780133412763 0 0.0030394720266247728 0.00044339615733908277 0 0.0032897307023246071 0.00040910632112739709 0 0.0032718997073174628 0.00049609973480858394 0 0.0032199358770740772 0.00053880520932871826 0 0.0032718997073174628 0.00049609973480858394 0 0.003167296967309267 0.00053658108022638831 0 0.0030792411274578181 0.0005770482256020991 0 0.0031029682413839842 0.00052663137601541548 0 0.003167296967309267 0.00053658108022638831 0 0.0031029682413839842 0.00052663137601541548 0 0.0032718997073174628 0.00049609973480858394 0 0.003167296967309267 0.00053658108022638831 0 0.00080410494921628753 -5.3066030632721429e-07 0 0.000488882320019558 -1.4488142939138037e-05 0 -0.0011197517089007931 6.2917674975557523e-05 0 0.0028625992362565286 0.00031769916865191872 0 0.0026111941270692395 0.00038567420614649014 0 0.0028612970733853859 0.00034881214282643221 0 0.0028625992362565286 0.00031769916865191872 0 0.0028612970733853859 0.00034881214282643221 0 0.0029346056489035865 0.00020089417010006141 0 0.0027944048354331947 0.00045900008384329953 0 0.0026111941270692395 0.00038567420614649014 0 0.0028612970733853859 0.00034881214282643221 0 0.0030394720266247728 0.00044339615733908277 0 0.0028612970733853859 0.00034881214282643221 0 0.0031048529946471428 0.00029598780133412763 0 0.0031048529946471428 0.00029598780133412763 0 0.0029346056489035865 0.00020089417010006141 0 0.0031128295650092522 0.00020920034128463658 0 0.0028612970733853859 0.00034881214282643221 0 0.0031048529946471428 0.00029598780133412763 0 0.0029346056489035865 0.00020089417010006141 0 0.00080410494921628753 -5.3066030632721429e-07 0 0.000488882320019558 -1.4488142939138037e-05 0 0.0026070815105853798 3.0619778320215528e-05 0 0.0028625992362565286 0.00031769916865191872 0 0.0029346056489035865 0.00020089417010006141 0 0.0026070815105853798 3.0619778320215528e-05 0 0.00080410494921628753 -5.3066030632721429e-07 0 0.0028708932844334089 6.7553480285061734e-07 0 0.0026070815105853798 3.0619778320215528e-05 0 0.00073821194938257604 0.00040096042536680109 0 0.0010089716219632585 0.00046813490952391646 0 0.0029346056489035865 0.00020089417010006141 0 0.0026070815105853798 3.0619778320215528e-05 0 0.0031128295650092522 0.00020920034128463658 0 0.0028708932844334089 6.7553480285061734e-07 0 0.003239250257061857 0.00017906467461740888 0 0.0040104413238895931 0.00020198646267172819 0 0.0028708932844334089 6.7553480285061734e-07 0 0.0026070815105853798 3.0619778320215528e-05 0 0.003239250257061857 0.00017906467461740888 0 0.0026070815105853798 3.0619778320215528e-05 0 0.003239250257061857 0.00017906467461740888 0 0.0031128295650092522 0.00020920034128463658 0 0.003239250257061857 0.00017906467461740888 0 0.0034679937264928047 0.00032984385017911203 0 0.0040104413238895931 0.00020198646267172819 0 0.003239250257061857 0.00017906467461740888 0 0.0034679937264928047 0.00032984385017911203 0 0.0031128295650092522 0.00020920034128463658 0 0.0031048529946471428 0.00029598780133412763 0 0.0034679937264928047 0.00032984385017911203 0 0.0031128295650092522 0.00020920034128463658 0 0.0032897307023246071 0.00040910632112739709 0 0.0031048529946471428 0.00029598780133412763 0 0.0034679937264928047 0.00032984385017911203 0 0.0034679937264928047 0.00032984385017911203 0 0.0039807620316372316 0.00037204156754655038 0 0.0035294852847035769 0.00044439065727682104 0 0.0034679937264928047 0.00032984385017911203 0 0.0039807620316372316 0.00037204156754655038 0 0.0040104413238895931 0.00020198646267172819 0 0.0039807620316372316 0.00037204156754655038 0 0.0040104413238895931 0.00020198646267172819 0 0.0045887592086179671 0.00021177874728400654 0 0.0028708932844334089 6.7553480285061734e-07 0 0.0040104413238895931 0.00020198646267172819 0 0.0049361208900953711 5.1789714056046227e-07 0 0.0032199358770740772 0.00053880520932871826 0 0.0032718997073174628 0.00049609973480858394 0 0.0034230628633539965 0.0004904647687742048 0 0.0032199358770740772 0.00053880520932871826 0 0.0034230628633539965 0.0004904647687742048 0 0.0035003752032447483 0.00045782206193970096 0 0.0032718997073174628 0.00049609973480858394 0 0.0034230628633539965 0.0004904647687742048 0 0.0035294852847035769 0.00044439065727682104 0 0.0032897307023246071 0.00040910632112739709 0 0.0032718997073174628 0.00049609973480858394 0 0.0035294852847035769 0.00044439065727682104 0 0.0032897307023246071 0.00040910632112739709 0 0.0034679937264928047 0.00032984385017911203 0 0.0035294852847035769 0.00044439065727682104 0 0.0034230628633539965 0.0004904647687742048 0 0.0035294852847035769 0.00044439065727682104 0 0.0037214523848020818 0.00042612859991538225 0 0.0039807620316372316 0.00037204156754655038 0 0.0037214523848020818 0.00042612859991538225 0 0.0040559059221253945 0.00032306657107994939 0 0.0039807620316372316 0.00037204156754655038 0 0.0035294852847035769 0.00044439065727682104 0 0.0037214523848020818 0.00042612859991538225 0 0.0037214523848020818 0.00042612859991538225 0 0.0035003752032447483 0.00045782206193970096 0 0.0040559059221253945 0.00032306657107994939 0 0.0034230628633539965 0.0004904647687742048 0 0.0037214523848020818 0.00042612859991538225 0 0.0035003752032447483 0.00045782206193970096 0 0.0035003752032447483 0.00045782206193970096 0 0.0040559059221253945 0.00032306657107994939 0 0.0034179125324343487 0.00018329579327228042 0 0.0040559059221253945 0.00032306657107994939 0 0.0055033838202934223 9.7573046931798375e-06 0 0.0039435585035058921 -0.00034526029475654535 0 0.0052928911711186844 -1.6518236271157465e-05 0 0.0051770602946097782 -4.0367605186505369e-05 0 0.0040559059221253945 0.00032306657107994939 0 0.0039435585035058921 -0.00034526029475654535 0 0.0034179125324343487 0.00018329579327228042 0 0.0039435585035058921 -0.00034526029475654535 0 0.0033332629228490793 -0.00022499888063769546 0 0.0034179125324343487 0.00018329579327228042 0 0.0040104413238895931 0.00020198646267172819 0 0.0049361208900953711 5.1789714056046227e-07 0 0.0045887592086179671 0.00021177874728400654 0 0.0039807620316372316 0.00037204156754655038 0 0.0040559059221253945 0.00032306657107994939 0 0.0045887592086179671 0.00021177874728400654 0 0.0040559059221253945 0.00032306657107994939 0 0.0045887592086179671 0.00021177874728400654 0 0.0055033838202934223 9.7573046931798375e-06 0 0.0049361208900953711 5.1789714056046227e-07 0 0.0045887592086179671 0.00021177874728400654 0 0.0055033838202934223 9.7573046931798375e-06 0 0.0049361208900953711 5.1789714056046227e-07 0 0.0055033838202934223 9.7573046931798375e-06 0 0.0070012121385066078 -4.8851716402152157e-09 0 0.0055033838202934223 9.7573046931798375e-06 0 0.0070012121385066078 -4.8851716402152157e-09 0 0.0067571026739233391 6.8807537225242679e-05 0 0.0055033838202934223 9.7573046931798375e-06 0 0.0067571026739233391 6.8807537225242679e-05 0 0.0061092774239260971 0.00010399486070987407 0 0.0083121683703131256 -0.00013268076863585531 0 0.0067571026739233391 6.8807537225242679e-05 0 0.0061542143193445116 -0.00031134947794791577 0 0.0078024024154362886 -9.0123561092197394e-05 0 0.0076483983368783861 -4.935221817653341e-05 0 0.0083121683703131256 -0.00013268076863585531 0 0.0070012121385066078 -4.8851716402152157e-09 0 0.0067571026739233391 6.8807537225242679e-05 0 0.0090675164347122032 2.333167604896148e-07 0 0.0083121683703131256 -0.00013268076863585531 0 0.0070012121385066078 -4.8851716402152157e-09 0 0.0051770602946097782 -4.0367605186505369e-05 0 0.0052972977832669238 1.6897433839253829e-05 0 0.006014746405859024 -2.9450229397884539e-05 0 0.0058694245106233923 -0.00011784885374492819 0 0.0058197294204284083 2.2042224229859554e-05 0 0.006014746405859024 -2.9450229397884539e-05 0 0.0061011098639719872 5.426873807646483e-05 0 0.0058197294204284083 2.2042224229859554e-05 0 0.0055033838202934223 9.7573046931798375e-06 0 0.0061011098639719872 5.426873807646483e-05 0 0.0061092774239260971 0.00010399486070987407 0 0.006014746405859024 -2.9450229397884539e-05 0 0.0061011098639719872 5.426873807646483e-05 0 0.0061092774239260971 0.00010399486070987407 0 0.0067571026739233391 6.8807537225242679e-05 0 0.0061092774239260971 0.00010399486070987407 0 0.0061542143193445116 -0.00031134947794791577 0 0.006014746405859024 -2.9450229397884539e-05 0 0.0061092774239260971 0.00010399486070987407 0 0.0061542143193445116 -0.00031134947794791577 0 0.0090173754241814827 1.0392363152657432e-05 0 0.0089675819152171387 -0.00016456580334613702 0 0.0091507422826470307 -0.00018250455682232609 0 0.006014746405859024 -2.9450229397884539e-05 0 0.0061542143193445116 -0.00031134947794791577 0 0.0058694245106233923 -0.00011784885374492819 0 0.0090173754241814827 1.0392363152657432e-05 0 0.0091939227677481153 -0.00011473246989503281 0 0.0091507422826470307 -0.00018250455682232609 0 0.0076483983368783861 -4.935221817653341e-05 0 0.0075675009450712318 6.7334871510460996e-05 0 0.0091939227677481153 -0.00011473246989503281 0 0.0091507422826470307 -0.00018250455682232609 0 0.0093388129095062552 -0.00021292135046947425 0 0.0075675009450712318 6.7334871510460996e-05 0 0.0074747521986043806 0.00033544911330063621 0 0.01347838901687903 0.00019543227784828265 0 0.013703348380473443 0.00036737258867749247 0 0.013334214592202224 0.00046236844695799682 0 0.0058694245106233923 -0.00011784885374492819 0 0.0058197294204284083 2.2042224229859554e-05 0 0.0056436423132809463 -4.9171606528639502e-05 0 0.0033332629228490793 -0.00022499888063769546 0 0.0030957408638567488 4.0897743507252835e-06 0 0.0029695192527776746 -0.0001392745544037341 0 0.0058197294204284083 2.2042224229859554e-05 0 0.0056212087987456312 -3.3001133604376597e-05 0 0.0056436423132809463 -4.9171606528639502e-05 0 0.0052972977832669238 1.6897433839253829e-05 0 0.0069272114652477465 0.00047071930314392888 0 0.0030957408638567488 4.0897743507252835e-06 0 0.0029695192527776746 -0.0001392745544037341 0 0.0029385309465138278 9.7075801935338462e-05 0 0.013106783579510874 0.0011447903699371722 0 0.012989889450918659 0.0010797426563985781 0 0.01292969580804002 0.0012147759917419212 0 0.0074747521986043806 0.00033544911330063621 0 0.0072448505335180298 0.00052094948790365101 0 0.0068555302853293741 0.00062384012884235179 0 0.0068236843117391128 0.00064495198082051557 0 0.006884550331193123 0.00063286178247245009 0 0.0069272114652477465 0.00047071930314392888 0 0.0074747521986043806 0.00033544911330063621 0 0.013703348380473443 0.00036737258867749247 0 0.013214728919903482 0.00078007401348391761 0 0.013334214592202224 0.00046236844695799682 0 0.013106783579510874 0.0011447903699371722 0 0.013065616981072283 0.00097864311647131823 0 0.013214728919903482 0.00078007401348391761 0 0.013065616981072283 0.00097864311647131823 0 0.012989889450918659 0.0010797426563985781 0 0.012950765944248183 0.00091390650950848068 0 0.013703348380473443 0.00036737258867749247 0 0.013106783579510874 0.0011447903699371722 0 0.013214728919903482 0.00078007401348391761 0 0.013106783579510874 0.0011447903699371722 0 0.013065616981072283 0.00097864311647131823 0 0.012989889450918659 0.0010797426563985781 0 0.010248860588433568 -0.00029052603689297483 0 0.0074747521986043806 0.00033544911330063621 0 0.013065616981072283 0.00097864311647131823 0 0.013214728919903482 0.00078007401348391761 0 0.012950765944248183 0.00091390650950848068 0 0.013096774890067577 0.00054454872243012316 0 0.012887526230481325 0.00061948862864113932 0 0.012950765944248183 0.00091390650950848068 0 0.013214728919903482 0.00078007401348391761 0 0.013096774890067577 0.00054454872243012316 0 0.012950765944248183 0.00091390650950848068 0 0.013214728919903482 0.00078007401348391761 0 0.013334214592202224 0.00046236844695799682 0 0.013096774890067577 0.00054454872243012316 0 0.012575145272411901 0.00043117899927671817 0 0.012887526230481325 0.00061948862864113932 0 0.012695057569765899 0.00079563592077191124 0 0.012664019851906702 0.0010665110434833096 0 0.011865571026241216 0.0013083685661693305 0 0.01292969580804002 0.0012147759917419212 0 0.012927632943760264 0.00027318941061781066 0 0.013096774890067577 0.00054454872243012316 0 0.012887526230481325 0.00061948862864113932 0 0.01237731147745773 0.00092204851944935481 0 0.012664019851906702 0.0010665110434833096 0 0.011865571026241216 0.0013083685661693305 0 0.009171132244371093 0.0009695702949391831 0 0.0072448505335180298 0.00052094948790365101 0 0.012887526230481325 0.00061948862864113932 0 0.012695057569765899 0.00079563592077191124 0 0.012950765944248183 0.00091390650950848068 0 0.012575145272411901 0.00043117899927671817 0 0.012695057569765899 0.00079563592077191124 0 0.01237731147745773 0.00092204851944935481 0 0.012695057569765899 0.00079563592077191124 0 0.01237731147745773 0.00092204851944935481 0 0.012664019851906702 0.0010665110434833096 0 0.012989889450918659 0.0010797426563985781 0 0.012884100722489971 0.0010709219741483085 0 0.01292969580804002 0.0012147759917419212 0 0.012989889450918659 0.0010797426563985781 0 0.012884100722489971 0.0010709219741483085 0 0.012950765944248183 0.00091390650950848068 0 0.012664019851906702 0.0010665110434833096 0 0.012884100722489971 0.0010709219741483085 0 0.012950765944248183 0.00091390650950848068 0 0.012664019851906702 0.0010665110434833096 0 0.012884100722489971 0.0010709219741483085 0 0.01292969580804002 0.0012147759917419212 0 0.012695057569765899 0.00079563592077191124 0 0.012664019851906702 0.0010665110434833096 0 0.012950765944248183 0.00091390650950848068 0 0.011867149640729591 0.00059899160733457846 0 0.01237731147745773 0.00092204851944935481 0 0.011865571026241216 0.0013083685661693305 0 0.011867149640729591 0.00059899160733457846 0 0.012575145272411901 0.00043117899927671817 0 0.01237731147745773 0.00092204851944935481 0 0.0086959459525128117 0.00085997668713068713 0 0.0086277248509661949 0.0012605497725840201 0 0.0094202840722521532 0.0010648246880246136 0 0.0025941484641622179 0.00093424671098930076 0 0.0024525260554824012 0.00085133840877893603 0 0.0026502510974886115 0.00066231830507642361 0 0.0080921319086385366 0.0010398980693167579 0 0.0086959459525128117 0.00085997668713068713 0 0.0086277248509661949 0.0012605497725840201 0 0.0025941484641622179 0.00093424671098930076 0 0.0023118161432124462 0.00097431987776081485 0 0.0024525260554824012 0.00085133840877893603 0 0.0058962789403260198 0.0009849559273172161 0 0.0072448505335180298 0.00052094948790365101 0 0.0022877236046744908 0.0009669269551125779 0 0.0023118161432124462 0.00097431987776081485 0 0.0024525260554824012 0.00085133840877893603 0 0.0069272114652477465 0.00047071930314392888 0 0.0072448505335180298 0.00052094948790365101 0 0.0069272114652477465 0.00047071930314392888 0 0.0046772765521335465 0.0011597092546142525 0 0.0029695192527776746 -0.0001392745544037341 0 0.002765563383883628 0.00016270222256411124 0 0.0029385309465138278 9.7075801935338462e-05 0 0.0029385309465138278 9.7075801935338462e-05 0 0.002813010796960556 0.00036526746371589171 0 0.0030238476346201556 0.00021863132837203613 0 0.002765563383883628 0.00016270222256411124 0 0.0029385309465138278 9.7075801935338462e-05 0 0.002813010796960556 0.00036526746371589171 0 0.002765563383883628 0.00016270222256411124 0 0.002813010796960556 0.00036526746371589171 0 0.0026502510974886115 0.00066231830507642361 0 0.002813010796960556 0.00036526746371589171 0 0.0026502510974886115 0.00066231830507642361 0 0.0027117142062771885 0.00053884355725605879 0 0.0046772765521335465 0.0011597092546142525 0 0.0041401811836061014 0.0012775542219793771 0 0.002813010796960556 0.00036526746371589171 0 0.0027603536252044673 0.00050695262745011234 0 0.0027117142062771885 0.00053884355725605879 0 0.002694379518884858 0.0005975671099519305 0 0.0026502510974886115 0.00066231830507642361 0 0.0027117142062771885 0.00053884355725605879 0 0.002694379518884858 0.0005975671099519305 0 0.0027603536252044673 0.00050695262745011234 0 0.0027117142062771885 0.00053884355725605879 0 0.002813010796960556 0.00036526746371589171 0 0.0029203163187070994 0.00042943306111003609 0 0.0030238476346201556 0.00021863132837203613 0 0.002813010796960556 0.00036526746371589171 0 0.0027603536252044673 0.00050695262745011234 0 0.0029203163187070994 0.00042943306111003609 0 0.0031288867498236151 0.00036931103426947413 0 0.0032065280246538772 0.00011044146518659391 0 0.0030238476346201556 0.00021863132837203613 0 0.0029203163187070994 0.00042943306111003609 0 0.0031288867498236151 0.00036931103426947413 0 0.0030238476346201556 0.00021863132837203613 0 0.0031288867498236151 0.00036931103426947413 0 0.0034179125324343487 0.00018329579327228042 0 0.0032065280246538772 0.00011044146518659391 0 0.0032230900135296757 0.00047754686705892544 0 0.0031288867498236151 0.00036931103426947413 0 0.0034179125324343487 0.00018329579327228042 0 0.0033332629228490793 -0.00022499888063769546 0 0.0034179125324343487 0.00018329579327228042 0 0.0032065280246538772 0.00011044146518659391 0 0.0033332629228490793 -0.00022499888063769546 0 0.0030957408638567488 4.0897743507252835e-06 0 0.0032065280246538772 0.00011044146518659391 0 0.0030957408638567488 4.0897743507252835e-06 0 0.0032065280246538772 0.00011044146518659391 0 0.0030238476346201556 0.00021863132837203613 0 0.0030957408638567488 4.0897743507252835e-06 0 0.0029385309465138278 9.7075801935338462e-05 0 0.0030238476346201556 0.00021863132837203613 0 0.0037927878449704119 -0.0024055191123486812 0 0.0034166006587952242 -0.0013460189717819479 0 0.004734934453838339 -0.0010873856556407157 0 0.0037927878449704119 -0.0024055191123486812 0 0.0023531420895445531 -0.0016202562070787986 0 0.0034166006587952242 -0.0013460189717819479 0 0.0076752976875174087 -0.0017780050769965537 0 0.0081842299844139179 -0.0021350841089554391 0 0.0037927878449704119 -0.0024055191123486812 0 0.0053871072695663947 -0.0025572084787609576 0 0.004734934453838339 -0.0010873856556407157 0 0.0053871072695663947 -0.0025572084787609576 0 0.004734934453838339 -0.0010873856556407157 0 0.0065783295440116083 -0.002286067851342919 0 0.0037927878449704119 -0.0024055191123486812 0 0.004661347805527391 -0.0031039889992429156 0 0.0053871072695663947 -0.0025572084787609576 0 0.004661347805527391 -0.0031039889992429156 0 0.0053871072695663947 -0.0025572084787609576 0 0.0053031163182808219 -0.0036275736769017471 0 0.0053871072695663947 -0.0025572084787609576 0 0.0053031163182808219 -0.0036275736769017471 0 0.0065824239056478913 -0.0031950172268132553 0 0.0053871072695663947 -0.0025572084787609576 0 0.0065783295440116083 -0.002286067851342919 0 0.0065824239056478913 -0.0031950172268132553 0 0.0053031163182808219 -0.0036275736769017471 0 0.0065824239056478913 -0.0031950172268132553 0 0.0060597062223490192 -0.0042878094766080769 0 0.004661347805527391 -0.0031039889992429156 0 0.0053031163182808219 -0.0036275736769017471 0 0.0041945644668510574 -0.0040138238828254062 0 0.0053031163182808219 -0.0036275736769017471 0 0.0041945644668510574 -0.0040138238828254062 0 0.0050223734871743782 -0.0046235766866786366 0 0.0037927878449704119 -0.0024055191123486812 0 0.0041945644668510574 -0.0040138238828254062 0 0.0023762819154923005 -0.0037414826258740787 0 0.0037927878449704119 -0.0024055191123486812 0 0.004661347805527391 -0.0031039889992429156 0 0.0041945644668510574 -0.0040138238828254062 0 0.0028862645018395781 -0.0042947430908700833 0 0.0016856039692247037 -0.0039448408889335177 0 0.0023531420895445531 -0.0016202562070787986 0 0.0028862645018395781 -0.0042947430908700833 0 0.0016856039692247037 -0.0039448408889335177 0 0.0018635657889928996 -0.0053568327495390365 0 0.00088686268429556182 -0.0032277575737253675 0 0.0016856039692247037 -0.0039448408889335177 0 0.0004438556835365442 -0.0047181215972564522 0 0.00088686268429556182 -0.0032277575737253675 0 0.0010174959873985923 -0.001917652886664209 0 0.0023531420895445531 -0.0016202562070787986 0 0.00088686268429556182 -0.0032277575737253675 0 0.0016856039692247037 -0.0039448408889335177 0 0.0023531420895445531 -0.0016202562070787986 0 0.0024573100518859728 -0.0043577393747488737 0 0.0023085525989042007 -0.0030763201659928718 0 0.0037927878449704119 -0.0024055191123486812 0 0.0023762819154923005 -0.0037414826258740787 0 0.0023531420895445531 -0.0016202562070787986 0 0.0023531420895445531 -0.0016202562070787986 0 0.00094773796774681371 -0.00091025622518948915 0 0.0028434868082283841 -0.00035834695125655242 0 0.0023531420895445531 -0.0016202562070787986 0 0.0028434868082283841 -0.00035834695125655242 0 0.0034166006587952242 -0.0013460189717819479 0 0.0010174959873985923 -0.001917652886664209 0 0.0023531420895445531 -0.0016202562070787986 0 0.00094773796774681371 -0.00091025622518948915 0 0.00094773796774681371 -0.00091025622518948915 0 0.0028434868082283841 -0.00035834695125655242 0 0.001182143642642321 0.00069417596655326277 0 0.0068613092308110408 -0.0012726212205835491 0 0.00592975926462346 -0.00065481522988378106 0 0.011436574381728442 -0.0021979311615957973 0 0.011732590585346822 -0.0021975805304850242 0 0.010874131930287826 -0.0023049663726041805 0 0.010565298012239724 -0.0023122673725913421 0 0.010855709405586203 -0.0023982501148976875 0 0.010874131930287826 -0.0023049663726041805 0 0.010241896802882983 -0.0018089362587707354 0 0.010565298012239724 -0.0023122673725913421 0 0.0068613092308110408 -0.0012726212205835491 0 0.0076752976875174087 -0.0017780050769965537 0 0.0028434868082283841 -0.00035834695125655242 0 0.0034166006587952242 -0.0013460189717819479 0 0.004734934453838339 -0.0010873856556407157 0 0.010241896802882983 -0.0018089362587707354 0 0.0097490036449423088 -0.0021274067388575416 0 0.010565298012239724 -0.0023122673725913421 0 0.010241896802882983 -0.0018089362587707354 0 0.0097490036449423088 -0.0021274067388575416 0 0.0091563116446229491 -0.0019688006581339806 0 0.0097490036449423088 -0.0021274067388575416 0 0.010565298012239724 -0.0023122673725913421 0 0.0096728710053799356 -0.002573378729244717 0 0.010565298012239724 -0.0023122673725913421 0 0.0096728710053799356 -0.002573378729244717 0 0.011419446770445766 -0.0029051352867681189 0 0.010642241454781281 -0.0023342539344339557 0 0.01004923825204446 -0.00237800409383298 0 0.0098285270656232205 -0.002156035971149091 0 0.010642241454781281 -0.0023342539344339557 0 0.01004923825204446 -0.00237800409383298 0 0.010219145497497539 -0.0027665189628110739 0 0.0095462111892288624 -0.00244611710897561 0 0.0095264372831653336 -0.0027452964008609 0 0.009931536180145327 -0.0028267814651591612 0 0.0095424954746077869 -0.0022798359946273948 0 0.01004923825204446 -0.00237800409383298 0 0.010219145497497539 -0.0027665189628110739 0 0.0095424954746077869 -0.0022798359946273948 0 0.0095462111892288624 -0.00244611710897561 0 0.009931536180145327 -0.0028267814651591612 0 0.010101799561094478 -0.0024162615752469051 0 0.010371187865575584 -0.0026313663428930672 0 0.0095462111892288624 -0.00244611710897561 0 0.0092059677186152652 -0.0026406587677127781 0 0.0095264372831653336 -0.0027452964008609 0 0.0095424954746077869 -0.0022798359946273948 0 0.01004923825204446 -0.00237800409383298 0 0.0098285270656232205 -0.002156035971149091 0 0.0095424954746077869 -0.0022798359946273948 0 0.0095462111892288624 -0.00244611710897561 0 0.0094486091280696592 -0.0019601414365798997 0 0.0095424954746077869 -0.0022798359946273948 0 0.0098285270656232205 -0.002156035971149091 0 0.0094486091280696592 -0.0019601414365798997 0 0.0098285270656232205 -0.002156035971149091 0 0.0097483032450079426 -0.001892672535377733 0 0.0094486091280696592 -0.0019601414365798997 0 0.010642241454781281 -0.0023342539344339557 0 0.0098285270656232205 -0.002156035971149091 0 0.0097483032450079426 -0.001892672535377733 0 0.0097490036449423088 -0.0021274067388575416 0 0.0096728710053799356 -0.002573378729244717 0 0.0091951862927148586 -0.002088530701224417 0 0.0096728710053799356 -0.002573378729244717 0 0.0086571791282886966 -0.0019898922979322223 0 0.0091951862927148586 -0.002088530701224417 0 0.0086571791282886966 -0.0019898922979322223 0 0.0091951862927148586 -0.002088530701224417 0 0.0087724601530415648 -0.0019698759158558619 0 0.010075206177900748 -0.0023987724231458413 0 0.0096192131517672738 -0.002120466524047408 0 0.0097490036449423088 -0.0021274067388575416 0 0.0091951862927148586 -0.002088530701224417 0 0.0091563116446229491 -0.0019688006581339806 0 -0.00241375248517309 -0.0044057677539561376 0 -0.0026168435525718283 -0.0048272741840229665 0 0.0087627766356609786 -0.0026859603843919838 0 0.0090084146516125618 -0.0022498267834166071 0 0.0085690137275462371 -0.0019676072779386483 0 0.0087627766356609786 -0.0026859603843919838 0 0.0085690137275462371 -0.0019676072779386483 0 0.0081290069045360236 -0.002809122840887177 0 0.0087627766356609786 -0.0026859603843919838 0 0.0090084146516125618 -0.0022498267834166071 0 0.0092059677186152652 -0.0026406587677127781 0 0.0095462111892288624 -0.00244611710897561 0 0.0092059677186152652 -0.0026406587677127781 0 0.0092510364827503491 -0.002277157374726336 0 0.0090084146516125618 -0.0022498267834166071 0 0.0092059677186152652 -0.0026406587677127781 0 0.0092510364827503491 -0.002277157374726336 0 0.0030650968554113149 -0.004101636745877219 0 0.0018817670787720552 -0.0041469915218776045 0 0.0090084146516125618 -0.0022498267834166071 0 0.0092360437072068046 -0.0017711049421768913 0 0.0085690137275462371 -0.0019676072779386483 0 0.0095462111892288624 -0.00244611710897561 0 0.0092510364827503491 -0.002277157374726336 0 0.0092360437072068046 -0.0017711049421768913 0 0.0090084146516125618 -0.0022498267834166071 0 0.0092510364827503491 -0.002277157374726336 0 0.0092360437072068046 -0.0017711049421768913 0 -0.014478067980541428 -0.006162598010106944 0 -0.014476325970719971 -0.005978023031941883 0 -0.014224359435743968 -0.0058872544817613042 0 -0.00241375248517309 -0.0044057677539561376 0 -0.0019935715236939163 -0.0044974601240215673 0 -0.014478067980541428 -0.006162598010106944 0 -0.014476325970719971 -0.005978023031941883 0 -0.014659247734347999 -0.0060487764047032766 0 -0.014476325970719971 -0.005978023031941883 0 -0.014416859359062657 -0.0058197258292042022 0 -0.014571387491496045 -0.0058929845889768998 0 -0.014476325970719971 -0.005978023031941883 0 -0.014224359435743968 -0.0058872544817613042 0 -0.014416859359062657 -0.0058197258292042022 0 0.0018817670787720552 -0.0041469915218776045 0 -0.0019935715236939163 -0.0044974601240215673 0 0.0094486091280696592 -0.0019601414365798997 0 0.0092850370363351774 -0.0020618367240367677 0 0.0092164994929721019 -0.00208779285852484 0 0.0092360437072068046 -0.0017711049421768913 0 0.0085690137275462371 -0.0019676072779386483 0 0.008981995973413124 -0.0011340235855917637 0 -0.013366147188305278 -0.0073615148172848383 0 -0.012705720160187858 -0.006043792713929662 0 -0.013803789859258264 -0.0062158572865793358 0 -0.0019935715236939163 -0.0044974601240215673 0 -0.0013588880956420016 -0.0070975428727964784 0 0.0092164994929721019 -0.00208779285852484 0 0.0089521719614420528 -0.0022206243280757545 0 0.0089543119226149232 -0.0029263653395521722 0 0.0092850370363351774 -0.0020618367240367677 0 0.0092164994929721019 -0.00208779285852484 0 0.0089543119226149232 -0.0029263653395521722 0 -0.0019935715236939163 -0.0044974601240215673 0 -0.0066587910856243269 -0.0039886246755501883 0 -0.014224359435743968 -0.0058872544817613042 0 -0.014416859359062657 -0.0058197258292042022 0 -0.014244639970787775 -0.0055686874057982276 0 -0.014416859359062657 -0.0058197258292042022 0 -0.014244639970787775 -0.0055686874057982276 0 -0.014600242141198646 -0.0057400732069278308 0 -0.014416859359062657 -0.0058197258292042022 0 -0.014571387491496045 -0.0058929845889768998 0 -0.014600242141198646 -0.0057400732069278308 0 0.010241896802882983 -0.0018089362587707354 0 0.0091563116446229491 -0.0019688006581339806 0 0.0081761486693980156 -0.0020897452741440474 0 0.004734934453838339 -0.0010873856556407157 0 0.0065783295440116083 -0.002286067851342919 0 0.0081761486693980156 -0.0020897452741440474 0 0.0086816417970285494 -0.002003337145462171 0 0.0091563116446229491 -0.0019688006581339806 0 0.0081761486693980156 -0.0020897452741440474 0 0.0086816417970285494 -0.002003337145462171 0 0.0084786541053522516 -0.0020393605242047565 0 0.0085938046935921473 -0.0020270189661737372 0 0.0084786541053522516 -0.0020393605242047565 0 0.0084366833958903157 -0.0020974914953417138 0 0.0085938046935921473 -0.0020270189661737372 0 0.0084786541053522516 -0.0020393605242047565 0 0.0084366833958903157 -0.0020974914953417138 0 0.0081761486693980156 -0.0020897452741440474 0 0.0086816417970285494 -0.002003337145462171 0 0.0084786541053522516 -0.0020393605242047565 0 0.0081761486693980156 -0.0020897452741440474 0 0.0086816417970285494 -0.002003337145462171 0 0.0087724601530415648 -0.0019698759158558619 0 0.0085938046935921473 -0.0020270189661737372 0 0.0086816417970285494 -0.002003337145462171 0 0.0091563116446229491 -0.0019688006581339806 0 0.0087724601530415648 -0.0019698759158558619 0 0.0091951862927148586 -0.002088530701224417 0 0.0091563116446229491 -0.0019688006581339806 0 0.0087724601530415648 -0.0019698759158558619 0 0.0086571791282886966 -0.0019898922979322223 0 0.0087011842705135792 -0.001993542164553018 0 0.0088397009388633385 -0.0020592276978096771 0 0.0097483032450079426 -0.001892672535377733 0 0.0094486091280696592 -0.0019601414365798997 0 0.0092164994929721019 -0.00208779285852484 0 0.0086571791282886966 -0.0019898922979322223 0 0.0092164994929721019 -0.00208779285852484 0 0.0088397009388633385 -0.0020592276978096771 0 0.0096192131517672738 -0.002120466524047408 0 0.0095194454824831243 -0.0020965380660539399 0 0.0087724601530415648 -0.0019698759158558619 0 0.0087011842705135792 -0.001993542164553018 0 0.0085938046935921473 -0.0020270189661737372 0 0.0086571791282886966 -0.0019898922979322223 0 0.0087724601530415648 -0.0019698759158558619 0 0.0087011842705135792 -0.001993542164553018 0 0.0092164994929721019 -0.00208779285852484 0 0.0088397009388633385 -0.0020592276978096771 0 0.0089521719614420528 -0.0022206243280757545 0 0.0088397009388633385 -0.0020592276978096771 0 0.0085938046935921473 -0.0020270189661737372 0 0.0087100558200934233 -0.0022657332350480169 0 0.0087011842705135792 -0.001993542164553018 0 0.0088397009388633385 -0.0020592276978096771 0 0.0085938046935921473 -0.0020270189661737372 0 0.0085938046935921473 -0.0020270189661737372 0 0.008533735631001781 -0.0021620008818286655 0 0.0087100558200934233 -0.0022657332350480169 0 0.0084366833958903157 -0.0020974914953417138 0 0.0085938046935921473 -0.0020270189661737372 0 0.008533735631001781 -0.0021620008818286655 0 0.0014976231268574807 -0.0069224212211290099 0 -0.0013588880956420016 -0.0070975428727964784 0 0.008533735631001781 -0.0021620008818286655 0 0.0087100558200934233 -0.0022657332350480169 0 0.0083596886952169939 -0.0023068600880790193 0 0.0087100558200934233 -0.0022657332350480169 0 0.0089521719614420528 -0.0022206243280757545 0 0.0089543119226149232 -0.0029263653395521722 0 0.0083596886952169939 -0.0023068600880790193 0 0.0083363298369269496 -0.0041484774202342495 0 0.0097956783734150163 -0.0049206852138279659 0 0.0087100558200934233 -0.0022657332350480169 0 0.0083596886952169939 -0.0023068600880790193 0 0.0089543119226149232 -0.0029263653395521722 0 0.0088397009388633385 -0.0020592276978096771 0 0.0087100558200934233 -0.0022657332350480169 0 0.0089521719614420528 -0.0022206243280757545 0 0.0076860532575315447 -0.0036522914441719742 0 0.0083596886952169939 -0.0023068600880790193 0 0.0083363298369269496 -0.0041484774202342495 0 0.0076860532575315447 -0.0036522914441719742 0 0.0078219909523527878 -0.0027566300330269821 0 0.0073498343355307867 -0.0031740373331263002 0 0.0076860532575315447 -0.0036522914441719742 0 0.0078219909523527878 -0.0027566300330269821 0 0.0083596886952169939 -0.0023068600880790193 0 0.0078219909523527878 -0.0027566300330269821 0 0.0073047797369818904 -0.0027109299038558508 0 0.0073498343355307867 -0.0031740373331263002 0 0.0078219909523527878 -0.0027566300330269821 0 0.0081761486693980156 -0.0020897452741440474 0 0.0073047797369818904 -0.0027109299038558508 0 0.0084366833958903157 -0.0020974914953417138 0 0.0081761486693980156 -0.0020897452741440474 0 0.0083596886952169939 -0.0023068600880790193 0 0.0078219909523527878 -0.0027566300330269821 0 0.0081761486693980156 -0.0020897452741440474 0 0.0083596886952169939 -0.0023068600880790193 0 0.0084366833958903157 -0.0020974914953417138 0 0.008533735631001781 -0.0021620008818286655 0 0.0083596886952169939 -0.0023068600880790193 0 0.0065783295440116083 -0.002286067851342919 0 0.0073047797369818904 -0.0027109299038558508 0 0.0065824239056478913 -0.0031950172268132553 0 0.0065783295440116083 -0.002286067851342919 0 0.0081761486693980156 -0.0020897452741440474 0 0.0073047797369818904 -0.0027109299038558508 0 0.0073047797369818904 -0.0027109299038558508 0 0.0065824239056478913 -0.0031950172268132553 0 0.0073498343355307867 -0.0031740373331263002 0 0.0065824239056478913 -0.0031950172268132553 0 0.0069670667765954486 -0.003844060304536945 0 0.0060597062223490192 -0.0042878094766080769 0 0.0065824239056478913 -0.0031950172268132553 0 0.0073498343355307867 -0.0031740373331263002 0 0.0069670667765954486 -0.003844060304536945 0 0.0076860532575315447 -0.0036522914441719742 0 0.0073498343355307867 -0.0031740373331263002 0 0.0069670667765954486 -0.003844060304536945 0 0.0069670667765954486 -0.003844060304536945 0 0.0070436260401543415 -0.0048103977214847479 0 0.0060597062223490192 -0.0042878094766080769 0 0.0076860532575315447 -0.0036522914441719742 0 0.0069670667765954486 -0.003844060304536945 0 0.0070436260401543415 -0.0048103977214847479 0 0.0070436260401543415 -0.0048103977214847479 0 0.006710168716989073 -0.0064647624553383432 0 0.0055891438738131811 -0.0055500977453216988 0 0.0070436260401543415 -0.0048103977214847479 0 0.0079450094164199448 -0.0055123221057568807 0 0.006710168716989073 -0.0064647624553383432 0 0.0070436260401543415 -0.0048103977214847479 0 0.0079450094164199448 -0.0055123221057568807 0 0.0083363298369269496 -0.0041484774202342495 0 0.0076860532575315447 -0.0036522914441719742 0 0.0070436260401543415 -0.0048103977214847479 0 0.0083363298369269496 -0.0041484774202342495 0 0.0079450094164199448 -0.0055123221057568807 0 0.0083363298369269496 -0.0041484774202342495 0 0.0097956783734150163 -0.0049206852138279659 0 0.0079450094164199448 -0.0055123221057568807 0 0.0097956783734150163 -0.0049206852138279659 0 0.0082982420485727074 -0.0075150809188795136 0 -0.0013588880956420016 -0.0070975428727964784 0 -0.00048653956256971306 -0.0098651215505195407 0 -0.0064576318959655137 -0.017792812918375839 0 -0.0053183814688229176 -0.015616515160321243 0 -0.0066656429843398191 -0.015512422272615987 0 0.0079450094164199448 -0.0055123221057568807 0 0.0082982420485727074 -0.0075150809188795136 0 0.006710168716989073 -0.0064647624553383432 0 0.0082982420485727074 -0.0075150809188795136 0 0.006710168716989073 -0.0064647624553383432 0 0.0063405694818384458 -0.008149342609189229 0 -0.014244639970787775 -0.0055686874057982276 0 -0.014680420656046652 -0.0055527555841301587 0 -0.014646916589479343 -0.0052547895236199843 0 -0.0066587910856243269 -0.0039886246755501883 0 -0.0080401855105520469 -0.0038048525788261789 0 -0.014244639970787775 -0.0055686874057982276 0 -0.014600242141198646 -0.0057400732069278308 0 -0.014680420656046652 -0.0055527555841301587 0 -0.012705720160187858 -0.006043792713929662 0 -0.013803789859258264 -0.0062158572865793358 0 -0.013574167962031201 -0.0049821145744079467 0 -0.0064576318959655137 -0.017792812918375839 0 -0.0078623189392016384 -0.01599924586476659 0 -0.0066656429843398191 -0.015512422272615987 0 -0.0013588880956420016 -0.0070975428727964784 0 -0.0069549490278864798 -0.007982811891339375 0 -0.013803789859258264 -0.0062158572865793358 0 -0.013574167962031201 -0.0049821145744079467 0 -0.014241896347155902 -0.0050682876068605179 0 -0.014244639970787775 -0.0055686874057982276 0 -0.014241896347155902 -0.0050682876068605179 0 -0.014646916589479343 -0.0052547895236199843 0 -0.013574167962031201 -0.0049821145744079467 0 -0.014241896347155902 -0.0050682876068605179 0 -0.014185176734049017 -0.0046708409591605703 0 -0.014241896347155902 -0.0050682876068605179 0 -0.014448090574272113 -0.0046970650795353109 0 -0.014185176734049017 -0.0046708409591605703 0 -0.014241896347155902 -0.0050682876068605179 0 -0.014448090574272113 -0.0046970650795353109 0 -0.0145334070868713 -0.0049742287446516006 0 -0.014241896347155902 -0.0050682876068605179 0 -0.0145334070868713 -0.0049742287446516006 0 -0.014646916589479343 -0.0052547895236199843 0 -0.0078623189392016384 -0.01599924586476659 0 -0.0093353598610552008 -0.014209071295720828 0 -0.0091785925023796927 -0.014288186467426094 0 -0.013574167962031201 -0.0049821145744079467 0 -0.014266600674171733 -0.0041442388356554023 0 -0.014185176734049017 -0.0046708409591605703 0 -0.0078623189392016384 -0.01599924586476659 0 -0.0091785925023796927 -0.014288186467426094 0 -0.0076303447610179438 -0.014399243343367112 0 -0.0069549490278864798 -0.007982811891339375 0 -0.010405401305001597 -0.008068081272111071 0 -0.0093462908337412463 -0.01421465256268877 0 -0.0091785925023796927 -0.014288186467426094 0 -0.0092320064366045885 -0.0138333851316582 0 -0.010405401305001597 -0.008068081272111071 0 -0.010391022776033348 -0.0080828131498548918 0 -0.014266600674171733 -0.0041442388356554023 0 -0.014353464056853291 -0.0044675510242210073 0 -0.01459300351079609 -0.0043133480803400634 0 -0.014353464056853291 -0.0044675510242210073 0 -0.014448090574272113 -0.0046970650795353109 0 -0.01459300351079609 -0.0043133480803400634 0 -0.014266600674171733 -0.0041442388356554023 0 -0.014353464056853291 -0.0044675510242210073 0 -0.014185176734049017 -0.0046708409591605703 0 -0.014353464056853291 -0.0044675510242210073 0 -0.014448090574272113 -0.0046970650795353109 0 -0.014185176734049017 -0.0046708409591605703 0 -0.0091785925023796927 -0.014288186467426094 0 -0.0076303447610179438 -0.014399243343367112 0 -0.0087382010146811288 -0.013570342090435323 0 -0.0078623189392016384 -0.01599924586476659 0 -0.0076303447610179438 -0.014399243343367112 0 -0.0066656429843398191 -0.015512422272615987 0 -0.0076303447610179438 -0.014399243343367112 0 -0.0066656429843398191 -0.015512422272615987 0 -0.0061465147933067923 -0.014032246304776104 0 -0.0074909659405147993 -0.01321742677315633 0 -0.0084543442872461495 -0.012559981625712561 0 -0.00643556255060879 -0.012295645337206156 0 -0.0074909659405147993 -0.01321742677315633 0 -0.0061465147933067923 -0.014032246304776104 0 -0.00643556255060879 -0.012295645337206156 0 -0.0076303447610179438 -0.014399243343367112 0 -0.0074909659405147993 -0.01321742677315633 0 -0.0061465147933067923 -0.014032246304776104 0 -0.0076303447610179438 -0.014399243343367112 0 -0.0074909659405147993 -0.01321742677315633 0 -0.0087382010146811288 -0.013570342090435323 0 -0.0087382010146811288 -0.013570342090435323 0 -0.0084543442872461495 -0.012559981625712561 0 -0.0094781236974451344 -0.013202094652452988 0 -0.0074909659405147993 -0.01321742677315633 0 -0.0087382010146811288 -0.013570342090435323 0 -0.0084543442872461495 -0.012559981625712561 0 -0.0084543442872461495 -0.012559981625712561 0 -0.0094781236974451344 -0.013202094652452988 0 -0.0098110753583136208 -0.012317809917897457 0 -0.0094781236974451344 -0.013202094652452988 0 -0.0092320064366045885 -0.0138333851316582 0 -0.0096738976692690593 -0.013868367570475826 0 -0.0087382010146811288 -0.013570342090435323 0 -0.0094781236974451344 -0.013202094652452988 0 -0.0092320064366045885 -0.0138333851316582 0 -0.0091785925023796927 -0.014288186467426094 0 -0.0087382010146811288 -0.013570342090435323 0 -0.0092320064366045885 -0.0138333851316582 0 -0.0093462908337412463 -0.01421465256268877 0 -0.0092320064366045885 -0.0138333851316582 0 -0.0096738976692690593 -0.013868367570475826 0 -0.010405401305001597 -0.008068081272111071 0 -0.010317647985561123 -0.0082262443621856328 0 -0.00048653956256971306 -0.0098651215505195407 0 -4.3581658660092012e-05 -0.010274808074147849 0 0.0082982420485727074 -0.0075150809188795136 0 0.0063405694818384458 -0.008149342609189229 0 0.0067746473928013149 -0.010322754898617255 0 -0.0053183814688229176 -0.015616515160321243 0 -0.0066656429843398191 -0.015512422272615987 0 -0.0061465147933067923 -0.014032246304776104 0 -0.0053183814688229176 -0.015616515160321243 0 -0.0061465147933067923 -0.014032246304776104 0 -0.0041497238233717225 -0.013391750202830005 0 -4.3581658660092012e-05 -0.010274808074147849 0 -0.0042840058857513096 -0.010517984199834692 0 -0.0061465147933067923 -0.014032246304776104 0 -0.0041497238233717225 -0.013391750202830005 0 -0.00643556255060879 -0.012295645337206156 0 -0.0019232011126584447 -0.014515962387065087 0 -0.0054888781954021484 -0.012773251113329285 0 -0.0027524924708432481 -0.011890310669785848 0 -4.3581658660092012e-05 -0.010274808074147849 0 0.00017239199412465294 -0.010104565558822817 0 0.0019282187620728126 -0.008539294321576768 0 0.0018166693151902755 -0.0085648829978130035 0 0.0017155649695724071 -0.008712174266161183 0 0.0018166693151902755 -0.0085648829978130035 0 0.0021506027153050831 -0.0085344633257736502 0 0.0020297217275458959 -0.0084765436971863187 0 -4.3581658660092012e-05 -0.010274808074147849 0 0.0013925445749694021 -0.010226552658020029 0 0.0019282187620728126 -0.008539294321576768 0 0.0018166693151902755 -0.0085648829978130035 0 0.0020297217275458959 -0.0084765436971863187 0 0.0021506027153050831 -0.0085344633257736502 0 0.0018376645482998709 -0.0084627286060472966 0 0.001558546497973913 -0.0086932849134241427 0 0.0018166693151902755 -0.0085648829978130035 0 0.0021506027153050831 -0.0085344633257736502 0 0.001558546497973913 -0.0086932849134241427 0 0.0026579882065471232 -0.0074678864952016566 0 0.0026297864045743652 -0.0064745214827312781 0 0.0021506027153050831 -0.0085344633257736502 0 0.0026689197493021707 -0.0081015257194577972 0 0.0020297217275458959 -0.0084765436971863187 0 0.0021506027153050831 -0.0085344633257736502 0 0.0026689197493021707 -0.0081015257194577972 0 0.0025117016812467173 -0.0070625090489613018 0 0.0016151485145100496 -0.010088232881097836 0 0.0013925445749694021 -0.010226552658020029 0 0.0026689197493021707 -0.0081015257194577972 0 0.0048994976866469364 -0.0094158797297696651 0 0.00496670476404594 -0.0071136694782377996 0 0.0063405694818384458 -0.008149342609189229 0 0.0048994976866469364 -0.0094158797297696651 0 0.00496670476404594 -0.0071136694782377996 0 0.0063405694818384458 -0.008149342609189229 0 0.0067746473928013149 -0.010322754898617255 0 0.0048994976866469364 -0.0094158797297696651 0 0.006710168716989073 -0.0064647624553383432 0 0.0063405694818384458 -0.008149342609189229 0 0.00496670476404594 -0.0071136694782377996 0 0.006710168716989073 -0.0064647624553383432 0 0.00496670476404594 -0.0071136694782377996 0 0.0055891438738131811 -0.0055500977453216988 0 0.00496670476404594 -0.0071136694782377996 0 0.0039810102812373946 -0.0056689829723371166 0 0.0055891438738131811 -0.0055500977453216988 0 0.0026689197493021707 -0.0081015257194577972 0 0.00496670476404594 -0.0071136694782377996 0 0.0034862294509041651 -0.0070176829440245451 0 0.0026689197493021707 -0.0081015257194577972 0 0.0034862294509041651 -0.0070176829440245451 0 0.0025117016812467173 -0.0070625090489613018 0 0.0034862294509041651 -0.0070176829440245451 0 0.0039810102812373946 -0.0056689829723371166 0 0.0025117016812467173 -0.0070625090489613018 0 0.00496670476404594 -0.0071136694782377996 0 0.0034862294509041651 -0.0070176829440245451 0 0.0039810102812373946 -0.0056689829723371166 0 0.0041945644668510574 -0.0040138238828254062 0 0.0023762819154923005 -0.0037414826258740787 0 0.0039810102812373946 -0.0056689829723371166 0 0.0023762819154923005 -0.0037414826258740787 0 0.0039810102812373946 -0.0056689829723371166 0 0.0025117016812467173 -0.0070625090489613018 0 0.0041945644668510574 -0.0040138238828254062 0 0.0039810102812373946 -0.0056689829723371166 0 0.0050223734871743782 -0.0046235766866786366 0 0.0070436260401543415 -0.0048103977214847479 0 0.0060597062223490192 -0.0042878094766080769 0 0.0055891438738131811 -0.0055500977453216988 0 0.0050223734871743782 -0.0046235766866786366 0 0.0060597062223490192 -0.0042878094766080769 0 0.0055891438738131811 -0.0055500977453216988 0 0.0053031163182808219 -0.0036275736769017471 0 0.0050223734871743782 -0.0046235766866786366 0 0.0060597062223490192 -0.0042878094766080769 0 0.0039810102812373946 -0.0056689829723371166 0 0.0050223734871743782 -0.0046235766866786366 0 0.0055891438738131811 -0.0055500977453216988 0 0.0016856039692247037 -0.0039448408889335177 0 0.0018635657889928996 -0.0053568327495390365 0 0.0004438556835365442 -0.0047181215972564522 0 0.0018635657889928996 -0.0053568327495390365 0 0.0004438556835365442 -0.0047181215972564522 0 0.00051598953594532036 -0.0065021432493609053 0 0.0028862645018395781 -0.0042947430908700833 0 0.0018635657889928996 -0.0053568327495390365 0 0.0028627408149437691 -0.0069552740775969228 0 0.0024573100518859728 -0.0043577393747488737 0 0.0026297864045743652 -0.0064745214827312781 0 0.0018635657889928996 -0.0053568327495390365 0 0.0028627408149437691 -0.0069552740775969228 0 0.0018963029040422956 -0.0070260111283844476 0 0.00097541015672448648 -0.0055919862823179886 0 0.00024642439556945742 -0.006088232491899351 0 0.0018635657889928996 -0.0053568327495390365 0 0.0018963029040422956 -0.0070260111283844476 0 0.0011588797809294906 -0.0074406347544779348 0 0.0017876097910607708 -0.0080169683761929095 0 0.001510549228768802 -0.0080519906145402644 0 0.0011588797809294906 -0.0074406347544779348 0 0.0018963029040422956 -0.0070260111283844476 0 0.0017876097910607708 -0.0080169683761929095 0 0.0011588797809294906 -0.0074406347544779348 0 0.0021506027153050831 -0.0085344633257736502 0 0.0028627408149437691 -0.0069552740775969228 0 0.0017876097910607708 -0.0080169683761929095 0 0.0028627408149437691 -0.0069552740775969228 0 0.0018963029040422956 -0.0070260111283844476 0 0.0017876097910607708 -0.0080169683761929095 0 0.0017876097910607708 -0.0080169683761929095 0 0.0018376645482998709 -0.0084627286060472966 0 0.0017182261778997869 -0.0083376369107567121 0 0.0021506027153050831 -0.0085344633257736502 0 0.0017876097910607708 -0.0080169683761929095 0 0.0018376645482998709 -0.0084627286060472966 0 0.0017876097910607708 -0.0080169683761929095 0 0.001510549228768802 -0.0080519906145402644 0 0.0017182261778997869 -0.0083376369107567121 0 0.001510549228768802 -0.0080519906145402644 0 0.0016242992867866676 -0.0081865849660065614 0 0.0017182261778997869 -0.0083376369107567121 0 -0.00078524215867083181 -0.0079329471295801254 0 -0.0018845917997700281 -0.0063815346425226092 0 0.00051598953594532036 -0.0065021432493609053 0 0.001510549228768802 -0.0080519906145402644 0 0.0015677399989487137 -0.0081579625153676959 0 0.0016242992867866676 -0.0081865849660065614 0 -0.001251511687147467 -0.0063146710079234102 0 0.00024642439556945742 -0.006088232491899351 0 0.001510549228768802 -0.0080519906145402644 0 0.0015677399989487137 -0.0081579625153676959 0 0.0011588797809294906 -0.0074406347544779348 0 -0.001251511687147467 -0.0063146710079234102 0 -0.0038767745462284647 -0.0052456393937579671 0 -0.00078524215867083181 -0.0079329471295801254 0 -0.0028313531152102415 -0.0081315532356962279 0 -0.002097510734800512 -0.009409864293225309 0 -0.0084924094458447806 -0.0030261135097537197 0 -0.0072053045283048209 -0.0025607547647071246 0 -0.0075181883802531956 -0.0045659556178764358 0 -0.0084924094458447806 -0.0030261135097537197 0 -0.0072053045283048209 -0.0025607547647071246 0 -0.0086072993515963619 -0.0020456929204064251 0 -0.0042906027077344259 -0.0049221901817631539 0 -0.0040316904965358022 -0.0045803649568580095 0 -0.0028313531152102415 -0.0081315532356962279 0 -0.0018845917997700281 -0.0063815346425226092 0 -0.0035879491887546165 -0.0068330810321463337 0 -0.00078524215867083181 -0.0079329471295801254 0 -0.0028313531152102415 -0.0081315532356962279 0 -0.0018845917997700281 -0.0063815346425226092 0 -0.0018845917997700281 -0.0063815346425226092 0 -0.0030690134338901701 -0.0057898208072724461 0 -0.0035879491887546165 -0.0068330810321463337 0 -0.0018845917997700281 -0.0063815346425226092 0 -0.0030690134338901701 -0.0057898208072724461 0 -0.0024375888249289798 -0.0044267725255936717 0 -0.0030690134338901701 -0.0057898208072724461 0 -0.0024375888249289798 -0.0044267725255936717 0 -0.004367700407134285 -0.0054974312352212128 0 -0.0033615143905790941 -0.0039594341418469972 0 -0.0033301786375305137 -0.0035430138870876635 0 -0.0018845917997700281 -0.0063815346425226092 0 -0.0024375888249289798 -0.0044267725255936717 0 -0.00083697714025480097 -0.00513852342917504 0 -0.0024375888249289798 -0.0044267725255936717 0 -0.00083697714025480097 -0.00513852342917504 0 -0.00087151395717531826 -0.0036069647503689469 0 -0.00083697714025480097 -0.00513852342917504 0 0.0004438556835365442 -0.0047181215972564522 0 -0.00087151395717531826 -0.0036069647503689469 0 -0.0018845917997700281 -0.0063815346425226092 0 -0.00083697714025480097 -0.00513852342917504 0 0.00051598953594532036 -0.0065021432493609053 0 -0.00083697714025480097 -0.00513852342917504 0 0.0004438556835365442 -0.0047181215972564522 0 0.00051598953594532036 -0.0065021432493609053 0 0.00054315043840206829 -0.0022522379348625726 0 0.00076050716454363133 -0.0022794799023232535 0 0.00069872119186634304 -0.0021166740647805106 0 -0.00026699268558941106 -0.0027345938750195516 0 -0.001188828892735877 -0.0030737227480865572 0 -0.0010487893502016765 -0.0030791191443432318 0 -0.0029788358704580312 -0.0041542408391073487 0 -0.0020136154697847873 -0.0028831312080191277 0 -0.0029788358704580312 -0.0041542408391073487 0 -0.0028399557089843902 -0.0025235078207299908 0 -0.0037410553211642342 -0.002797452659545771 0 -0.0029788358704580312 -0.0041542408391073487 0 -0.0020136154697847873 -0.0028831312080191277 0 -0.0028399557089843902 -0.0025235078207299908 0 -0.0020136154697847873 -0.0028831312080191277 0 -0.0020492001091309791 -0.0020840463137933411 0 -0.0028399557089843902 -0.0025235078207299908 0 -0.0020492001091309791 -0.0020840463137933411 0 -0.0028399557089843902 -0.0025235078207299908 0 -0.0025553898240078645 -0.0015971441702598123 0 -0.0028399557089843902 -0.0025235078207299908 0 -0.0025553898240078645 -0.0015971441702598123 0 -0.0033920152646663439 -0.0017675961959458864 0 -0.0028399557089843902 -0.0025235078207299908 0 -0.0037410553211642342 -0.002797452659545771 0 -0.0033920152646663439 -0.0017675961959458864 0 -0.0037410553211642342 -0.002797452659545771 0 -0.004633641805326905 -0.0021093226775826214 0 -0.0046935385993236477 -0.0037131559807680251 0 -0.0037410553211642342 -0.002797452659545771 0 -0.004633641805326905 -0.0021093226775826214 0 -0.0033920152646663439 -0.0017675961959458864 0 -0.0029788358704580312 -0.0041542408391073487 0 -0.0037410553211642342 -0.002797452659545771 0 -0.0046935385993236477 -0.0037131559807680251 0 -0.0029788358704580312 -0.0041542408391073487 0 -0.0046935385993236477 -0.0037131559807680251 0 -0.0047884141243540648 -0.005196921738205006 0 -0.001188828892735877 -0.0030737227480865572 0 -0.0021475229274425874 -0.0033484763892156571 0 -0.0046935385993236477 -0.0037131559807680251 0 -0.0060114573526257259 -0.0045372151942315673 0 -0.0047884141243540648 -0.005196921738205006 0 -0.0046935385993236477 -0.0037131559807680251 0 -0.0060114573526257259 -0.0045372151942315673 0 -0.0059252824973537637 -0.0031023251887391232 0 -0.004633641805326905 -0.0021093226775826214 0 -0.0046935385993236477 -0.0037131559807680251 0 -0.0059252824973537637 -0.0031023251887391232 0 -0.004633641805326905 -0.0021093226775826214 0 -0.0059252824973537637 -0.0031023251887391232 0 -0.0055583685028016824 -0.0012097172248837888 0 -0.0059252824973537637 -0.0031023251887391232 0 -0.0072053045283048209 -0.0025607547647071246 0 -0.0055583685028016824 -0.0012097172248837888 0 -0.0059252824973537637 -0.0031023251887391232 0 -0.0072053045283048209 -0.0025607547647071246 0 -0.0075181883802531956 -0.0045659556178764358 0 -0.0060114573526257259 -0.0045372151942315673 0 -0.0059252824973537637 -0.0031023251887391232 0 -0.0075181883802531956 -0.0045659556178764358 0 -0.0030690134338901701 -0.0057898208072724461 0 -0.0035879491887546165 -0.0068330810321463337 0 -0.004367700407134285 -0.0054974312352212128 0 -0.0040316904965358022 -0.0045803649568580095 0 -0.0033301786375305137 -0.0035430138870876635 0 -0.0060114573526257259 -0.0045372151942315673 0 -0.0075181883802531956 -0.0045659556178764358 0 -0.0065730205220605395 -0.0061853719396369865 0 -0.0041177698443017816 -0.0052725001250560379 0 -0.0049212160838829492 -0.0038375958240279531 0 -0.0038565017214602887 -0.0041859292647002961 0 -0.0024375888249289798 -0.0044267725255936717 0 -0.0041177698443017816 -0.0052725001250560379 0 -0.0038565017214602887 -0.0041859292647002961 0 -0.0033301786375305137 -0.0035430138870876635 0 -0.0019880378390981501 -0.0026540171249518981 0 0.001247737715047528 -0.0019918678441134918 0 0.00099350655151806593 -0.0018785817788589654 0 0.0010990374489205431 -0.0017200524378294857 0 0.001247737715047528 -0.0019918678441134918 0 0.0010108110068383436 -0.002130780149851884 0 0.00099350655151806593 -0.0018785817788589654 0 -0.0033301786375305137 -0.0035430138870876635 0 -0.0021475229274425874 -0.0033484763892156571 0 -0.0060114573526257259 -0.0045372151942315673 0 -0.0065730205220605395 -0.0061853719396369865 0 -0.0047884141243540648 -0.005196921738205006 0 0.0010108110068383436 -0.002130780149851884 0 0.00084151597440729978 -0.0020117382267745339 0 0.00099350655151806593 -0.0018785817788589654 0 0.00076050716454363133 -0.0022794799023232535 0 0.0010108110068383436 -0.002130780149851884 0 0.00084151597440729978 -0.0020117382267745339 0 0.00084151597440729978 -0.0020117382267745339 0 0.00099350655151806593 -0.0018785817788589654 0 0.00084665863000129183 -0.0017915608256602927 0 0.00084665863000129183 -0.0017915608256602927 0 0.00063476914388815885 -0.0019349378827726287 0 0.00071401446453203102 -0.0016531575024480443 0 0.00079006534340377336 -0.001823547019513662 0 0.0013568567515941004 -0.0010609468591920249 0 0.00080311269461261204 -0.0015474193943356509 0 0.00080898112717703362 -0.0018080581391575555 0 0.0010336011175941511 -0.00098141690899077754 0 0.00084151597440729978 -0.0020117382267745339 0 0.00084665863000129183 -0.0017915608256602927 0 0.00063476914388815885 -0.0019349378827726287 0 0.00067653391291279375 -0.0021475781924068815 0 0.00080311269461261204 -0.0015474193943356509 0 0.00080898112717703362 -0.0018080581391575555 0 0.00084151597440729978 -0.0020117382267745339 0 0.00063476914388815885 -0.0019349378827726287 0 0.00069872119186634304 -0.0021166740647805106 0 0.00076050716454363133 -0.0022794799023232535 0 0.00084151597440729978 -0.0020117382267745339 0 0.00069872119186634304 -0.0021166740647805106 0 0.00054315043840206829 -0.0022522379348625726 0 0.00063476914388815885 -0.0019349378827726287 0 0.00069872119186634304 -0.0021166740647805106 0 0.0027578396635950958 0.0013431323632876197 0 0.0020565982807761837 0.0017874435031875382 0 0.0021399761205938735 0.0022040058272556036 0 0.00080323691861223243 -0.001495766561114602 0 0.0008284967132809178 -0.0014937587843765236 0 0.00084130805710629607 -0.001393298389366937 0 0.0008284967132809178 -0.0014937587843765236 0 0.00076914454822873555 -0.0016374117641356691 0 0.00091659114312878781 -0.0016456381766690831 0 0.0014107653405595999 -0.0010574071653078774 0 0.001499462993138407 -0.00086227313945887207 0 0.0008284967132809178 -0.0014937587843765236 0 0.00079586095964858533 -0.00154692493639799 0 0.00080900434208349499 -0.0015649883284385593 0 0.00080323691861223243 -0.001495766561114602 0 0.0008284967132809178 -0.0014937587843765236 0 0.00079586095964858533 -0.00154692493639799 0 0.0021936589175328 -0.00029931349943139592 0 0.0017340847775631774 -0.00059489707747628943 0 0.0014048295378343764 -0.0013220490334020158 0 0.0015009075289331105 -0.00084802951027644592 0 0.0015371053412653402 -0.00099153188575969685 0 0.0010904438272041125 -0.0014119701050776413 0 0.0017340847775631774 -0.00059489707747628943 0 0.0015009075289331105 -0.00084802951027644592 0 0.0015371053412653402 -0.00099153188575969685 0 0.0015546574879294456 -0.00092514653838328398 0 0.0017340847775631774 -0.00059489707747628943 0 0.001499462993138407 -0.00086227313945887207 0 0.0013568567515941004 -0.0010609468591920249 0 0.001499462993138407 -0.00086227313945887207 0 0.0010904438272041125 -0.0014119701050776413 0 0.0013568567515941004 -0.0010609468591920249 0 0.00084665863000129183 -0.0017915608256602927 0 0.00071401446453203102 -0.0016531575024480443 0 0.00072475611518871513 -0.0016136259360920002 0 0.0014762897606643152 -0.0010107626600102907 0 0.001499462993138407 -0.00086227313945887207 0 0.00091659114312878781 -0.0016456381766690831 0 0.00095633422591091225 -0.0014756137859172716 0 0.0010990374489205431 -0.0017200524378294857 0 0.00099350655151806593 -0.0018785817788589654 0 0.00084665863000129183 -0.0017915608256602927 0 0.00091659114312878781 -0.0016456381766690831 0 0.00099350655151806593 -0.0018785817788589654 0 0.00091659114312878781 -0.0016456381766690831 0 0.0010990374489205431 -0.0017200524378294857 0 0.00084665863000129183 -0.0017915608256602927 0 0.00076914454822873555 -0.0016374117641356691 0 0.00091659114312878781 -0.0016456381766690831 0 0.0008284967132809178 -0.0014937587843765236 0 0.00091659114312878781 -0.0016456381766690831 0 0.00095633422591091225 -0.0014756137859172716 0 0.0008284967132809178 -0.0014937587843765236 0 0.00095633422591091225 -0.0014756137859172716 0 0.00084130805710629607 -0.001393298389366937 0 -0.00088779224786489429 -0.0013492188261709178 0 -0.0019880378390981501 -0.0026540171249518981 0 -0.0057055268833982511 -0.0023557561660514938 0 -0.0046599914278149376 -0.0027431648185314004 0 -0.0042265662489543113 -0.0017298189545487321 0 -0.0057055268833982511 -0.0023557561660514938 0 -0.0046599914278149376 -0.0027431648185314004 0 -0.0049212160838829492 -0.0038375958240279531 0 -0.0046599914278149376 -0.0027431648185314004 0 -0.0049212160838829492 -0.0038375958240279531 0 -0.003795217234640557 -0.0030463694717815493 0 -0.0049212160838829492 -0.0038375958240279531 0 -0.0038565017214602887 -0.0041859292647002961 0 -0.003795217234640557 -0.0030463694717815493 0 -0.003795217234640557 -0.0030463694717815493 0 -0.0042265662489543113 -0.0017298189545487321 0 -0.0024879703589128642 -0.0023620413098918791 0 -0.0046599914278149376 -0.0027431648185314004 0 -0.003795217234640557 -0.0030463694717815493 0 -0.0042265662489543113 -0.0017298189545487321 0 -0.0026885254261591177 -0.0015802621067205615 0 -0.0018398274242506934 -0.0011650533886933662 0 -0.004436501011337397 -0.00023336467700385791 0 -0.0027659842717963341 -0.00063133834065236152 0 -0.0032282682416378303 0.00075885826559546809 0 -0.0042265662489543113 -0.0017298189545487321 0 -0.004436501011337397 -0.00023336467700385791 0 -0.0027659842717963341 -0.00063133834065236152 0 -0.004436501011337397 -0.00023336467700385791 0 -0.0053041046005981984 -0.0011567124384682386 0 -0.0055223508535192905 -0.0003124795969832198 0 -0.004436501011337397 -0.00023336467700385791 0 -0.0055223508535192905 -0.0003124795969832198 0 -0.0052386366180855303 0.00044521903369744979 0 -0.0057055268833982511 -0.0023557561660514938 0 -0.0042265662489543113 -0.0017298189545487321 0 -0.0053041046005981984 -0.0011567124384682386 0 -0.0042265662489543113 -0.0017298189545487321 0 -0.004436501011337397 -0.00023336467700385791 0 -0.0053041046005981984 -0.0011567124384682386 0 0.00095633422591091225 -0.0014756137859172716 0 0.00086799756188204623 -0.0013275297863763818 0 0.00084130805710629607 -0.001393298389366937 0 -0.00088779224786489429 -0.0013492188261709178 0 0.0013263655692511388 -0.00021339155922832495 0 -0.0057055268833982511 -0.0023557561660514938 0 -0.0053041046005981984 -0.0011567124384682386 0 -0.0065042548927185381 -0.0008637759514975987 0 -0.0055223508535192905 -0.0003124795969832198 0 -0.0065042548927185381 -0.0008637759514975987 0 -0.0060750490119209147 0.00022794536939366348 0 -0.0053041046005981984 -0.0011567124384682386 0 -0.0055223508535192905 -0.0003124795969832198 0 -0.0065042548927185381 -0.0008637759514975987 0 0.00082623789259103663 -0.0012528509650888433 0 0.0008377255189517493 -0.0012925133041593055 0 0.00081732436941431882 -0.0013420834040976249 0 0.0013263655692511388 -0.00021339155922832495 0 0.007476397889800937 -0.0014015419871473657 0 0.00086799756188204623 -0.0013275297863763818 0 0.0008377255189517493 -0.0012925133041593055 0 0.00083951743700485767 -0.001248634167255487 0 -0.0065042548927185381 -0.0008637759514975987 0 -0.0073072686777312032 0.00062209571234112773 0 -0.0060750490119209147 0.00022794536939366348 0 0.00086799756188204623 -0.0013275297863763818 0 0.0008377255189517493 -0.0012925133041593055 0 0.00081732436941431882 -0.0013420834040976249 0 0.0027578396635950958 0.0013431323632876197 0 0.0020565982807761837 0.0017874435031875382 0 0.002286625107390547 0.00078532477565415994 0 0.00082624847145293119 -0.0014537219884778784 0 0.00081732436941431882 -0.0013420834040976249 0 0.00084130805710629607 -0.001393298389366937 0 0.0021936589175328 -0.00029931349943139592 0 0.0041294612445557481 -0.00035411027298578083 0 0.00086799756188204623 -0.0013275297863763818 0 0.00081732436941431882 -0.0013420834040976249 0 0.00084130805710629607 -0.001393298389366937 0 0.0021936589175328 -0.00029931349943139592 0 0.0020541305904032041 -0.0006074952798439463 0 -0.00087151395717531826 -0.0036069647503689469 0 -0.0024879703589128642 -0.0023620413098918791 0 -0.00038071495828631184 -0.0018133928005155384 0 0.00088686268429556182 -0.0032277575737253675 0 0.0010174959873985923 -0.001917652886664209 0 -0.00038071495828631184 -0.0018133928005155384 0 0.00088686268429556182 -0.0032277575737253675 0 -0.00087151395717531826 -0.0036069647503689469 0 -0.00038071495828631184 -0.0018133928005155384 0 0.00088686268429556182 -0.0032277575737253675 0 0.0004438556835365442 -0.0047181215972564522 0 -0.00087151395717531826 -0.0036069647503689469 0 -0.0024375888249289798 -0.0044267725255936717 0 -0.00087151395717531826 -0.0036069647503689469 0 -0.0024879703589128642 -0.0023620413098918791 0 -0.0024375888249289798 -0.0044267725255936717 0 -0.003795217234640557 -0.0030463694717815493 0 -0.0024879703589128642 -0.0023620413098918791 0 -0.0024375888249289798 -0.0044267725255936717 0 -0.0038565017214602887 -0.0041859292647002961 0 -0.003795217234640557 -0.0030463694717815493 0 -0.0024879703589128642 -0.0023620413098918791 0 -0.001624343742381336 -0.0008148180140259407 0 -0.00038071495828631184 -0.0018133928005155384 0 -0.0042265662489543113 -0.0017298189545487321 0 -0.0024879703589128642 -0.0023620413098918791 0 -0.003076430521764591 -0.00053860670722194416 0 -0.0024879703589128642 -0.0023620413098918791 0 -0.003076430521764591 -0.00053860670722194416 0 -0.001624343742381336 -0.0008148180140259407 0 -0.0018398274242506934 -0.0011650533886933662 0 0.00024611337526665895 -0.00050144497546445485 0 -0.003076430521764591 -0.00053860670722194416 0 -0.001624343742381336 -0.0008148180140259407 0 -0.0017862870089767444 0.00071308452878292002 0 -0.001624343742381336 -0.0008148180140259407 0 -0.00036561450288759149 -4.2828969457245754e-05 0 -0.0017862870089767444 0.00071308452878292002 0 -0.001624343742381336 -0.0008148180140259407 0 -0.00036561450288759149 -4.2828969457245754e-05 0 -0.00038071495828631184 -0.0018133928005155384 0 0.00094773796774681371 -0.00091025622518948915 0 -0.00036561450288759149 -4.2828969457245754e-05 0 -0.00038071495828631184 -0.0018133928005155384 0 0.0010174959873985923 -0.001917652886664209 0 0.00094773796774681371 -0.00091025622518948915 0 -0.00038071495828631184 -0.0018133928005155384 0 0.00094773796774681371 -0.00091025622518948915 0 -0.00036561450288759149 -4.2828969457245754e-05 0 0.001182143642642321 0.00069417596655326277 0 -0.00036561450288759149 -4.2828969457245754e-05 0 -0.00045652588071904907 0.0018929739074060945 0 0.001182143642642321 0.00069417596655326277 0 0.0044097598405897958 0.00050598176857703076 0 0.00592975926462346 -0.00065481522988378106 0 0.010657344421781614 -0.0022961861841605483 0 0.010642754349743195 -0.0023070398245885614 0 0.010808286508852547 -0.0023861623690025731 0 0.010742689271779248 -0.0022757121068052552 0 0.010657344421781614 -0.0022961861841605483 0 0.010808286508852547 -0.0023861623690025731 0 0.010742689271779248 -0.0022757121068052552 0 0.010657344421781614 -0.0022961861841605483 0 0.010675096027957971 -0.0022580783153278612 0 0.01063456703550749 -0.0022712591312105583 0 0.01063813906955666 -0.0023117729284617161 0 0.010588096963092984 -0.0022405129974102508 0 0.010651516305220919 -0.002265627236729577 0 0.010657344421781614 -0.0022961861841605483 0 0.010675096027957971 -0.0022580783153278612 0 0.01063456703550749 -0.0022712591312105583 0 0.010651516305220919 -0.002265627236729577 0 0.010657344421781614 -0.0022961861841605483 0 0.01063456703550749 -0.0022712591312105583 0 0.010657344421781614 -0.0022961861841605483 0 0.01063813906955666 -0.0023117729284617161 0 0.0044523666001692729 0.00051534374274627098 0 0.0044097598405897958 0.00050598176857703076 0 -0.00036561450288759149 -4.2828969457245754e-05 0 -0.00045652588071904907 0.0018929739074060945 0 -0.0017862870089767444 0.00071308452878292002 0 0.0044097598405897958 0.00050598176857703076 0 0.00024611337526665895 -0.00050144497546445485 0 -0.0013382483885960117 0.000534406511453973 0 -0.0022808363015560137 0.0016706333967682937 0 -0.0032282682416378303 0.00075885826559546809 0 -0.0027659842717963341 -0.00063133834065236152 0 -0.0013382483885960117 0.000534406511453973 0 -0.0032282682416378303 0.00075885826559546809 0 -0.0022808363015560137 0.0016706333967682937 0 -0.0015771490574741764 0.0029968732591480031 0 -0.0035846709256330358 0.0021945534564874938 0 -0.0022808363015560137 0.0016706333967682937 0 -0.0032282682416378303 0.00075885826559546809 0 -0.0035846709256330358 0.0021945534564874938 0 -0.0022808363015560137 0.0016706333967682937 0 -0.0013225523185844523 0.0017493267678856722 0 -0.0015771490574741764 0.0029968732591480031 0 7.8938881264652434e-05 0.0017381060120746509 0 -0.0013382483885960117 0.000534406511453973 0 -0.0013225523185844523 0.0017493267678856722 0 7.8938881264652434e-05 0.0017381060120746509 0 -0.0013225523185844523 0.0017493267678856722 0 -0.0015771490574741764 0.0029968732591480031 0 -0.0013382483885960117 0.000534406511453973 0 -0.0022808363015560137 0.0016706333967682937 0 -0.0013225523185844523 0.0017493267678856722 0 0.010072001706619678 -0.00036629737198904842 0 0.012661778098203048 -0.00036190844367416813 0 0.010478191899640804 -0.0021959913625053933 0 0.010588096963092984 -0.0022405129974102508 0 0.010594114235098024 -0.0021520042332654043 0 0.019900982897914622 0.0014195501070469211 0 0.020944769211303671 0.00064712376662158012 0 0.021912575538660526 0.0011449149139200526 0 0.019900982897914622 0.0014195501070469211 0 0.022034210014257698 0.0022271805543863628 0 0.021912575538660526 0.0011449149139200526 0 0.010072001706619678 -0.00036629737198904842 0 0.0098874407172182856 0.00051569672372272178 0 0.010072001706619678 -0.00036629737198904842 0 0.012569114067136218 -0.0013240178878527594 0 0.020944769211303671 0.00064712376662158012 0 0.019776088911423712 0.0001593550262605215 0 0.021301503079489355 -0.00050843958499378688 0 0.019945414893999102 0.0014225924205442404 0 0.020944769211303671 0.00064712376662158012 0 0.019776088911423712 0.0001593550262605215 0 0.019945414893999102 0.0014225924205442404 0 0.019776088911423712 0.0001593550262605215 0 0.018767543573480053 0.00097695982139124919 0 0.019776088911423712 0.0001593550262605215 0 0.018767543573480053 0.00097695982139124919 0 0.018400684475832336 -0.00032084640669821553 0 0.017608907934759322 0.00053359486079892842 0 0.018767543573480053 0.00097695982139124919 0 0.018400684475832336 -0.00032084640669821553 0 0.013401487035625487 -0.00084191496311258429 0 0.012661778098203048 -0.00036190844367416813 0 0.013401487035625487 -0.00084191496311258429 0 0.01422790225042376 -0.0011828836400216908 0 0.017463081897028842 0.00071211698876265004 0 0.017185881793515809 -0.0010356245040450986 0 0.015670757592755272 6.9063824771657257e-06 0 0.013401487035625487 -0.00084191496311258429 0 0.013655994525075309 -0.00079310724618846299 0 0.010742689271779248 -0.0022757121068052552 0 0.010683652145029462 -0.0022085314891244294 0 0.010819675810065694 -0.0022755257567686578 0 0.010705626282887926 -0.0021141434448256119 0 0.010683652145029462 -0.0022085314891244294 0 0.010819675810065694 -0.0022755257567686578 0 0.013401487035625487 -0.00084191496311258429 0 0.012172287268762263 -0.0017288529521223555 0 0.010742689271779248 -0.0022757121068052552 0 0.010683652145029462 -0.0022085314891244294 0 0.010675096027957971 -0.0022580783153278612 0 0.010683652145029462 -0.0022085314891244294 0 0.010675096027957971 -0.0022580783153278612 0 0.010639266186984587 -0.0022362655759786045 0 0.0044097598405897958 0.00050598176857703076 0 0.010072001706619678 -0.00036629737198904842 0 0.01063813906955666 -0.0023117729284617161 0 0.010478191899640804 -0.0021959913625053933 0 0.010588096963092984 -0.0022405129974102508 0 0.010651516305220919 -0.002265627236729577 0 0.010675096027957971 -0.0022580783153278612 0 0.010639266186984587 -0.0022362655759786045 0 0.01063456703550749 -0.0022712591312105583 0 0.010651516305220919 -0.002265627236729577 0 0.010639266186984587 -0.0022362655759786045 0 0.01063456703550749 -0.0022712591312105583 0 0.010639266186984587 -0.0022362655759786045 0 0.010588096963092984 -0.0022405129974102508 0 0.010639266186984587 -0.0022362655759786045 0 0.010588096963092984 -0.0022405129974102508 0 0.010594114235098024 -0.0021520042332654043 0 0.010705626282887926 -0.0021141434448256119 0 0.010683652145029462 -0.0022085314891244294 0 0.010594114235098024 -0.0021520042332654043 0 0.010683652145029462 -0.0022085314891244294 0 0.010639266186984587 -0.0022362655759786045 0 0.010594114235098024 -0.0021520042332654043 0 0.026966971172637119 0.0022923975707969612 0 0.02615493500779582 0.0023395976816132738 0 0.025456975486578208 0.0035143986895277354 0 0.011891068857264271 -0.0014573693098603418 0 0.010648188582750366 -0.00090110114228414829 0 0.025557058766576008 0.0022989875540941401 0 0.025456975486578208 0.0035143986895277354 0 0.024684021157484474 0.0022450332906413656 0 0.02615493500779582 0.0023395976816132738 0 0.025557058766576008 0.0022989875540941401 0 0.026062807797989876 0.0017685268847655541 0 0.02615493500779582 0.0023395976816132738 0 0.025557058766576008 0.0022989875540941401 0 0.025456975486578208 0.0035143986895277354 0 0.010486813444065374 -0.00073246673662333316 0 0.0097740913327694495 0.00051692540511289863 0 0.0086858650814728988 9.3053462661259447e-05 0 -0.0073072686777312032 0.00062209571234112773 0 -0.0066086329722178962 0.00090499174409002349 0 -0.0060750490119209147 0.00022794536939366348 0 0.007476397889800937 -0.0014015419871473657 0 0.010648188582750366 -0.00090110114228414829 0 0.00082623789259103663 -0.0012528509650888433 0 0.0008377255189517493 -0.0012925133041593055 0 0.00083951743700485767 -0.001248634167255487 0 -0.0060750490119209147 0.00022794536939366348 0 -0.0055047403950685952 0.0013802229063746428 0 -0.0052386366180855303 0.00044521903369744979 0 -0.0066086329722178962 0.00090499174409002349 0 -0.0060750490119209147 0.00022794536939366348 0 -0.0055047403950685952 0.0013802229063746428 0 -0.0055223508535192905 -0.0003124795969832198 0 -0.0060750490119209147 0.00022794536939366348 0 -0.0052386366180855303 0.00044521903369744979 0 0.010648188582750366 -0.00090110114228414829 0 0.010179074402140815 8.3212323142473177e-05 0 0.024168883617949562 0.0030212414302586534 0 0.024684021157484474 0.0022450332906413656 0 0.023672102152122728 0.0014993173654815136 0 0.025456975486578208 0.0035143986895277354 0 0.024168883617949562 0.0030212414302586534 0 0.024684021157484474 0.0022450332906413656 0 0.010179074402140815 8.3212323142473177e-05 0 0.0098874407172182856 0.00051569672372272178 0 -0.0055047403950685952 0.0013802229063746428 0 -0.0044096171648438705 0.0009121211948532864 0 -0.0035846709256330358 0.0021945534564874938 0 0.024168883617949562 0.0030212414302586534 0 0.022034210014257698 0.0022271805543863628 0 0.023672102152122728 0.0014993173654815136 0 -0.0055047403950685952 0.0013802229063746428 0 -0.0044096171648438705 0.0009121211948532864 0 -0.0052386366180855303 0.00044521903369744979 0 -0.004436501011337397 -0.00023336467700385791 0 -0.0044096171648438705 0.0009121211948532864 0 -0.0052386366180855303 0.00044521903369744979 0 -0.004436501011337397 -0.00023336467700385791 0 -0.0044096171648438705 0.0009121211948532864 0 -0.0032282682416378303 0.00075885826559546809 0 -0.0044096171648438705 0.0009121211948532864 0 -0.0032282682416378303 0.00075885826559546809 0 -0.0035846709256330358 0.0021945534564874938 0 0.021912575538660526 0.0011449149139200526 0 0.022607597155459975 0.00028732443510239778 0 0.023672102152122728 0.0014993173654815136 0 0.022034210014257698 0.0022271805543863628 0 0.021912575538660526 0.0011449149139200526 0 0.023672102152122728 0.0014993173654815136 0 0.020944769211303671 0.00064712376662158012 0 0.021912575538660526 0.0011449149139200526 0 0.022607597155459975 0.00028732443510239778 0 0.020944769211303671 0.00064712376662158012 0 0.022607597155459975 0.00028732443510239778 0 0.021301503079489355 -0.00050843958499378688 0 0.022607597155459975 0.00028732443510239778 0 0.02384509083429304 0.0003844433102772228 0 0.023672102152122728 0.0014993173654815136 0 0.022607597155459975 0.00028732443510239778 0 0.023195304138209003 -0.00043139397394059237 0 0.022437220853275354 -0.00067576091079991907 0 0.022607597155459975 0.00028732443510239778 0 0.02384509083429304 0.0003844433102772228 0 0.023195304138209003 -0.00043139397394059237 0 0.02384509083429304 0.0003844433102772228 0 0.024122985422837227 -0.00068623948745483534 0 0.023195304138209003 -0.00043139397394059237 0 0.024684021157484474 0.0022450332906413656 0 0.023672102152122728 0.0014993173654815136 0 0.024516210323239741 0.0011209696454713678 0 0.024684021157484474 0.0022450332906413656 0 0.024516210323239741 0.0011209696454713678 0 0.025307282458528774 0.0015394174929480276 0 0.025557058766576008 0.0022989875540941401 0 0.024684021157484474 0.0022450332906413656 0 0.025307282458528774 0.0015394174929480276 0 0.024516210323239741 0.0011209696454713678 0 0.024964617879319331 0.00040302512496797314 0 0.025307282458528774 0.0015394174929480276 0 0.02384509083429304 0.0003844433102772228 0 0.023672102152122728 0.0014993173654815136 0 0.024516210323239741 0.0011209696454713678 0 0.02384509083429304 0.0003844433102772228 0 0.024516210323239741 0.0011209696454713678 0 0.024964617879319331 0.00040302512496797314 0 0.02384509083429304 0.0003844433102772228 0 0.024964617879319331 0.00040302512496797314 0 0.024122985422837227 -0.00068623948745483534 0 0.024964617879319331 0.00040302512496797314 0 0.02576948071912312 0.00017489097781210266 0 0.025189162263342085 -0.00088697880998472856 0 0.024964617879319331 0.00040302512496797314 0 0.02576948071912312 0.00017489097781210266 0 0.025888818724174888 0.0010353394058106814 0 0.026472920544837113 0.00045939731236777282 0 0.02576948071912312 0.00017489097781210266 0 0.026257409548832437 -0.00046683206698845453 0 0.026472920544837113 0.00045939731236777282 0 0.02576948071912312 0.00017489097781210266 0 0.025888818724174888 0.0010353394058106814 0 0.026566639802905485 0.0012195464078765229 0 0.026472920544837113 0.00045939731236777282 0 0.025888818724174888 0.0010353394058106814 0 0.026566639802905485 0.0012195464078765229 0 0.025888818724174888 0.0010353394058106814 0 0.026062807797989876 0.0017685268847655541 0 0.024964617879319331 0.00040302512496797314 0 0.025888818724174888 0.0010353394058106814 0 0.025307282458528774 0.0015394174929480276 0 0.025888818724174888 0.0010353394058106814 0 0.025307282458528774 0.0015394174929480276 0 0.026062807797989876 0.0017685268847655541 0 0.025557058766576008 0.0022989875540941401 0 0.025307282458528774 0.0015394174929480276 0 0.026062807797989876 0.0017685268847655541 0 0.026625555365010746 0.0018247848646427696 0 0.02615493500779582 0.0023395976816132738 0 0.026062807797989876 0.0017685268847655541 0 0.025992664800617984 -0.0017909278823664747 0 0.025189162263342085 -0.00088697880998472856 0 0.024964273548780877 -0.0022547055737697367 0 0.027026149365786824 -0.0025018483144900595 0 0.025992664800617984 -0.0017909278823664747 0 0.025688452359530784 -0.0034720943988124993 0 0.025992664800617984 -0.0017909278823664747 0 0.024964273548780877 -0.0022547055737697367 0 0.025688452359530784 -0.0034720943988124993 0 0.025992664800617984 -0.0017909278823664747 0 0.026257409548832437 -0.00046683206698845453 0 0.025189162263342085 -0.00088697880998472856 0 0.02576948071912312 0.00017489097781210266 0 0.026257409548832437 -0.00046683206698845453 0 0.025189162263342085 -0.00088697880998472856 0 0.024964617879319331 0.00040302512496797314 0 0.025189162263342085 -0.00088697880998472856 0 0.024122985422837227 -0.00068623948745483534 0 0.025189162263342085 -0.00088697880998472856 0 0.024122985422837227 -0.00068623948745483534 0 0.024230452972314409 -0.0016753560733101947 0 0.024964273548780877 -0.0022547055737697367 0 0.024230452972314409 -0.0016753560733101947 0 0.02381324936772351 -0.0033085227979237574 0 0.025189162263342085 -0.00088697880998472856 0 0.024964273548780877 -0.0022547055737697367 0 0.024230452972314409 -0.0016753560733101947 0 0.024354619490833205 -0.00027506061965312968 0 0.022869531334036415 -0.001478862001710332 0 0.024775821788061841 -0.0024273897817584187 0 0.023554677807397374 -0.00187471259230008 0 0.024101045685293081 -0.0030227004839028706 0 0.024230452972314409 -0.0016753560733101947 0 0.023310710093480104 -0.0014603013922223696 0 0.02381324936772351 -0.0033085227979237574 0 0.024122985422837227 -0.00068623948745483534 0 0.024230452972314409 -0.0016753560733101947 0 0.023310710093480104 -0.0014603013922223696 0 0.0237306142601434 -0.0016649004034455723 0 0.023554677807397374 -0.00187471259230008 0 0.024122985422837227 -0.00068623948745483534 0 0.023195304138209003 -0.00043139397394059237 0 0.023077788970553077 -0.0013911992176144946 0 0.023195304138209003 -0.00043139397394059237 0 0.023077788970553077 -0.0013911992176144946 0 0.022437220853275354 -0.00067576091079991907 0 0.022607597155459975 0.00028732443510239778 0 0.022437220853275354 -0.00067576091079991907 0 0.021301503079489355 -0.00050843958499378688 0 0.023077788970553077 -0.0013911992176144946 0 0.022437220853275354 -0.00067576091079991907 0 0.022098961282907986 -0.0013692975586211897 0 0.022437220853275354 -0.00067576091079991907 0 0.022098961282907986 -0.0013692975586211897 0 0.021301503079489355 -0.00050843958499378688 0 0.023554677807397374 -0.00187471259230008 0 0.022476107062572696 -0.0023029451696929301 0 0.022098961282907986 -0.0013692975586211897 0 0.021718472253322147 -0.0023512402218760129 0 0.021103422795077209 -0.001482608819430466 0 0.023077788970553077 -0.0013911992176144946 0 0.022098961282907986 -0.0013692975586211897 0 0.021718472253322147 -0.0023512402218760129 0 0.022869531334036415 -0.001478862001710332 0 0.023395648677140501 -0.0032080815783116908 0 0.024775821788061841 -0.0024273897817584187 0 0.023395648677140501 -0.0032080815783116908 0 0.025159097760904359 -0.004561429885685136 0 0.022734074743876322 -0.0048393107099449521 0 0.024101045685293081 -0.0030227004839028706 0 0.024625714533606968 -0.0047023003778630312 0 0.023395648677140501 -0.0032080815783116908 0 0.024775821788061841 -0.0024273897817584187 0 0.025159097760904359 -0.004561429885685136 0 0.024964273548780877 -0.0022547055737697367 0 0.02381324936772351 -0.0033085227979237574 0 0.025688452359530784 -0.0034720943988124993 0 0.02381324936772351 -0.0033085227979237574 0 0.025688452359530784 -0.0034720943988124993 0 0.024370550660976036 -0.0050863814049293748 0 0.025688452359530784 -0.0034720943988124993 0 0.026525395045703504 -0.0052822867004793349 0 0.024370550660976036 -0.0050863814049293748 0 0.027296325153329075 -0.0038386329764294042 0 0.025688452359530784 -0.0034720943988124993 0 0.026525395045703504 -0.0052822867004793349 0 0.018815454979905819 -0.0016891774233015273 0 0.01898804931600748 -0.0030577591448804932 0 0.017432071937597823 -0.0026423318154580699 0 0.018815454979905819 -0.0016891774233015273 0 0.017185881793515809 -0.0010356245040450986 0 0.017432071937597823 -0.0026423318154580699 0 0.017185881793515809 -0.0010356245040450986 0 0.017432071937597823 -0.0026423318154580699 0 0.015151517162887998 -0.0021032240266951503 0 0.017463081897028842 0.00071211698876265004 0 0.017185881793515809 -0.0010356245040450986 0 0.018400684475832336 -0.00032084640669821553 0 0.018815454979905819 -0.0016891774233015273 0 0.018400684475832336 -0.00032084640669821553 0 0.019331452762390591 -0.00066603835567625048 0 0.018815454979905819 -0.0016891774233015273 0 0.017185881793515809 -0.0010356245040450986 0 0.018400684475832336 -0.00032084640669821553 0 0.018815454979905819 -0.0016891774233015273 0 0.019331452762390591 -0.00066603835567625048 0 0.020206996263817077 -0.0010871435641945026 0 0.019776088911423712 0.0001593550262605215 0 0.018400684475832336 -0.00032084640669821553 0 0.019331452762390591 -0.00066603835567625048 0 0.019776088911423712 0.0001593550262605215 0 0.019331452762390591 -0.00066603835567625048 0 0.020206996263817077 -0.0010871435641945026 0 0.019776088911423712 0.0001593550262605215 0 0.020206996263817077 -0.0010871435641945026 0 0.021301503079489355 -0.00050843958499378688 0 0.020206996263817077 -0.0010871435641945026 0 0.021301503079489355 -0.00050843958499378688 0 0.021103422795077209 -0.001482608819430466 0 0.022098961282907986 -0.0013692975586211897 0 0.021301503079489355 -0.00050843958499378688 0 0.021103422795077209 -0.001482608819430466 0 0.021718472253322147 -0.0023512402218760129 0 0.021103422795077209 -0.001482608819430466 0 0.020206409310679092 -0.0021729097899632972 0 0.020206996263817077 -0.0010871435641945026 0 0.021103422795077209 -0.001482608819430466 0 0.020206409310679092 -0.0021729097899632972 0 0.018815454979905819 -0.0016891774233015273 0 0.020206409310679092 -0.0021729097899632972 0 0.01898804931600748 -0.0030577591448804932 0 0.018815454979905819 -0.0016891774233015273 0 0.020206996263817077 -0.0010871435641945026 0 0.020206409310679092 -0.0021729097899632972 0 0.020454547207555136 -0.0032812951428044571 0 0.019495007068440245 -0.0041014570163311467 0 0.01898804931600748 -0.0030577591448804932 0 0.020206409310679092 -0.0021729097899632972 0 0.020454547207555136 -0.0032812951428044571 0 0.01898804931600748 -0.0030577591448804932 0 0.021718472253322147 -0.0023512402218760129 0 0.020206409310679092 -0.0021729097899632972 0 0.020454547207555136 -0.0032812951428044571 0 0.022476107062572696 -0.0023029451696929301 0 0.021295363647534062 -0.0030393640403781285 0 0.022869531334036415 -0.001478862001710332 0 0.023395648677140501 -0.0032080815783116908 0 0.021330114513671526 -0.0026820737296394553 0 0.023395648677140501 -0.0032080815783116908 0 0.021330114513671526 -0.0026820737296394553 0 0.022734074743876322 -0.0048393107099449521 0 0.021330114513671526 -0.0026820737296394553 0 0.022734074743876322 -0.0048393107099449521 0 0.020931706233980205 -0.0051109241927992013 0 0.021295363647534062 -0.0030393640403781285 0 0.02066544374245612 -0.0034842060265404887 0 0.021330114513671526 -0.0026820737296394553 0 0.019495007068440245 -0.0041014570163311467 0 0.020931706233980205 -0.0051109241927992013 0 0.019495007068440245 -0.0041014570163311467 0 0.01898804931600748 -0.0030577591448804932 0 0.017640395285549192 -0.0042760702827015504 0 0.01898804931600748 -0.0030577591448804932 0 0.017432071937597823 -0.0026423318154580699 0 0.017640395285549192 -0.0042760702827015504 0 0.017432071937597823 -0.0026423318154580699 0 0.017640395285549192 -0.0042760702827015504 0 0.016251600753435201 -0.0034769409567421031 0 0.017640395285549192 -0.0042760702827015504 0 0.015636339492299756 -0.0048882032576732957 0 0.016251600753435201 -0.0034769409567421031 0 0.015636339492299756 -0.0048882032576732957 0 0.014915057989900397 -0.0035288434458988225 0 0.016251600753435201 -0.0034769409567421031 0 0.014319848843869833 -0.0044359402306622091 0 0.013700954093795891 -0.0052705821385124474 0 0.015636339492299756 -0.0048882032576732957 0 0.014915057989900397 -0.0035288434458988225 0 0.013976504946184553 -0.0051344679959107725 0 0.014915057989900397 -0.0035288434458988225 0 0.015151517162887998 -0.0021032240266951503 0 0.014273433611301097 -0.0024122377649860843 0 0.014915057989900397 -0.0035288434458988225 0 0.01369014256276033 -0.0027254696942904119 0 0.014273433611301097 -0.0024122377649860843 0 0.014915057989900397 -0.0035288434458988225 0 0.016251600753435201 -0.0034769409567421031 0 0.015151517162887998 -0.0021032240266951503 0 0.017432071937597823 -0.0026423318154580699 0 0.016251600753435201 -0.0034769409567421031 0 0.015151517162887998 -0.0021032240266951503 0 0.013045008032479467 -0.0037437035204942099 0 0.01162682355245296 -0.0045854098345928795 0 0.012422526567482219 -0.0055674785527008389 0 0.013045008032479467 -0.0037437035204942099 0 0.012422526567482219 -0.0055674785527008389 0 0.013562987873453001 -0.0052053923733023158 0 0.014915057989900397 -0.0035288434458988225 0 0.013045008032479467 -0.0037437035204942099 0 0.013562987873453001 -0.0052053923733023158 0 0.014915057989900397 -0.0035288434458988225 0 0.01369014256276033 -0.0027254696942904119 0 0.013045008032479467 -0.0037437035204942099 0 0.01369014256276033 -0.0027254696942904119 0 0.013045008032479467 -0.0037437035204942099 0 0.012854712380660866 -0.0027003788715092053 0 0.013045008032479467 -0.0037437035204942099 0 0.011994559405891544 -0.0024503833475959533 0 0.01162682355245296 -0.0045854098345928795 0 0.011211672415814479 -0.0045516361469109465 0 0.011517331980281535 -0.0053518300175773217 0 0.013045008032479467 -0.0037437035204942099 0 0.012854712380660866 -0.0027003788715092053 0 0.011994559405891544 -0.0024503833475959533 0 0.011080767499000211 -0.0042645714428528889 0 0.011797328498885928 -0.0043769155562325508 0 0.011211672415814479 -0.0045516361469109465 0 0.011797328498885928 -0.0043769155562325508 0 0.011418704571000485 -0.0044822418386895983 0 0.011430232051175502 -0.0044288821826212613 0 0.011333278636863196 -0.0044517539783041652 0 0.012854712380660866 -0.0027003788715092053 0 0.011994559405891544 -0.0024503833475959533 0 0.013463316407299241 -0.0020176917134435857 0 0.011080767499000211 -0.0042645714428528889 0 0.011211672415814479 -0.0045516361469109465 0 0.010050769841888064 -0.0052159250428751016 0 0.010008966211759503 -0.0054266016759869857 0 0.0098563670636150104 -0.005262212981351916 0 0.013096366109605403 -0.0016172005906808372 0 0.013463316407299241 -0.0020176917134435857 0 0.013331184145311134 -0.0014664164497787179 0 0.01369014256276033 -0.0027254696942904119 0 0.012854712380660866 -0.0027003788715092053 0 0.013463316407299241 -0.0020176917134435857 0 0.01369014256276033 -0.0027254696942904119 0 0.013463316407299241 -0.0020176917134435857 0 0.014273433611301097 -0.0024122377649860843 0 0.013463316407299241 -0.0020176917134435857 0 0.013331184145311134 -0.0014664164497787179 0 0.01384130913099158 -0.0017713585420152931 0 0.013463316407299241 -0.0020176917134435857 0 0.014273433611301097 -0.0024122377649860843 0 0.01384130913099158 -0.0017713585420152931 0 0.013331184145311134 -0.0014664164497787179 0 0.013117711240807853 -0.0016470571661303898 0 0.013317801987029929 -0.0015711243219695844 0 0.013331184145311134 -0.0014664164497787179 0 0.01343721395436521 -0.0011037977353678531 0 0.013117711240807853 -0.0016470571661303898 0 0.013331184145311134 -0.0014664164497787179 0 0.01384130913099158 -0.0017713585420152931 0 0.01343721395436521 -0.0011037977353678531 0 0.013096366109605403 -0.0016172005906808372 0 0.013331184145311134 -0.0014664164497787179 0 0.013317801987029929 -0.0015711243219695844 0 0.010608468300236032 -0.0053918751435795475 0 0.010755958017883259 -0.0047163330252878929 0 0.010260487963286843 -0.0048376434094846909 0 0.011080767499000211 -0.0042645714428528889 0 0.011488584826945401 -0.0034551161336753597 0 0.015151517162887998 -0.0021032240266951503 0 0.014273433611301097 -0.0024122377649860843 0 0.01384130913099158 -0.0017713585420152931 0 0.015151517162887998 -0.0021032240266951503 0 0.01384130913099158 -0.0017713585420152931 0 0.01343721395436521 -0.0011037977353678531 0 0.013605241601693812 -0.00083831675895331976 0 0.013655994525075309 -0.00079310724618846299 0 0.015151517162887998 -0.0021032240266951503 0 0.01343721395436521 -0.0011037977353678531 0 0.015670757592755272 6.9063824771657257e-06 0 0.017185881793515809 -0.0010356245040450986 0 0.015151517162887998 -0.0021032240266951503 0 0.015670757592755272 6.9063824771657257e-06 0 0.011942602383959784 -0.0015472472947981252 0 0.012546095401885385 -0.0020764941455160809 0 0.011982362891793653 -0.0027878125839270245 0 0.011130423704578242 -0.0018677118934764805 0 0.011942602383959784 -0.0015472472947981252 0 0.011982362891793653 -0.0027878125839270245 0 0.012330055185911551 -0.0026010213955566389 0 0.012546095401885385 -0.0020764941455160809 0 0.011982362891793653 -0.0027878125839270245 0 0.012330055185911551 -0.0026010213955566389 0 0.012643236148918491 -0.0023274941386217446 0 0.012392928850926247 -0.0027569321055954219 0 0.012330055185911551 -0.0026010213955566389 0 0.012546095401885385 -0.0020764941455160809 0 0.012643236148918491 -0.0023274941386217446 0 0.012546095401885385 -0.0020764941455160809 0 0.013117711240807853 -0.0016470571661303898 0 0.012643236148918491 -0.0023274941386217446 0 0.01343721395436521 -0.0011037977353678531 0 0.011942602383959784 -0.0015472472947981252 0 0.012546095401885385 -0.0020764941455160809 0 0.01343721395436521 -0.0011037977353678531 0 0.012546095401885385 -0.0020764941455160809 0 0.013117711240807853 -0.0016470571661303898 0 0.013117711240807853 -0.0016470571661303898 0 0.013317801987029929 -0.0015711243219695844 0 0.012994934220962108 -0.0021766290847615158 0 0.013117711240807853 -0.0016470571661303898 0 0.012643236148918491 -0.0023274941386217446 0 0.012994934220962108 -0.0021766290847615158 0 0.010755958017883259 -0.0047163330252878929 0 0.01059522991520199 -0.0042538837967123887 0 0.010905181571558254 -0.0040397908290660187 0 0.013317801987029929 -0.0015711243219695844 0 0.013170155584366133 -0.0023910953505618957 0 0.012994934220962108 -0.0021766290847615158 0 0.010755958017883259 -0.0047163330252878929 0 0.010265782269434063 -0.0043107491312962733 0 0.010260487963286843 -0.0048376434094846909 0 0.011488584826945401 -0.0034551161336753597 0 0.011616634130478618 -0.0031504014702817091 0 0.010755958017883259 -0.0047163330252878929 0 0.01059522991520199 -0.0042538837967123887 0 0.010265782269434063 -0.0043107491312962733 0 0.010905181571558254 -0.0040397908290660187 0 0.010453449440788208 -0.003948375788276821 0 0.010423066421778598 -0.0034413727929872235 0 0.01059522991520199 -0.0042538837967123887 0 0.010453449440788208 -0.003948375788276821 0 0.010265782269434063 -0.0043107491312962733 0 0.01059522991520199 -0.0042538837967123887 0 0.010905181571558254 -0.0040397908290660187 0 0.010453449440788208 -0.003948375788276821 0 0.012970987238407141 -0.002491150531708561 0 0.012599009690630894 -0.0026142682065444811 0 0.011904254464880935 -0.0031014278310028008 0 0.012643236148918491 -0.0023274941386217446 0 0.012994934220962108 -0.0021766290847615158 0 0.012599009690630894 -0.0026142682065444811 0 0.012970987238407141 -0.002491150531708561 0 0.012994934220962108 -0.0021766290847615158 0 0.012599009690630894 -0.0026142682065444811 0 0.011616634130478618 -0.0031504014702817091 0 0.011640819787149164 -0.0031310268447324692 0 0.012643236148918491 -0.0023274941386217446 0 0.012599009690630894 -0.0026142682065444811 0 0.012392928850926247 -0.0027569321055954219 0 0.011616634130478618 -0.0031504014702817091 0 0.011688639117522718 -0.0030142884879652914 0 0.011904254464880935 -0.0031014278310028008 0 0.011419446770445766 -0.0029051352867681189 0 0.012239850972930132 -0.0029135998143466251 0 0.012392928850926247 -0.0027569321055954219 0 0.011904254464880935 -0.0031014278310028008 0 0.012239850972930132 -0.0029135998143466251 0 0.012599009690630894 -0.0026142682065444811 0 0.012392928850926247 -0.0027569321055954219 0 0.011904254464880935 -0.0031014278310028008 0 0.011719717535724932 -0.0039578995271115523 0 0.011904254464880935 -0.0031014278310028008 0 0.010925679405575929 -0.0031684820585434537 0 0.011616634130478618 -0.0031504014702817091 0 0.010949149682319189 -0.0029902155500996534 0 0.011904254464880935 -0.0031014278310028008 0 0.011419446770445766 -0.0029051352867681189 0 0.010925679405575929 -0.0031684820585434537 0 0.010075206177900748 -0.0023987724231458413 0 0.010448256955056554 -0.002648109681841147 0 0.010642241454781281 -0.0023342539344339557 0 0.011419446770445766 -0.0029051352867681189 0 0.010804957646559192 -0.0028040800488764637 0 0.011419446770445766 -0.0029051352867681189 0 0.010804957646559192 -0.0028040800488764637 0 0.010925679405575929 -0.0031684820585434537 0 0.010565298012239724 -0.0023122673725913421 0 0.011419446770445766 -0.0029051352867681189 0 0.012150069336487433 -0.0028542577521454551 0 0.011419446770445766 -0.0029051352867681189 0 0.012150069336487433 -0.0028542577521454551 0 0.012239850972930132 -0.0029135998143466251 0 0.010874131930287826 -0.0023049663726041805 0 0.010855709405586203 -0.0023982501148976875 0 0.010808286508852547 -0.0023861623690025731 0 0.010855709405586203 -0.0023982501148976875 0 0.010808286508852547 -0.0023861623690025731 0 0.010819675810065694 -0.0022755257567686578 0 0.010742689271779248 -0.0022757121068052552 0 0.010808286508852547 -0.0023861623690025731 0 0.010819675810065694 -0.0022755257567686578 0 0.012150069336487433 -0.0028542577521454551 0 0.011982362891793653 -0.0027878125839270245 0 0.012239850972930132 -0.0029135998143466251 0 0.012330055185911551 -0.0026010213955566389 0 0.011982362891793653 -0.0027878125839270245 0 0.012239850972930132 -0.0029135998143466251 0 0.011732590585346822 -0.0021975805304850242 0 0.012172287268762263 -0.0017288529521223555 0 0.012330055185911551 -0.0026010213955566389 0 0.012392928850926247 -0.0027569321055954219 0 0.012239850972930132 -0.0029135998143466251 0 0.0090284553433931398 -0.0034198941431391669 0 0.009380465308207922 -0.0036331495993570107 0 0.0091353478429271814 -0.0039702480294760362 0 0.0090284553433931398 -0.0034198941431391669 0 0.0093899151673362494 -0.0030600277424633047 0 0.009380465308207922 -0.0036331495993570107 0 0.0090284553433931398 -0.0034198941431391669 0 0.0087742673801700487 -0.003699017619857838 0 0.0091353478429271814 -0.0039702480294760362 0 0.0085621968127220539 -0.0032866264074604963 0 0.0084058544563204527 -0.0038530111227260671 0 0.0081585370582033662 -0.0035158022047221821 0 0.0087742673801700487 -0.003699017619857838 0 0.0085621968127220539 -0.0032866264074604963 0 0.0084058544563204527 -0.0038530111227260671 0 0.0090284553433931398 -0.0034198941431391669 0 0.0087742673801700487 -0.003699017619857838 0 0.0085621968127220539 -0.0032866264074604963 0 0.0087627766356609786 -0.0026859603843919838 0 0.0085621968127220539 -0.0032866264074604963 0 0.0081290069045360236 -0.002809122840887177 0 0.0085621968127220539 -0.0032866264074604963 0 0.0081290069045360236 -0.002809122840887177 0 0.0081585370582033662 -0.0035158022047221821 0 0.0087627766356609786 -0.0026859603843919838 0 0.0085621968127220539 -0.0032866264074604963 0 0.0090040386204055436 -0.0030489104361622827 0 0.0087627766356609786 -0.0026859603843919838 0 0.0092059677186152652 -0.0026406587677127781 0 0.0090040386204055436 -0.0030489104361622827 0 0.0090284553433931398 -0.0034198941431391669 0 0.0085621968127220539 -0.0032866264074604963 0 0.0090040386204055436 -0.0030489104361622827 0 0.0090284553433931398 -0.0034198941431391669 0 0.0090040386204055436 -0.0030489104361622827 0 0.0093899151673362494 -0.0030600277424633047 0 0.0092059677186152652 -0.0026406587677127781 0 0.0095264372831653336 -0.0027452964008609 0 0.0093899151673362494 -0.0030600277424633047 0 0.0092059677186152652 -0.0026406587677127781 0 0.0090040386204055436 -0.0030489104361622827 0 0.0093899151673362494 -0.0030600277424633047 0 0.0095264372831653336 -0.0027452964008609 0 0.0093899151673362494 -0.0030600277424633047 0 0.009931536180145327 -0.0028267814651591612 0 0.0093899151673362494 -0.0030600277424633047 0 0.009931536180145327 -0.0028267814651591612 0 0.0097613972259590828 -0.0034526880222533569 0 0.010371187865575584 -0.0026313663428930672 0 0.010949149682319189 -0.0029902155500996534 0 0.009931536180145327 -0.0028267814651591612 0 0.010423066421778598 -0.0034413727929872235 0 0.0097613972259590828 -0.0034526880222533569 0 0.010804957646559192 -0.0028040800488764637 0 0.010219145497497539 -0.0027665189628110739 0 0.010925679405575929 -0.0031684820585434537 0 0.010642241454781281 -0.0023342539344339557 0 0.010804957646559192 -0.0028040800488764637 0 0.010219145497497539 -0.0027665189628110739 0 0.010423066421778598 -0.0034413727929872235 0 0.0097613972259590828 -0.0034526880222533569 0 0.010089673097503369 -0.0038126962339857869 0 0.010453449440788208 -0.003948375788276821 0 0.010423066421778598 -0.0034413727929872235 0 0.010089673097503369 -0.0038126962339857869 0 0.009380465308207922 -0.0036331495993570107 0 0.0097613972259590828 -0.0034526880222533569 0 0.0097003628425440976 -0.0040532270323780095 0 0.0093899151673362494 -0.0030600277424633047 0 0.009380465308207922 -0.0036331495993570107 0 0.0097613972259590828 -0.0034526880222533569 0 0.0097613972259590828 -0.0034526880222533569 0 0.0097003628425440976 -0.0040532270323780095 0 0.010089673097503369 -0.0038126962339857869 0 0.009380465308207922 -0.0036331495993570107 0 0.0097003628425440976 -0.0040532270323780095 0 0.0091353478429271814 -0.0039702480294760362 0 0.0097003628425440976 -0.0040532270323780095 0 0.0093394636537910292 -0.0043935406519047373 0 0.0091353478429271814 -0.0039702480294760362 0 0.0097003628425440976 -0.0040532270323780095 0 0.010089673097503369 -0.0038126962339857869 0 0.010265782269434063 -0.0043107491312962733 0 0.010453449440788208 -0.003948375788276821 0 0.010089673097503369 -0.0038126962339857869 0 0.010265782269434063 -0.0043107491312962733 0 0.0097003628425440976 -0.0040532270323780095 0 0.010265782269434063 -0.0043107491312962733 0 0.0097830130806820549 -0.0046273344471256424 0 0.010265782269434063 -0.0043107491312962733 0 0.0097830130806820549 -0.0046273344471256424 0 0.010260487963286843 -0.0048376434094846909 0 0.0097830130806820549 -0.0046273344471256424 0 0.0093394636537910292 -0.0043935406519047373 0 0.0091609195645188674 -0.0048804163131234094 0 0.0097003628425440976 -0.0040532270323780095 0 0.0097830130806820549 -0.0046273344471256424 0 0.0093394636537910292 -0.0043935406519047373 0 0.0093394636537910292 -0.0043935406519047373 0 0.0088366392811147117 -0.0044537253347755037 0 0.0091609195645188674 -0.0048804163131234094 0 0.0091353478429271814 -0.0039702480294760362 0 0.0087408405608149272 -0.0040490102593519666 0 0.0088366392811147117 -0.0044537253347755037 0 0.0093394636537910292 -0.0043935406519047373 0 0.0091353478429271814 -0.0039702480294760362 0 0.0088366392811147117 -0.0044537253347755037 0 0.0087742673801700487 -0.003699017619857838 0 0.0091353478429271814 -0.0039702480294760362 0 0.0087408405608149272 -0.0040490102593519666 0 0.0084058544563204527 -0.0038530111227260671 0 0.008396641549434692 -0.0041831056789265152 0 0.0080293383562084659 -0.0040030551642410575 0 0.0084058544563204527 -0.0038530111227260671 0 0.0087408405608149272 -0.0040490102593519666 0 0.008396641549434692 -0.0041831056789265152 0 0.0087742673801700487 -0.003699017619857838 0 0.0084058544563204527 -0.0038530111227260671 0 0.0087408405608149272 -0.0040490102593519666 0 0.0087408405608149272 -0.0040490102593519666 0 0.008396641549434692 -0.0041831056789265152 0 0.0088366392811147117 -0.0044537253347755037 0 0.0088366392811147117 -0.0044537253347755037 0 0.0085249362656853473 -0.0046052120689594979 0 0.0091609195645188674 -0.0048804163131234094 0 0.0091167999858157798 -0.0044917365114452009 0 0.0094331185812553918 -0.0045293272003009023 0 0.0071372754716210775 -0.0050639288199608523 0 0.0056242981890124747 -0.0052086303749293746 0 0.0088366392811147117 -0.0044537253347755037 0 0.0085249362656853473 -0.0046052120689594979 0 0.0082090929208334783 -0.0044304552388785738 0 0.008396641549434692 -0.0041831056789265152 0 0.0088366392811147117 -0.0044537253347755037 0 0.0080072262891273931 -0.0045150538301885748 0 0.0085249362656853473 -0.0046052120689594979 0 0.0085582372996055624 -0.0048731053832573911 0 0.0092210344054315056 -0.0048484729229112278 0 0.0085249362656853473 -0.0046052120689594979 0 0.0085582372996055624 -0.0048731053832573911 0 0.0082347671224490479 -0.0047683098757810233 0 0.0085582372996055624 -0.0048731053832573911 0 0.0086912759221784933 -0.0051119816815460937 0 0.0092210344054315056 -0.0048484729229112278 0 0.0085582372996055624 -0.0048731053832573911 0 0.0086912759221784933 -0.0051119816815460937 0 0.0081253178119453026 -0.0050496951205229335 0 0.0086912759221784933 -0.0051119816815460937 0 0.0090481863578478188 -0.0051554383071932717 0 0.0088226953188673875 -0.0053395763252093251 0 0.0092210344054315056 -0.0048484729229112278 0 0.0090481863578478188 -0.0051554383071932717 0 0.0093459781188392176 -0.0053786274954367884 0 0.0086912759221784933 -0.0051119816815460937 0 0.0092210344054315056 -0.0048484729229112278 0 0.0090481863578478188 -0.0051554383071932717 0 0.0090481863578478188 -0.0051554383071932717 0 0.0093459781188392176 -0.0053786274954367884 0 0.0088226953188673875 -0.0053395763252093251 0 0.0093459781188392176 -0.0053786274954367884 0 0.0092379274986479302 -0.0053805609460440013 0 0.009321168177839111 -0.0054299190103646727 0 0.0089119229278438097 -0.005458136654013567 0 0.0085397200230775613 -0.0055506090785578041 0 0.0093459781188392176 -0.0053786274954367884 0 0.0094717660301742411 -0.005512170292573477 0 0.009321168177839111 -0.0054299190103646727 0 0.0093459781188392176 -0.0053786274954367884 0 0.0085788200440276834 -0.0056814638283374666 0 0.0088226953188673875 -0.0053395763252093251 0 0.0086912759221784933 -0.0051119816815460937 0 0.0088226953188673875 -0.0053395763252093251 0 0.0084364946413015406 -0.0053683723210362182 0 0.0085788200440276834 -0.0056814638283374666 0 0.0088226953188673875 -0.0053395763252093251 0 0.0084364946413015406 -0.0053683723210362182 0 0.011080767499000211 -0.0042645714428528889 0 0.01009133571730683 -0.0044982552300505754 0 0.010608468300236032 -0.0053918751435795475 0 0.010260487963286843 -0.0048376434094846909 0 0.0098876214842538133 -0.0051408844035348107 0 0.010050769841888064 -0.0052159250428751016 0 0.0096830962379092934 -0.0050724025682601735 0 0.0098563670636150104 -0.005262212981351916 0 0.0097830130806820549 -0.0046273344471256424 0 0.010260487963286843 -0.0048376434094846909 0 0.0098876214842538133 -0.0051408844035348107 0 0.0097830130806820549 -0.0046273344471256424 0 0.0091609195645188674 -0.0048804163131234094 0 0.0098876214842538133 -0.0051408844035348107 0 0.0094331185812553918 -0.0045293272003009023 0 0.01009133571730683 -0.0044982552300505754 0 0.0092210344054315056 -0.0048484729229112278 0 0.0093459781188392176 -0.0053786274954367884 0 0.0096830962379092934 -0.0050724025682601735 0 0.0093459781188392176 -0.0053786274954367884 0 0.0096840895585591797 -0.0053407580305316329 0 0.0094717660301742411 -0.005512170292573477 0 0.0093459781188392176 -0.0053786274954367884 0 0.0096830962379092934 -0.0050724025682601735 0 0.0096840895585591797 -0.0053407580305316329 0 0.010008966211759503 -0.0054266016759869857 0 0.0096840895585591797 -0.0053407580305316329 0 0.0094717660301742411 -0.005512170292573477 0 0.010008966211759503 -0.0054266016759869857 0 0.0096840895585591797 -0.0053407580305316329 0 0.0098563670636150104 -0.005262212981351916 0 0.0096830962379092934 -0.0050724025682601735 0 0.0096840895585591797 -0.0053407580305316329 0 0.0098563670636150104 -0.005262212981351916 0 0.010614695017207696 -0.0051670517571059506 0 0.010343700942646283 -0.0054453454001631083 0 0.01047034192141371 -0.0058090300005888152 0 0.010614695017207696 -0.0051670517571059506 0 0.010343700942646283 -0.0054453454001631083 0 0.0099772999897050421 -0.0053161263159977523 0 0.011211672415814479 -0.0045516361469109465 0 0.0099053559765196249 -0.0051215269281597222 0 0.010343700942646283 -0.0054453454001631083 0 0.0099772999897050421 -0.0053161263159977523 0 0.010110404864131652 -0.005684527535817975 0 0.0099772999897050421 -0.0053161263159977523 0 0.010110404864131652 -0.005684527535817975 0 0.0097367797274736517 -0.0057488313813588753 0 0.010110404864131652 -0.005684527535817975 0 0.0097367797274736517 -0.0057488313813588753 0 0.01001772833307573 -0.0060905503572918768 0 0.010110404864131652 -0.005684527535817975 0 0.01047034192141371 -0.0058090300005888152 0 0.01001772833307573 -0.0060905503572918768 0 0.010343700942646283 -0.0054453454001631083 0 0.010110404864131652 -0.005684527535817975 0 0.01047034192141371 -0.0058090300005888152 0 0.0092956176239238249 -0.0054976507478903267 0 0.0091006717440322744 -0.005504990116914619 0 0.0091571357718968488 -0.0057074790461955046 0 0.0092379274986479302 -0.0053805609460440013 0 0.0092956176239238249 -0.0054976507478903267 0 0.0091006717440322744 -0.005504990116914619 0 0.0092379274986479302 -0.0053805609460440013 0 0.0092956176239238249 -0.0054976507478903267 0 0.009321168177839111 -0.0054299190103646727 0 0.0094717660301742411 -0.005512170292573477 0 0.0092956176239238249 -0.0054976507478903267 0 0.009321168177839111 -0.0054299190103646727 0 0.0099053559765196249 -0.0051215269281597222 0 0.0095588280601440548 -0.0052700063759270992 0 0.0099772999897050421 -0.0053161263159977523 0 0.0092956176239238249 -0.0054976507478903267 0 0.0097367797274736517 -0.0057488313813588753 0 0.0092956176239238249 -0.0054976507478903267 0 0.0097367797274736517 -0.0057488313813588753 0 0.0094093716765442665 -0.0057918001563061318 0 0.0097367797274736517 -0.0057488313813588753 0 0.0094093716765442665 -0.0057918001563061318 0 0.0095843719673276394 -0.0061342788771682555 0 0.0092956176239238249 -0.0054976507478903267 0 0.0094093716765442665 -0.0057918001563061318 0 0.0091571357718968488 -0.0057074790461955046 0 0.0094093716765442665 -0.0057918001563061318 0 0.0092519852453820488 -0.0059778446594917628 0 0.0091571357718968488 -0.0057074790461955046 0 0.0092519852453820488 -0.0059778446594917628 0 0.0095843719673276394 -0.0061342788771682555 0 0.0092343086811278053 -0.0063300354579735483 0 0.0094093716765442665 -0.0057918001563061318 0 0.0092519852453820488 -0.0059778446594917628 0 0.0095843719673276394 -0.0061342788771682555 0 0.0095843719673276394 -0.0061342788771682555 0 0.0097698368894979949 -0.0064078148173912436 0 0.01001772833307573 -0.0060905503572918768 0 0.0097367797274736517 -0.0057488313813588753 0 0.0095843719673276394 -0.0061342788771682555 0 0.01001772833307573 -0.0060905503572918768 0 0.0095843719673276394 -0.0061342788771682555 0 0.0097698368894979949 -0.0064078148173912436 0 0.0095439921998311424 -0.0065194517054322837 0 0.0097698368894979949 -0.0064078148173912436 0 0.0095439921998311424 -0.0065194517054322837 0 0.0098719265235057314 -0.0066415131248923551 0 0.0095439921998311424 -0.0065194517054322837 0 0.0092343086811278053 -0.0063300354579735483 0 0.0092487808553794511 -0.0068075186144106051 0 0.0095843719673276394 -0.0061342788771682555 0 0.0095439921998311424 -0.0065194517054322837 0 0.0092343086811278053 -0.0063300354579735483 0 0.0095439921998311424 -0.0065194517054322837 0 0.0092487808553794511 -0.0068075186144106051 0 0.009650282436050435 -0.0068314345502756149 0 0.0095439921998311424 -0.0065194517054322837 0 0.009650282436050435 -0.0068314345502756149 0 0.0098719265235057314 -0.0066415131248923551 0 0.009650282436050435 -0.0068314345502756149 0 0.0099039431733046676 -0.0069682340465397992 0 0.0098719265235057314 -0.0066415131248923551 0 0.009650282436050435 -0.0068314345502756149 0 0.0096818321134925067 -0.0072187121585287478 0 0.0099039431733046676 -0.0069682340465397992 0 0.0096818321134925067 -0.0072187121585287478 0 0.0099793032675143459 -0.0072100300141872652 0 0.0099039431733046676 -0.0069682340465397992 0 0.025055608717604722 0.00098957535146638955 0 0.024613375720076058 0.0014225945236292902 0 0.025222740739795489 0.0014499761545249622 0 0.0092487808553794511 -0.0068075186144106051 0 0.009650282436050435 -0.0068314345502756149 0 0.0096818321134925067 -0.0072187121585287478 0 0.017155875427542364 -0.0030038052223820885 0 0.01733185865414202 -0.003290062450725465 0 0.011526304206848173 -0.0088264396312231347 0 0.011100037591434934 -0.0087513135091197205 0 0.011439533348834576 -0.0083973688917595019 0 0.01220028350933787 -0.0085390893987596656 0 0.011867333724869845 -0.0090871066125401967 0 0.012469240628607757 -0.0091455411387739959 0 0.011526304206848173 -0.0088264396312231347 0 0.01220028350933787 -0.0085390893987596656 0 0.011867333724869845 -0.0090871066125401967 0 0.011526304206848173 -0.0088264396312231347 0 0.011439533348834576 -0.0083973688917595019 0 0.01220028350933787 -0.0085390893987596656 0 0.011867333724869845 -0.0090871066125401967 0 0.012469240628607757 -0.0091455411387739959 0 0.011862343816187851 -0.0096510501815690354 0 0.011526304206848173 -0.0088264396312231347 0 0.011100037591434934 -0.0087513135091197205 0 0.011339781602766883 -0.0093541106818751038 0 0.011867333724869845 -0.0090871066125401967 0 0.011339781602766883 -0.0093541106818751038 0 0.011862343816187851 -0.0096510501815690354 0 0.011526304206848173 -0.0088264396312231347 0 0.011867333724869845 -0.0090871066125401967 0 0.011339781602766883 -0.0093541106818751038 0 0.010216721966250248 -0.0070295423534472183 0 0.0099793032675143459 -0.0072100300141872652 0 0.0099039431733046676 -0.0069682340465397992 0 0.010216721966250248 -0.0070295423534472183 0 0.0099039431733046676 -0.0069682340465397992 0 0.010038445080119885 -0.0068066196633201539 0 0.0099039431733046676 -0.0069682340465397992 0 0.010038445080119885 -0.0068066196633201539 0 0.0098719265235057314 -0.0066415131248923551 0 0.010216721966250248 -0.0070295423534472183 0 0.010038445080119885 -0.0068066196633201539 0 0.010116263276406721 -0.0066446485976880678 0 0.010038445080119885 -0.0068066196633201539 0 0.0098719265235057314 -0.0066415131248923551 0 0.010116263276406721 -0.0066446485976880678 0 0.010216721966250248 -0.0070295423534472183 0 0.010116263276406721 -0.0066446485976880678 0 0.010333173168647986 -0.0064296686240793805 0 0.0137627266665836 -0.0076791531808206148 0 0.012100257241177777 -0.0066733967291013581 0 0.011439533348834576 -0.0083973688917595019 0 0.01133729844597757 -0.0066630250149904147 0 0.012415099409782644 -0.0067748388746669717 0 0.012047470482864062 -0.0074941326452957618 0 0.01267025400699659 -0.0066576427617686578 0 0.011100037591434934 -0.0087513135091197205 0 0.011439533348834576 -0.0083973688917595019 0 0.01133729844597757 -0.0066630250149904147 0 0.011439533348834576 -0.0083973688917595019 0 0.01220028350933787 -0.0085390893987596656 0 0.012800551960163692 -0.0067456110949818049 0 0.0097698368894979949 -0.0064078148173912436 0 0.010030922099196767 -0.0064315181224110316 0 0.01001772833307573 -0.0060905503572918768 0 0.010333173168647986 -0.0064296686240793805 0 0.010030922099196767 -0.0064315181224110316 0 0.01001772833307573 -0.0060905503572918768 0 0.0098719265235057314 -0.0066415131248923551 0 0.010116263276406721 -0.0066446485976880678 0 0.010030922099196767 -0.0064315181224110316 0 0.0097698368894979949 -0.0064078148173912436 0 0.0098719265235057314 -0.0066415131248923551 0 0.010030922099196767 -0.0064315181224110316 0 0.010116263276406721 -0.0066446485976880678 0 0.010333173168647986 -0.0064296686240793805 0 0.010030922099196767 -0.0064315181224110316 0 0.01162682355245296 -0.0045854098345928795 0 0.01133729844597757 -0.0066630250149904147 0 0.012422526567482219 -0.0055674785527008389 0 0.011517331980281535 -0.0053518300175773217 0 0.012100257241177777 -0.0066733967291013581 0 0.01047034192141371 -0.0058090300005888152 0 0.010333173168647986 -0.0064296686240793805 0 0.01001772833307573 -0.0060905503572918768 0 0.012422526567482219 -0.0055674785527008389 0 0.013562987873453001 -0.0052053923733023158 0 0.012415099409782644 -0.0067748388746669717 0 0.013700954093795891 -0.0052705821385124474 0 0.01267025400699659 -0.0066576427617686578 0 0.013976504946184553 -0.0051344679959107725 0 0.013959773539149777 -0.0066323379176034727 0 0.015073210080582959 -0.0062990357419466349 0 0.013959773539149777 -0.0066323379176034727 0 0.015073210080582959 -0.0062990357419466349 0 0.014403812311753687 -0.0074892089809320706 0 0.013976504946184553 -0.0051344679959107725 0 0.013959773539149777 -0.0066323379176034727 0 0.012800551960163692 -0.0067456110949818049 0 0.01133729844597757 -0.0066630250149904147 0 0.012422526567482219 -0.0055674785527008389 0 0.012415099409782644 -0.0067748388746669717 0 0.013959773539149777 -0.0066323379176034727 0 0.012800551960163692 -0.0067456110949818049 0 0.013550209003744236 -0.0075200144595180644 0 0.017640395285549192 -0.0042760702827015504 0 0.015636339492299756 -0.0048882032576732957 0 0.016823247766022155 -0.0059712097376139195 0 0.015636339492299756 -0.0048882032576732957 0 0.016823247766022155 -0.0059712097376139195 0 0.015073210080582959 -0.0062990357419466349 0 0.015636339492299756 -0.0048882032576732957 0 0.013976504946184553 -0.0051344679959107725 0 0.015073210080582959 -0.0062990357419466349 0 0.015073210080582959 -0.0062990357419466349 0 0.015945362237808458 -0.0077582335542660365 0 0.014403812311753687 -0.0074892089809320706 0 0.016823247766022155 -0.0059712097376139195 0 0.015945362237808458 -0.0077582335542660365 0 0.017599764938552177 -0.0075130626112840096 0 0.016823247766022155 -0.0059712097376139195 0 0.015073210080582959 -0.0062990357419466349 0 0.015945362237808458 -0.0077582335542660365 0 0.015945362237808458 -0.0077582335542660365 0 0.017599764938552177 -0.0075130626112840096 0 0.017298261254494209 -0.0093862202803037323 0 0.015945362237808458 -0.0077582335542660365 0 0.014743232995827808 -0.0084568611309932852 0 0.014403812311753687 -0.0074892089809320706 0 0.015458002712389625 -0.0092180824664419899 0 0.014743232995827808 -0.0084568611309932852 0 0.014231914003682742 -0.0092293269939658449 0 0.015458002712389625 -0.0092180824664419899 0 0.014231914003682742 -0.0092293269939658449 0 0.014709943501653314 -0.010041011854224645 0 0.015945362237808458 -0.0077582335542660365 0 0.015458002712389625 -0.0092180824664419899 0 0.014743232995827808 -0.0084568611309932852 0 0.015945362237808458 -0.0077582335542660365 0 0.015458002712389625 -0.0092180824664419899 0 0.017298261254494209 -0.0093862202803037323 0 0.01220028350933787 -0.0085390893987596656 0 0.012800551960163692 -0.0067456110949818049 0 0.012975573559313757 -0.0082689755506184272 0 0.012800551960163692 -0.0067456110949818049 0 0.012975573559313757 -0.0082689755506184272 0 0.013550209003744236 -0.0075200144595180644 0 0.012975573559313757 -0.0082689755506184272 0 0.013550209003744236 -0.0075200144595180644 0 0.013786558782103888 -0.0084882714549213926 0 0.013959773539149777 -0.0066323379176034727 0 0.013550209003744236 -0.0075200144595180644 0 0.014403812311753687 -0.0074892089809320706 0 0.014743232995827808 -0.0084568611309932852 0 0.014403812311753687 -0.0074892089809320706 0 0.013786558782103888 -0.0084882714549213926 0 0.013550209003744236 -0.0075200144595180644 0 0.014403812311753687 -0.0074892089809320706 0 0.013786558782103888 -0.0084882714549213926 0 0.013786558782103888 -0.0084882714549213926 0 0.014231914003682742 -0.0092293269939658449 0 0.013221881335180419 -0.0091032436511528769 0 0.014743232995827808 -0.0084568611309932852 0 0.013786558782103888 -0.0084882714549213926 0 0.014231914003682742 -0.0092293269939658449 0 0.014231914003682742 -0.0092293269939658449 0 0.013221881335180419 -0.0091032436511528769 0 0.013399829680539906 -0.0098439877481068336 0 0.013221881335180419 -0.0091032436511528769 0 0.012825570705172047 -0.0096664865176262788 0 0.013399829680539906 -0.0098439877481068336 0 0.012975573559313757 -0.0082689755506184272 0 0.013786558782103888 -0.0084882714549213926 0 0.013221881335180419 -0.0091032436511528769 0 0.012975573559313757 -0.0082689755506184272 0 0.013221881335180419 -0.0091032436511528769 0 0.012469240628607757 -0.0091455411387739959 0 0.01220028350933787 -0.0085390893987596656 0 0.012975573559313757 -0.0082689755506184272 0 0.012469240628607757 -0.0091455411387739959 0 0.013221881335180419 -0.0091032436511528769 0 0.012469240628607757 -0.0091455411387739959 0 0.012825570705172047 -0.0096664865176262788 0 0.012469240628607757 -0.0091455411387739959 0 0.012333753303124792 -0.0098275519389682871 0 0.012825570705172047 -0.0096664865176262788 0 0.012333753303124792 -0.0098275519389682871 0 0.012825570705172047 -0.0096664865176262788 0 0.012707227277088767 -0.010406196927963216 0 0.012333753303124792 -0.0098275519389682871 0 0.012707227277088767 -0.010406196927963216 0 0.011971694729317002 -0.01046677977104978 0 0.012707227277088767 -0.010406196927963216 0 0.013270327643442483 -0.010566924563646595 0 0.013399829680539906 -0.0098439877481068336 0 0.012825570705172047 -0.0096664865176262788 0 0.012707227277088767 -0.010406196927963216 0 0.013399829680539906 -0.0098439877481068336 0 0.017100721766399967 -0.009942970757315402 0 0.017498037993019737 -0.0099485646089753788 0 0.014231914003682742 -0.0092293269939658449 0 0.014709943501653314 -0.010041011854224645 0 0.014196617042400918 -0.010512579405260162 0 0.014231914003682742 -0.0092293269939658449 0 0.013399829680539906 -0.0098439877481068336 0 0.013983981814663262 -0.010584864211068155 0 0.017219929791052045 -0.010107938995319402 0 0.017498037993019737 -0.0099485646089753788 0 0.013270327643442483 -0.010566924563646595 0 0.013399829680539906 -0.0098439877481068336 0 0.013983981814663262 -0.010584864211068155 0 0.014709943501653314 -0.010041011854224645 0 0.014438912404010889 -0.010376383321627217 0 0.014706614850983731 -0.011202936999387576 0 0.014438912404010889 -0.010376383321627217 0 0.014706614850983731 -0.011202936999387576 0 0.014333855528885539 -0.011702922935153296 0 0.019443478547305579 -0.0088550461814379828 0 0.020089890324373291 -0.0082847319766303842 0 0.019608125047797152 -0.0077948779640856936 0 0.017498037993019737 -0.0099485646089753788 0 0.019391189778618711 -0.0092499879784700475 0 0.012990897847331786 -0.011427735417898349 0 0.012020481121793304 -0.012272628185761221 0 0.012025574809254549 -0.011339641850139052 0 0.018117717995224696 -0.0087496579924991515 0 0.020402339263977772 -0.0061527765637277906 0 0.012707227277088767 -0.010406196927963216 0 0.012990897847331786 -0.011427735417898349 0 0.012025574809254549 -0.011339641850139052 0 0.013270327643442483 -0.010566924563646595 0 0.013983981814663262 -0.010584864211068155 0 0.012990897847331786 -0.011427735417898349 0 0.017498037993019737 -0.0099485646089753788 0 0.018117717995224696 -0.0087496579924991515 0 0.012707227277088767 -0.010406196927963216 0 0.013270327643442483 -0.010566924563646595 0 0.012990897847331786 -0.011427735417898349 0 0.01650078109933566 -0.010014874593820198 0 0.017998409089266122 -0.0089963956120730233 0 0.015458002712389625 -0.0092180824664419899 0 0.015723543840869238 -0.01035897983924138 0 0.017298261254494209 -0.0093862202803037323 0 0.016775049465604895 -0.0097677683914999015 0 0.017666100275194677 -0.010729897584164249 0 0.018662053114623288 -0.008588129998088067 0 0.015458002712389625 -0.0092180824664419899 0 0.014709943501653314 -0.010041011854224645 0 0.015723543840869238 -0.01035897983924138 0 0.014706614850983731 -0.011202936999387576 0 0.016775049465604895 -0.0097677683914999015 0 0.016427462655728722 -0.011371833547696567 0 0.014709943501653314 -0.010041011854224645 0 0.014706614850983731 -0.011202936999387576 0 0.015723543840869238 -0.01035897983924138 0 0.015692979540367361 -0.010583142548602587 0 0.01650078109933566 -0.010014874593820198 0 0.016775049465604895 -0.0097677683914999015 0 0.016427462655728722 -0.011371833547696567 0 0.017666100275194677 -0.010729897584164249 0 0.017666100275194677 -0.010729897584164249 0 0.017928362978219967 -0.012318458639074851 0 0.018972122967933588 -0.010815232751352407 0 0.016427462655728722 -0.011371833547696567 0 0.017928362978219967 -0.012318458639074851 0 0.016415937648482554 -0.012779866583066003 0 0.016427462655728722 -0.011371833547696567 0 0.017666100275194677 -0.010729897584164249 0 0.017928362978219967 -0.012318458639074851 0 0.016427462655728722 -0.011371833547696567 0 0.016415937648482554 -0.012779866583066003 0 0.015390088011293011 -0.012049241741000739 0 0.014706614850983731 -0.011202936999387576 0 0.016427462655728722 -0.011371833547696567 0 0.015390088011293011 -0.012049241741000739 0 0.016415937648482554 -0.012779866583066003 0 0.015390088011293011 -0.012049241741000739 0 0.015244323837888913 -0.01293904739856091 0 0.016415937648482554 -0.012779866583066003 0 0.016148229815589461 -0.01400640454815179 0 0.017602298154614626 -0.013872589832642916 0 0.016415937648482554 -0.012779866583066003 0 0.016148229815589461 -0.01400640454815179 0 0.015244323837888913 -0.01293904739856091 0 0.017928362978219967 -0.012318458639074851 0 0.017602298154614626 -0.013872589832642916 0 0.018715597947276855 -0.013709572978430881 0 0.017928362978219967 -0.012318458639074851 0 0.016415937648482554 -0.012779866583066003 0 0.017602298154614626 -0.013872589832642916 0 0.020049161707411306 -0.0076348660258261716 0 0.019608125047797152 -0.0077948779640856936 0 0.019771357396883432 -0.0067457001497277236 0 0.022455142196348025 -0.0069560230070430142 0 0.020402339263977772 -0.0061527765637277906 0 0.020049161707411306 -0.0076348660258261716 0 0.019771357396883432 -0.0067457001497277236 0 0.020727572515914509 -0.0077174925303602438 0 0.020089890324373291 -0.0082847319766303842 0 0.020049161707411306 -0.0076348660258261716 0 0.020727572515914509 -0.0077174925303602438 0 0.020089890324373291 -0.0082847319766303842 0 0.020049161707411306 -0.0076348660258261716 0 0.019608125047797152 -0.0077948779640856936 0 0.019391189778618711 -0.0092499879784700475 0 0.022455142196348025 -0.0069560230070430142 0 0.014333855528885539 -0.011702922935153296 0 0.015244323837888913 -0.01293904739856091 0 0.01408522005725645 -0.013584928890182497 0 0.014706614850983731 -0.011202936999387576 0 0.014333855528885539 -0.011702922935153296 0 0.015390088011293011 -0.012049241741000739 0 0.014333855528885539 -0.011702922935153296 0 0.015390088011293011 -0.012049241741000739 0 0.015244323837888913 -0.01293904739856091 0 0.016148229815589461 -0.01400640454815179 0 0.015244323837888913 -0.01293904739856091 0 0.01408522005725645 -0.013584928890182497 0 0.026915756739280618 -0.0031298478437217976 0 0.027236956238769993 -0.0031241414585402218 0 0.027210196446452322 -0.0034236081668899631 0 0.026915756739280618 -0.0031298478437217976 0 0.027236956238769993 -0.0031241414585402218 0 0.027087638867182635 -0.0029611270928521674 0 0.027236956238769993 -0.0031241414585402218 0 0.027210196446452322 -0.0034236081668899631 0 0.027413458204614594 -0.0032355650792548025 0 0.027236956238769993 -0.0031241414585402218 0 0.027416732383444217 -0.0030445450575310655 0 0.027335221306044183 -0.0029280515831780467 0 0.027236956238769993 -0.0031241414585402218 0 0.027413458204614594 -0.0032355650792548025 0 0.027416732383444217 -0.0030445450575310655 0 0.020402339263977772 -0.0061527765637277906 0 0.022973761506954436 -0.0039319616689158874 0 0.020759594722678201 -0.0046604681019967878 0 0.021370281618678648 -0.0048506595778317072 0 0.021424836427197926 -0.0040708243034949876 0 0.026723857476813613 -0.0023411028279050139 0 0.026959219299251255 -0.0022970691419289973 0 0.026631463066307575 -0.0026997823299450253 0 0.021370281618678648 -0.0048506595778317072 0 0.02187919005020638 -0.0044533035342399904 0 0.021661403907495866 -0.0054181243838727659 0 0.021370281618678648 -0.0048506595778317072 0 0.02187919005020638 -0.0044533035342399904 0 0.021424836427197926 -0.0040708243034949876 0 0.022973761506954436 -0.0039319616689158874 0 0.024279319757104255 -0.0025678938856155504 0 0.022261597366250354 -0.0033098707474157104 0 0.024279319757104255 -0.0025678938856155504 0 0.02187919005020638 -0.0044533035342399904 0 0.021424836427197926 -0.0040708243034949876 0 0.022099003224929088 -0.0034772983670136115 0 0.027413458204614594 -0.0032355650792548025 0 0.027416732383444217 -0.0030445450575310655 0 0.027582211143320792 -0.003055538514071351 0 0.02680796192557126 -0.0020042777194083827 0 0.026942532489440958 -0.0019793842168360177 0 0.027011425912763749 -0.002088156494316241 0 0.02680796192557126 -0.0020042777194083827 0 0.027011425912763749 -0.002088156494316241 0 0.026959219299251255 -0.0022970691419289973 0 0.027011425912763749 -0.002088156494316241 0 0.027190578543975136 -0.0022548600057656922 0 0.027056054812682931 -0.0018211087927683682 0 0.026723857476813613 -0.0023411028279050139 0 0.02680796192557126 -0.0020042777194083827 0 0.026959219299251255 -0.0022970691419289973 0 0.026942532489440958 -0.0019793842168360177 0 0.027011425912763749 -0.002088156494316241 0 0.027056054812682931 -0.0018211087927683682 0 0.027011425912763749 -0.002088156494316241 0 0.027190578543975136 -0.0022548600057656922 0 0.026959219299251255 -0.0022970691419289973 0 0.02693829696656953 -0.0021735671409661341 0 0.026844112283143835 -0.0020865428832790695 0 0.027266210546822423 -0.0021193382957153269 0 0.027190578543975136 -0.0022548600057656922 0 0.027249719946120219 -0.0020328398613721523 0 0.02730844379011407 -0.0021029868485858646 0 0.027266210546822423 -0.0021193382957153269 0 0.027317337611476183 -0.002202397928718174 0 0.027266210546822423 -0.0021193382957153269 0 0.027317337611476183 -0.002202397928718174 0 0.027190578543975136 -0.0022548600057656922 0 0.027317337611476183 -0.002202397928718174 0 0.027141708879137551 -0.0024297212315785438 0 0.027465877058432647 -0.0022166304791895811 0 0.027317337611476183 -0.002202397928718174 0 0.027190578543975136 -0.0022548600057656922 0 0.027141708879137551 -0.0024297212315785438 0 0.025403531279846816 -0.0010676322750124763 0 0.027227980737077183 -0.00032620346161809884 0 0.027141708879137551 -0.0024297212315785438 0 0.026959219299251255 -0.0022970691419289973 0 0.026631463066307575 -0.0026997823299450253 0 0.027190578543975136 -0.0022548600057656922 0 0.027141708879137551 -0.0024297212315785438 0 0.026959219299251255 -0.0022970691419289973 0 0.024793395770045655 0.0022285481465959705 0 0.024548481540496207 0.0018437690949862874 0 0.02417589190258838 0.0019098995634249047 0 0.025403531279846816 -0.0010676322750124763 0 0.019479631742541303 -0.0044432393893829346 0 0.024793395770045655 0.0022285481465959705 0 0.024995596182501925 0.0018079986830973236 0 0.025246478507383385 0.0020830414431636263 0 0.024793395770045655 0.0022285481465959705 0 0.024548481540496207 0.0018437690949862874 0 0.024995596182501925 0.0018079986830973236 0 0.024613375720076058 0.0014225945236292902 0 0.024995596182501925 0.0018079986830973236 0 0.025222740739795489 0.0014499761545249622 0 0.01733185865414202 -0.003290062450725465 0 0.018661852464914534 -0.004883585584262432 0 0.024613375720076058 0.0014225945236292902 0 0.024548481540496207 0.0018437690949862874 0 0.024995596182501925 0.0018079986830973236 0 0.024613375720076058 0.0014225945236292902 0 0.024548481540496207 0.0018437690949862874 0 0.024163280937310468 0.0018513858503174548 0 0.010216721966250248 -0.0070295423534472183 0 0.0099793032675143459 -0.0072100300141872652 0 0.01011337552453858 -0.0076232955339309398 0 0.011100037591434934 -0.0087513135091197205 0 0.011339781602766883 -0.0093541106818751038 0 0.010684795501332988 -0.010937281471560261 0 0.0137627266665836 -0.0076791531808206148 0 0.018661852464914534 -0.004883585584262432 0 0.0096818321134925067 -0.0072187121585287478 0 0.0099793032675143459 -0.0072100300141872652 0 0.01011337552453858 -0.0076232955339309398 0 0.011339781602766883 -0.0093541106818751038 0 0.011367972413157202 -0.0099206842548333809 0 0.010684795501332988 -0.010937281471560261 0 0.011339781602766883 -0.0093541106818751038 0 0.011367972413157202 -0.0099206842548333809 0 0.011862343816187851 -0.0096510501815690354 0 0.011367972413157202 -0.0099206842548333809 0 0.011862343816187851 -0.0096510501815690354 0 0.011711953266801103 -0.010051506185633361 0 0.012333753303124792 -0.0098275519389682871 0 0.011711953266801103 -0.010051506185633361 0 0.011971694729317002 -0.01046677977104978 0 0.012469240628607757 -0.0091455411387739959 0 0.012333753303124792 -0.0098275519389682871 0 0.011862343816187851 -0.0096510501815690354 0 0.012333753303124792 -0.0098275519389682871 0 0.011862343816187851 -0.0096510501815690354 0 0.011711953266801103 -0.010051506185633361 0 0.011367972413157202 -0.0099206842548333809 0 0.01141281603512884 -0.010435734339819419 0 0.010684795501332988 -0.010937281471560261 0 0.011711953266801103 -0.010051506185633361 0 0.011971694729317002 -0.01046677977104978 0 0.01141281603512884 -0.010435734339819419 0 0.011367972413157202 -0.0099206842548333809 0 0.011711953266801103 -0.010051506185633361 0 0.01141281603512884 -0.010435734339819419 0 0.011971694729317002 -0.01046677977104978 0 0.01161008508653137 -0.010680853882766763 0 0.01141281603512884 -0.010435734339819419 0 0.01161008508653137 -0.010680853882766763 0 0.01141281603512884 -0.010435734339819419 0 0.011228497121062145 -0.010829414553692367 0 0.020759594722678201 -0.0046604681019967878 0 0.021370281618678648 -0.0048506595778317072 0 0.02155989194168088 -0.0054699073926907657 0 0.011228497121062145 -0.010829414553692367 0 0.012025574809254549 -0.011339641850139052 0 0.010801061579176771 -0.011047562226703214 0 0.020402339263977772 -0.0061527765637277906 0 0.018839520487648937 -0.0049161068043276088 0 0.01161008508653137 -0.010680853882766763 0 0.011228497121062145 -0.010829414553692367 0 0.012025574809254549 -0.011339641850139052 0 0.012020481121793304 -0.012272628185761221 0 0.012025574809254549 -0.011339641850139052 0 0.010801061579176771 -0.011047562226703214 0 0.012707227277088767 -0.010406196927963216 0 0.011971694729317002 -0.01046677977104978 0 0.012025574809254549 -0.011339641850139052 0 0.011971694729317002 -0.01046677977104978 0 0.01161008508653137 -0.010680853882766763 0 0.012025574809254549 -0.011339641850139052 0 0.021370281618678648 -0.0048506595778317072 0 0.021661403907495866 -0.0054181243838727659 0 0.02155989194168088 -0.0054699073926907657 0 0.024548481540496207 0.0018437690949862874 0 0.024163280937310468 0.0018513858503174548 0 0.02417589190258838 0.0019098995634249047 0 0.022261597366250354 -0.0033098707474157104 0 0.019479631742541303 -0.0044432393893829346 0 0.01141281603512884 -0.010435734339819419 0 0.011228497121062145 -0.010829414553692367 0 0.010684795501332988 -0.010937281471560261 0 0.018661852464914534 -0.004883585584262432 0 0.018839520487648937 -0.0049161068043276088 0 0.018301211094763823 -0.005224600495736643 0 0.018839520487648937 -0.0049161068043276088 0 0.011228497121062145 -0.010829414553692367 0 0.010684795501332988 -0.010937281471560261 0 0.010797363221293215 -0.011048877186958713 0 0.018661852464914534 -0.004883585584262432 0 0.019479631742541303 -0.0044432393893829346 0 0.017848283438307262 -0.0038608383193439589 0 0.01690467531180383 -0.0082190518575964364 0 0.02039684261472181 -0.0064368221955343682 0 0.019479631742541303 -0.0044432393893829346 0 0.018839520487648937 -0.0049161068043276088 0 0.026805021738056743 -0.0076542416660690376 0 0.02691014886794766 -0.0085815524671093574 0 0.026500583410244454 -0.0085275915372624144 0 0.026500583410244454 -0.0085275915372624144 0 0.025750049734628713 -0.0081741646443633208 0 0.026304537451570617 -0.0091200963322961865 0 0.026805021738056743 -0.0076542416660690376 0 0.026500583410244454 -0.0085275915372624144 0 0.025750049734628713 -0.0081741646443633208 0 0.02691014886794766 -0.0085815524671093574 0 0.026500583410244454 -0.0085275915372624144 0 0.02671660186251985 -0.0090138880346937889 0 0.025264022646409947 -0.0070317709681999262 0 0.025054835861219819 -0.006242393970923593 0 0.025750049734628713 -0.0081741646443633208 0 0.026179089466050104 -0.006594068910086918 0 0.024982980853530259 -0.0067259665101304655 0 0.025750049734628713 -0.0081741646443633208 0 0.025512864675942246 -0.0064938050293574124 0 0.024646435243254175 -0.0077841134233801682 0 0.026805021738056743 -0.0076542416660690376 0 0.025750049734628713 -0.0081741646443633208 0 0.026179089466050104 -0.006594068910086918 0 0.026179089466050104 -0.006594068910086918 0 0.026525395045703504 -0.0052822867004793349 0 0.024370550660976036 -0.0050863814049293748 0 0.025054835861219819 -0.006242393970923593 0 0.024625714533606968 -0.0047023003778630312 0 0.026179089466050104 -0.006594068910086918 0 0.024982980853530259 -0.0067259665101304655 0 0.024370550660976036 -0.0050863814049293748 0 0.025512864675942246 -0.0064938050293574124 0 0.025159097760904359 -0.004561429885685136 0 0.023665046401198465 -0.0066038689402625412 0 0.025159097760904359 -0.004561429885685136 0 0.022734074743876322 -0.0048393107099449521 0 0.023665046401198465 -0.0066038689402625412 0 0.023665046401198465 -0.0066038689402625412 0 0.024646435243254175 -0.0077841134233801682 0 0.023308667151500585 -0.008217790691989111 0 0.024646435243254175 -0.0077841134233801682 0 0.023308667151500585 -0.008217790691989111 0 0.025558036478478933 -0.0096314797827905911 0 0.025750049734628713 -0.0081741646443633208 0 0.024646435243254175 -0.0077841134233801682 0 0.025558036478478933 -0.0096314797827905911 0 0.025512864675942246 -0.0064938050293574124 0 0.023665046401198465 -0.0066038689402625412 0 0.024646435243254175 -0.0077841134233801682 0 0.023308667151500585 -0.008217790691989111 0 0.021610039649408545 -0.0085174596038176502 0 0.023184391488271866 -0.0095047051566518308 0 0.021610039649408545 -0.0085174596038176502 0 0.020325945041720833 -0.0075796382982833057 0 0.020359638826271204 -0.0095288691280740606 0 0.020367485940154997 -0.0073825837338749485 0 0.019516887135534081 -0.0079716992490040817 0 0.021610039649408545 -0.0085174596038176502 0 0.021456321772837718 -0.0067508329211921729 0 0.020325945041720833 -0.0075796382982833057 0 0.023665046401198465 -0.0066038689402625412 0 0.023308667151500585 -0.008217790691989111 0 0.021456321772837718 -0.0067508329211921729 0 0.023308667151500585 -0.008217790691989111 0 0.021610039649408545 -0.0085174596038176502 0 0.021456321772837718 -0.0067508329211921729 0 0.022734074743876322 -0.0048393107099449521 0 0.023665046401198465 -0.0066038689402625412 0 0.021456321772837718 -0.0067508329211921729 0 0.022734074743876322 -0.0048393107099449521 0 0.020931706233980205 -0.0051109241927992013 0 0.021456321772837718 -0.0067508329211921729 0 0.019495007068440245 -0.0041014570163311467 0 0.020931706233980205 -0.0051109241927992013 0 0.018983978690817336 -0.0060099841113844098 0 0.021456321772837718 -0.0067508329211921729 0 0.018983978690817336 -0.0060099841113844098 0 0.019144830787660203 -0.0082971584642760315 0 0.020931706233980205 -0.0051109241927992013 0 0.021456321772837718 -0.0067508329211921729 0 0.018983978690817336 -0.0060099841113844098 0 0.019495007068440245 -0.0041014570163311467 0 0.017640395285549192 -0.0042760702827015504 0 0.018983978690817336 -0.0060099841113844098 0 0.017640395285549192 -0.0042760702827015504 0 0.016823247766022155 -0.0059712097376139195 0 0.018983978690817336 -0.0060099841113844098 0 0.016823247766022155 -0.0059712097376139195 0 0.018983978690817336 -0.0060099841113844098 0 0.017599764938552177 -0.0075130626112840096 0 0.017599764938552177 -0.0075130626112840096 0 0.019144830787660203 -0.0082971584642760315 0 0.017298261254494209 -0.0093862202803037323 0 0.018983978690817336 -0.0060099841113844098 0 0.017599764938552177 -0.0075130626112840096 0 0.019144830787660203 -0.0082971584642760315 0 0.020325945041720833 -0.0075796382982833057 0 0.018662053114623288 -0.008588129998088067 0 0.020359638826271204 -0.0095288691280740606 0 0.019516887135534081 -0.0079716992490040817 0 0.017998409089266122 -0.0089963956120730233 0 0.017666100275194677 -0.010729897584164249 0 0.018662053114623288 -0.008588129998088067 0 0.018972122967933588 -0.010815232751352407 0 0.018662053114623288 -0.008588129998088067 0 0.020359638826271204 -0.0095288691280740606 0 0.018972122967933588 -0.010815232751352407 0 0.020359638826271204 -0.0095288691280740606 0 0.018972122967933588 -0.010815232751352407 0 0.020607582306759215 -0.011338284901988842 0 0.023449758301010266 -0.010713054107187944 0 0.024496620379240493 -0.010821220978846838 0 0.017928362978219967 -0.012318458639074851 0 0.018972122967933588 -0.010815232751352407 0 0.01939952030524977 -0.012766159230660216 0 0.017928362978219967 -0.012318458639074851 0 0.01939952030524977 -0.012766159230660216 0 0.018715597947276855 -0.013709572978430881 0 0.01939952030524977 -0.012766159230660216 0 0.018715597947276855 -0.013709572978430881 0 0.019926276228883624 -0.01457582289052268 0 0.024496620379240493 -0.010821220978846838 0 0.02749100598464628 -0.00958425682880726 0 0.019421409582128173 -0.012534321549014826 0 0.020866031682104012 -0.013017734958100859 0 0.019928366213276431 -0.014183666618400556 0 0.025232001331519024 -0.011742763108357033 0 0.02749100598464628 -0.00958425682880726 0 0.020866031682104012 -0.013017734958100859 0 0.021130462146915996 -0.014022090717702161 0 0.019961218446875435 -0.014174972336324074 0 0.018972122967933588 -0.010815232751352407 0 0.019421409582128173 -0.012534321549014826 0 0.020607582306759215 -0.011338284901988842 0 0.019421409582128173 -0.012534321549014826 0 0.020607582306759215 -0.011338284901988842 0 0.020866031682104012 -0.013017734958100859 0 0.020607582306759215 -0.011338284901988842 0 0.021653972054793455 -0.012055312634921501 0 0.020866031682104012 -0.013017734958100859 0 0.020866031682104012 -0.013017734958100859 0 0.022222645313355945 -0.013669648392534751 0 0.021130462146915996 -0.014022090717702161 0 0.021653972054793455 -0.012055312634921501 0 0.020866031682104012 -0.013017734958100859 0 0.022222645313355945 -0.013669648392534751 0 0.022222645313355945 -0.013669648392534751 0 0.023062666203083469 -0.01198865376366375 0 0.023710244792845531 -0.013305246094694901 0 0.021653972054793455 -0.012055312634921501 0 0.022222645313355945 -0.013669648392534751 0 0.023062666203083469 -0.01198865376366375 0 0.021653972054793455 -0.012055312634921501 0 0.023062666203083469 -0.01198865376366375 0 0.021985999635442774 -0.010525418069591154 0 0.023062666203083469 -0.01198865376366375 0 0.021985999635442774 -0.010525418069591154 0 0.023742783354229833 -0.01069543116998917 0 0.021985999635442774 -0.010525418069591154 0 0.023184391488271866 -0.0095047051566518308 0 0.023742783354229833 -0.01069543116998917 0 0.020359638826271204 -0.0095288691280740606 0 0.020607582306759215 -0.011338284901988842 0 0.021985999635442774 -0.010525418069591154 0 0.020607582306759215 -0.011338284901988842 0 0.021653972054793455 -0.012055312634921501 0 0.021985999635442774 -0.010525418069591154 0 0.021610039649408545 -0.0085174596038176502 0 0.020359638826271204 -0.0095288691280740606 0 0.021985999635442774 -0.010525418069591154 0 0.021610039649408545 -0.0085174596038176502 0 0.021985999635442774 -0.010525418069591154 0 0.023184391488271866 -0.0095047051566518308 0 0.023308667151500585 -0.008217790691989111 0 0.023184391488271866 -0.0095047051566518308 0 0.025558036478478933 -0.0096314797827905911 0 0.026311119996187984 -0.0097862374651754187 0 0.026411684072591726 -0.010081754317908188 0 0.025558036478478933 -0.0096314797827905911 0 0.023742783354229833 -0.01069543116998917 0 0.025186558427100471 -0.011836487001862342 0 0.025558036478478933 -0.0096314797827905911 0 0.027177816018193239 -0.0095500364633534403 0 0.026471517736784189 -0.0095784049418126908 0 0.023184391488271866 -0.0095047051566518308 0 0.025558036478478933 -0.0096314797827905911 0 0.023742783354229833 -0.01069543116998917 0 0.023062666203083469 -0.01198865376366375 0 0.023710244792845531 -0.013305246094694901 0 0.025186558427100471 -0.011836487001862342 0 0.023062666203083469 -0.01198865376366375 0 0.023742783354229833 -0.01069543116998917 0 0.025186558427100471 -0.011836487001862342 0 0.023710244792845531 -0.013305246094694901 0 0.024923546622834473 -0.013676301731953751 0 0.025186558427100471 -0.011836487001862342 0 0.026611216027852953 -0.010213766836467549 0 0.026411684072591726 -0.010081754317908188 0 0.028800844907984853 -0.0085150685149227457 0 0.027177816018193239 -0.0095500364633534403 0 0.027598901191747776 -0.0089394397271359942 0 0.028800844907984853 -0.0085150685149227457 0 0.027598901191747776 -0.0089394397271359942 0 0.027941222987117091 -0.0081005412691843182 0 0.027177816018193239 -0.0095500364633534403 0 0.02693504614961487 -0.0092392776629985057 0 0.026471517736784189 -0.0095784049418126908 0 0.027177816018193239 -0.0095500364633534403 0 0.02693504614961487 -0.0092392776629985057 0 0.027598901191747776 -0.0089394397271359942 0 0.02693504614961487 -0.0092392776629985057 0 0.027598901191747776 -0.0089394397271359942 0 0.027255830386952427 -0.008767036532329615 0 0.027598901191747776 -0.0089394397271359942 0 0.027255830386952427 -0.008767036532329615 0 0.027941222987117091 -0.0081005412691843182 0 0.02693504614961487 -0.0092392776629985057 0 0.027255830386952427 -0.008767036532329615 0 0.026622087079931352 -0.008695842100237933 0 0.026612830772981294 -0.0091727783678228932 0 0.02693504614961487 -0.0092392776629985057 0 0.026622087079931352 -0.008695842100237933 0 0.02693504614961487 -0.0092392776629985057 0 0.026643845780881914 -0.0094081965211889364 0 0.026471517736784189 -0.0095784049418126908 0 0.026612830772981294 -0.0091727783678228932 0 0.02693504614961487 -0.0092392776629985057 0 0.026643845780881914 -0.0094081965211889364 0 0.026713720930038692 -0.0092831835299326034 0 0.026643845780881914 -0.0094081965211889364 0 0.026567396390036063 -0.0093319027923239612 0 0.026713720930038692 -0.0092831835299326034 0 0.026567396390036063 -0.0093319027923239612 0 0.02671660186251985 -0.0090138880346937889 0 0.026643845780881914 -0.0094081965211889364 0 0.026567396390036063 -0.0093319027923239612 0 0.026471517736784189 -0.0095784049418126908 0 0.025558036478478933 -0.0096314797827905911 0 0.026471517736784189 -0.0095784049418126908 0 0.026304537451570617 -0.0091200963322961865 0 0.026567396390036063 -0.0093319027923239612 0 0.026471517736784189 -0.0095784049418126908 0 0.026304537451570617 -0.0091200963322961865 0 0.025750049734628713 -0.0081741646443633208 0 0.025558036478478933 -0.0096314797827905911 0 0.026304537451570617 -0.0091200963322961865 0 0.026500583410244454 -0.0085275915372624144 0 0.026304537451570617 -0.0091200963322961865 0 0.02671660186251985 -0.0090138880346937889 0 0.026567396390036063 -0.0093319027923239612 0 0.026304537451570617 -0.0091200963322961865 0 0.02671660186251985 -0.0090138880346937889 0 0.030787295354070897 -0.0013138735051362908 0 0.030670528281296554 -0.00062408711880555638 0 0.023950802078227505 -0.00026850765841837068 0 0.025813074327622337 -0.0016195256238967029 0 0.026963268531131662 0.00043676611127432233 0 0.025813074327622337 -0.0016195256238967029 0 0.027320287474235989 -0.0017441686569418218 0 0.026430967661586494 -0.0030061874052679724 0 0.023950802078227505 -0.00026850765841837068 0 0.025813074327622337 -0.0016195256238967029 0 0.024899289992888166 -0.0020001616100353242 0 0.025813074327622337 -0.0016195256238967029 0 0.027320287474235989 -0.0017441686569418218 0 0.026963268531131662 0.00043676611127432233 0 0.028542244473704494 -0.00085818110346413956 0 0.027320287474235989 -0.0017441686569418218 0 0.026963268531131662 0.00043676611127432233 0 0.028542244473704494 -0.00085818110346413956 0 0.031288489445226268 0.00086032612208211711 0 0.026963268531131662 0.00043676611127432233 0 0.028542244473704494 -0.00085818110346413956 0 0.029987530725817873 -0.00072199649213892003 0 0.031288489445226268 0.00086032612208211711 0 0.029987530725817873 -0.00072199649213892003 0 0.028661913068614198 -0.0020884173585923624 0 0.029581490255619992 -0.002056466923019553 0 0.028542244473704494 -0.00085818110346413956 0 0.029987530725817873 -0.00072199649213892003 0 0.028661913068614198 -0.0020884173585923624 0 0.028542244473704494 -0.00085818110346413956 0 0.028661913068614198 -0.0020884173585923624 0 0.027320287474235989 -0.0017441686569418218 0 0.028661913068614198 -0.0020884173585923624 0 0.027320287474235989 -0.0017441686569418218 0 0.027552925775413014 -0.0029679696248785265 0 0.028661913068614198 -0.0020884173585923624 0 0.027552925775413014 -0.0029679696248785265 0 0.028322168127926883 -0.0036954065358811138 0 0.027552925775413014 -0.0029679696248785265 0 0.027182839414044157 -0.0042836383996327542 0 0.026430967661586494 -0.0030061874052679724 0 0.028661913068614198 -0.0020884173585923624 0 0.028322168127926883 -0.0036954065358811138 0 0.029474264833258147 -0.0030089756919067217 0 0.028661913068614198 -0.0020884173585923624 0 0.029474264833258147 -0.0030089756919067217 0 0.029581490255619992 -0.002056466923019553 0 0.028322168127926883 -0.0036954065358811138 0 0.027182839414044157 -0.0042836383996327542 0 0.028268421578047653 -0.0053724731521633028 0 0.028322168127926883 -0.0036954065358811138 0 0.029350257574524179 -0.0042313946023525856 0 0.029474264833258147 -0.0030089756919067217 0 0.028322168127926883 -0.0036954065358811138 0 0.028268421578047653 -0.0053724731521633028 0 0.029350257574524179 -0.0042313946023525856 0 0.027552925775413014 -0.0029679696248785265 0 0.028322168127926883 -0.0036954065358811138 0 0.027182839414044157 -0.0042836383996327542 0 0.027182839414044157 -0.0042836383996327542 0 0.026067862220816661 -0.0040109518502568298 0 0.026430967661586494 -0.0030061874052679724 0 0.027320287474235989 -0.0017441686569418218 0 0.027552925775413014 -0.0029679696248785265 0 0.026430967661586494 -0.0030061874052679724 0 0.026067862220816661 -0.0040109518502568298 0 0.026430967661586494 -0.0030061874052679724 0 0.025301773473731581 -0.0030889960122187101 0 0.025813074327622337 -0.0016195256238967029 0 0.024899289992888166 -0.0020001616100353242 0 0.025301773473731581 -0.0030889960122187101 0 0.025813074327622337 -0.0016195256238967029 0 0.026430967661586494 -0.0030061874052679724 0 0.025301773473731581 -0.0030889960122187101 0 0.024519597704150617 -0.003009845803110599 0 0.024899289992888166 -0.0020001616100353242 0 0.025301773473731581 -0.0030889960122187101 0 0.024345226750748811 -0.0034318057392339631 0 0.025301773473731581 -0.0030889960122187101 0 0.025139516100573828 -0.0041586679094624572 0 0.026067862220816661 -0.0040109518502568298 0 0.025301773473731581 -0.0030889960122187101 0 0.025139516100573828 -0.0041586679094624572 0 0.024538966666467675 -0.004954551548838176 0 0.025139516100573828 -0.0041586679094624572 0 0.026144443913972127 -0.0052840938523110803 0 0.026067862220816661 -0.0040109518502568298 0 0.025139516100573828 -0.0041586679094624572 0 0.026144443913972127 -0.0052840938523110803 0 0.027182839414044157 -0.0042836383996327542 0 0.026067862220816661 -0.0040109518502568298 0 0.026144443913972127 -0.0052840938523110803 0 0.025771670446699604 -0.0054310852931570876 0 0.025761420716491797 -0.0065895724334711784 0 0.026828201118638758 -0.0069481237083591271 0 0.024752854548236992 -0.0061835456603487769 0 0.025771670446699604 -0.0054310852931570876 0 0.025761420716491797 -0.0065895724334711784 0 0.024752854548236992 -0.0061835456603487769 0 0.025761420716491797 -0.0065895724334711784 0 0.025372571917149769 -0.0079858452771581125 0 0.025761420716491797 -0.0065895724334711784 0 0.025372571917149769 -0.0079858452771581125 0 0.026828201118638758 -0.0069481237083591271 0 0.026537576016686458 -0.0070390928680750947 0 0.027116272552027292 -0.0072951341236233563 0 0.025372571917149769 -0.0079858452771581125 0 0.027941222987117091 -0.0081005412691843182 0 0.026828201118638758 -0.0069481237083591271 0 0.027255830386952427 -0.008767036532329615 0 0.026622087079931352 -0.008695842100237933 0 0.027941222987117091 -0.0081005412691843182 0 0.027941222987117091 -0.0081005412691843182 0 0.026828201118638758 -0.0069481237083591271 0 0.028552733256337781 -0.0069012503952873682 0 0.027182839414044157 -0.0042836383996327542 0 0.026144443913972127 -0.0052840938523110803 0 0.028268421578047653 -0.0053724731521633028 0 0.026832519521297546 -0.0043916308266296229 0 0.027132796628757047 -0.0045225032523970293 0 0.026828201118638758 -0.0069481237083591271 0 0.028268421578047653 -0.0053724731521633028 0 0.028552733256337781 -0.0069012503952873682 0 0.025771670446699604 -0.0054310852931570876 0 0.026828201118638758 -0.0069481237083591271 0 0.028268421578047653 -0.0053724731521633028 0 0.028268421578047653 -0.0053724731521633028 0 0.030319105607906273 -0.0057065498222065017 0 0.029350257574524179 -0.0042313946023525856 0 0.028268421578047653 -0.0053724731521633028 0 0.030319105607906273 -0.0057065498222065017 0 0.028552733256337781 -0.0069012503952873682 0 0.030319105607906273 -0.0057065498222065017 0 0.030149076008900547 -0.0035458026840914595 0 0.029350257574524179 -0.0042313946023525856 0 0.024923546622834473 -0.013676301731953751 0 0.02471606712136323 -0.015471462222625158 0 0.024061810412042278 -0.014442454733312165 0 0.028800844907984853 -0.0085150685149227457 0 0.030319105607906273 -0.0057065498222065017 0 0.028552733256337781 -0.0069012503952873682 0 0.026611216027852953 -0.010213766836467549 0 0.026732877117864939 -0.0095343216244367819 0 0.028800844907984853 -0.0085150685149227457 0 0.027941222987117091 -0.0081005412691843182 0 0.028552733256337781 -0.0069012503952873682 0 0.023710244792845531 -0.013305246094694901 0 0.024061810412042278 -0.014442454733312165 0 0.023296605806845179 -0.014399524511038762 0 0.023710244792845531 -0.013305246094694901 0 0.024923546622834473 -0.013676301731953751 0 0.024061810412042278 -0.014442454733312165 0 0.024061810412042278 -0.014442454733312165 0 0.023655665058937576 -0.015338601258537823 0 0.023296605806845179 -0.014399524511038762 0 0.02471606712136323 -0.015471462222625158 0 0.024061810412042278 -0.014442454733312165 0 0.023655665058937576 -0.015338601258537823 0 0.02471606712136323 -0.015471462222625158 0 0.023655665058937576 -0.015338601258537823 0 0.023993230494232066 -0.01608483304220051 0 0.023655665058937576 -0.015338601258537823 0 0.023993230494232066 -0.01608483304220051 0 0.023053764906341832 -0.016243624380098125 0 0.02471606712136323 -0.015471462222625158 0 0.023993230494232066 -0.01608483304220051 0 0.024553378734725045 -0.017230443484891358 0 0.032824115453768364 -0.0015854172403275263 0 0.031941468216620236 -0.0015405887956836677 0 0.033307985152479624 -0.0023105757998308487 0 0.026615999759756488 -0.007062305174407711 0 0.0277640115811701 -0.0085975414842998036 0 0.023993230494232066 -0.01608483304220051 0 0.024553378734725045 -0.017230443484891358 0 0.023053764906341832 -0.016243624380098125 0 0.030319105607906273 -0.0057065498222065017 0 0.030149076008900547 -0.0035458026840914595 0 0.031210781479663181 -0.0025348153223413287 0 0.026732877117864939 -0.0095343216244367819 0 0.026615999759756488 -0.007062305174407711 0 0.030149076008900547 -0.0035458026840914595 0 0.029350257574524179 -0.0042313946023525856 0 0.029474264833258147 -0.0030089756919067217 0 0.030149076008900547 -0.0035458026840914595 0 0.029474264833258147 -0.0030089756919067217 0 0.030180043548167664 -0.0023437125227115103 0 0.029474264833258147 -0.0030089756919067217 0 0.030180043548167664 -0.0023437125227115103 0 0.029581490255619992 -0.002056466923019553 0 0.030149076008900547 -0.0035458026840914595 0 0.030180043548167664 -0.0023437125227115103 0 0.031210781479663181 -0.0025348153223413287 0 0.031870302212392634 -0.0010666939684024811 0 0.031324897307167532 -0.00010184886051443811 0 0.031569606900072739 0.00068114715462020586 0 0.026615999759756488 -0.007062305174407711 0 0.026669821516593271 -0.0068698933083562765 0 0.029987530725817873 -0.00072199649213892003 0 0.031835161943060512 -0.0015291106288941308 0 0.031870302212392634 -0.0010666939684024811 0 0.029987530725817873 -0.00072199649213892003 0 0.031870302212392634 -0.0010666939684024811 0 0.031324897307167532 -0.00010184886051443811 0 0.029987530725817873 -0.00072199649213892003 0 0.030180043548167664 -0.0023437125227115103 0 0.029581490255619992 -0.002056466923019553 0 0.026954441625865775 -0.0061887009367643702 0 0.026615999759756488 -0.007062305174407711 0 0.029987530725817873 -0.00072199649213892003 0 0.030180043548167664 -0.0023437125227115103 0 0.031210781479663181 -0.0025348153223413287 0 0.029987530725817873 -0.00072199649213892003 0 0.031324897307167532 -0.00010184886051443811 0 0.031288489445226268 0.00086032612208211711 0 0.033048750084953844 -0.00070107649472143777 0 0.033036396221764019 -0.0003333560368329033 0 0.032824115453768364 -0.0015854172403275263 0 0.033283564043691594 -0.0013033255779380062 0 0.033018651845297502 -0.0010689255941126682 0 0.032824115453768364 -0.0015854172403275263 0 0.031870302212392634 -0.0010666939684024811 0 0.031569606900072739 0.00068114715462020586 0 0.032824115453768364 -0.0015854172403275263 0 0.033018651845297502 -0.0010689255941126682 0 0.032684267309348584 -0.00096030650145508998 0 0.032824115453768364 -0.0015854172403275263 0 0.031941468216620236 -0.0015405887956836677 0 0.031870302212392634 -0.0010666939684024811 0 0.03366015232109109 -0.0015368539316897569 0 0.033283564043691594 -0.0013033255779380062 0 0.033362308618049404 -0.0017809350357233292 0 0.032824115453768364 -0.0015854172403275263 0 0.033283564043691594 -0.0013033255779380062 0 0.033362308618049404 -0.0017809350357233292 0 0.033283564043691594 -0.0013033255779380062 0 0.033606220834769787 -0.0012018726986152751 0 0.03333742336035192 -0.00088523535319177645 0 0.03366015232109109 -0.0015368539316897569 0 0.033283564043691594 -0.0013033255779380062 0 0.033606220834769787 -0.0012018726986152751 0 0.03366015232109109 -0.0015368539316897569 0 0.033606220834769787 -0.0012018726986152751 0 0.033889695881312819 -0.0013323380929577495 0 0.033606220834769787 -0.0012018726986152751 0 0.033889695881312819 -0.0013323380929577495 0 0.03386432025173905 -0.00099500992668636701 0 0.033889695881312819 -0.0013323380929577495 0 0.034293017042736088 -0.0013288257848602461 0 0.03386432025173905 -0.00099500992668636701 0 0.033889695881312819 -0.0013323380929577495 0 0.034064113800442622 -0.0017101880717709855 0 0.034293017042736088 -0.0013288257848602461 0 0.03366015232109109 -0.0015368539316897569 0 0.033889695881312819 -0.0013323380929577495 0 0.034064113800442622 -0.0017101880717709855 0 0.03366015232109109 -0.0015368539316897569 0 0.034064113800442622 -0.0017101880717709855 0 0.033898430128381105 -0.0021109917119444808 0 0.034064113800442622 -0.0017101880717709855 0 0.033898430128381105 -0.0021109917119444808 0 0.034527996286473926 -0.0022730335406848665 0 0.033898430128381105 -0.0021109917119444808 0 0.033362308618049404 -0.0017809350357233292 0 0.033307985152479624 -0.0023105757998308487 0 0.03366015232109109 -0.0015368539316897569 0 0.033898430128381105 -0.0021109917119444808 0 0.033362308618049404 -0.0017809350357233292 0 0.032824115453768364 -0.0015854172403275263 0 0.033362308618049404 -0.0017809350357233292 0 0.033307985152479624 -0.0023105757998308487 0 0.023655665058937576 -0.015338601258537823 0 0.023053764906341832 -0.016243624380098125 0 0.02266433301678053 -0.015128963915545404 0 0.023053764906341832 -0.016243624380098125 0 0.02266433301678053 -0.015128963915545404 0 0.021498066598880455 -0.015223124721605906 0 0.0277640115811701 -0.0085975414842998036 0 0.027659364270026444 -0.0090770843921092401 0 0.022222645313355945 -0.013669648392534751 0 0.023710244792845531 -0.013305246094694901 0 0.023296605806845179 -0.014399524511038762 0 0.022222645313355945 -0.013669648392534751 0 0.02266433301678053 -0.015128963915545404 0 0.023296605806845179 -0.014399524511038762 0 0.022222645313355945 -0.013669648392534751 0 0.02266433301678053 -0.015128963915545404 0 0.021498066598880455 -0.015223124721605906 0 0.023655665058937576 -0.015338601258537823 0 0.02266433301678053 -0.015128963915545404 0 0.023296605806845179 -0.014399524511038762 0 0.022222645313355945 -0.013669648392534751 0 0.021130462146915996 -0.014022090717702161 0 0.021498066598880455 -0.015223124721605906 0 0.021130462146915996 -0.014022090717702161 0 0.021498066598880455 -0.015223124721605906 0 0.019961218446875435 -0.014174972336324074 0 0.033898430128381105 -0.0021109917119444808 0 0.033979008902078701 -0.002745761219989771 0 0.034527996286473926 -0.0022730335406848665 0 0.033898430128381105 -0.0021109917119444808 0 0.033307985152479624 -0.0023105757998308487 0 0.033979008902078701 -0.002745761219989771 0 0.033979008902078701 -0.002745761219989771 0 0.034678520485988032 -0.0032556490567764427 0 0.034527996286473926 -0.0022730335406848665 0 0.034535388955499728 -0.0041428999307008534 0 0.035187882233408845 -0.0033296990982699215 0 0.034336907654489129 -0.0028139203278040518 0 0.02749100598464628 -0.00958425682880726 0 0.030768781736913439 -0.0041141709193845567 0 0.027659364270026444 -0.0090770843921092401 0 0.02749100598464628 -0.00958425682880726 0 0.019926276228883624 -0.01457582289052268 0 0.018593088792399952 -0.014779496486892385 0 0.018813014429648424 -0.015945374878218389 0 0.02749100598464628 -0.00958425682880726 0 0.0272119386349985 -0.0081557214562506287 0 0.017602298154614626 -0.013872589832642916 0 0.018715597947276855 -0.013709572978430881 0 0.018593088792399952 -0.014779496486892385 0 0.018715597947276855 -0.013709572978430881 0 0.019926276228883624 -0.01457582289052268 0 0.018593088792399952 -0.014779496486892385 0 0.018593088792399952 -0.014779496486892385 0 0.018813014429648424 -0.015945374878218389 0 0.017571130861237481 -0.015437058103303328 0 0.035187882233408845 -0.0033296990982699215 0 0.035230506968998904 -0.0027462304337588358 0 0.034336907654489129 -0.0028139203278040518 0 0.035187882233408845 -0.0033296990982699215 0 0.035230506968998904 -0.0027462304337588358 0 0.03575597765630794 -0.0026035986694657337 0 0.0272119386349985 -0.0081557214562506287 0 0.027945637792208811 -0.005242349044491279 0 0.035230506968998904 -0.0027462304337588358 0 0.035374985358558445 -0.0022144097670105094 0 0.03575597765630794 -0.0026035986694657337 0 0.035374985358558445 -0.0022144097670105094 0 0.034836316889262663 -0.0023990755909251149 0 0.034629868275612992 -0.0018162585443915762 0 0.035230506968998904 -0.0027462304337588358 0 0.034836316889262663 -0.0023990755909251149 0 0.034336907654489129 -0.0028139203278040518 0 0.035230506968998904 -0.0027462304337588358 0 0.035374985358558445 -0.0022144097670105094 0 0.034836316889262663 -0.0023990755909251149 0 0.030768781736913439 -0.0041141709193845567 0 0.032164459974970069 -0.0023000465180921699 0 0.034064113800442622 -0.0017101880717709855 0 0.034527996286473926 -0.0022730335406848665 0 0.034293017042736088 -0.0013288257848602461 0 0.034836316889262663 -0.0023990755909251149 0 0.034336907654489129 -0.0028139203278040518 0 0.034629868275612992 -0.0018162585443915762 0 0.034336907654489129 -0.0028139203278040518 0 0.034629868275612992 -0.0018162585443915762 0 0.034160617487505637 -0.0016098013388712782 0 0.034160617487505637 -0.0016098013388712782 0 0.034651870287671867 -0.0014638603036191682 0 0.034322918870710324 -0.0010953498380655293 0 0.034629868275612992 -0.0018162585443915762 0 0.034160617487505637 -0.0016098013388712782 0 0.034651870287671867 -0.0014638603036191682 0 0.030332176423981977 -0.0047086331540760048 0 0.03138225292599349 -0.0044216923893904969 0 0.035309767670192511 -0.0021839676019179037 0 0.034629868275612992 -0.0018162585443915762 0 0.034651870287671867 -0.0014638603036191682 0 0.030332176423981977 -0.0047086331540760048 0 0.031552551798266437 -0.0047136272283493453 0 0.035176148281565268 -0.002034572119425886 0 0.034651870287671867 -0.0014638603036191682 0 0.034982649161391523 -0.0015247259674715128 0 0.035176148281565268 -0.002034572119425886 0 0.034982649161391523 -0.0015247259674715128 0 0.03553122377025323 -0.0021918789026191699 0 0.03212788590835617 -0.0030934388598464562 0 0.029412013587018216 -0.0039979695140865039 0 0.034687471488323365 -0.00087546545168950803 0 0.034794451511705175 -0.00087535982350862255 0 0.034766108901379503 -0.00080110170389566596 0 0.034687471488323365 -0.00087546545168950803 0 0.034706507465037562 -0.00072793501727350736 0 0.034415932183527218 -0.00072824757147375559 0 0.034706507465037562 -0.00072793501727350736 0 0.034754787394195553 -0.00064481787051685945 0 0.034796553973592867 -0.00072319985017517689 0 0.034706507465037562 -0.00072793501727350736 0 0.034796553973592867 -0.00072319985017517689 0 0.034766108901379503 -0.00080110170389566596 0 0.034687471488323365 -0.00087546545168950803 0 0.034706507465037562 -0.00072793501727350736 0 0.034766108901379503 -0.00080110170389566596 0 0.034651870287671867 -0.0014638603036191682 0 0.034982649161391523 -0.0015247259674715128 0 0.034415932183527218 -0.00072824757147375559 0 0.034651870287671867 -0.0014638603036191682 0 0.034322918870710324 -0.0010953498380655293 0 0.034415932183527218 -0.00072824757147375559 0 0.034706507465037562 -0.00072793501727350736 0 0.034415932183527218 -0.00072824757147375559 0 0.034644076618907615 -0.00062818381177330085 0 0.03212788590835617 -0.0030934388598464562 0 0.032648178189781753 -0.0025756316958734332 0 0.034322918870710324 -0.0010953498380655293 0 0.034415932183527218 -0.00072824757147375559 0 0.034085532026520128 -0.00058964378998221803 0 0.034415932183527218 -0.00072824757147375559 0 0.034644076618907615 -0.00062818381177330085 0 0.034456576483848214 -0.00033898313503804808 0 0.034415932183527218 -0.00072824757147375559 0 0.034456576483848214 -0.00033898313503804808 0 0.034085532026520128 -0.00058964378998221803 0 0.034644076618907615 -0.00062818381177330085 0 0.034456576483848214 -0.00033898313503804808 0 0.034759440309086058 -0.00023165725137678706 0 0.034644076618907615 -0.00062818381177330085 0 0.034759440309086058 -0.00023165725137678706 0 0.035036573641740308 -5.8616351432959952e-05 0 0.034644076618907615 -0.00062818381177330085 0 0.034754787394195553 -0.00064481787051685945 0 0.034784792696147128 -0.00053836201015367859 0 0.034698762110107494 -0.00043693857070992181 0 0.03478383325537647 -0.00030069062353966776 0 0.034706507465037562 -0.00072793501727350736 0 0.034644076618907615 -0.00062818381177330085 0 0.034754787394195553 -0.00064481787051685945 0 0.034759440309086058 -0.00023165725137678706 0 0.034863942888505479 4.1927122437431796e-05 0 0.035036573641740308 -5.8616351432959952e-05 0 0.034999862800161909 7.4732977871006714e-08 0 0.034863942888505479 4.1927122437431796e-05 0 0.034999808093491049 -3.7155730931766595e-08 0 0.034999862800161909 7.4732977871006714e-08 0 0.034863942888505479 4.1927122437431796e-05 0 0.035036573641740308 -5.8616351432959952e-05 0 0.034863942888505479 4.1927122437431796e-05 0 0.034999808093491049 -3.7155730931766595e-08 0 0.034991667672561497 4.3491748441231843e-05 0 0.034456576483848214 -0.00033898313503804808 0 0.034759440309086058 -0.00023165725137678706 0 0.034863942888505479 4.1927122437431796e-05 0 0.034588856735876763 -1.3610548902165581e-05 0 0.03450383300352209 -4.0456352195749141e-05 0 0.034456576483848214 -0.00033898313503804808 0 0.034863942888505479 4.1927122437431796e-05 0 0.034182619850297531 2.7211473255525935e-05 0 0.034182619850297531 2.7211473255525935e-05 0 0.033845866618292843 -0.00035538996426416549 0 0.034142042730436716 -0.0003162314736865334 0 0.034456576483848214 -0.00033898313503804808 0 0.034182619850297531 2.7211473255525935e-05 0 0.034142042730436716 -0.0003162314736865334 0 0.034182619850297531 2.7211473255525935e-05 0 0.033602491403067543 -0.00010075208904057927 0 0.033845866618292843 -0.00035538996426416549 0 0.03450383300352209 -4.0456352195749141e-05 0 0.034345465568996557 -0.00010421635844381084 0 0.034999808093491049 -3.7155730931766595e-08 0 0.034991667672561497 4.3491748441231843e-05 0 0.035000138788783011 4.819452849199931e-08 0 0.034991667672561497 4.3491748441231843e-05 0 0.035000138788783011 4.819452849199931e-08 0 0.035016327894425284 4.952963099186359e-05 0 0.03499888541680253 4.8819204354233712e-08 0 0.034345465568996557 -0.00010421635844381084 0 0.035000047444808217 -1.4552887869549118e-08 0 0.035008183053018949 -2.579095584394034e-05 0 0.034998167448558527 -1.501898340479807e-05 0 0.034345465568996557 -0.00010421635844381084 0 0.033951004879295511 -0.00012365463017506082 0 0.033486909056900861 0.00011723422026028985 0 0.03340841232415917 -0.00038181106537024987 0 0.032918489787331084 -7.070415510854876e-05 0 0.03350722059286379 -0.00050187755220378006 0 0.033845866618292843 -0.00035538996426416549 0 0.033748339906403628 -0.00067856924691766889 0 0.034345465568996557 -0.00010421635844381084 0 0.034118344329893982 -0.00038280315656391816 0 0.033602491403067543 -0.00010075208904057927 0 0.03350722059286379 -0.00050187755220378006 0 0.033845866618292843 -0.00035538996426416549 0 0.033845866618292843 -0.00035538996426416549 0 0.034142042730436716 -0.0003162314736865334 0 0.034085532026520128 -0.00058964378998221803 0 0.034456576483848214 -0.00033898313503804808 0 0.034142042730436716 -0.0003162314736865334 0 0.034085532026520128 -0.00058964378998221803 0 0.033845866618292843 -0.00035538996426416549 0 0.034085532026520128 -0.00058964378998221803 0 0.033748339906403628 -0.00067856924691766889 0 0.034085532026520128 -0.00058964378998221803 0 0.033748339906403628 -0.00067856924691766889 0 0.03386432025173905 -0.00099500992668636701 0 0.034293017042736088 -0.0013288257848602461 0 0.034085532026520128 -0.00058964378998221803 0 0.03386432025173905 -0.00099500992668636701 0 0.032164459974970069 -0.0023000465180921699 0 0.032527826732671669 -0.0016487560665223412 0 0.034160617487505637 -0.0016098013388712782 0 0.034322918870710324 -0.0010953498380655293 0 0.034085532026520128 -0.00058964378998221803 0 0.033606220834769787 -0.0012018726986152751 0 0.03386432025173905 -0.00099500992668636701 0 0.03333742336035192 -0.00088523535319177645 0 0.033283564043691594 -0.0013033255779380062 0 0.03333742336035192 -0.00088523535319177645 0 0.033018651845297502 -0.0010689255941126682 0 0.03340841232415917 -0.00038181106537024987 0 0.03333742336035192 -0.00088523535319177645 0 0.03294903619114075 -0.00056740707317230407 0 0.034118344329893982 -0.00038280315656391816 0 0.034037204885696476 -0.00052309898846308823 0 0.03350722059286379 -0.00050187755220378006 0 0.033748339906403628 -0.00067856924691766889 0 0.03333742336035192 -0.00088523535319177645 0 0.033748339906403628 -0.00067856924691766889 0 0.03386432025173905 -0.00099500992668636701 0 0.03333742336035192 -0.00088523535319177645 0 0.03333742336035192 -0.00088523535319177645 0 0.033018651845297502 -0.0010689255941126682 0 0.03294903619114075 -0.00056740707317230407 0 0.033018651845297502 -0.0010689255941126682 0 0.032684267309348584 -0.00096030650145508998 0 0.03294903619114075 -0.00056740707317230407 0 0.032684267309348584 -0.00096030650145508998 0 0.032363569674463098 -0.00025823714758510373 0 0.03294903619114075 -0.00056740707317230407 0 0.031569606900072739 0.00068114715462020586 0 0.031460651944363635 -0.00038785997610466053 0 0.031965857452562044 0.00029151830562407872 0 0.031324897307167532 -0.00010184886051443811 0 0.031569606900072739 0.00068114715462020586 0 0.031288489445226268 0.00086032612208211711 0 0.031569606900072739 0.00068114715462020586 0 0.031288489445226268 0.00086032612208211711 0 0.031965857452562044 0.00029151830562407872 0 0.033036396221764019 -0.0003333560368329033 0 0.033532955384835472 -0.00016874216670958566 0 0.033532955384835472 -0.00016874216670958566 0 0.033951004879295511 -0.00012365463017506082 0 0.032363569674463098 -0.00025823714758510373 0 0.03294903619114075 -0.00056740707317230407 0 0.032918489787331084 -7.070415510854876e-05 0 0.03340841232415917 -0.00038181106537024987 0 0.03294903619114075 -0.00056740707317230407 0 0.032918489787331084 -7.070415510854876e-05 0 0.035008183053018949 -2.579095584394034e-05 0 0.034991930664220461 -3.8781618237250849e-05 0 0.034998167448558527 -1.501898340479807e-05 0 0.034991930664220461 -3.8781618237250849e-05 0 0.034998167448558527 -1.501898340479807e-05 0 0.034982497208816472 -2.7242248765399099e-05 0 0.034999946692593077 9.7384914540028833e-10 0 0.034998167448558527 -1.501898340479807e-05 0 0.034982497208816472 -2.7242248765399099e-05 0 0.035000047444808217 -1.4552887869549118e-08 0 0.034999946692593077 9.7384914540028833e-10 0 0.034998167448558527 -1.501898340479807e-05 0 0.034999946692593077 9.7384914540028833e-10 0 0.034952426912315572 -3.0579518502357897e-05 0 0.034925672515151877 1.3286045987857221e-08 0 0.034999946692593077 9.7384914540028833e-10 0 0.034982497208816472 -2.7242248765399099e-05 0 0.034952426912315572 -3.0579518502357897e-05 0 0.033532955384835472 -0.00016874216670958566 0 0.03390768213031619 -0.00013887020982734561 0 0.034967139068448123 -5.2020834618243569e-05 0 0.034982497208816472 -2.7242248765399099e-05 0 0.034952426912315572 -3.0579518502357897e-05 0 0.034967139068448123 -5.2020834618243569e-05 0 0.034991930664220461 -3.8781618237250849e-05 0 0.034982497208816472 -2.7242248765399099e-05 0 0.034135548569812942 -2.944479077774499e-05 0 0.034235818046687329 8.5940526449395867e-06 0 0.03399715519540953 2.6487077828665281e-05 0 0.034235818046687329 8.5940526449395867e-06 0 0.034624740289344057 -3.1859872855540417e-05 0 0.034287701761639082 -4.8711105041310768e-05 0 0.034235818046687329 8.5940526449395867e-06 0 0.034287701761639082 -4.8711105041310768e-05 0 0.03399715519540953 2.6487077828665281e-05 0 0.034235818046687329 8.5940526449395867e-06 0 0.034624740289344057 -3.1859872855540417e-05 0 0.034924370021714751 -3.1599909067815761e-07 0 0.03390768213031619 -0.00013887020982734561 0 0.034027318045733876 -0.00010704484905341045 0 0.034624740289344057 -3.1859872855540417e-05 0 0.034924370021714751 -3.1599909067815761e-07 0 0.034724994538178101 -6.8406514372937387e-05 0 0.034999899126139898 -1.1370914692756551e-07 0 0.034924370021714751 -3.1599909067815761e-07 0 0.034724994538178101 -6.8406514372937387e-05 0 0.034624740289344057 -3.1859872855540417e-05 0 0.034724994538178101 -6.8406514372937387e-05 0 0.034287701761639082 -4.8711105041310768e-05 0 0.034892130218615855 -5.6318068273792786e-05 0 0.034724994538178101 -6.8406514372937387e-05 0 0.034287701761639082 -4.8711105041310768e-05 0 0.034775238406870065 0.00033844313091150805 0 0.034287701761639082 -4.8711105041310768e-05 0 0.034219173957923073 0.00055527129217550794 0 0.034287701761639082 -4.8711105041310768e-05 0 0.033539494755725513 3.4822187295690601e-05 0 0.034219173957923073 0.00055527129217550794 0 0.034135548569812942 -2.944479077774499e-05 0 0.03399715519540953 2.6487077828665281e-05 0 0.033539494755725513 3.4822187295690601e-05 0 0.033532955384835472 -0.00016874216670958566 0 0.033512851799286328 -0.00014816074956072633 0 0.034287701761639082 -4.8711105041310768e-05 0 0.03399715519540953 2.6487077828665281e-05 0 0.033539494755725513 3.4822187295690601e-05 0 0.031460651944363635 -0.00038785997610466053 0 0.031965857452562044 0.00029151830562407872 0 0.033539494755725513 3.4822187295690601e-05 0 0.031965857452562044 0.00029151830562407872 0 0.033539494755725513 3.4822187295690601e-05 0 0.033634551787637371 0.0014082762817202532 0 0.030838675319255531 -0.00038859998081357158 0 0.030670528281296554 -0.00062408711880555638 0 0.031288489445226268 0.00086032612208211711 0 0.031965857452562044 0.00029151830562407872 0 0.033634551787637371 0.0014082762817202532 0 0.033539494755725513 3.4822187295690601e-05 0 0.034219173957923073 0.00055527129217550794 0 0.033634551787637371 0.0014082762817202532 0 0.034823352274570701 0.0014696669607650919 0 0.034219173957923073 0.00055527129217550794 0 0.033634551787637371 0.0014082762817202532 0 0.027504899817061699 -0.0026287207635966032 0 0.027348759872285449 -0.0026600623461322456 0 0.027451231301744972 -0.0025309840588909832 0 0.027504899817061699 -0.0026287207635966032 0 0.027348759872285449 -0.0026600623461322456 0 0.02742163907364786 -0.0027571824509691261 0 0.027504899817061699 -0.0026287207635966032 0 0.027635631058101504 -0.0026796040329606697 0 0.027542744884320271 -0.0027449645421721586 0 0.027348759872285449 -0.0026600623461322456 0 0.027321780733422927 -0.0025378741281134182 0 0.027253390894209653 -0.0026276417065033888 0 0.027348759872285449 -0.0026600623461322456 0 0.027321780733422927 -0.0025378741281134182 0 0.027451231301744972 -0.0025309840588909832 0 0.027321780733422927 -0.0025378741281134182 0 0.027451231301744972 -0.0025309840588909832 0 0.027449323617656275 -0.0023823293843347258 0 0.027321780733422927 -0.0025378741281134182 0 0.027449323617656275 -0.0023823293843347258 0 0.027351980581499374 -0.0023312980237839473 0 0.027504899817061699 -0.0026287207635966032 0 0.027451231301744972 -0.0025309840588909832 0 0.027583189793132842 -0.0024770375241774055 0 0.027451231301744972 -0.0025309840588909832 0 0.027583189793132842 -0.0024770375241774055 0 0.027449323617656275 -0.0023823293843347258 0 0.028630760512115144 -0.0013690334701442523 0 0.028944139218656694 -0.0014089084348909028 0 0.029993831755705906 -0.00083582463433875913 0 0.030013475798337672 -0.0007202608202751769 0 0.030111202818703248 -0.00094317004835183372 0 0.027453991193129166 -0.0021461739609157644 0 0.027367032332624757 -0.0020545328146736237 0 0.027433008869936961 -0.0022027185953990692 0 0.027298964040428798 -0.0020286152487070464 0 0.027367032332624757 -0.0020545328146736237 0 0.027433008869936961 -0.0022027185953990692 0 0.030015541336205757 -0.00092715587519932819 0 0.029993831755705906 -0.00083582463433875913 0 0.030111202818703248 -0.00094317004835183372 0 0.031644456387605283 -0.00099147850339276135 0 0.030887189193661544 -0.0011013726429118644 0 0.028205560584606836 -0.0028696005429242476 0 0.028280390720511799 -0.0026920208504940531 0 0.028647798527520939 -0.0031673954145212666 0 0.030015541336205757 -0.00092715587519932819 0 0.029993831755705906 -0.00083582463433875913 0 0.029883654574607892 -0.00083018452348840451 0 0.029779334449748226 -0.0012793087732261184 0 0.030887189193661544 -0.0011013726429118644 0 0.029993831755705906 -0.00083582463433875913 0 0.029943762160256994 -0.00075825143505562861 0 0.029883654574607892 -0.00083018452348840451 0 0.029993831755705906 -0.00083582463433875913 0 0.029943762160256994 -0.00075825143505562861 0 0.030013475798337672 -0.0007202608202751769 0 0.029943762160256994 -0.00075825143505562861 0 0.030013475798337672 -0.0007202608202751769 0 0.029943033836899648 -0.00067183662602771142 0 0.029943762160256994 -0.00075825143505562861 0 0.029943033836899648 -0.00067183662602771142 0 0.029881422788474683 -0.00070034964132580763 0 0.026995160251398476 -0.0023423205598024559 0 0.026586073935605435 -0.0021250834889183518 0 0.027504899817061699 -0.0026287207635966032 0 0.027583189793132842 -0.0024770375241774055 0 0.027635631058101504 -0.0026796040329606697 0 0.027453991193129166 -0.0021461739609157644 0 0.027367032332624757 -0.0020545328146736237 0 0.027372799301305799 -0.0019865847647982894 0 0.027298964040428798 -0.0020286152487070464 0 0.027367032332624757 -0.0020545328146736237 0 0.027333559736229231 -0.002016974059012723 0 0.026617775902655114 -0.0021012060072228105 0 0.026586073935605435 -0.0021250834889183518 0 0.026586073935605435 -0.0021250834889183518 0 0.025672233520170187 -0.0022249326263916605 0 0.026937113534177382 -0.0014144224152251566 0 0.026875528570252178 -0.0017054377322959508 0 0.027056054812682931 -0.0018211087927683682 0 0.027635631058101504 -0.0026796040329606697 0 0.027607659426699401 -0.002848070859110376 0 0.027542744884320271 -0.0027449645421721586 0 0.027333559736229231 -0.002016974059012723 0 0.027292474947923993 -0.0020194776537468284 0 0.027249719946120219 -0.0020328398613721523 0 0.026586073935605435 -0.0021250834889183518 0 0.026844112283143835 -0.0020865428832790695 0 0.027298964040428798 -0.0020286152487070464 0 0.027333559736229231 -0.002016974059012723 0 0.027292474947923993 -0.0020194776537468284 0 0.030013475798337672 -0.0007202608202751769 0 0.029943033836899648 -0.00067183662602771142 0 0.029928648356738342 -0.00048617803051889826 0 0.027298964040428798 -0.0020286152487070464 0 0.027292474947923993 -0.0020194776537468284 0 0.027311570519948598 -0.0020164271236868822 0 0.028630760512115144 -0.0013690334701442523 0 0.028243933697563239 -0.0012224171280427797 0 0.029943033836899648 -0.00067183662602771142 0 0.029928648356738342 -0.00048617803051889826 0 0.029901500729390955 -0.00062254381018373188 0 0.027292474947923993 -0.0020194776537468284 0 0.027282819608361653 -0.0020329334558918614 0 0.027311570519948598 -0.0020164271236868822 0 0.027292474947923993 -0.0020194776537468284 0 0.027282819608361653 -0.0020329334558918614 0 0.027249719946120219 -0.0020328398613721523 0 0.027282819608361653 -0.0020329334558918614 0 0.027275731665703341 -0.0020633419476849858 0 0.027249719946120219 -0.0020328398613721523 0 0.027266210546822423 -0.0021193382957153269 0 0.027275731665703341 -0.0020633419476849858 0 0.027249719946120219 -0.0020328398613721523 0 0.02730844379011407 -0.0021029868485858646 0 0.027282819608361653 -0.0020329334558918614 0 0.027311570519948598 -0.0020164271236868822 0 0.02730844379011407 -0.0021029868485858646 0 0.027282819608361653 -0.0020329334558918614 0 0.027275731665703341 -0.0020633419476849858 0 0.02730844379011407 -0.0021029868485858646 0 0.027266210546822423 -0.0021193382957153269 0 0.027275731665703341 -0.0020633419476849858 0 0.026803825123350052 -0.0020073357678407166 0 0.026875528570252178 -0.0017054377322959508 0 0.026955645094863284 -0.0018758300911005819 0 0.024279319757104255 -0.0025678938856155504 0 0.025672233520170187 -0.0022249326263916605 0 0.026875528570252178 -0.0017054377322959508 0 0.027056054812682931 -0.0018211087927683682 0 0.026955645094863284 -0.0018758300911005819 0 0.026942532489440958 -0.0019793842168360177 0 0.027056054812682931 -0.0018211087927683682 0 0.026955645094863284 -0.0018758300911005819 0 0.02680796192557126 -0.0020042777194083827 0 0.026942532489440958 -0.0019793842168360177 0 0.026955645094863284 -0.0018758300911005819 0 0.024279319757104255 -0.0025678938856155504 0 0.024649497935151393 -0.0023251890022973126 0 0.027488074923592811 -0.0029051159635262486 0 0.02742163907364786 -0.0027571824509691261 0 0.027335221306044183 -0.0029280515831780467 0 0.027416732383444217 -0.0030445450575310655 0 0.027582211143320792 -0.003055538514071351 0 0.027488074923592811 -0.0029051159635262486 0 0.027582211143320792 -0.003055538514071351 0 0.027607659426699401 -0.002848070859110376 0 0.027488074923592811 -0.0029051159635262486 0 0.027416732383444217 -0.0030445450575310655 0 0.027488074923592811 -0.0029051159635262486 0 0.027335221306044183 -0.0029280515831780467 0 0.027488074923592811 -0.0029051159635262486 0 0.02742163907364786 -0.0027571824509691261 0 0.027542744884320271 -0.0027449645421721586 0 0.027607659426699401 -0.002848070859110376 0 0.027488074923592811 -0.0029051159635262486 0 0.027542744884320271 -0.0027449645421721586 0 0.027504899817061699 -0.0026287207635966032 0 0.02742163907364786 -0.0027571824509691261 0 0.027542744884320271 -0.0027449645421721586 0 0.02742163907364786 -0.0027571824509691261 0 0.027292170343266801 -0.0027798962956986683 0 0.027335221306044183 -0.0029280515831780467 0 0.027348759872285449 -0.0026600623461322456 0 0.027292170343266801 -0.0027798962956986683 0 0.027258687944793501 -0.0027012902179692302 0 0.027348759872285449 -0.0026600623461322456 0 0.02742163907364786 -0.0027571824509691261 0 0.027292170343266801 -0.0027798962956986683 0 0.027236956238769993 -0.0031241414585402218 0 0.027335221306044183 -0.0029280515831780467 0 0.027087638867182635 -0.0029611270928521674 0 0.027335221306044183 -0.0029280515831780467 0 0.027087638867182635 -0.0029611270928521674 0 0.026968869940024984 -0.0027519101171720973 0 0.022455142196348025 -0.0069560230070430142 0 0.0256816751390254 -0.0037755965099866254 0 0.027292170343266801 -0.0027798962956986683 0 0.027335221306044183 -0.0029280515831780467 0 0.027193368536539673 -0.0027982055505627887 0 0.026361682732789399 -0.0037615522647594627 0 0.0256816751390254 -0.0037755965099866254 0 0.026915756739280618 -0.0031298478437217976 0 0.027087638867182635 -0.0029611270928521674 0 0.026968869940024984 -0.0027519101171720973 0 0.025030238342665705 -0.003603470641324171 0 0.024836008375226447 -0.004961305124465196 0 0.026247669692134563 -0.0048106033567386656 0 0.022455142196348025 -0.0069560230070430142 0 0.024008695338636362 -0.0072390146087124982 0 0.016148229815589461 -0.01400640454815179 0 0.01408522005725645 -0.013584928890182497 0 0.015955619327699094 -0.015408577072190711 0 0.024836008375226447 -0.004961305124465196 0 0.026247669692134563 -0.0048106033567386656 0 0.026247396220462724 -0.0051049372944932062 0 0.0256816751390254 -0.0037755965099866254 0 0.026992360034480641 -0.0038348471351484338 0 0.024836008375226447 -0.004961305124465196 0 0.026247396220462724 -0.0051049372944932062 0 0.026011182959185388 -0.005542147528875452 0 0.027157360492256036 -0.0027110962524916756 0 0.027200943458832089 -0.002778423199345272 0 0.027097084950135714 -0.0027188723575626451 0 0.027157360492256036 -0.0027110962524916756 0 0.027205584762544033 -0.0027471427347351548 0 0.02720778772468321 -0.0026862107178568387 0 0.027205584762544033 -0.0027471427347351548 0 0.027258687944793501 -0.0027012902179692302 0 0.02720778772468321 -0.0026862107178568387 0 0.027292170343266801 -0.0027798962956986683 0 0.027205584762544033 -0.0027471427347351548 0 0.027258687944793501 -0.0027012902179692302 0 0.027292170343266801 -0.0027798962956986683 0 0.027205584762544033 -0.0027471427347351548 0 0.027193368536539673 -0.0027982055505627887 0 0.027157360492256036 -0.0027110962524916756 0 0.027205584762544033 -0.0027471427347351548 0 0.027200943458832089 -0.002778423199345272 0 0.025712014820552711 -0.0037085422638967976 0 0.0256816751390254 -0.0037755965099866254 0 0.017602298154614626 -0.013872589832642916 0 0.018593088792399952 -0.014779496486892385 0 0.017571130861237481 -0.015437058103303328 0 0.016148229815589461 -0.01400640454815179 0 0.017602298154614626 -0.013872589832642916 0 0.017571130861237481 -0.015437058103303328 0 0.016148229815589461 -0.01400640454815179 0 0.017571130861237481 -0.015437058103303328 0 0.015955619327699094 -0.015408577072190711 0 0.026247396220462724 -0.0051049372944932062 0 0.026011182959185388 -0.005542147528875452 0 0.027186605636854242 -0.0061119251134897148 0 0.026247669692134563 -0.0048106033567386656 0 0.026247396220462724 -0.0051049372944932062 0 0.027497207686341257 -0.0060451961216721568 0 0.028343778504469577 -0.0041365457176748164 0 0.028955445071707272 -0.0039912575118051631 0 0.018813014429648424 -0.015945374878218389 0 0.017571130861237481 -0.015437058103303328 0 0.017800528000066013 -0.017199604576386779 0 0.024008695338636362 -0.0072390146087124982 0 0.027945637792208811 -0.005242349044491279 0 0.017571130861237481 -0.015437058103303328 0 0.015955619327699094 -0.015408577072190711 0 0.017800528000066013 -0.017199604576386779 0 0.026247396220462724 -0.0051049372944932062 0 0.027497207686341257 -0.0060451961216721568 0 0.027210986855602234 -0.0061434497248234413 0 0.030043355682384577 -0.0050746664145387239 0 0.027663131282291871 -0.0026697190693725842 0 0.026773309772404306 -0.0037719511936623578 0 0.030332176423981977 -0.0047086331540760048 0 0.027945637792208811 -0.005242349044491279 0 0.030332176423981977 -0.0047086331540760048 0 0.029412013587018216 -0.0039979695140865039 0 0.027497207686341257 -0.0060451961216721568 0 0.027210986855602234 -0.0061434497248234413 0 0.027322107791456399 -0.0062645164340381808 0 0.027945637792208811 -0.005242349044491279 0 0.029412013587018216 -0.0039979695140865039 0 0.028955445071707272 -0.0039912575118051631 0 0.029412013587018216 -0.0039979695140865039 0 0.026876098171813939 -0.0026450899755830906 0 0.026841726146028429 -0.0026153057680365667 0 0.02701910766542923 -0.002617209559751909 0 0.026992360034480641 -0.0038348471351484338 0 0.028955445071707272 -0.0039912575118051631 0 0.026841726146028429 -0.0026153057680365667 0 0.02701910766542923 -0.002617209559751909 0 0.027033920211774223 -0.0022937419096776086 0 0.027097084950135714 -0.0027188723575626451 0 0.026876098171813939 -0.0026450899755830906 0 0.02701910766542923 -0.002617209559751909 0 0.02701910766542923 -0.002617209559751909 0 0.027113342092826485 -0.0026347484818624763 0 0.027133498595037008 -0.0025156879494952589 0 0.027097084950135714 -0.0027188723575626451 0 0.02701910766542923 -0.002617209559751909 0 0.027113342092826485 -0.0026347484818624763 0 0.027033920211774223 -0.0022937419096776086 0 0.027439688631732795 -0.0022989975054929679 0 0.027339531709574646 -0.0018949236069166239 0 0.02701910766542923 -0.002617209559751909 0 0.027033920211774223 -0.0022937419096776086 0 0.027439688631732795 -0.0022989975054929679 0 0.027745199219322721 -0.0027178087880636759 0 0.028125644817706227 -0.0025390913315508556 0 0.034798737353693474 -0.00099369794989997095 0 0.034892714762947218 -0.00087695248879695036 0 0.034794451511705175 -0.00087535982350862255 0 0.029412013587018216 -0.0039979695140865039 0 0.0305651211393352 -0.0022323552265275234 0 0.034687471488323365 -0.00087546545168950803 0 0.034798737353693474 -0.00099369794989997095 0 0.034794451511705175 -0.00087535982350862255 0 0.034892714762947218 -0.00087695248879695036 0 0.034794451511705175 -0.00087535982350862255 0 0.034834558791042719 -0.00080494394744182228 0 0.034794451511705175 -0.00087535982350862255 0 0.034766108901379503 -0.00080110170389566596 0 0.034834558791042719 -0.00080494394744182228 0 0.027253390894209653 -0.0026276417065033888 0 0.027177580499875897 -0.0026216851091164601 0 0.027223358774484573 -0.0025408744046466251 0 0.027321780733422927 -0.0025378741281134182 0 0.027253390894209653 -0.0026276417065033888 0 0.027223358774484573 -0.0025408744046466251 0 0.027348759872285449 -0.0026600623461322456 0 0.027258687944793501 -0.0027012902179692302 0 0.027253390894209653 -0.0026276417065033888 0 0.027258687944793501 -0.0027012902179692302 0 0.027253390894209653 -0.0026276417065033888 0 0.02720778772468321 -0.0026862107178568387 0 0.027253390894209653 -0.0026276417065033888 0 0.02720778772468321 -0.0026862107178568387 0 0.027177580499875897 -0.0026216851091164601 0 0.027113342092826485 -0.0026347484818624763 0 0.027177580499875897 -0.0026216851091164601 0 0.027133498595037008 -0.0025156879494952589 0 0.027157360492256036 -0.0027110962524916756 0 0.027113342092826485 -0.0026347484818624763 0 0.027177580499875897 -0.0026216851091164601 0 0.027157360492256036 -0.0027110962524916756 0 0.02720778772468321 -0.0026862107178568387 0 0.027177580499875897 -0.0026216851091164601 0 0.027157360492256036 -0.0027110962524916756 0 0.027097084950135714 -0.0027188723575626451 0 0.027113342092826485 -0.0026347484818624763 0 0.027177580499875897 -0.0026216851091164601 0 0.027133498595037008 -0.0025156879494952589 0 0.027223358774484573 -0.0025408744046466251 0 0.029056320929733929 -0.001757840733366436 0 0.02960235714864656 -0.0017622185904041495 0 0.027133498595037008 -0.0025156879494952589 0 0.027223358774484573 -0.0025408744046466251 0 0.027248322601384913 -0.0024073684635975826 0 0.027321780733422927 -0.0025378741281134182 0 0.027223358774484573 -0.0025408744046466251 0 0.027248322601384913 -0.0024073684635975826 0 0.02960235714864656 -0.0017622185904041495 0 0.030210763449676235 -0.0015270071024832052 0 0.027888075253604459 -0.0019011229925663803 0 0.027339531709574646 -0.0018949236069166239 0 0.027671385429130828 -0.0014867560464334392 0 0.028125644817706227 -0.0025390913315508556 0 0.02960235714864656 -0.0017622185904041495 0 0.027439688631732795 -0.0022989975054929679 0 0.027888075253604459 -0.0019011229925663803 0 0.027339531709574646 -0.0018949236069166239 0 0.034975833868903822 -0.00075293653732591743 0 0.034973542004023674 -0.00061403033872557407 0 0.035052452263383389 -0.00064411049154016755 0 0.030940777284178819 -0.0014813160507639513 0 0.031029665205661305 -0.0010465134715509057 0 0.034973542004023674 -0.00061403033872557407 0 0.035052452263383389 -0.00064411049154016755 0 0.034999405980522202 -0.00054365484509702553 0 0.030717353016848498 -0.0011695579536482288 0 0.030598588101690704 -0.00094419983739479495 0 0.030915545818269455 -0.00098550451501984199 0 0.030598588101690704 -0.00094419983739479495 0 0.030746770817153306 -0.00076123430517952137 0 0.030915545818269455 -0.00098550451501984199 0 0.031029665205661305 -0.0010465134715509057 0 0.03184047917440723 -0.00068284638963016513 0 0.02960235714864656 -0.0017622185904041495 0 0.031029665205661305 -0.0010465134715509057 0 0.034796553973592867 -0.00072319985017517689 0 0.034766108901379503 -0.00080110170389566596 0 0.034834558791042719 -0.00080494394744182228 0 0.034796553973592867 -0.00072319985017517689 0 0.034834558791042719 -0.00080494394744182228 0 0.034890836924546864 -0.00073221100432219589 0 0.0305651211393352 -0.0022323552265275234 0 0.030940777284178819 -0.0014813160507639513 0 0.034892714762947218 -0.00087695248879695036 0 0.034975833868903822 -0.00075293653732591743 0 0.034890836924546864 -0.00073221100432219589 0 0.034892714762947218 -0.00087695248879695036 0 0.034834558791042719 -0.00080494394744182228 0 0.034890836924546864 -0.00073221100432219589 0 0.034975833868903822 -0.00075293653732591743 0 0.034890836924546864 -0.00073221100432219589 0 0.034907601514024882 -0.00064458443568058115 0 0.034975833868903822 -0.00075293653732591743 0 0.034973542004023674 -0.00061403033872557407 0 0.034907601514024882 -0.00064458443568058115 0 0.034973542004023674 -0.00061403033872557407 0 0.034907601514024882 -0.00064458443568058115 0 0.034928365882498306 -0.00058202112149003922 0 0.034907601514024882 -0.00064458443568058115 0 0.034832523243425985 -0.00063447467399506115 0 0.034878821240222978 -0.00055977557821433241 0 0.034890836924546864 -0.00073221100432219589 0 0.034907601514024882 -0.00064458443568058115 0 0.034832523243425985 -0.00063447467399506115 0 0.034754787394195553 -0.00064481787051685945 0 0.034832523243425985 -0.00063447467399506115 0 0.034784792696147128 -0.00053836201015367859 0 0.034796553973592867 -0.00072319985017517689 0 0.034890836924546864 -0.00073221100432219589 0 0.034832523243425985 -0.00063447467399506115 0 0.034754787394195553 -0.00064481787051685945 0 0.034796553973592867 -0.00072319985017517689 0 0.034832523243425985 -0.00063447467399506115 0 0.034784792696147128 -0.00053836201015367859 0 0.034878821240222978 -0.00055977557821433241 0 0.034911396498733586 -0.00048257644679636702 0 0.034832523243425985 -0.00063447467399506115 0 0.034784792696147128 -0.00053836201015367859 0 0.034878821240222978 -0.00055977557821433241 0 0.034878821240222978 -0.00055977557821433241 0 0.034919528787142128 -0.00054050045909541302 0 0.034911396498733586 -0.00048257644679636702 0 0.034907601514024882 -0.00064458443568058115 0 0.034878821240222978 -0.00055977557821433241 0 0.034928365882498306 -0.00058202112149003922 0 0.034973542004023674 -0.00061403033872557407 0 0.034928365882498306 -0.00058202112149003922 0 0.034959597104788298 -0.00053883565739531894 0 0.034878821240222978 -0.00055977557821433241 0 0.034928365882498306 -0.00058202112149003922 0 0.034919528787142128 -0.00054050045909541302 0 0.034928365882498306 -0.00058202112149003922 0 0.034919528787142128 -0.00054050045909541302 0 0.034959597104788298 -0.00053883565739531894 0 0.034919528787142128 -0.00054050045909541302 0 0.034911396498733586 -0.00048257644679636702 0 0.034959597104788298 -0.00053883565739531894 0 0.034911396498733586 -0.00048257644679636702 0 0.034959597104788298 -0.00053883565739531894 0 0.034996196618188688 -0.00054312562526116163 0 0.034784792696147128 -0.00053836201015367859 0 0.034911396498733586 -0.00048257644679636702 0 0.03490483235173774 -0.00040904319137619603 0 0.034911396498733586 -0.00048257644679636702 0 0.034925970145308016 -0.00041016188293374134 0 0.034996196618188688 -0.00054312562526116163 0 0.034911396498733586 -0.00048257644679636702 0 0.034925970145308016 -0.00041016188293374134 0 0.03490483235173774 -0.00040904319137619603 0 0.034999960950171709 7.2986899524028482e-08 0 0.035024524366824912 -4.5795202597623585e-05 0 0.034903295998545546 -7.3014602162167218e-08 0 0.034834198934773436 -0.00010204185582464745 0 0.034830483677120543 -0.000113295584650707 0 0.034995422091195182 -2.6366214770216563e-06 0 0.034834198934773436 -0.00010204185582464745 0 0.034999862800161909 7.4732977871006714e-08 0 0.035036573641740308 -5.8616351432959952e-05 0 0.034903457499392151 -6.7652180503161189e-08 0 0.03478383325537647 -0.00030069062353966776 0 0.034830483677120543 -0.000113295584650707 0 0.03323643234800995 -0.00021958998081678731 0 0.033547059922423419 -0.00025469309969363947 0 0.033360561478213271 -0.00038363176343363689 0 0.03184047917440723 -0.00068284638963016513 0 0.032819647353196937 -0.0008372836631361253 0 0.033172682322202766 -0.00029836972028424028 0 0.033360561478213271 -0.00038363176343363689 0 0.033163719250557708 -0.00043553083852023507 0 0.033172682322202766 -0.00029836972028424028 0 0.03323643234800995 -0.00021958998081678731 0 0.033360561478213271 -0.00038363176343363689 0 0.031892029561427303 -0.00063778109407220741 0 0.03184047917440723 -0.00068284638963016513 0 0.031029665205661305 -0.0010465134715509057 0 0.032819647353196937 -0.0008372836631361253 0 0.031641534038170105 -0.00057263241182610371 0 0.031662576914000193 -0.00054647755883534407 0 0.031627461730670443 -0.00054314908065459914 0 0.034973542004023674 -0.00061403033872557407 0 0.034959597104788298 -0.00053883565739531894 0 0.034999405980522202 -0.00054365484509702553 0 0.032940336552715895 -0.00084301109216637984 0 0.032819647353196937 -0.0008372836631361253 0 0.033741045357935158 -0.00060976470500806435 0 0.033358352371046444 -0.00058846670210443573 0 0.033360561478213271 -0.00038363176343363689 0 0.034999999638411529 -3.7889484429630835e-10 0 0.034999961131504116 -6.818719163624069e-08 0 0.034999999130567859 -5.6428672948961223e-10 0 0.034834198934773436 -0.00010204185582464745 0 0.034412081783789281 -7.0235231204611074e-05 0 0.034999961131504116 -6.818719163624069e-08 0 0.034999999130567859 -5.6428672948961223e-10 0 0.034999889791353905 -5.5029105067208074e-08 0 0.033741045357935158 -0.00060976470500806435 0 0.033547059922423419 -0.00025469309969363947 0 0.033360561478213271 -0.00038363176343363689 0 0.034834198934773436 -0.00010204185582464745 0 0.032819647353196937 -0.0008372836631361253 0 0.034999999130567859 -5.6428672948961223e-10 0 0.034999889791353905 -5.5029105067208074e-08 0 0.034999999091799995 1.2957374381531436e-09 0 0.034412081783789281 -7.0235231204611074e-05 0 0.034509219548937778 3.94342417473023e-05 0 0.033358352371046444 -0.00058846670210443573 0 0.033163719250557708 -0.00043553083852023507 0 0.03297700672518266 -0.00056640172438603435 0 0.033358352371046444 -0.00058846670210443573 0 0.033360561478213271 -0.00038363176343363689 0 0.033163719250557708 -0.00043553083852023507 0 0.034999889791353905 -5.5029105067208074e-08 0 0.034999999091799995 1.2957374381531436e-09 0 0.034999809757621972 2.0269703343009389e-07 0 0.03297700672518266 -0.00056640172438603435 0 0.032701267626023343 -0.00026000107079926358 0 0.032950151505240492 -0.0003405268075435725 0 0.034996720255892781 -8.2503493308461385e-07 0 0.034509219548937778 3.94342417473023e-05 0 0.035000121736572971 -1.9423455764968293e-08 0 0.034999870213522501 2.0056688087060239e-08 0 0.034985540146573721 7.1936418914998729e-05 0 0.033163719250557708 -0.00043553083852023507 0 0.03297700672518266 -0.00056640172438603435 0 0.032950151505240492 -0.0003405268075435725 0 0.034999870213522501 2.0056688087060239e-08 0 0.034985540146573721 7.1936418914998729e-05 0 0.034501335363643922 0.00025272634785492829 0 0.034985540146573721 7.1936418914998729e-05 0 0.034672578236358192 0.00041297619722491366 0 0.034501335363643922 0.00025272634785492829 0 0.034999233163403663 -2.5202447174787294e-07 0 0.033927569493310529 0.00012555951426954608 0 0.034999998862201127 -1.6752287661777726e-09 0 0.034999030008000274 2.7546104209475554e-07 0 0.034999998492802144 1.4704515133897546e-09 0 0.034509219548937778 3.94342417473023e-05 0 0.032990746284598318 -0.00016916228286805734 0 0.032990746284598318 -0.00016916228286805734 0 0.033927569493310529 0.00012555951426954608 0 0.032701267626023343 -0.00026000107079926358 0 0.032800608658085678 -0.00016787507110189298 0 0.032950151505240492 -0.0003405268075435725 0 0.032990746284598318 -0.00016916228286805734 0 0.031852225583062145 -0.00062044423938830925 0 0.032926537010063789 -0.00079021916644110828 0 0.033464054284708257 -0.00029161421893735998 0 0.032368798027200066 -0.00016586317924638898 0 0.027488442067542744 -0.0020691884590330147 0 0.027563551388052908 -0.002163648865395806 0 0.027719113989411202 -0.0020501775548097505 0 0.031852225583062145 -0.00062044423938830925 0 0.032550601891192972 -0.00022769777405277336 0 0.032990746284598318 -0.00016916228286805734 0 0.032550601891192972 -0.00022769777405277336 0 0.03352050044251053 5.8581506715138226e-05 0 0.033610647448116288 -4.2050473369185618e-05 0 0.033633372490144538 5.8611353618261699e-05 0 0.033172682322202766 -0.00029836972028424028 0 0.033236010841540417 -0.00021946345484672792 0 0.032800608658085678 -0.00016787507110189298 0 0.033172682322202766 -0.00029836972028424028 0 0.032800608658085678 -0.00016787507110189298 0 0.032950151505240492 -0.0003405268075435725 0 0.03184047917440723 -0.00068284638963016513 0 0.031852225583062145 -0.00062044423938830925 0 0.033172682322202766 -0.00029836972028424028 0 0.033163719250557708 -0.00043553083852023507 0 0.032950151505240492 -0.0003405268075435725 0 0.030746770817153306 -0.00076123430517952137 0 0.031113848055076894 -0.0008012017361941552 0 0.030915545818269455 -0.00098550451501984199 0 0.027352571608239635 -0.0022052944653303251 0 0.02745705803550931 -0.0022215973692396619 0 0.027351980581499374 -0.0023312980237839473 0 0.027488442067542744 -0.0020691884590330147 0 0.027352571608239635 -0.0022052944653303251 0 0.02745705803550931 -0.0022215973692396619 0 0.031852225583062145 -0.00062044423938830925 0 0.030210763449676235 -0.0015270071024832052 0 0.028900953124512373 -0.0015075604739602712 0 0.029072308040346957 -0.0013790559955706232 0 0.027563551388052908 -0.002163648865395806 0 0.027522164859855792 -0.0022539762356941538 0 0.027486816052518473 -0.0022508890434631856 0 0.027563551388052908 -0.002163648865395806 0 0.027765048979590146 -0.0025761750155680694 0 0.027743945336452733 -0.002249901243487696 0 0.027488442067542744 -0.0020691884590330147 0 0.027563551388052908 -0.002163648865395806 0 0.02745705803550931 -0.0022215973692396619 0 0.027563551388052908 -0.002163648865395806 0 0.027743945336452733 -0.002249901243487696 0 0.027719113989411202 -0.0020501775548097505 0 0.027563551388052908 -0.002163648865395806 0 0.02745705803550931 -0.0022215973692396619 0 0.027522164859855792 -0.0022539762356941538 0 0.026995160251398476 -0.0023423205598024559 0 0.027102545089485539 -0.0023599850311265538 0 0.02745705803550931 -0.0022215973692396619 0 0.027522164859855792 -0.0022539762356941538 0 0.027449323617656275 -0.0023823293843347258 0 0.027583189793132842 -0.0024770375241774055 0 0.027522164859855792 -0.0022539762356941538 0 0.027449323617656275 -0.0023823293843347258 0 0.02745705803550931 -0.0022215973692396619 0 0.027449323617656275 -0.0023823293843347258 0 0.027351980581499374 -0.0023312980237839473 0 0.027321780733422927 -0.0025378741281134182 0 0.027218064871111686 -0.0023263921947486344 0 0.027351980581499374 -0.0023312980237839473 0 0.027218064871111686 -0.0023263921947486344 0 0.027352571608239635 -0.0022052944653303251 0 0.027351980581499374 -0.0023312980237839473 0 0.0346001711331601 1.9688430311817326e-06 0 0.034674679300597644 8.5417133411116463e-05 0 0.034730374025583058 2.6587219569575464e-05 0 0.0346001711331601 1.9688430311817326e-06 0 0.03452543182214006 9.3098011774251505e-05 0 0.034598516478586139 8.9379734336146537e-05 0 0.0346001711331601 1.9688430311817326e-06 0 0.034598516478586139 8.9379734336146537e-05 0 0.034674679300597644 8.5417133411116463e-05 0 0.028205560584606836 -0.0028696005429242476 0 0.028280390720511799 -0.0026920208504940531 0 0.027765048979590146 -0.0025761750155680694 0 0.027453991193129166 -0.0021461739609157644 0 0.027522164859855792 -0.0022539762356941538 0 0.027433008869936961 -0.0022027185953990692 0 0.028280390720511799 -0.0026920208504940531 0 0.027765048979590146 -0.0025761750155680694 0 0.02791760450400756 -0.0022292089766623468 0 0.029779334449748226 -0.0012793087732261184 0 0.029072308040346957 -0.0013790559955706232 0 0.030015541336205757 -0.00092715587519932819 0 0.030111202818703248 -0.00094317004835183372 0 0.030147047691539818 -0.0010238990559487307 0 0.028944139218656694 -0.0014089084348909028 0 0.029072308040346957 -0.0013790559955706232 0 0.027522164859855792 -0.0022539762356941538 0 0.027433008869936961 -0.0022027185953990692 0 0.027486816052518473 -0.0022508890434631856 0 0.031644456387605283 -0.00099147850339276135 0 0.032313841003655218 -0.00047756226249827958 0 0.034481033732798885 0.00013680705133499658 0 0.034593090783599852 0.00018217872984711367 0 0.034418360388671111 0.0002038905576342497 0 0.0346001711331601 1.9688430311817326e-06 0 0.03452543182214006 9.3098011774251505e-05 0 0.034480528060901287 0.00013198110950673602 0 0.03240606161945693 -0.00051303833099720724 0 0.032313841003655218 -0.00047756226249827958 0 0.027765048979590146 -0.0025761750155680694 0 0.027743945336452733 -0.002249901243487696 0 0.02791760450400756 -0.0022292089766623468 0 0.032313841003655218 -0.00047756226249827958 0 0.032550601891192972 -0.00022769777405277336 0 0.027743945336452733 -0.002249901243487696 0 0.02791760450400756 -0.0022292089766623468 0 0.027719113989411202 -0.0020501775548097505 0 0.03452543182214006 9.3098011774251505e-05 0 0.034481033732798885 0.00013680705133499658 0 0.034593090783599852 0.00018217872984711367 0 0.03452543182214006 9.3098011774251505e-05 0 0.034593090783599852 0.00018217872984711367 0 0.034598516478586139 8.9379734336146537e-05 0 0.034593090783599852 0.00018217872984711367 0 0.034598516478586139 8.9379734336146537e-05 0 0.034674679300597644 8.5417133411116463e-05 0 0.033908877315041913 -7.5535548005816453e-05 0 0.033930752466335402 3.8019282325851157e-05 0 0.034209923292163574 -0.00010891433831397958 0 0.033908877315041913 -7.5535548005816453e-05 0 0.033930752466335402 3.8019282325851157e-05 0 0.033747910558890593 3.4808997616440157e-05 0 0.034999236466335501 2.8825793722814079e-06 0 0.034999444327572425 7.833034896022664e-07 0 0.034997456582125844 1.9443138505555014e-06 0 0.033930752466335402 3.8019282325851157e-05 0 0.033747910558890593 3.4808997616440157e-05 0 0.033654753688922692 0.00018308269728681341 0 0.034294544007217133 -3.0276989385077544e-05 0 0.033927569493310529 0.00012555951426954608 0 0.033908877315041913 -7.5535548005816453e-05 0 0.033610647448116288 -4.2050473369185618e-05 0 0.033747910558890593 3.4808997616440157e-05 0 0.034999236466335501 2.8825793722814079e-06 0 0.034999148719124122 7.5374762297363985e-07 0 0.034999339862088669 4.3711732623465304e-07 0 0.033827163148178151 -0.00016348309329577935 0 0.032550601891192972 -0.00022769777405277336 0 0.033610647448116288 -4.2050473369185618e-05 0 0.033747910558890593 3.4808997616440157e-05 0 0.033633372490144538 5.8611353618261699e-05 0 0.033747910558890593 3.4808997616440157e-05 0 0.033633372490144538 5.8611353618261699e-05 0 0.033654753688922692 0.00018308269728681341 0 0.03352050044251053 5.8581506715138226e-05 0 0.033633372490144538 5.8611353618261699e-05 0 0.033654753688922692 0.00018308269728681341 0 0.034999030008000274 2.7546104209475554e-07 0 0.034999339862088669 4.3711732623465304e-07 0 0.034999998492802144 1.4704515133897546e-09 0 0.033927569493310529 0.00012555951426954608 0 0.033952503514015353 0.00013783880708283336 0 0.034999339862088669 4.3711732623465304e-07 0 0.034999998492802144 1.4704515133897546e-09 0 0.034999444327572425 7.833034896022664e-07 0 0.034999444327572425 7.833034896022664e-07 0 0.034999997440180904 -1.7333291124297251e-11 0 0.034997456582125844 1.9443138505555014e-06 0 0.034999998492802144 1.4704515133897546e-09 0 0.034999444327572425 7.833034896022664e-07 0 0.034999997440180904 -1.7333291124297251e-11 0 0.034999236466335501 2.8825793722814079e-06 0 0.034999339862088669 4.3711732623465304e-07 0 0.034999444327572425 7.833034896022664e-07 0 0.034999997440180904 -1.7333291124297251e-11 0 0.034995074554569058 6.0878266891419601e-07 0 0.034997456582125844 1.9443138505555014e-06 0 0.034995074554569058 6.0878266891419601e-07 0 0.034985471746737148 2.7230226336770024e-06 0 0.034999978853074293 -2.5605475627897379e-09 0 0.034999997440180904 -1.7333291124297251e-11 0 0.034995074554569058 6.0878266891419601e-07 0 0.034999978853074293 -2.5605475627897379e-09 0 0.034995074554569058 6.0878266891419601e-07 0 0.034985471746737148 2.7230226336770024e-06 0 0.034992679558113304 4.2672420437782273e-06 0 0.034985471746737148 2.7230226336770024e-06 0 0.034988741712845002 6.3040067702594131e-06 0 0.034992679558113304 4.2672420437782273e-06 0 0.034999236466335501 2.8825793722814079e-06 0 0.034997456582125844 1.9443138505555014e-06 0 0.034994227850057111 8.3482705601255482e-06 0 0.034992679558113304 4.2672420437782273e-06 0 0.034997456582125844 1.9443138505555014e-06 0 0.034994227850057111 8.3482705601255482e-06 0 0.034988741712845002 6.3040067702594131e-06 0 0.034992679558113304 4.2672420437782273e-06 0 0.034994227850057111 8.3482705601255482e-06 0 0.034294544007217133 -3.0276989385077544e-05 0 0.034426565010386358 -0.00011530251354858246 0 0.034995074554569058 6.0878266891419601e-07 0 0.034992679558113304 4.2672420437782273e-06 0 0.034997456582125844 1.9443138505555014e-06 0 0.034999982719663564 7.5372295283518656e-09 0 0.034981586391084597 4.2125062840317335e-06 0 0.03499099840741246 4.5034039226302124e-06 0 0.034985471746737148 2.7230226336770024e-06 0 0.034999978853074293 -2.5605475627897379e-09 0 0.034981586391084597 4.2125062840317335e-06 0 0.034999982719663564 7.5372295283518656e-09 0 0.034999978853074293 -2.5605475627897379e-09 0 0.034981586391084597 4.2125062840317335e-06 0 0.034985471746737148 2.7230226336770024e-06 0 0.034981586391084597 4.2125062840317335e-06 0 0.034966404139410226 7.2738798622987129e-06 0 0.034981586391084597 4.2125062840317335e-06 0 0.03496475072910115 8.0559379465571855e-06 0 0.03499099840741246 4.5034039226302124e-06 0 0.03496475072910115 8.0559379465571855e-06 0 0.034986182931214804 3.1010372926596932e-06 0 0.03499099840741246 4.5034039226302124e-06 0 0.03496475072910115 8.0559379465571855e-06 0 0.034936389350603544 -1.5733342899292192e-05 0 0.034986182931214804 3.1010372926596932e-06 0 0.034981586391084597 4.2125062840317335e-06 0 0.03496475072910115 8.0559379465571855e-06 0 0.034966404139410226 7.2738798622987129e-06 0 0.03496475072910115 8.0559379465571855e-06 0 0.034966404139410226 7.2738798622987129e-06 0 0.034937154136838622 1.4092841774852676e-05 0 0.034966404139410226 7.2738798622987129e-06 0 0.034937154136838622 1.4092841774852676e-05 0 0.034979704013657034 1.3877433201849663e-05 0 0.03470521431031779 -0.00013423658085020711 0 0.034642415626717958 -0.00013079887682653442 0 0.03496475072910115 8.0559379465571855e-06 0 0.034937154136838622 1.4092841774852676e-05 0 0.034936389350603544 -1.5733342899292192e-05 0 0.034937154136838622 1.4092841774852676e-05 0 0.034902962268947617 -2.2458909852060963e-05 0 0.034837079795471439 1.0287852535975456e-05 0 0.034937154136838622 1.4092841774852676e-05 0 0.034902962268947617 -2.2458909852060963e-05 0 0.034936389350603544 -1.5733342899292192e-05 0 0.034902962268947617 -2.2458909852060963e-05 0 0.034936389350603544 -1.5733342899292192e-05 0 0.034919005810284377 -4.5369407631120589e-05 0 0.034936389350603544 -1.5733342899292192e-05 0 0.034946642115262286 -2.6166662279094189e-05 0 0.034950893382803147 -1.2021933620585278e-05 0 0.034936389350603544 -1.5733342899292192e-05 0 0.034946642115262286 -2.6166662279094189e-05 0 0.034936926466935955 -4.4072041241186533e-05 0 0.034959580831699769 -1.1297718639129445e-05 0 0.034969221044527952 -5.4967603121083563e-06 0 0.034593090783599852 0.00018217872984711367 0 0.034674679300597644 8.5417133411116463e-05 0 0.034746472338553207 0.00015680417614249252 0 0.033827163148178151 -0.00016348309329577935 0 0.034426565010386358 -0.00011530251354858246 0 0.034773472837556753 8.3162810418642528e-05 0 0.034674679300597644 8.5417133411116463e-05 0 0.034746472338553207 0.00015680417614249252 0 0.034988741712845002 6.3040067702594131e-06 0 0.034994227850057111 8.3482705601255482e-06 0 0.034979704013657034 1.3877433201849663e-05 0 0.034426565010386358 -0.00011530251354858246 0 0.034642415626717958 -0.00013079887682653442 0 0.034985471746737148 2.7230226336770024e-06 0 0.034988741712845002 6.3040067702594131e-06 0 0.034979704013657034 1.3877433201849663e-05 0 0.034985471746737148 2.7230226336770024e-06 0 0.034966404139410226 7.2738798622987129e-06 0 0.034979704013657034 1.3877433201849663e-05 0 0.034773472837556753 8.3162810418642528e-05 0 0.034746472338553207 0.00015680417614249252 0 0.034844075012035056 9.3115635704628849e-05 0 0.034773472837556753 8.3162810418642528e-05 0 0.034844075012035056 9.3115635704628849e-05 0 0.034837079795471439 1.0287852535975456e-05 0 0.034937154136838622 1.4092841774852676e-05 0 0.034844075012035056 9.3115635704628849e-05 0 0.034837079795471439 1.0287852535975456e-05 0 0.034902962268947617 -2.2458909852060963e-05 0 0.034837079795471439 1.0287852535975456e-05 0 0.03485012568942205 -4.1435661740360383e-05 0 0.034837079795471439 1.0287852535975456e-05 0 0.03475071557817036 -4.2578878832740553e-05 0 0.03485012568942205 -4.1435661740360383e-05 0 0.0346001711331601 1.9688430311817326e-06 0 0.034730374025583058 2.6587219569575464e-05 0 0.03475071557817036 -4.2578878832740553e-05 0 0.034837079795471439 1.0287852535975456e-05 0 0.034730374025583058 2.6587219569575464e-05 0 0.03475071557817036 -4.2578878832740553e-05 0 0.034773472837556753 8.3162810418642528e-05 0 0.034837079795471439 1.0287852535975456e-05 0 0.034730374025583058 2.6587219569575464e-05 0 0.034773472837556753 8.3162810418642528e-05 0 0.034674679300597644 8.5417133411116463e-05 0 0.034730374025583058 2.6587219569575464e-05 0 0.0346001711331601 1.9688430311817326e-06 0 0.03475071557817036 -4.2578878832740553e-05 0 0.03470154815599643 -0.0001073868722234155 0 0.03470154815599643 -0.0001073868722234155 0 0.03479037269079719 -0.00015972295246623739 0 0.034813881532932266 -7.8372716862098492e-05 0 0.03475071557817036 -4.2578878832740553e-05 0 0.03470154815599643 -0.0001073868722234155 0 0.034813881532932266 -7.8372716862098492e-05 0 0.029943762160256994 -0.00075825143505562861 0 0.029883654574607892 -0.00083018452348840451 0 0.029881422788474683 -0.00070034964132580763 0 0.03004503479492239 -0.0010032196793196694 0 0.029848580212534729 -0.0007370660670886392 0 0.029837476356169516 -0.00085433575026745863 0 0.029883654574607892 -0.00083018452348840451 0 0.02977062978643567 -0.00067629930528218701 0 0.029881422788474683 -0.00070034964132580763 0 0.030887189193661544 -0.0011013726429118644 0 0.030302458006835294 -0.00067614616521230789 0 0.030887189193661544 -0.0011013726429118644 0 0.031859354237255479 -0.00081541432633057528 0 0.02977062978643567 -0.00067629930528218701 0 0.029881422788474683 -0.00070034964132580763 0 0.029832186891284619 -0.00062328363211491497 0 0.029943033836899648 -0.00067183662602771142 0 0.029881422788474683 -0.00070034964132580763 0 0.029901500729390955 -0.00062254381018373188 0 0.034865126346286447 -0.00022003835998151414 0 0.03479037269079719 -0.00015972295246623739 0 0.034813881532932266 -7.8372716862098492e-05 0 0.032613433246545094 -0.00051189744399017534 0 0.03315924879365488 -0.00061957313517120886 0 0.034873411655450472 -0.00010407497960871266 0 0.034867678296060169 -8.3888845467157189e-05 0 0.034813881532932266 -7.8372716862098492e-05 0 0.029848580212534729 -0.0007370660670886392 0 0.029649720308507599 -0.00070850175983461791 0 0.029837476356169516 -0.00085433575026745863 0 0.032613433246545094 -0.00051189744399017534 0 0.031859354237255479 -0.00081541432633057528 0 0.034867678296060169 -8.3888845467157189e-05 0 0.034864123638542785 -6.5465105450926065e-05 0 0.034813881532932266 -7.8372716862098492e-05 0 0.03475071557817036 -4.2578878832740553e-05 0 0.034813881532932266 -7.8372716862098492e-05 0 0.03485012568942205 -4.1435661740360383e-05 0 0.034864123638542785 -6.5465105450926065e-05 0 0.034813881532932266 -7.8372716862098492e-05 0 0.03485012568942205 -4.1435661740360383e-05 0 0.034864123638542785 -6.5465105450926065e-05 0 0.03485012568942205 -4.1435661740360383e-05 0 0.034886613610742093 -4.9007487852571613e-05 0 0.034902962268947617 -2.2458909852060963e-05 0 0.034886613610742093 -4.9007487852571613e-05 0 0.034919005810284377 -4.5369407631120589e-05 0 0.034886613610742093 -4.9007487852571613e-05 0 0.034919005810284377 -4.5369407631120589e-05 0 0.034891670304339588 -6.7312662036898198e-05 0 0.034902962268947617 -2.2458909852060963e-05 0 0.03485012568942205 -4.1435661740360383e-05 0 0.034886613610742093 -4.9007487852571613e-05 0 0.034919005810284377 -4.5369407631120589e-05 0 0.034891670304339588 -6.7312662036898198e-05 0 0.034910152532783296 -7.2070145623746005e-05 0 0.034864123638542785 -6.5465105450926065e-05 0 0.034886613610742093 -4.9007487852571613e-05 0 0.034891670304339588 -6.7312662036898198e-05 0 0.034867678296060169 -8.3888845467157189e-05 0 0.034864123638542785 -6.5465105450926065e-05 0 0.034891670304339588 -6.7312662036898198e-05 0 0.034919005810284377 -4.5369407631120589e-05 0 0.034936926466935955 -4.4072041241186533e-05 0 0.034924400251406973 -5.7535144111582494e-05 0 0.034936389350603544 -1.5733342899292192e-05 0 0.034919005810284377 -4.5369407631120589e-05 0 0.034936926466935955 -4.4072041241186533e-05 0 0.034919005810284377 -4.5369407631120589e-05 0 0.034924400251406973 -5.7535144111582494e-05 0 0.034910152532783296 -7.2070145623746005e-05 0 0.034936926466935955 -4.4072041241186533e-05 0 0.034930963645782617 -6.9195643484034616e-05 0 0.034952812019352818 -4.5207230194132042e-05 0 0.034936926466935955 -4.4072041241186533e-05 0 0.034924400251406973 -5.7535144111582494e-05 0 0.034930963645782617 -6.9195643484034616e-05 0 0.034930963645782617 -6.9195643484034616e-05 0 0.034907141412810969 -9.1541235764607933e-05 0 0.034925007939367494 -0.0001004380157587836 0 0.034924400251406973 -5.7535144111582494e-05 0 0.034930963645782617 -6.9195643484034616e-05 0 0.034910152532783296 -7.2070145623746005e-05 0 0.034930963645782617 -6.9195643484034616e-05 0 0.034907141412810969 -9.1541235764607933e-05 0 0.034910152532783296 -7.2070145623746005e-05 0 0.034867678296060169 -8.3888845467157189e-05 0 0.034891670304339588 -6.7312662036898198e-05 0 0.034887437610556363 -9.2231533747598587e-05 0 0.034891670304339588 -6.7312662036898198e-05 0 0.034910152532783296 -7.2070145623746005e-05 0 0.034887437610556363 -9.2231533747598587e-05 0 0.034907141412810969 -9.1541235764607933e-05 0 0.034887437610556363 -9.2231533747598587e-05 0 0.034892995565350152 -9.8006796820708966e-05 0 0.034907141412810969 -9.1541235764607933e-05 0 0.034910152532783296 -7.2070145623746005e-05 0 0.034887437610556363 -9.2231533747598587e-05 0 0.034887437610556363 -9.2231533747598587e-05 0 0.034880876927844848 -0.00010348967105165635 0 0.034892995565350152 -9.8006796820708966e-05 0 0.034873411655450472 -0.00010407497960871266 0 0.034887437610556363 -9.2231533747598587e-05 0 0.034880876927844848 -0.00010348967105165635 0 0.034873411655450472 -0.00010407497960871266 0 0.034867678296060169 -8.3888845467157189e-05 0 0.034887437610556363 -9.2231533747598587e-05 0 0.032613433246545094 -0.00051189744399017534 0 0.032716874453269464 -0.00055119784728919054 0 0.032613433246545094 -0.00051189744399017534 0 0.031935422011007006 -0.00027610285642567318 0 0.029649720308507599 -0.00070850175983461791 0 0.029559177853059011 -0.00047923849331993725 0 0.029665539241323372 -0.00050936812842623932 0 0.034872474583821506 -9.9167612179522008e-05 0 0.034880876927844848 -0.00010348967105165635 0 0.034884587729118191 -0.00012003827132289824 0 0.034880876927844848 -0.00010348967105165635 0 0.034892995565350152 -9.8006796820708966e-05 0 0.034897314425800158 -0.00010766171690997653 0 0.034907141412810969 -9.1541235764607933e-05 0 0.034892995565350152 -9.8006796820708966e-05 0 0.034897314425800158 -0.00010766171690997653 0 0.034880876927844848 -0.00010348967105165635 0 0.034897314425800158 -0.00010766171690997653 0 0.034884587729118191 -0.00012003827132289824 0 0.034907141412810969 -9.1541235764607933e-05 0 0.034897314425800158 -0.00010766171690997653 0 0.034925007939367494 -0.0001004380157587836 0 0.034897314425800158 -0.00010766171690997653 0 0.034925007939367494 -0.0001004380157587836 0 0.034906456164199288 -0.00012411099684640517 0 0.034925007939367494 -0.0001004380157587836 0 0.034906456164199288 -0.00012411099684640517 0 0.034928789283811414 -0.00012179669077459319 0 0.034906456164199288 -0.00012411099684640517 0 0.034892520184999339 -0.00014458685087955869 0 0.034911005274662128 -0.00014540836609333089 0 0.034906456164199288 -0.00012411099684640517 0 0.034928789283811414 -0.00012179669077459319 0 0.034911005274662128 -0.00014540836609333089 0 0.029559177853059011 -0.00047923849331993725 0 0.02957247580482204 -0.00038771013707465451 0 0.029492983805246523 -0.00031078171719195696 0 0.031935422011007006 -0.00027610285642567318 0 0.031073552358012648 0.00015130104848429178 0 0.034906456164199288 -0.00012411099684640517 0 0.034884587729118191 -0.00012003827132289824 0 0.034892520184999339 -0.00014458685087955869 0 0.029559177853059011 -0.00047923849331993725 0 0.029604025596081274 -0.00042798311313140881 0 0.029665539241323372 -0.00050936812842623932 0 0.029559177853059011 -0.00047923849331993725 0 0.029604025596081274 -0.00042798311313140881 0 0.02957247580482204 -0.00038771013707465451 0 0.034897314425800158 -0.00010766171690997653 0 0.034906456164199288 -0.00012411099684640517 0 0.034884587729118191 -0.00012003827132289824 0 0.02957247580482204 -0.00038771013707465451 0 0.029624374829355593 -0.00036843228567144789 0 0.029492983805246523 -0.00031078171719195696 0 0.029604025596081274 -0.00042798311313140881 0 0.029624374829355593 -0.00036843228567144789 0 0.029656253487688661 -0.00041300352132138483 0 0.029604025596081274 -0.00042798311313140881 0 0.02957247580482204 -0.00038771013707465451 0 0.029624374829355593 -0.00036843228567144789 0 0.029624374829355593 -0.00036843228567144789 0 0.029656253487688661 -0.00041300352132138483 0 0.029708056222307218 -0.00039302559302361066 0 0.029708056222307218 -0.00039302559302361066 0 0.029833389917448105 -0.00037629308729707775 0 0.029671341411355783 -0.00032406935045382386 0 0.029624374829355593 -0.00036843228567144789 0 0.029708056222307218 -0.00039302559302361066 0 0.029671341411355783 -0.00032406935045382386 0 0.029656253487688661 -0.00041300352132138483 0 0.029705307736961943 -0.00044927581601904748 0 0.029708056222307218 -0.00039302559302361066 0 0.029656253487688661 -0.00041300352132138483 0 0.029705307736961943 -0.00044927581601904748 0 0.029665539241323372 -0.00050936812842623932 0 0.029604025596081274 -0.00042798311313140881 0 0.029656253487688661 -0.00041300352132138483 0 0.029665539241323372 -0.00050936812842623932 0 0.02974509980628106 -0.0005019443950556484 0 0.029705307736961943 -0.00044927581601904748 0 0.029665539241323372 -0.00050936812842623932 0 0.029705307736961943 -0.00044927581601904748 0 0.029751059286770364 -0.00042981041304324911 0 0.029708056222307218 -0.00039302559302361066 0 0.02974509980628106 -0.0005019443950556484 0 0.029705307736961943 -0.00044927581601904748 0 0.029751059286770364 -0.00042981041304324911 0 0.029751059286770364 -0.00042981041304324911 0 0.029708056222307218 -0.00039302559302361066 0 0.029833389917448105 -0.00037629308729707775 0 0.029833389917448105 -0.00037629308729707775 0 0.029928648356738342 -0.00048617803051889826 0 0.029702374844349837 -4.7232655893411541e-05 0 0.029833389917448105 -0.00037629308729707775 0 0.029928648356738342 -0.00048617803051889826 0 0.029852867637812752 -0.0004960443157920807 0 0.029928648356738342 -0.00048617803051889826 0 0.029852867637812752 -0.0004960443157920807 0 0.029864164926484679 -0.00055542241462237622 0 0.029833389917448105 -0.00037629308729707775 0 0.029852867637812752 -0.0004960443157920807 0 0.029795069311550959 -0.00047081500531227414 0 0.029751059286770364 -0.00042981041304324911 0 0.029833389917448105 -0.00037629308729707775 0 0.029795069311550959 -0.00047081500531227414 0 0.029852867637812752 -0.0004960443157920807 0 0.029795069311550959 -0.00047081500531227414 0 0.029807572157519096 -0.0005429272517531329 0 0.02974509980628106 -0.0005019443950556484 0 0.029751059286770364 -0.00042981041304324911 0 0.029795069311550959 -0.00047081500531227414 0 0.02974509980628106 -0.0005019443950556484 0 0.029807572157519096 -0.0005429272517531329 0 0.029762862537276082 -0.00057085333153416662 0 0.02974509980628106 -0.0005019443950556484 0 0.029795069311550959 -0.00047081500531227414 0 0.029807572157519096 -0.0005429272517531329 0 0.029807572157519096 -0.0005429272517531329 0 0.029864164926484679 -0.00055542241462237622 0 0.029832186891284619 -0.00062328363211491497 0 0.029807572157519096 -0.0005429272517531329 0 0.029832186891284619 -0.00062328363211491497 0 0.029762862537276082 -0.00057085333153416662 0 0.029928648356738342 -0.00048617803051889826 0 0.029864164926484679 -0.00055542241462237622 0 0.029901500729390955 -0.00062254381018373188 0 0.029852867637812752 -0.0004960443157920807 0 0.029807572157519096 -0.0005429272517531329 0 0.029864164926484679 -0.00055542241462237622 0 0.029881422788474683 -0.00070034964132580763 0 0.029901500729390955 -0.00062254381018373188 0 0.029832186891284619 -0.00062328363211491497 0 0.029864164926484679 -0.00055542241462237622 0 0.029901500729390955 -0.00062254381018373188 0 0.029832186891284619 -0.00062328363211491497 0 0.02977062978643567 -0.00067629930528218701 0 0.029832186891284619 -0.00062328363211491497 0 0.029762862537276082 -0.00057085333153416662 0 0.030302458006835294 -0.00067614616521230789 0 0.03012945950126722 -0.00055056070553083597 0 0.029848580212534729 -0.0007370660670886392 0 0.029649720308507599 -0.00070850175983461791 0 0.029665539241323372 -0.00050936812842623932 0 0.02977062978643567 -0.00067629930528218701 0 0.029665539241323372 -0.00050936812842623932 0 0.029762862537276082 -0.00057085333153416662 0 0.02974509980628106 -0.0005019443950556484 0 0.029665539241323372 -0.00050936812842623932 0 0.029762862537276082 -0.00057085333153416662 0 0.034280064617779736 0.0017832577102242151 0 0.034303402255978964 0.0017795685500775621 0 0.034284073053638238 0.0017620425601557268 0 0.034280064617779736 0.0017832577102242151 0 0.034290458623382106 0.001796644987544122 0 0.034303402255978964 0.0017795685500775621 0 0.032686466448552443 0.0019518140745199775 0 0.033818634257130477 0.0021048350506721008 0 0.034347693637041425 0.0020560430780870872 0 0.034253796463761962 0.002021570182939675 0 0.034280060123643173 0.0020995425981642185 0 0.034357228985185423 0.0019167248582203523 0 0.034455102910924268 0.0020579033171747385 0 0.034253796463761962 0.002021570182939675 0 0.033548112747042197 0.002150307912092315 0 0.032686466448552443 0.0019518140745199775 0 0.034290458623382106 0.001796644987544122 0 0.034303402255978964 0.0017795685500775621 0 0.034298620949224173 0.0017971359642485179 0 0.034947611837853221 -0.00010457955161693516 0 0.034976259051424777 -9.2619481103783943e-05 0 0.034952747471083796 -0.00013664832972208168 0 0.032686466448552443 0.0019518140745199775 0 0.031897751511923256 0.001306952804275759 0 0.033525066416979769 0.0011637833487058594 0 0.031897751511923256 0.001306952804275759 0 0.034928789283811414 -0.00012179669077459319 0 0.034911005274662128 -0.00014540836609333089 0 0.034952747471083796 -0.00013664832972208168 0 0.034928789283811414 -0.00012179669077459319 0 0.034947611837853221 -0.00010457955161693516 0 0.034952747471083796 -0.00013664832972208168 0 0.034925007939367494 -0.0001004380157587836 0 0.034947611837853221 -0.00010457955161693516 0 0.034951729507152259 -7.497232577387634e-05 0 0.034925007939367494 -0.0001004380157587836 0 0.034928789283811414 -0.00012179669077459319 0 0.034947611837853221 -0.00010457955161693516 0 0.034947611837853221 -0.00010457955161693516 0 0.034976259051424777 -9.2619481103783943e-05 0 0.034951729507152259 -7.497232577387634e-05 0 0.034976259051424777 -9.2619481103783943e-05 0 0.034951729507152259 -7.497232577387634e-05 0 0.034970605430389601 -4.743474925619186e-05 0 0.034930963645782617 -6.9195643484034616e-05 0 0.034951729507152259 -7.497232577387634e-05 0 0.034952812019352818 -4.5207230194132042e-05 0 0.034930963645782617 -6.9195643484034616e-05 0 0.034925007939367494 -0.0001004380157587836 0 0.034951729507152259 -7.497232577387634e-05 0 0.034952812019352818 -4.5207230194132042e-05 0 0.034970605430389601 -4.743474925619186e-05 0 0.034958619210011289 -2.4477587436876201e-05 0 0.034951729507152259 -7.497232577387634e-05 0 0.034952812019352818 -4.5207230194132042e-05 0 0.034970605430389601 -4.743474925619186e-05 0 0.034946642115262286 -2.6166662279094189e-05 0 0.034936926466935955 -4.4072041241186533e-05 0 0.034952812019352818 -4.5207230194132042e-05 0 0.034970605430389601 -4.743474925619186e-05 0 0.034993421291748046 -4.9297054966447185e-05 0 0.034986007334596586 -2.8745117172241528e-05 0 0.034303402255978964 0.0017795685500775621 0 0.034309768417107096 0.0017336161211887605 0 0.034284073053638238 0.0017620425601557268 0 0.033525066416979769 0.0011637833487058594 0 0.034250967100257337 0.0009504145187034745 0 0.034976259051424777 -9.2619481103783943e-05 0 0.034970605430389601 -4.743474925619186e-05 0 0.034993421291748046 -4.9297054966447185e-05 0 0.034280064617779736 0.0017832577102242151 0 0.034284073053638238 0.0017620425601557268 0 0.034251397585675511 0.0017698827018033398 0 0.033548112747042197 0.002150307912092315 0 0.033728414372825651 0.0021196907316736154 0 0.034284073053638238 0.0017620425601557268 0 0.034272671286117273 0.0017355636663378084 0 0.034251397585675511 0.0017698827018033398 0 0.034309768417107096 0.0017336161211887605 0 0.034284073053638238 0.0017620425601557268 0 0.034272671286117273 0.0017355636663378084 0 0.034309768417107096 0.0017336161211887605 0 0.034272671286117273 0.0017355636663378084 0 0.034273688344677658 0.0016973540500487007 0 0.034272671286117273 0.0017355636663378084 0 0.034273688344677658 0.0016973540500487007 0 0.03424067244900196 0.0017076599044543548 0 0.034273688344677658 0.0016973540500487007 0 0.034294821626561799 0.0016509761791265527 0 0.034247614149441566 0.0016632569178628254 0 0.034309768417107096 0.0017336161211887605 0 0.034273688344677658 0.0016973540500487007 0 0.034294821626561799 0.0016509761791265527 0 0.034657835607343812 0.000711118193509788 0 0.034656510637471431 0.00071399440243480469 0 0.034993421291748046 -4.9297054966447185e-05 0 0.034997829964592428 -1.6491948409665274e-05 0 0.034986007334596586 -2.8745117172241528e-05 0 0.034993421291748046 -4.9297054966447185e-05 0 0.034997829964592428 -1.6491948409665274e-05 0 0.035000976065173668 -1.4554548806343362e-05 0 0.034250967100257337 0.0009504145187034745 0 0.034656510637471431 0.00071399440243480469 0 0.034986007334596586 -2.8745117172241528e-05 0 0.034984454148967135 -2.0478661711691696e-05 0 0.034991088532032887 -1.7156821753300419e-05 0 0.034986007334596586 -2.8745117172241528e-05 0 0.034984454148967135 -2.0478661711691696e-05 0 0.034975826518371306 -2.461197173360407e-05 0 0.034997829964592428 -1.6491948409665274e-05 0 0.034986007334596586 -2.8745117172241528e-05 0 0.034991088532032887 -1.7156821753300419e-05 0 0.034997829964592428 -1.6491948409665274e-05 0 0.034991088532032887 -1.7156821753300419e-05 0 0.03499652323463228 -1.2403181750820955e-05 0 0.034991088532032887 -1.7156821753300419e-05 0 0.034992925437711361 -1.0490837558333176e-05 0 0.03499652323463228 -1.2403181750820955e-05 0 0.034991088532032887 -1.7156821753300419e-05 0 0.034992925437711361 -1.0490837558333176e-05 0 0.034988059789480365 -1.3556062434256426e-05 0 0.034992925437711361 -1.0490837558333176e-05 0 0.034997226213713331 -8.0061851764580865e-06 0 0.03499652323463228 -1.2403181750820955e-05 0 0.034988059789480365 -1.3556062434256426e-05 0 0.03498826559922405 -6.9791479599948578e-06 0 0.034980572675324624 -1.6102631686103455e-05 0 0.034984454148967135 -2.0478661711691696e-05 0 0.034988059789480365 -1.3556062434256426e-05 0 0.034980572675324624 -1.6102631686103455e-05 0 0.034984454148967135 -2.0478661711691696e-05 0 0.034991088532032887 -1.7156821753300419e-05 0 0.034988059789480365 -1.3556062434256426e-05 0 0.034992925437711361 -1.0490837558333176e-05 0 0.034988059789480365 -1.3556062434256426e-05 0 0.03498826559922405 -6.9791479599948578e-06 0 0.034992925437711361 -1.0490837558333176e-05 0 0.03498826559922405 -6.9791479599948578e-06 0 0.034994488655039763 -6.8625263759636707e-06 0 0.034992925437711361 -1.0490837558333176e-05 0 0.034994488655039763 -6.8625263759636707e-06 0 0.034997226213713331 -8.0061851764580865e-06 0 0.034656510637471431 0.00071399440243480469 0 0.034654683940095889 0.00070785346165499899 0 0.034997226213713331 -8.0061851764580865e-06 0 0.03499831494609186 -1.0681985318334432e-05 0 0.034999018813827922 -4.6332163109626064e-06 0 0.034994488655039763 -6.8625263759636707e-06 0 0.034997226213713331 -8.0061851764580865e-06 0 0.034997360381626742 -4.8838041728899437e-06 0 0.034997226213713331 -8.0061851764580865e-06 0 0.034999018813827922 -4.6332163109626064e-06 0 0.034997360381626742 -4.8838041728899437e-06 0 0.03499831494609186 -1.0681985318334432e-05 0 0.034998180271178098 -1.1590626792190466e-05 0 0.035000785333898166 -3.803587130717417e-06 0 0.03499831494609186 -1.0681985318334432e-05 0 0.034999018813827922 -4.6332163109626064e-06 0 0.035000785333898166 -3.803587130717417e-06 0 0.034997829964592428 -1.6491948409665274e-05 0 0.03499652323463228 -1.2403181750820955e-05 0 0.034998703811645958 -1.4229406297434719e-05 0 0.03499831494609186 -1.0681985318334432e-05 0 0.03499652323463228 -1.2403181750820955e-05 0 0.034998703811645958 -1.4229406297434719e-05 0 0.03465548447042148 0.00070443117147412195 0 0.034656510637471431 0.00071399440243480469 0 0.034997226213713331 -8.0061851764580865e-06 0 0.03499831494609186 -1.0681985318334432e-05 0 0.03499652323463228 -1.2403181750820955e-05 0 0.034946642115262286 -2.6166662279094189e-05 0 0.034958619210011289 -2.4477587436876201e-05 0 0.034950893382803147 -1.2021933620585278e-05 0 0.034946642115262286 -2.6166662279094189e-05 0 0.034952812019352818 -4.5207230194132042e-05 0 0.034958619210011289 -2.4477587436876201e-05 0 0.034970605430389601 -4.743474925619186e-05 0 0.034986007334596586 -2.8745117172241528e-05 0 0.034975826518371306 -2.461197173360407e-05 0 0.034970605430389601 -4.743474925619186e-05 0 0.034958619210011289 -2.4477587436876201e-05 0 0.034975826518371306 -2.461197173360407e-05 0 0.034958619210011289 -2.4477587436876201e-05 0 0.034975826518371306 -2.461197173360407e-05 0 0.034971861741146741 -1.2531909250254474e-05 0 0.034984454148967135 -2.0478661711691696e-05 0 0.034975826518371306 -2.461197173360407e-05 0 0.034980572675324624 -1.6102631686103455e-05 0 0.034975826518371306 -2.461197173360407e-05 0 0.034980572675324624 -1.6102631686103455e-05 0 0.034971861741146741 -1.2531909250254474e-05 0 0.03498826559922405 -6.9791479599948578e-06 0 0.034980572675324624 -1.6102631686103455e-05 0 0.034971861741146741 -1.2531909250254474e-05 0 0.034971861741146741 -1.2531909250254474e-05 0 0.034950893382803147 -1.2021933620585278e-05 0 0.034976999490329487 2.1885972147669908e-06 0 0.034958619210011289 -2.4477587436876201e-05 0 0.034971861741146741 -1.2531909250254474e-05 0 0.034950893382803147 -1.2021933620585278e-05 0 0.034986182931214804 3.1010372926596932e-06 0 0.03499099840741246 4.5034039226302124e-06 0 0.034996155522171196 2.1476566465404759e-06 0 0.034969221044527952 -5.4967603121083563e-06 0 0.03498091539500036 3.4364737847216777e-07 0 0.03498826559922405 -6.9791479599948578e-06 0 0.034971861741146741 -1.2531909250254474e-05 0 0.034976999490329487 2.1885972147669908e-06 0 0.03499099840741246 4.5034039226302124e-06 0 0.034996155522171196 2.1476566465404759e-06 0 0.034999995546497166 3.6616047264135724e-09 0 0.03498091539500036 3.4364737847216777e-07 0 0.034985881243763998 2.1967088386942686e-06 0 0.034996155522171196 2.1476566465404759e-06 0 0.034999995546497166 3.6616047264135724e-09 0 0.034999114277398151 9.1074969822571394e-07 0 0.034999982719663564 7.5372295283518656e-09 0 0.03499099840741246 4.5034039226302124e-06 0 0.034999995546497166 3.6616047264135724e-09 0 0.034998291743429111 -2.3778811607734334e-06 0 0.034998195280646474 -8.0127998711410301e-08 0 0.03500012521916842 -1.0961103717997827e-06 0 0.034998291743429111 -2.3778811607734334e-06 0 0.034995286365444168 -3.1691559882946778e-06 0 0.034998195280646474 -8.0127998711410301e-08 0 0.034998291743429111 -2.3778811607734334e-06 0 0.034999018813827922 -4.6332163109626064e-06 0 0.03500012521916842 -1.0961103717997827e-06 0 0.034998291743429111 -2.3778811607734334e-06 0 0.034997360381626742 -4.8838041728899437e-06 0 0.034995286365444168 -3.1691559882946778e-06 0 0.034994488655039763 -6.8625263759636707e-06 0 0.034997360381626742 -4.8838041728899437e-06 0 0.034995286365444168 -3.1691559882946778e-06 0 0.034998291743429111 -2.3778811607734334e-06 0 0.034999018813827922 -4.6332163109626064e-06 0 0.034997360381626742 -4.8838041728899437e-06 0 0.03498826559922405 -6.9791479599948578e-06 0 0.034995286365444168 -3.1691559882946778e-06 0 0.034992366054801716 -4.8883178328413919e-07 0 0.03498826559922405 -6.9791479599948578e-06 0 0.034976999490329487 2.1885972147669908e-06 0 0.034992366054801716 -4.8883178328413919e-07 0 0.03498826559922405 -6.9791479599948578e-06 0 0.034994488655039763 -6.8625263759636707e-06 0 0.034995286365444168 -3.1691559882946778e-06 0 0.034995286365444168 -3.1691559882946778e-06 0 0.034992366054801716 -4.8883178328413919e-07 0 0.034998195280646474 -8.0127998711410301e-08 0 0.034992366054801716 -4.8883178328413919e-07 0 0.034999114277398151 9.1074969822571394e-07 0 0.034998195280646474 -8.0127998711410301e-08 0 0.034976999490329487 2.1885972147669908e-06 0 0.034992366054801716 -4.8883178328413919e-07 0 0.034999114277398151 9.1074969822571394e-07 0 0.034999995546497166 3.6616047264135724e-09 0 0.034999114277398151 9.1074969822571394e-07 0 0.034999993787922047 2.2037351930144868e-09 0 0.034999114277398151 9.1074969822571394e-07 0 0.034999993787922047 2.2037351930144868e-09 0 0.034998195280646474 -8.0127998711410301e-08 0 0.034999993787922047 2.2037351930144868e-09 0 0.034998195280646474 -8.0127998711410301e-08 0 0.03500012521916842 -1.0961103717997827e-06 0 0.034999993787922047 2.2037351930144868e-09 0 0.03500012521916842 -1.0961103717997827e-06 0 0.035000002729967859 -1.7431036565725785e-09 0 0.034999018813827922 -4.6332163109626064e-06 0 0.03500012521916842 -1.0961103717997827e-06 0 0.035000785333898166 -3.803587130717417e-06 0 0.03500012521916842 -1.0961103717997827e-06 0 0.035000961385675135 -8.7511382772734536e-07 0 0.035000785333898166 -3.803587130717417e-06 0 0.034666947680237481 0.00064523214855290644 0 0.034654683940095889 0.00070785346165499899 0 0.03500012521916842 -1.0961103717997827e-06 0 0.035000002729967859 -1.7431036565725785e-09 0 0.035000961385675135 -8.7511382772734536e-07 0 0.035000002729967859 -1.7431036565725785e-09 0 0.035000000405136782 8.1520221256976309e-10 0 0.035000961385675135 -8.7511382772734536e-07 0 0.034999303688359219 6.3131991933626227e-07 0 0.034666947680237481 0.00064523214855290644 0 0.035000000738309056 1.0253105958744524e-09 0 0.034999603043240936 3.2410448742756359e-06 0 0.035005576406914374 1.2620007098632859e-05 0 0.034582354562439438 0.00047689963631342911 0 0.034861542534338229 0.0002218337319458476 0 0.034999588467423022 1.5494166233433266e-06 0 0.035000000738309056 1.0253105958744524e-09 0 0.03499999797841629 2.0754508596925961e-09 0 0.034999588467423022 1.5494166233433266e-06 0 0.034999283754785088 3.2901574267487888e-06 0 0.034999643204008848 7.9180911719355626e-07 0 0.034999588467423022 1.5494166233433266e-06 0 0.035000000738309056 1.0253105958744524e-09 0 0.034999603043240936 3.2410448742756359e-06 0 0.034605542088133781 0.0004168710378737254 0 0.034582354562439438 0.00047689963631342911 0 0.034999588467423022 1.5494166233433266e-06 0 0.034999603043240936 3.2410448742756359e-06 0 0.034999283754785088 3.2901574267487888e-06 0 0.035291736443076226 4.6449761356293137e-05 0 0.035266873780172486 0.00050233377096142013 0 0.035042000986396669 0.00020051246601688098 0 0.034582354562439438 0.00047689963631342911 0 0.034458483483590686 0.0010025914067475859 0 0.034999603043240936 3.2410448742756359e-06 0 0.034998063256403845 7.8280400478961485e-06 0 0.035005576406914374 1.2620007098632859e-05 0 0.034582354562439438 0.00047689963631342911 0 0.034666947680237481 0.00064523214855290644 0 0.034012330903695653 0.0014260879117793681 0 0.034110944217287345 0.0014738280977591059 0 0.034077945017414485 0.0015695478563336398 0 0.034012330903695653 0.0014260879117793681 0 0.034077945017414485 0.0015695478563336398 0 0.033977968787200129 0.0015760057612169863 0 0.033977968787200129 0.0015760057612169863 0 0.034023354765952939 0.0016620700837645592 0 0.033945414720854453 0.0017223617965066787 0 0.034458483483590686 0.0010025914067475859 0 0.034253729434278013 0.0013557644279943246 0 0.034077945017414485 0.0015695478563336398 0 0.033977968787200129 0.0015760057612169863 0 0.034023354765952939 0.0016620700837645592 0 0.034077945017414485 0.0015695478563336398 0 0.034023354765952939 0.0016620700837645592 0 0.034101093109910149 0.0016685410690558764 0 0.034101093109910149 0.0016685410690558764 0 0.034173781955946871 0.001675823977209144 0 0.03417853271740065 0.0015890383247913421 0 0.034077945017414485 0.0015695478563336398 0 0.034101093109910149 0.0016685410690558764 0 0.03417853271740065 0.0015890383247913421 0 0.034574679820053987 0.0012364270592457973 0 0.034538483146000637 0.0013886491850271952 0 0.034273688344677658 0.0016973540500487007 0 0.034247614149441566 0.0016632569178628254 0 0.03424067244900196 0.0017076599044543548 0 0.034173781955946871 0.001675823977209144 0 0.03417853271740065 0.0015890383247913421 0 0.03424067244900196 0.0017076599044543548 0 0.034247614149441566 0.0016632569178628254 0 0.034202961918370217 0.0016476102777726175 0 0.03424067244900196 0.0017076599044543548 0 0.034294821626561799 0.0016509761791265527 0 0.034247614149441566 0.0016632569178628254 0 0.034231220366672872 0.0016163276988706739 0 0.034247614149441566 0.0016632569178628254 0 0.034231220366672872 0.0016163276988706739 0 0.034202961918370217 0.0016476102777726175 0 0.034110944217287345 0.0014738280977591059 0 0.034077945017414485 0.0015695478563336398 0 0.03417853271740065 0.0015890383247913421 0 0.034164865387878475 0.0015804419075106507 0 0.034231220366672872 0.0016163276988706739 0 0.034202961918370217 0.0016476102777726175 0 0.034666947680237481 0.00064523214855290644 0 0.034574679820053987 0.0012364270592457973 0 0.034584274457174789 0.00013972193637979498 0 0.034435627551758677 0.00017970812829664839 0 0.034303856181485022 7.6911688359024698e-05 0 0.034505701804310458 0.0002312802448742851 0 0.034435627551758677 0.00017970812829664839 0 0.034383999215798038 0.00023988992298193507 0 0.034505701804310458 0.0002312802448742851 0 0.034584274457174789 0.00013972193637979498 0 0.034435627551758677 0.00017970812829664839 0 0.034779698598301066 3.3195195024535065e-05 0 0.034738809503566927 4.3731115979925661e-05 0 0.034999756623938102 9.1707388270871018e-08 0 0.034855452520486004 -4.5126372972828038e-06 0 0.035016221626554607 -1.0290244445806248e-05 0 0.034584274457174789 0.00013972193637979498 0 0.034855452520486004 -4.5126372972828038e-06 0 0.034303856181485022 7.6911688359024698e-05 0 0.034999756623938102 9.1707388270871018e-08 0 0.034855452520486004 -4.5126372972828038e-06 0 0.034999422909376326 -1.2510932584752751e-07 0 0.034855452520486004 -4.5126372972828038e-06 0 0.034698904693590424 0.00013501576493023698 0 0.034880454453063973 4.2034462057821845e-05 0 0.034584274457174789 0.00013972193637979498 0 0.034855452520486004 -4.5126372972828038e-06 0 0.034698904693590424 0.00013501576493023698 0 0.034505701804310458 0.0002312802448742851 0 0.034584274457174789 0.00013972193637979498 0 0.034698904693590424 0.00013501576493023698 0 0.034505701804310458 0.0002312802448742851 0 0.034698904693590424 0.00013501576493023698 0 0.034501497799420272 0.00027275835110220482 0 0.034698904693590424 0.00013501576493023698 0 0.034797280503896098 0.00017202626694147347 0 0.034501497799420272 0.00027275835110220482 0 0.034797280503896098 0.00017202626694147347 0 0.034880454453063973 4.2034462057821845e-05 0 0.035026778084999308 -2.7081881674841229e-05 0 0.034698904693590424 0.00013501576493023698 0 0.034797280503896098 0.00017202626694147347 0 0.034880454453063973 4.2034462057821845e-05 0 0.034855452520486004 -4.5126372972828038e-06 0 0.034999422909376326 -1.2510932584752751e-07 0 0.034880454453063973 4.2034462057821845e-05 0 0.034999422909376326 -1.2510932584752751e-07 0 0.034880454453063973 4.2034462057821845e-05 0 0.035026778084999308 -2.7081881674841229e-05 0 0.034999717214055093 5.558384118898667e-07 0 0.034861542534338229 0.0002218337319458476 0 0.035000000243716883 -8.127108003095062e-10 0 0.03499999797841629 2.0754508596925961e-09 0 0.034999643204008848 7.9180911719355626e-07 0 0.034999588467423022 1.5494166233433266e-06 0 0.03499999797841629 2.0754508596925961e-09 0 0.034999643204008848 7.9180911719355626e-07 0 0.035291736443076226 4.6449761356293137e-05 0 0.035026778084999308 -2.7081881674841229e-05 0 0.035042000986396669 0.00020051246601688098 0 0.034797280503896098 0.00017202626694147347 0 0.035026778084999308 -2.7081881674841229e-05 0 0.035042000986396669 0.00020051246601688098 0 0.034797280503896098 0.00017202626694147347 0 0.035042000986396669 0.00020051246601688098 0 0.034816691227850909 0.00043226929066085773 0 0.035266873780172486 0.00050233377096142013 0 0.035042000986396669 0.00020051246601688098 0 0.034816691227850909 0.00043226929066085773 0 0.035266873780172486 0.00050233377096142013 0 0.034738194920886249 0.0010605928756285362 0 0.035143674789678676 0.0012120800822917376 0 0.035266873780172486 0.00050233377096142013 0 0.034816691227850909 0.00043226929066085773 0 0.034738194920886249 0.0010605928756285362 0 0.034066323390850632 0.0011698363661884407 0 0.034167616198371199 0.0012375566204344674 0 0.034460695972948666 0.0005977852871335643 0 0.033981115640764524 0.00092586314312466476 0 0.034738194920886249 0.0010605928756285362 0 0.034460695972948666 0.0005977852871335643 0 0.034816691227850909 0.00043226929066085773 0 0.034738194920886249 0.0010605928756285362 0 0.034460695972948666 0.0005977852871335643 0 0.034559674758431913 0.00035190167169930415 0 0.034265528923681336 0.00037147379864800768 0 0.034460695972948666 0.0005977852871335643 0 0.034816691227850909 0.00043226929066085773 0 0.034559674758431913 0.00035190167169930415 0 0.034797280503896098 0.00017202626694147347 0 0.034816691227850909 0.00043226929066085773 0 0.034559674758431913 0.00035190167169930415 0 0.034797280503896098 0.00017202626694147347 0 0.034559674758431913 0.00035190167169930415 0 0.034501497799420272 0.00027275835110220482 0 0.034505701804310458 0.0002312802448742851 0 0.034501497799420272 0.00027275835110220482 0 0.034395730041844194 0.00032971084974636972 0 0.034501497799420272 0.00027275835110220482 0 0.034265528923681336 0.00037147379864800768 0 0.034395730041844194 0.00032971084974636972 0 0.034559674758431913 0.00035190167169930415 0 0.034501497799420272 0.00027275835110220482 0 0.034265528923681336 0.00037147379864800768 0 0.034460695972948666 0.0005977852871335643 0 0.034265528923681336 0.00037147379864800768 0 0.033981115640764524 0.00092586314312466476 0 0.033981115640764524 0.00092586314312466476 0 0.033189701805384796 0.00092054325482848244 0 0.033516803053063093 0.0011758666241663887 0 0.033937108498589864 0.00063277822453940873 0 0.033813537764285785 0.00075230492824816645 0 0.034265528923681336 0.00037147379864800768 0 0.033981115640764524 0.00092586314312466476 0 0.033189701805384796 0.00092054325482848244 0 0.034389084061684769 0.00031071262127860939 0 0.034380320434464706 0.00031340952915767184 0 0.034351058399060441 0.00032412686878038915 0 0.034389084061684769 0.00031071262127860939 0 0.034380320434464706 0.00031340952915767184 0 0.034395730041844194 0.00032971084974636972 0 0.034265528923681336 0.00037147379864800768 0 0.034389084061684769 0.00031071262127860939 0 0.034395730041844194 0.00032971084974636972 0 0.034380320434464706 0.00031340952915767184 0 0.034395730041844194 0.00032971084974636972 0 0.034365349034596412 0.00028918658607620382 0 0.034395730041844194 0.00032971084974636972 0 0.034383999215798038 0.00023988992298193507 0 0.034365349034596412 0.00028918658607620382 0 0.034505701804310458 0.0002312802448742851 0 0.034395730041844194 0.00032971084974636972 0 0.034383999215798038 0.00023988992298193507 0 0.033173823570528074 0.0014386134125171696 0 0.033004035501001117 0.001784314801453648 0 0.03273626132656398 0.0017454577996597245 0 0.033173823570528074 0.0014386134125171696 0 0.033344723257826003 0.0016648472921689174 0 0.033004035501001117 0.001784314801453648 0 0.033189701805384796 0.00092054325482848244 0 0.033173823570528074 0.0014386134125171696 0 0.03271543380738736 0.001333875102598577 0 0.033189701805384796 0.00092054325482848244 0 0.033173823570528074 0.0014386134125171696 0 0.033516803053063093 0.0011758666241663887 0 0.033173823570528074 0.0014386134125171696 0 0.033516803053063093 0.0011758666241663887 0 0.033656805781238412 0.0013059044596732577 0 0.033981115640764524 0.00092586314312466476 0 0.033516803053063093 0.0011758666241663887 0 0.033656805781238412 0.0013059044596732577 0 0.033173823570528074 0.0014386134125171696 0 0.033656805781238412 0.0013059044596732577 0 0.033344723257826003 0.0016648472921689174 0 0.033656805781238412 0.0013059044596732577 0 0.033674275869314742 0.0015999171496981486 0 0.033344723257826003 0.0016648472921689174 0 0.033656805781238412 0.0013059044596732577 0 0.033674275869314742 0.0015999171496981486 0 0.033859796393471329 0.0013518724710023064 0 0.033981115640764524 0.00092586314312466476 0 0.033656805781238412 0.0013059044596732577 0 0.033869160388750735 0.0011358046323337897 0 0.033656805781238412 0.0013059044596732577 0 0.033869160388750735 0.0011358046323337897 0 0.033859796393471329 0.0013518724710023064 0 0.033869160388750735 0.0011358046323337897 0 0.034059978526032743 0.001243487223852716 0 0.033859796393471329 0.0013518724710023064 0 0.034167616198371199 0.0012375566204344674 0 0.034253729434278013 0.0013557644279943246 0 0.034253729434278013 0.0013557644279943246 0 0.034096015547980807 0.0016124914148940223 0 0.034059978526032743 0.001243487223852716 0 0.033859796393471329 0.0013518724710023064 0 0.03396599951249666 0.0015562702932807872 0 0.033674275869314742 0.0015999171496981486 0 0.033859796393471329 0.0013518724710023064 0 0.03396599951249666 0.0015562702932807872 0 0.033674275869314742 0.0015999171496981486 0 0.03396599951249666 0.0015562702932807872 0 0.033764888469797652 0.0019387022571347777 0 0.034096015547980807 0.0016124914148940223 0 0.034037849528936008 0.0017215821866627806 0 0.033812002169773793 0.001812386038642927 0 0.033764888469797652 0.0019387022571347777 0 0.033928233541548274 0.0019147600212782695 0 0.033477129227878252 0.0018819391821036035 0 0.03307449902056106 0.0020010149909461292 0 0.033547362266572733 0.0023656831525617626 0 0.033764888469797652 0.0019387022571347777 0 0.033477129227878252 0.0018819391821036035 0 0.033547362266572733 0.0023656831525617626 0 0.033674275869314742 0.0015999171496981486 0 0.033477129227878252 0.0018819391821036035 0 0.033344723257826003 0.0016648472921689174 0 0.033674275869314742 0.0015999171496981486 0 0.033764888469797652 0.0019387022571347777 0 0.033477129227878252 0.0018819391821036035 0 0.033344723257826003 0.0016648472921689174 0 0.03307449902056106 0.0020010149909461292 0 0.033004035501001117 0.001784314801453648 0 0.033477129227878252 0.0018819391821036035 0 0.033344723257826003 0.0016648472921689174 0 0.03307449902056106 0.0020010149909461292 0 0.032741275648113383 0.0021595876634319055 0 0.032734969449564215 0.0020193563526789476 0 0.032540061438925509 0.0022511523587850713 0 0.03307449902056106 0.0020010149909461292 0 0.032741275648113383 0.0021595876634319055 0 0.032734969449564215 0.0020193563526789476 0 0.03307449902056106 0.0020010149909461292 0 0.032734969449564215 0.0020193563526789476 0 0.033004035501001117 0.001784314801453648 0 0.032734969449564215 0.0020193563526789476 0 0.033004035501001117 0.001784314801453648 0 0.03273626132656398 0.0017454577996597245 0 0.03419542913556628 0.0018289672438349621 0 0.034173917491113884 0.001735292981817313 0 0.034071906791431392 0.0017734444864918879 0 0.034187418086440102 0.0016139386228188923 0 0.034158347310492221 0.0015399562304121816 0 0.03419542913556628 0.0018289672438349621 0 0.03402708117319999 0.001750370463679464 0 0.034078068806927209 0.0018925538080465719 0 0.03419542913556628 0.0018289672438349621 0 0.034251397585675511 0.0017698827018033398 0 0.0342448256453056 0.0018979584234488167 0 0.03419542913556628 0.0018289672438349621 0 0.034251397585675511 0.0017698827018033398 0 0.034173917491113884 0.001735292981817313 0 0.034251397585675511 0.0017698827018033398 0 0.03424067244900196 0.0017076599044543548 0 0.034173917491113884 0.001735292981817313 0 0.034272671286117273 0.0017355636663378084 0 0.034251397585675511 0.0017698827018033398 0 0.03424067244900196 0.0017076599044543548 0 0.034173781955946871 0.001675823977209144 0 0.03424067244900196 0.0017076599044543548 0 0.034173917491113884 0.001735292981817313 0 0.034101093109910149 0.0016685410690558764 0 0.034173781955946871 0.001675823977209144 0 0.034173917491113884 0.001735292981817313 0 0.034101093109910149 0.0016685410690558764 0 0.034173917491113884 0.001735292981817313 0 0.034071906791431392 0.0017734444864918879 0 0.034023354765952939 0.0016620700837645592 0 0.034101093109910149 0.0016685410690558764 0 0.034071906791431392 0.0017734444864918879 0 0.034253729434278013 0.0013557644279943246 0 0.034158347310492221 0.0015399562304121816 0 0.034023354765952939 0.0016620700837645592 0 0.033945414720854453 0.0017223617965066787 0 0.034071906791431392 0.0017734444864918879 0 0.033812002169773793 0.001812386038642927 0 0.03402708117319999 0.001750370463679464 0 0.033928233541548274 0.0019147600212782695 0 0.033846322750046981 0.0016729643784126811 0 0.033812002169773793 0.001812386038642927 0 0.03402708117319999 0.001750370463679464 0 0.034078068806927209 0.0018925538080465719 0 0.033928233541548274 0.0019147600212782695 0 0.034060717122302311 0.0020183675007100482 0 0.03402708117319999 0.001750370463679464 0 0.034078068806927209 0.0018925538080465719 0 0.033928233541548274 0.0019147600212782695 0 0.033928233541548274 0.0019147600212782695 0 0.034060717122302311 0.0020183675007100482 0 0.033936693868884357 0.0022259630444762396 0 0.033764888469797652 0.0019387022571347777 0 0.033928233541548274 0.0019147600212782695 0 0.033936693868884357 0.0022259630444762396 0 0.034168245058985157 0.0019548717102872552 0 0.034253796463761962 0.002021570182939675 0 0.034133170515395661 0.0021465897314051929 0 0.034060717122302311 0.0020183675007100482 0 0.034168245058985157 0.0019548717102872552 0 0.034133170515395661 0.0021465897314051929 0 0.034078068806927209 0.0018925538080465719 0 0.034060717122302311 0.0020183675007100482 0 0.034168245058985157 0.0019548717102872552 0 0.03419542913556628 0.0018289672438349621 0 0.034078068806927209 0.0018925538080465719 0 0.034168245058985157 0.0019548717102872552 0 0.034168245058985157 0.0019548717102872552 0 0.0342448256453056 0.0018979584234488167 0 0.034253796463761962 0.002021570182939675 0 0.034357228985185423 0.0019167248582203523 0 0.034251397585675511 0.0017698827018033398 0 0.0342448256453056 0.0018979584234488167 0 0.034357228985185423 0.0019167248582203523 0 0.0342448256453056 0.0018979584234488167 0 0.034253796463761962 0.002021570182939675 0 0.03419542913556628 0.0018289672438349621 0 0.034168245058985157 0.0019548717102872552 0 0.0342448256453056 0.0018979584234488167 0 0.034253796463761962 0.002021570182939675 0 0.034133170515395661 0.0021465897314051929 0 0.034280060123643173 0.0020995425981642185 0 0.031783723071923634 0.0023413889006606817 0 0.031370630784034091 0.0020935636095193557 0 0.028479144567767178 0.0025649610964312017 0 0.029488343092370205 0.0029733275952593106 0 0.02834615149789407 0.0029850869009856985 0 0.028895636285869528 0.0022940738851831197 0 0.029201246708480011 0.0020178661668247542 0 0.028479144567767178 0.0025649610964312017 0 0.029168026193173421 0.0023902492158213167 0 0.029248308581714635 0.0017019050380782978 0 0.028479144567767178 0.0025649610964312017 0 0.028772802637103356 0.0021518144006336805 0 0.028387713659178984 0.0022704880636914906 0 0.028479144567767178 0.0025649610964312017 0 0.029168026193173421 0.0023902492158213167 0 0.029488343092370205 0.0029733275952593106 0 0.029168026193173421 0.0023902492158213167 0 0.029488343092370205 0.0029733275952593106 0 0.030123110121105544 0.0020309307743785338 0 0.034060717122302311 0.0020183675007100482 0 0.034133170515395661 0.0021465897314051929 0 0.033936693868884357 0.0022259630444762396 0 0.031783723071923634 0.0023413889006606817 0 0.032188632514348531 0.0024363954289447105 0 0.030652646840463652 0.002863708941841586 0 0.030123110121105544 0.0020309307743785338 0 0.031263651760332786 0.0021397494155893861 0 0.029488343092370205 0.0029733275952593106 0 0.030652646840463652 0.002863708941841586 0 0.030123110121105544 0.0020309307743785338 0 0.030123110121105544 0.0020309307743785338 0 0.029981993282517286 0.00091808526773384358 0 0.029248308581714635 0.0017019050380782978 0 0.030123110121105544 0.0020309307743785338 0 0.031263651760332786 0.0021397494155893861 0 0.030976095461218382 0.0013066800055334896 0 0.029769886590154837 0.0016330930418909193 0 0.030550464884123264 0.0017594934141634245 0 0.030123110121105544 0.0020309307743785338 0 0.029981993282517286 0.00091808526773384358 0 0.030976095461218382 0.0013066800055334896 0 0.029894585676025161 0.0016686026428678355 0 0.029424197072053654 0.0017311402015718037 0 0.030265235300655623 0.0020342049272028427 0 0.029894585676025161 0.0016686026428678355 0 0.030265235300655623 0.0020342049272028427 0 0.030085935764602563 0.0015984634952391364 0 0.029769886590154837 0.0016330930418909193 0 0.029754433573521824 0.0016298879292472007 0 0.028521100745889216 0.0016980214268396186 0 0.028772802637103356 0.0021518144006336805 0 0.028796855372959607 0.0016820821240847688 0 0.02908393424950367 0.001729346291109429 0 0.028772802637103356 0.0021518144006336805 0 0.028796855372959607 0.0016820821240847688 0 0.029165071253017191 0.0017589846817330644 0 0.02908393424950367 0.001729346291109429 0 0.028772802637103356 0.0021518144006336805 0 0.029769886590154837 0.0016330930418909193 0 0.029201246708480011 0.0020178661668247542 0 0.028521100745889216 0.0016980214268396186 0 0.028379931530132178 0.0020124914845315481 0 0.028772802637103356 0.0021518144006336805 0 0.028521100745889216 0.0016980214268396186 0 0.028379931530132178 0.0020124914845315481 0 0.028158615133339015 0.0018241746839795458 0 0.028379931530132178 0.0020124914845315481 0 0.028772802637103356 0.0021518144006336805 0 0.028387713659178984 0.0022704880636914906 0 0.029168026193173421 0.0023902492158213167 0 0.030123110121105544 0.0020309307743785338 0 0.029248308581714635 0.0017019050380782978 0 0.032601587333181407 0.0023753360703009894 0 0.032265985332583291 0.0021528791163144072 0 0.032540061438925509 0.0022511523587850713 0 0.032265985332583291 0.0021528791163144072 0 0.032540061438925509 0.0022511523587850713 0 0.032402771830208087 0.0020402688496835835 0 0.032741275648113383 0.0021595876634319055 0 0.032601587333181407 0.0023753360703009894 0 0.032540061438925509 0.0022511523587850713 0 0.03307449902056106 0.0020010149909461292 0 0.032741275648113383 0.0021595876634319055 0 0.032601587333181407 0.0023753360703009894 0 0.03307449902056106 0.0020010149909461292 0 0.032601587333181407 0.0023753360703009894 0 0.033547362266572733 0.0023656831525617626 0 0.03252001639208351 0.0024480969796740483 0 0.032454162643927323 0.0024572075683224359 0 0.032601587333181407 0.0023753360703009894 0 0.032099795515240136 0.0022094965211420336 0 0.032265985332583291 0.0021528791163144072 0 0.032601587333181407 0.0023753360703009894 0 0.032099795515240136 0.0022094965211420336 0 0.031675125574757726 0.0026921572765897447 0 0.032099795515240136 0.0022094965211420336 0 0.031675125574757726 0.0026921572765897447 0 0.031263651760332786 0.0021397494155893861 0 0.032188632514348531 0.0024363954289447105 0 0.032454162643927323 0.0024572075683224359 0 0.033764888469797652 0.0019387022571347777 0 0.033936693868884357 0.0022259630444762396 0 0.033547362266572733 0.0023656831525617626 0 0.030652646840463652 0.002863708941841586 0 0.031675125574757726 0.0026921572765897447 0 0.031263651760332786 0.0021397494155893861 0 0.030550464884123264 0.0017594934141634245 0 0.031297352248390788 0.0019514581192761442 0 0.031263651760332786 0.0021397494155893861 0 0.030976095461218382 0.0013066800055334896 0 0.031879041225523576 0.0017404399810058034 0 0.030265235300655623 0.0020342049272028427 0 0.031244943713716684 0.0022117147963538063 0 0.030784020878224776 0.0015843607281006051 0 0.030265235300655623 0.0020342049272028427 0 0.030784020878224776 0.0015843607281006051 0 0.030085935764602563 0.0015984634952391364 0 0.031244943713716684 0.0022117147963538063 0 0.03169054215888658 0.0017352011955489664 0 0.030784020878224776 0.0015843607281006051 0 0.032099795515240136 0.0022094965211420336 0 0.031263651760332786 0.0021397494155893861 0 0.031879041225523576 0.0017404399810058034 0 0.032099795515240136 0.0022094965211420336 0 0.031879041225523576 0.0017404399810058034 0 0.032265985332583291 0.0021528791163144072 0 0.031297352248390788 0.0019514581192761442 0 0.031663911365147387 0.0020549016606214378 0 0.031244943713716684 0.0022117147963538063 0 0.03169054215888658 0.0017352011955489664 0 0.032265985332583291 0.0021528791163144072 0 0.03169054215888658 0.0017352011955489664 0 0.032170050152033898 0.0017698962774745704 0 0.032265985332583291 0.0021528791163144072 0 0.03169054215888658 0.0017352011955489664 0 0.032170050152033898 0.0017698962774745704 0 0.031903632494140549 0.0014522014552398016 0 0.032170050152033898 0.0017698962774745704 0 0.032265985332583291 0.0021528791163144072 0 0.032402771830208087 0.0020402688496835835 0 0.031944950526114235 0.0011739491544796915 0 0.031903632494140549 0.0014522014552398016 0 0.032151303779172781 0.0014427530053105879 0 0.032170050152033898 0.0017698962774745704 0 0.031903632494140549 0.0014522014552398016 0 0.032151303779172781 0.0014427530053105879 0 0.031944950526114235 0.0011739491544796915 0 0.031903632494140549 0.0014522014552398016 0 0.031245648015455166 0.0010770480259324291 0 0.03169054215888658 0.0017352011955489664 0 0.031903632494140549 0.0014522014552398016 0 0.031245648015455166 0.0010770480259324291 0 0.031453830775732293 0.0011786894576669761 0 0.03092731240851156 0.0012230216769166876 0 0.031222320811755671 0.0012468220409743395 0 0.030575777367182158 0.0012986008923395239 0 0.030789331028909885 0.00079914612965346411 0 0.030575777367182158 0.0012986008923395239 0 0.030263836030419124 0.0011361610523690539 0 0.030302727580124839 0.00083332189377018225 0 0.03169054215888658 0.0017352011955489664 0 0.031245648015455166 0.0010770480259324291 0 0.030784020878224776 0.0015843607281006051 0 0.03092731240851156 0.0012230216769166876 0 0.03057172530311127 0.0012586567573186062 0 0.031245648015455166 0.0010770480259324291 0 0.030784020878224776 0.0015843607281006051 0 0.030086267618979978 0.0012672389447206942 0 0.030784020878224776 0.0015843607281006051 0 0.030085935764602563 0.0015984634952391364 0 0.030086267618979978 0.0012672389447206942 0 0.030263836030419124 0.0011361610523690539 0 0.030086267618979978 0.0012672389447206942 0 0.029970604637337306 0.0011377324806430957 0 0.030575777367182158 0.0012986008923395239 0 0.030263836030419124 0.0011361610523690539 0 0.030086267618979978 0.0012672389447206942 0 0.030263836030419124 0.0011361610523690539 0 0.030003527037399662 0.00091936810135517333 0 0.029970604637337306 0.0011377324806430957 0 0.030003527037399662 0.00091936810135517333 0 0.030302727580124839 0.00083332189377018225 0 0.029754647193084221 0.00055183763600480894 0 0.030263836030419124 0.0011361610523690539 0 0.030003527037399662 0.00091936810135517333 0 0.030302727580124839 0.00083332189377018225 0 0.030302727580124839 0.00083332189377018225 0 0.030407818432429765 0.00030500142637713656 0 0.029754647193084221 0.00055183763600480894 0 0.030407818432429765 0.00030500142637713656 0 0.029754647193084221 0.00055183763600480894 0 0.029687753853201871 -0.00029829319374700296 0 0.030302727580124839 0.00083332189377018225 0 0.030407818432429765 0.00030500142637713656 0 0.030789331028909885 0.00079914612965346411 0 0.030575777367182158 0.0012986008923395239 0 0.030302727580124839 0.00083332189377018225 0 0.030789331028909885 0.00079914612965346411 0 0.031222320811755671 0.0012468220409743395 0 0.030789331028909885 0.00079914612965346411 0 0.031175417898609843 0.00072413641679440976 0 0.030789331028909885 0.00079914612965346411 0 0.031010724988184277 0.00037965236178923466 0 0.031175417898609843 0.00072413641679440976 0 0.030407818432429765 0.00030500142637713656 0 0.030789331028909885 0.00079914612965346411 0 0.031010724988184277 0.00037965236178923466 0 0.031010724988184277 0.00037965236178923466 0 0.031329220487423724 0.00049211081147638026 0 0.031175417898609843 0.00072413641679440976 0 0.031329220487423724 0.00049211081147638026 0 0.031175417898609843 0.00072413641679440976 0 0.03152171431053083 0.00074884582122414266 0 0.031222320811755671 0.0012468220409743395 0 0.031175417898609843 0.00072413641679440976 0 0.03152171431053083 0.00074884582122414266 0 0.02906356616826701 0.0012614763433861935 0 0.02925986433675265 0.0010217826913935634 0 0.028727694393769744 0.00092381183314814267 0 0.02881429288323132 0.0014408603874049412 0 0.02906356616826701 0.0012614763433861935 0 0.028727694393769744 0.00092381183314814267 0 0.028404935890645262 0.0013035930130380795 0 0.02881429288323132 0.0014408603874049412 0 0.028727694393769744 0.00092381183314814267 0 0.028404935890645262 0.0013035930130380795 0 0.028727694393769744 0.00092381183314814267 0 0.028089973068942984 0.00096239075066151844 0 0.028521100745889216 0.0016980214268396186 0 0.028404935890645262 0.0013035930130380795 0 0.02881429288323132 0.0014408603874049412 0 0.028521100745889216 0.0016980214268396186 0 0.028796855372959607 0.0016820821240847688 0 0.02881429288323132 0.0014408603874049412 0 0.02908393424950367 0.001729346291109429 0 0.028796855372959607 0.0016820821240847688 0 0.02881429288323132 0.0014408603874049412 0 0.029181147972693843 0.0017731109800541032 0 0.02908393424950367 0.001729346291109429 0 0.029231099571500288 0.0015458210612328928 0 0.02881429288323132 0.0014408603874049412 0 0.029231099571500288 0.0015458210612328928 0 0.02906356616826701 0.0012614763433861935 0 0.02908393424950367 0.001729346291109429 0 0.02881429288323132 0.0014408603874049412 0 0.029231099571500288 0.0015458210612328928 0 0.029769886590154837 0.0016330930418909193 0 0.029797323182734071 0.0015199783430643063 0 0.029894585676025161 0.0016686026428678355 0 0.029424197072053654 0.0017311402015718037 0 0.029809745453612996 0.0013390802088764171 0 0.029181147972693843 0.0017731109800541032 0 0.029231099571500288 0.0015458210612328928 0 0.029511735305196737 0.0015148964465201912 0 0.029231099571500288 0.0015458210612328928 0 0.029511735305196737 0.0015148964465201912 0 0.029319251291368205 0.0013294939830283215 0 0.029231099571500288 0.0015458210612328928 0 0.02906356616826701 0.0012614763433861935 0 0.029319251291368205 0.0013294939830283215 0 0.029894585676025161 0.0016686026428678355 0 0.030085935764602563 0.0015984634952391364 0 0.029809745453612996 0.0013390802088764171 0 0.029809745453612996 0.0013390802088764171 0 0.030086267618979978 0.0012672389447206942 0 0.029970604637337306 0.0011377324806430957 0 0.030085935764602563 0.0015984634952391364 0 0.029809745453612996 0.0013390802088764171 0 0.030086267618979978 0.0012672389447206942 0 0.029797323182734071 0.0015199783430643063 0 0.029856459926735301 0.0014311709815719191 0 0.029511735305196737 0.0015148964465201912 0 0.029970604637337306 0.0011377324806430957 0 0.02953985098512369 0.0011733223412411478 0 0.029970604637337306 0.0011377324806430957 0 0.02953985098512369 0.0011733223412411478 0 0.029650314323749795 0.00089162988937978424 0 0.02953985098512369 0.0011733223412411478 0 0.02925986433675265 0.0010217826913935634 0 0.029650314323749795 0.00089162988937978424 0 0.030003527037399662 0.00091936810135517333 0 0.029970604637337306 0.0011377324806430957 0 0.029650314323749795 0.00089162988937978424 0 0.02906356616826701 0.0012614763433861935 0 0.029319251291368205 0.0013294939830283215 0 0.02925986433675265 0.0010217826913935634 0 0.029511735305196737 0.0015148964465201912 0 0.02953985098512369 0.0011733223412411478 0 0.029319251291368205 0.0013294939830283215 0 0.02953985098512369 0.0011733223412411478 0 0.029319251291368205 0.0013294939830283215 0 0.02925986433675265 0.0010217826913935634 0 0.02925986433675265 0.0010217826913935634 0 0.029144363636533964 0.00063149485108059328 0 0.029650314323749795 0.00089162988937978424 0 0.02925986433675265 0.0010217826913935634 0 0.029144363636533964 0.00063149485108059328 0 0.028727694393769744 0.00092381183314814267 0 0.029144363636533964 0.00063149485108059328 0 0.029650314323749795 0.00089162988937978424 0 0.029754647193084221 0.00055183763600480894 0 0.030003527037399662 0.00091936810135517333 0 0.029650314323749795 0.00089162988937978424 0 0.029754647193084221 0.00055183763600480894 0 0.029144363636533964 0.00063149485108059328 0 0.029754647193084221 0.00055183763600480894 0 0.028934077721868144 6.346461270679234e-05 0 0.029144363636533964 0.00063149485108059328 0 0.028692379505892117 0.00037623634689263192 0 0.028934077721868144 6.346461270679234e-05 0 0.029144363636533964 0.00063149485108059328 0 0.028692379505892117 0.00037623634689263192 0 0.028727694393769744 0.00092381183314814267 0 0.028692379505892117 0.00037623634689263192 0 0.028727694393769744 0.00092381183314814267 0 0.028235493532085081 0.00041589042959385846 0 0.028727694393769744 0.00092381183314814267 0 0.028235493532085081 0.00041589042959385846 0 0.028089973068942984 0.00096239075066151844 0 0.028692379505892117 0.00037623634689263192 0 0.028235493532085081 0.00041589042959385846 0 0.028495166595246722 -5.462269052641363e-05 0 0.028235493532085081 0.00041589042959385846 0 0.027891852462945895 0.00027100158101569849 0 0.027699961489745573 0.00059390077525185486 0 0.027891852462945895 0.00027100158101569849 0 0.027699961489745573 0.00059390077525185486 0 0.027601302789328461 0.00012388270254183931 0 0.027699961489745573 0.00059390077525185486 0 0.027646704892763309 0.0010625741604898895 0 0.027242196000974484 0.000775717169631586 0 0.027699961489745573 0.00059390077525185486 0 0.028089973068942984 0.00096239075066151844 0 0.027646704892763309 0.0010625741604898895 0 0.028235493532085081 0.00041589042959385846 0 0.027699961489745573 0.00059390077525185486 0 0.028089973068942984 0.00096239075066151844 0 0.028404935890645262 0.0013035930130380795 0 0.028089973068942984 0.00096239075066151844 0 0.027850491343326369 0.0014972250678227715 0 0.028089973068942984 0.00096239075066151844 0 0.027646704892763309 0.0010625741604898895 0 0.027850491343326369 0.0014972250678227715 0 0.027646704892763309 0.0010625741604898895 0 0.027850491343326369 0.0014972250678227715 0 0.02724361739583649 0.0012943264008586947 0 0.027831198562794732 0.001433548529234009 0 0.027250128414974793 0.0012369477993165096 0 0.028521100745889216 0.0016980214268396186 0 0.028404935890645262 0.0013035930130380795 0 0.027850491343326369 0.0014972250678227715 0 0.028147837190550449 0.0015405698097089395 0 0.027831198562794732 0.001433548529234009 0 0.026902420932574379 0.0012199446073771236 0 0.027089150895088253 0.0014929706564838037 0 0.026771517806557975 0.0016894447405873972 0 0.026902420932574379 0.0012199446073771236 0 0.027089150895088253 0.0014929706564838037 0 0.027313088178606327 0.0011855512547813026 0 0.027972766644904723 0.0014422850055923035 0 0.027313088178606327 0.0011855512547813026 0 0.027364974269932493 0.0015996310339831273 0 0.027089150895088253 0.0014929706564838037 0 0.027313088178606327 0.0011855512547813026 0 0.027364974269932493 0.0015996310339831273 0 0.027646704892763309 0.0010625741604898895 0 0.02724361739583649 0.0012943264008586947 0 0.027242196000974484 0.000775717169631586 0 0.02724361739583649 0.0012943264008586947 0 0.026696550678890756 0.0010109214587695015 0 0.026550686475772231 0.0010586475345338289 0 0.027250128414974793 0.0012369477993165096 0 0.0266308572810382 0.0010314374231560146 0 0.026902420932574379 0.0012199446073771236 0 0.027313088178606327 0.0011855512547813026 0 0.026583176771345415 0.00093098120340510656 0 0.02724361739583649 0.0012943264008586947 0 0.027242196000974484 0.000775717169631586 0 0.026696550678890756 0.0010109214587695015 0 0.027242196000974484 0.000775717169631586 0 0.026912751015558716 0.00049000954964312194 0 0.026696550678890756 0.0010109214587695015 0 0.02411163068212302 -0.00022075950056851123 0 0.024649487715188115 0.00020580041425549217 0 0.027699961489745573 0.00059390077525185486 0 0.027254756921397474 0.0002952843484019331 0 0.027601302789328461 0.00012388270254183931 0 0.027699961489745573 0.00059390077525185486 0 0.027242196000974484 0.000775717169631586 0 0.027254756921397474 0.0002952843484019331 0 0.02411163068212302 -0.00022075950056851123 0 0.022078237170531458 -0.0012135858936360591 0 0.027254756921397474 0.0002952843484019331 0 0.026912751015558716 0.00049000954964312194 0 0.027091350619520241 8.8429915068053845e-06 0 0.027242196000974484 0.000775717169631586 0 0.027254756921397474 0.0002952843484019331 0 0.026912751015558716 0.00049000954964312194 0 0.026008921745224355 9.6936702230779695e-06 0 0.026418236884934998 0.00055697329190080105 0 0.026557527228633217 -7.0962971796494109e-05 0 0.026768702356475483 0.00027747342133284023 0 0.026418236884934998 0.00055697329190080105 0 0.026557527228633217 -7.0962971796494109e-05 0 0.026008921745224355 9.6936702230779695e-06 0 0.025982295139227517 0.00043358927253080685 0 0.026418236884934998 0.00055697329190080105 0 0.025982295139227517 0.00043358927253080685 0 0.026418236884934998 0.00055697329190080105 0 0.02580098522220713 0.00075022355594844695 0 0.026418236884934998 0.00055697329190080105 0 0.02580098522220713 0.00075022355594844695 0 0.026550686475772231 0.0010586475345338289 0 0.026768702356475483 0.00027747342133284023 0 0.026418236884934998 0.00055697329190080105 0 0.026696550678890756 0.0010109214587695015 0 0.0092519852453820488 -0.0059778446594917628 0 0.0092343086811278053 -0.0063300354579735483 0 0.0089222192699056589 -0.0059538592471578737 0 0.0092343086811278053 -0.0063300354579735483 0 0.0089222192699056589 -0.0059538592471578737 0 0.0088195210875267362 -0.0063982199164365162 0 0.0083551929752577001 -0.0059834005187583902 0 0.0089222192699056589 -0.0059538592471578737 0 0.0088195210875267362 -0.0063982199164365162 0 0.026008921745224355 9.6936702230779695e-06 0 0.025982295139227517 0.00043358927253080685 0 0.025512142469985 0.00051978756442251401 0 0.017185926741773449 -0.0029574083599269423 0 0.017158282843280442 -0.0029592175851187157 0 0.025512142469985 0.00051978756442251401 0 0.025506404668586356 0.00091288638364394031 0 0.02580098522220713 0.00075022355594844695 0 0.025982295139227517 0.00043358927253080685 0 0.025512142469985 0.00051978756442251401 0 0.02580098522220713 0.00075022355594844695 0 0.0092343086811278053 -0.0063300354579735483 0 0.0092487808553794511 -0.0068075186144106051 0 0.0088195210875267362 -0.0063982199164365162 0 0.025055608717604722 0.00098957535146638955 0 0.025512142469985 0.00051978756442251401 0 0.025506404668586356 0.00091288638364394031 0 0.025055608717604722 0.00098957535146638955 0 0.025506404668586356 0.00091288638364394031 0 0.025441540631466274 0.0011890292552302337 0 0.017155875427542364 -0.0030038052223820885 0 0.017158282843280442 -0.0029592175851187157 0 0.025506404668586356 0.00091288638364394031 0 0.025734509324159931 0.001116049634157086 0 0.025441540631466274 0.0011890292552302337 0 0.025506404668586356 0.00091288638364394031 0 0.02580098522220713 0.00075022355594844695 0 0.025734509324159931 0.001116049634157086 0 0.02580098522220713 0.00075022355594844695 0 0.025734509324159931 0.001116049634157086 0 0.025972764323667557 0.0010464092743731278 0 0.025734509324159931 0.001116049634157086 0 0.025629421930664163 0.001441046114989268 0 0.026061610412548553 0.0013418168574523166 0 0.025629421930664163 0.001441046114989268 0 0.026061610412548553 0.0013418168574523166 0 0.025874686206608735 0.001708775714655905 0 0.025734509324159931 0.001116049634157086 0 0.025629421930664163 0.001441046114989268 0 0.025441540631466274 0.0011890292552302337 0 0.025629421930664163 0.001441046114989268 0 0.025222740739795489 0.0014499761545249622 0 0.025441540631466274 0.0011890292552302337 0 0.025055608717604722 0.00098957535146638955 0 0.025222740739795489 0.0014499761545249622 0 0.025441540631466274 0.0011890292552302337 0 0.026418236884934998 0.00055697329190080105 0 0.026696550678890756 0.0010109214587695015 0 0.026550686475772231 0.0010586475345338289 0 0.026583176771345415 0.00093098120340510656 0 0.026298239332400952 0.00097178134146018425 0 0.026449746174360033 0.0011636579736911039 0 0.026583176771345415 0.00093098120340510656 0 0.026449746174360033 0.0011636579736911039 0 0.026621780273998665 0.0011741509482543176 0 0.026902420932574379 0.0012199446073771236 0 0.026583176771345415 0.00093098120340510656 0 0.026621780273998665 0.0011741509482543176 0 0.02580098522220713 0.00075022355594844695 0 0.026583176771345415 0.00093098120340510656 0 0.026298239332400952 0.00097178134146018425 0 0.026263707069721958 0.00091282413666008973 0 0.0266308572810382 0.0010314374231560146 0 0.02580098522220713 0.00075022355594844695 0 0.025972764323667557 0.0010464092743731278 0 0.026298239332400952 0.00097178134146018425 0 0.025972764323667557 0.0010464092743731278 0 0.026298239332400952 0.00097178134146018425 0 0.026061610412548553 0.0013418168574523166 0 0.026298239332400952 0.00097178134146018425 0 0.026149718377175231 0.0013797088292657835 0 0.026449746174360033 0.0011636579736911039 0 0.026944335702158206 0.0013215641369539858 0 0.027035283511581954 0.0013253942075081881 0 0.025734509324159931 0.001116049634157086 0 0.025972764323667557 0.0010464092743731278 0 0.026061610412548553 0.0013418168574523166 0 0.026149718377175231 0.0013797088292657835 0 0.026550519729320595 0.0013749729278187159 0 0.026341683347272282 0.0017071820331704848 0 0.026902420932574379 0.0012199446073771236 0 0.026550519729320595 0.0013749729278187159 0 0.026771517806557975 0.0016894447405873972 0 0.026149718377175231 0.0013797088292657835 0 0.026550519729320595 0.0013749729278187159 0 0.026449746174360033 0.0011636579736911039 0 0.026550519729320595 0.0013749729278187159 0 0.026449746174360033 0.0011636579736911039 0 0.026621780273998665 0.0011741509482543176 0 0.026902420932574379 0.0012199446073771236 0 0.026550519729320595 0.0013749729278187159 0 0.026621780273998665 0.0011741509482543176 0 0.026534227831148914 0.0019109794011052267 0 0.026341683347272282 0.0017071820331704848 0 0.026324030785122295 0.0021402455906475294 0 0.026771517806557975 0.0016894447405873972 0 0.026534227831148914 0.0019109794011052267 0 0.026341683347272282 0.0017071820331704848 0 0.026550519729320595 0.0013749729278187159 0 0.026771517806557975 0.0016894447405873972 0 0.026341683347272282 0.0017071820331704848 0 0.026771517806557975 0.0016894447405873972 0 0.026740484544378069 0.0019773856924155081 0 0.026534227831148914 0.0019109794011052267 0 0.026341683347272282 0.0017071820331704848 0 0.025974035484601445 0.0017745670089457473 0 0.026324030785122295 0.0021402455906475294 0 0.026149718377175231 0.0013797088292657835 0 0.026341683347272282 0.0017071820331704848 0 0.025974035484601445 0.0017745670089457473 0 0.027035283511581954 0.0013253942075081881 0 0.027474384802168132 0.0010326168154879034 0 0.027474384802168132 0.0010326168154879034 0 0.028256935499957773 0.0010118173474677615 0 0.029057494887327562 0.00052157165787734968 0 0.029520254178416278 0.00038983199356271348 0 0.02921239630166466 0.00021001076567690792 0 0.02932028784957192 0.00080788833127623787 0 0.029057494887327562 0.00052157165787734968 0 0.029520254178416278 0.00038983199356271348 0 0.029057494887327562 0.00052157165787734968 0 0.029012610054242206 0.00025411967147674261 0 0.02921239630166466 0.00021001076567690792 0 0.029057494887327562 0.00052157165787734968 0 0.028792350758231115 0.00023592256623796405 0 0.029012610054242206 0.00025411967147674261 0 0.028256935499957773 0.0010118173474677615 0 0.029326486616592748 0.0010212692138694482 0 0.026324030785122295 0.0021402455906475294 0 0.026612410258373381 0.0021545161605798736 0 0.02667955090525264 0.0025068419856296145 0 0.026772277479732008 0.0023096747338024188 0 0.026612410258373381 0.0021545161605798736 0 0.026830519950417644 0.0021410381081387484 0 0.026772277479732008 0.0023096747338024188 0 0.026612410258373381 0.0021545161605798736 0 0.02667955090525264 0.0025068419856296145 0 0.026740484544378069 0.0019773856924155081 0 0.026612410258373381 0.0021545161605798736 0 0.026830519950417644 0.0021410381081387484 0 0.026740484544378069 0.0019773856924155081 0 0.026534227831148914 0.0019109794011052267 0 0.026612410258373381 0.0021545161605798736 0 0.026534227831148914 0.0019109794011052267 0 0.026324030785122295 0.0021402455906475294 0 0.026612410258373381 0.0021545161605798736 0 0.025629421930664163 0.001441046114989268 0 0.025222740739795489 0.0014499761545249622 0 0.02542933579454074 0.0017697876496438111 0 0.024995596182501925 0.0018079986830973236 0 0.025222740739795489 0.0014499761545249622 0 0.02542933579454074 0.0017697876496438111 0 0.025629421930664163 0.001441046114989268 0 0.025821714241611973 0.001647937433516423 0 0.02542933579454074 0.0017697876496438111 0 0.027246057648933182 0.00095691468101639096 0 0.027474384802168132 0.0010326168154879034 0 0.027474384802168132 0.0010326168154879034 0 0.027284535511812997 0.00072773592382378892 0 0.025821714241611973 0.001647937433516423 0 0.02542933579454074 0.0017697876496438111 0 0.025609238430969728 0.0020822035326864968 0 0.02542933579454074 0.0017697876496438111 0 0.025609238430969728 0.0020822035326864968 0 0.025246478507383385 0.0020830414431636263 0 0.024995596182501925 0.0018079986830973236 0 0.02542933579454074 0.0017697876496438111 0 0.025246478507383385 0.0020830414431636263 0 0.025609238430969728 0.0020822035326864968 0 0.025246478507383385 0.0020830414431636263 0 0.025398183815910833 0.0025287892390516964 0 0.024793395770045655 0.0022285481465959705 0 0.025246478507383385 0.0020830414431636263 0 0.025398183815910833 0.0025287892390516964 0 0.027284535511812997 0.00072773592382378892 0 0.027227980737077183 -0.00032620346161809884 0 0.029520254178416278 0.00038983199356271348 0 0.02941905139189404 4.7950193587986516e-05 0 0.02921239630166466 0.00021001076567690792 0 0.029520254178416278 0.00038983199356271348 0 0.02941905139189404 4.7950193587986516e-05 0 0.029714885132074601 -2.8196874271786235e-05 0 0.02941905139189404 4.7950193587986516e-05 0 0.029367625247126751 -4.7393569874366519e-05 0 0.029251892175200134 -5.6423304894496399e-07 0 0.029833389917448105 -0.00037629308729707775 0 0.029652567824349902 -0.00029871822563366394 0 0.029671341411355783 -0.00032406935045382386 0 0.029833389917448105 -0.00037629308729707775 0 0.029367972085397792 -0.00016550732740360224 0 0.02955942573393738 -0.0001089121174093793 0 0.029822314114682533 4.7468233895110799e-05 0 0.029731574043467504 0.0002354796959346127 0 0.02943155203332495 -7.0592692321477251e-05 0 0.029367972085397792 -0.00016550732740360224 0 0.02955942573393738 -0.0001089121174093793 0 0.02941905139189404 4.7950193587986516e-05 0 0.029367625247126751 -4.7393569874366519e-05 0 0.02943155203332495 -7.0592692321477251e-05 0 0.02941905139189404 4.7950193587986516e-05 0 0.02943155203332495 -7.0592692321477251e-05 0 0.02955942573393738 -0.0001089121174093793 0 0.029367625247126751 -4.7393569874366519e-05 0 0.02943155203332495 -7.0592692321477251e-05 0 0.029367972085397792 -0.00016550732740360224 0 0.02941905139189404 4.7950193587986516e-05 0 0.02955942573393738 -0.0001089121174093793 0 0.029714885132074601 -2.8196874271786235e-05 0 0.027455336595307592 -0.00023826892339301952 0 0.027227980737077183 -0.00032620346161809884 0 0.029833389917448105 -0.00037629308729707775 0 0.02955942573393738 -0.0001089121174093793 0 0.029702374844349837 -4.7232655893411541e-05 0 0.028243933697563239 -0.0012224171280427797 0 0.027227980737077183 -0.00032620346161809884 0 0.02730844379011407 -0.0021029868485858646 0 0.027311570519948598 -0.0020164271236868822 0 0.027465877058432647 -0.0022166304791895811 0 0.02730844379011407 -0.0021029868485858646 0 0.027317337611476183 -0.002202397928718174 0 0.027465877058432647 -0.0022166304791895811 0 0.028857933091288975 9.5496403426107647e-05 0 0.029012610054242206 0.00025411967147674261 0 0.029096437039262481 7.1708637537690309e-05 0 0.030194401808236019 0.0006518048438800228 0 0.030286103662393232 0.00060413594135216994 0 0.030280970998555218 0.00075927951210615335 0 0.029738144885791112 0.00075502953367417684 0 0.029540429848319151 0.00099167084284562798 0 0.029204680469046181 0.0010878356013778946 0 0.029297363037582902 0.00089168856375321779 0 0.029390251770617659 0.00099147087658523337 0 0.029738144885791112 0.00075502953367417684 0 0.029326486616592748 0.0010212692138694482 0 0.02668486903659583 0.0025023592509463956 0 0.026768872683017239 0.0025931679031636731 0 0.026858385644464914 0.0024138716065771702 0 0.029326486616592748 0.0010212692138694482 0 0.029540429848319151 0.00099167084284562798 0 0.029187659621406126 0.0012084198396954816 0 0.029326486616592748 0.0010212692138694482 0 0.026772277479732008 0.0023096747338024188 0 0.02668486903659583 0.0025023592509463956 0 0.026858385644464914 0.0024138716065771702 0 0.028857933091288975 9.5496403426107647e-05 0 0.028792350758231115 0.00023592256623796405 0 0.029012610054242206 0.00025411967147674261 0 0.029012610054242206 0.00025411967147674261 0 0.02921239630166466 0.00021001076567690792 0 0.029096437039262481 7.1708637537690309e-05 0 0.029367972085397792 -0.00016550732740360224 0 0.028857933091288975 9.5496403426107647e-05 0 0.029096437039262481 7.1708637537690309e-05 0 0.02941905139189404 4.7950193587986516e-05 0 0.02921239630166466 0.00021001076567690792 0 0.029251892175200134 -5.6423304894496399e-07 0 0.02921239630166466 0.00021001076567690792 0 0.029096437039262481 7.1708637537690309e-05 0 0.029251892175200134 -5.6423304894496399e-07 0 0.029652567824349902 -0.00029871822563366394 0 0.029540572345115479 -0.00023069082634512089 0 0.029599467363322501 -0.00029234911734824599 0 0.030448714344762439 0.00010229943250893739 0 0.031073552358012648 0.00015130104848429178 0 0.029731574043467504 0.0002354796959346127 0 0.029738144885791112 0.00075502953367417684 0 0.029671341411355783 -0.00032406935045382386 0 0.029599467363322501 -0.00029234911734824599 0 0.029573265392175078 -0.00030909051739513014 0 0.029624374829355593 -0.00036843228567144789 0 0.029671341411355783 -0.00032406935045382386 0 0.029492983805246523 -0.00031078171719195696 0 0.029367625247126751 -4.7393569874366519e-05 0 0.029367972085397792 -0.00016550732740360224 0 0.029251892175200134 -5.6423304894496399e-07 0 0.029367972085397792 -0.00016550732740360224 0 0.029096437039262481 7.1708637537690309e-05 0 0.029251892175200134 -5.6423304894496399e-07 0 0.029652567824349902 -0.00029871822563366394 0 0.029671341411355783 -0.00032406935045382386 0 0.029599467363322501 -0.00029234911734824599 0 0.029599467363322501 -0.00029234911734824599 0 0.029573265392175078 -0.00030909051739513014 0 0.029568260116338375 -0.00029741128119113139 0 0.030784979435275944 0.00026525661709156026 0 0.03087511466595003 0.00028834586876857197 0 0.031073552358012648 0.00015130104848429178 0 0.031380793457691777 0.00054012330431395781 0 0.03087511466595003 0.00028834586876857197 0 0.031380793457691777 0.00054012330431395781 0 0.030724862645491992 0.00052865232870835481 0 0.030783067124260176 0.00040598367140979566 0 0.031307806690854943 0.0005068625691242646 0 0.031073552358012648 0.00015130104848429178 0 0.03087511466595003 0.00028834586876857197 0 0.029738144885791112 0.00075502953367417684 0 0.03087511466595003 0.00028834586876857197 0 0.030194401808236019 0.0006518048438800228 0 0.030105169522504537 0.00084178677175630694 0 0.030280970998555218 0.00075927951210615335 0 0.029540572345115479 -0.00023069082634512089 0 0.029599467363322501 -0.00029234911734824599 0 0.029569530417168581 -0.00029680821496508124 0 0.030105169522504537 0.00084178677175630694 0 0.030280970998555218 0.00075927951210615335 0 0.030255387139785199 0.00087143413147607192 0 0.029540429848319151 0.00099167084284562798 0 0.030853253171483557 0.0010367053688635707 0 0.030280970998555218 0.00075927951210615335 0 0.030255387139785199 0.00087143413147607192 0 0.030526468382301573 0.00086245599795855047 0 0.031462829593029297 0.00068767339899166704 0 0.031232818801079597 0.00070030290219227497 0 0.031215460764287044 0.0006819536085544152 0 0.030338513572146612 0.0010412738528613793 0 0.030310943368857455 0.00092306500830398287 0 0.030357580515165319 0.0010405603233409788 0 0.031462829593029297 0.00068767339899166704 0 0.031215460764287044 0.0006819536085544152 0 0.031160877252378611 0.00063491674039035581 0 0.030286103662393232 0.00060413594135216994 0 0.030280970998555218 0.00075927951210615335 0 0.030526468382301573 0.00086245599795855047 0 0.031380793457691777 0.00054012330431395781 0 0.031897751511923256 0.001306952804275759 0 0.031380793457691777 0.00054012330431395781 0 0.030853253171483557 0.0010367053688635707 0 0.030853253171483557 0.0010367053688635707 0 0.030853869467001929 0.0010360766779705399 0 0.02708401979185323 0.0024017366767993234 0 0.027267417877154133 0.0024544671203429957 0 0.027329141459092588 0.0030080562473076842 0 0.029680176222506027 0.0014550104294355295 0 0.031083911691199104 0.0011052714810046718 0 0.030253641442114496 0.0009525406016056301 0 0.030338513572146612 0.0010412738528613793 0 0.030310943368857455 0.00092306500830398287 0 0.02715228787164253 0.0023706824657285558 0 0.027267417877154133 0.0024544671203429957 0 0.02729324747236514 0.0023139530332265414 0 0.02715228787164253 0.0023706824657285558 0 0.02708401979185323 0.0024017366767993234 0 0.027267417877154133 0.0024544671203429957 0 0.029642990346271676 0.0014728305196939583 0 0.029680176222506027 0.0014550104294355295 0 0.026768872683017239 0.0025931679031636731 0 0.027076075705919876 0.0024353077391827309 0 0.026858385644464914 0.0024138716065771702 0 0.029540429848319151 0.00099167084284562798 0 0.029680176222506027 0.0014550104294355295 0 0.029959223087024953 0.0013530821983270087 0 0.031122500221928622 0.0015196146812473004 0 0.027267417877154133 0.0024544671203429957 0 0.027634579705198978 0.0029539952497610305 0 0.027629302655930933 0.0025539900553283004 0 0.027448565509782388 0.0023780817894333778 0 0.027267417877154133 0.0024544671203429957 0 0.027629302655930933 0.0025539900553283004 0 0.027448565509782388 0.0023780817894333778 0 0.027629302655930933 0.0025539900553283004 0 0.027623028798244683 0.0023675740095928065 0 0.027448565509782388 0.0023780817894333778 0 0.027267417877154133 0.0024544671203429957 0 0.02729324747236514 0.0023139530332265414 0 0.031470017503749684 0.0013685996714138261 0 0.031864493206521148 0.0014418073379176568 0 0.031620022810122904 0.0015725606235995624 0 0.027267417877154133 0.0024544671203429957 0 0.027329141459092588 0.0030080562473076842 0 0.027690572985318226 0.0029930274316346895 0 0.031233100801579736 0.00070125382035541044 0 0.031215460764287044 0.0006819536085544152 0 0.031186178140457994 0.00070294152393973427 0 0.030853253171483557 0.0010367053688635707 0 0.031083911691199104 0.0011052714810046718 0 0.031083911691199104 0.0011052714810046718 0 0.031897751511923256 0.001306952804275759 0 0.031215460764287044 0.0006819536085544152 0 0.031186178140457994 0.00070294152393973427 0 0.031160877252378611 0.00063491674039035581 0 0.031908758643290611 0.0015599823691677687 0 0.031864493206521148 0.0014418073379176568 0 0.031620022810122904 0.0015725606235995624 0 0.031083911691199104 0.0011052714810046718 0 0.031122500221928622 0.0015196146812473004 0 0.031122500221928622 0.0015196146812473004 0 0.031370630784034091 0.0020935636095193557 0 0.032686466448552443 0.0019518140745199775 0 0.031122500221928622 0.0015196146812473004 0 0.027634579705198978 0.0029539952497610305 0 0.027978298815541779 0.0027504038722136978 0 0.027629302655930933 0.0025539900553283004 0 0.027634579705198978 0.0029539952497610305 0 0.027978298815541779 0.0027504038722136978 0 0.02834615149789407 0.0029850869009856985 0 0.034347693637041425 0.0020560430780870872 0 0.034366324905764509 0.0020849351625260503 0 0.034280060123643173 0.0020995425981642185 0 0.027978298815541779 0.0027504038722136978 0 0.02834615149789407 0.0029850869009856985 0 0.028235348268158954 0.0026942792995344688 0 0.028479144567767178 0.0025649610964312017 0 0.02834615149789407 0.0029850869009856985 0 0.028235348268158954 0.0026942792995344688 0 0.028479144567767178 0.0025649610964312017 0 0.028235348268158954 0.0026942792995344688 0 0.028161402367551998 0.0024917337847869996 0 0.027978298815541779 0.0027504038722136978 0 0.028235348268158954 0.0026942792995344688 0 0.028161402367551998 0.0024917337847869996 0 0.028161402367551998 0.0024917337847869996 0 0.027873532662403645 0.0023866443748288137 0 0.028072636764660357 0.0021526788481077684 0 0.028479144567767178 0.0025649610964312017 0 0.028161402367551998 0.0024917337847869996 0 0.028387713659178984 0.0022704880636914906 0 0.027978298815541779 0.0027504038722136978 0 0.027629302655930933 0.0025539900553283004 0 0.027873532662403645 0.0023866443748288137 0 0.027978298815541779 0.0027504038722136978 0 0.028161402367551998 0.0024917337847869996 0 0.027873532662403645 0.0023866443748288137 0 0.027629302655930933 0.0025539900553283004 0 0.027873532662403645 0.0023866443748288137 0 0.027623028798244683 0.0023675740095928065 0 0.027873532662403645 0.0023866443748288137 0 0.027623028798244683 0.0023675740095928065 0 0.027710955741313308 0.0021521634858201058 0 0.027873532662403645 0.0023866443748288137 0 0.027710955741313308 0.0021521634858201058 0 0.028072636764660357 0.0021526788481077684 0 0.027710955741313308 0.0021521634858201058 0 0.028072636764660357 0.0021526788481077684 0 0.027892583501546053 0.0018929234414135005 0 0.028161402367551998 0.0024917337847869996 0 0.028387713659178984 0.0022704880636914906 0 0.028072636764660357 0.0021526788481077684 0 0.028379931530132178 0.0020124914845315481 0 0.028072636764660357 0.0021526788481077684 0 0.028158615133339015 0.0018241746839795458 0 0.028379931530132178 0.0020124914845315481 0 0.028387713659178984 0.0022704880636914906 0 0.028072636764660357 0.0021526788481077684 0 0.028521100745889216 0.0016980214268396186 0 0.027972766644904723 0.0014422850055923035 0 0.028158615133339015 0.0018241746839795458 0 0.027972766644904723 0.0014422850055923035 0 0.028158615133339015 0.0018241746839795458 0 0.027892583501546053 0.0018929234414135005 0 0.028072636764660357 0.0021526788481077684 0 0.028158615133339015 0.0018241746839795458 0 0.027892583501546053 0.0018929234414135005 0 0.027972766644904723 0.0014422850055923035 0 0.027892583501546053 0.0018929234414135005 0 0.027537342257194664 0.0018868777123535868 0 0.027972766644904723 0.0014422850055923035 0 0.027537342257194664 0.0018868777123535868 0 0.027364974269932493 0.0015996310339831273 0 0.027710955741313308 0.0021521634858201058 0 0.027892583501546053 0.0018929234414135005 0 0.027537342257194664 0.0018868777123535868 0 0.027537342257194664 0.0018868777123535868 0 0.027280427132788845 0.0019636395711435696 0 0.027364974269932493 0.0015996310339831273 0 0.027280427132788845 0.0019636395711435696 0 0.027364974269932493 0.0015996310339831273 0 0.027090277263908981 0.0017645016061576038 0 0.027089150895088253 0.0014929706564838037 0 0.027364974269932493 0.0015996310339831273 0 0.027090277263908981 0.0017645016061576038 0 0.027089150895088253 0.0014929706564838037 0 0.026771517806557975 0.0016894447405873972 0 0.027090277263908981 0.0017645016061576038 0 0.026771517806557975 0.0016894447405873972 0 0.027090277263908981 0.0017645016061576038 0 0.026990879782448681 0.0019973500509131528 0 0.026771517806557975 0.0016894447405873972 0 0.026740484544378069 0.0019773856924155081 0 0.026990879782448681 0.0019973500509131528 0 0.027280427132788845 0.0019636395711435696 0 0.027090277263908981 0.0017645016061576038 0 0.026990879782448681 0.0019973500509131528 0 0.026990879782448681 0.0019973500509131528 0 0.02699578133309662 0.0022231203816446042 0 0.027194898222802702 0.0021844311493837355 0 0.027280427132788845 0.0019636395711435696 0 0.026990879782448681 0.0019973500509131528 0 0.027194898222802702 0.0021844311493837355 0 0.026830519950417644 0.0021410381081387484 0 0.026990879782448681 0.0019973500509131528 0 0.02699578133309662 0.0022231203816446042 0 0.026740484544378069 0.0019773856924155081 0 0.026830519950417644 0.0021410381081387484 0 0.026990879782448681 0.0019973500509131528 0 0.026772277479732008 0.0023096747338024188 0 0.026830519950417644 0.0021410381081387484 0 0.02699578133309662 0.0022231203816446042 0 0.026772277479732008 0.0023096747338024188 0 0.026858385644464914 0.0024138716065771702 0 0.02699578133309662 0.0022231203816446042 0 0.027076075705919876 0.0024353077391827309 0 0.026858385644464914 0.0024138716065771702 0 0.02699578133309662 0.0022231203816446042 0 0.02715228787164253 0.0023706824657285558 0 0.02699578133309662 0.0022231203816446042 0 0.027194898222802702 0.0021844311493837355 0 0.02715228787164253 0.0023706824657285558 0 0.027082922157292921 0.0024072180996973975 0 0.02699578133309662 0.0022231203816446042 0 0.029680176222506027 0.0014550104294355295 0 0.029602960625713794 0.0014656033198387948 0 0.02715228787164253 0.0023706824657285558 0 0.027194898222802702 0.0021844311493837355 0 0.02729324747236514 0.0023139530332265414 0 0.027194898222802702 0.0021844311493837355 0 0.02729324747236514 0.0023139530332265414 0 0.027429660873817485 0.0021975783746729883 0 0.027448565509782388 0.0023780817894333778 0 0.02729324747236514 0.0023139530332265414 0 0.027429660873817485 0.0021975783746729883 0 0.027448565509782388 0.0023780817894333778 0 0.027623028798244683 0.0023675740095928065 0 0.027429660873817485 0.0021975783746729883 0 0.027623028798244683 0.0023675740095928065 0 0.027710955741313308 0.0021521634858201058 0 0.027429660873817485 0.0021975783746729883 0 0.027710955741313308 0.0021521634858201058 0 0.027537342257194664 0.0018868777123535868 0 0.027429660873817485 0.0021975783746729883 0 0.027537342257194664 0.0018868777123535868 0 0.027280427132788845 0.0019636395711435696 0 0.027429660873817485 0.0021975783746729883 0 0.027280427132788845 0.0019636395711435696 0 0.027194898222802702 0.0021844311493837355 0 0.027429660873817485 0.0021975783746729883 0 0.027648583175274584 -8.9252411609630459e-05 0 0.029522168263313667 2.5070760225298548e-07 0 0.025482167746730934 -1.5679445012983585e-06 0 0.027648583175274584 -8.9252411609630459e-05 0 0.026692817760103821 -0.00012623798240162667 0 0.026514350715695127 -0.00010062564957604929 0 0.028713488270874186 -0.00043141137650827939 0 0.028320284855767507 -0.00043748576385174346 0 0.027648583175274584 -8.9252411609630459e-05 0 0.028438414812252344 -9.746607081522336e-05 0 0.026692817760103821 -0.00012623798240162667 0 0.026669501745642008 -0.00015399820804900912 0 0.026611492647069759 -0.00023903645951510143 0 0.026692817760103821 -0.00012623798240162667 0 0.026669501745642008 -0.00015399820804900912 0 0.026611492647069759 -0.00023903645951510143 0 0.026777981591243775 -0.00031597444747915129 0 0.027648583175274584 -8.9252411609630459e-05 0 0.028438414812252344 -9.746607081522336e-05 0 0.029472192246976125 -9.0712248054604318e-05 0 0.028438414812252344 -9.746607081522336e-05 0 0.030005166085288401 -0.00017342155034688321 0 0.029472192246976125 -9.0712248054604318e-05 0 0.02661826436901911 -0.00049181024060170866 0 0.026790233316334313 -0.00051935637169125547 0 0.026777981591243775 -0.00031597444747915129 0 0.028713488270874186 -0.00043141137650827939 0 0.029788177579322776 -0.00028094671056872459 0 0.026611492647069759 -0.00023903645951510143 0 0.02661826436901911 -0.00049181024060170866 0 0.026777981591243775 -0.00031597444747915129 0 0.030005166085288401 -0.00017342155034688321 0 0.030729815510233589 -4.3679554897131289e-05 0 0.030747071519415841 0.00026652117307983023 0 0.029788177579322776 -0.00028094671056872459 0 0.031730226878173486 0.00035507256620468416 0 0.02661826436901911 -0.00049181024060170866 0 0.026722127023146049 -0.00065702765723033387 0 0.026630847667728233 -0.00082623431483243792 0 0.02661826436901911 -0.00049181024060170866 0 0.026722127023146049 -0.00065702765723033387 0 0.026790233316334313 -0.00051935637169125547 0 0.030005166085288401 -0.00017342155034688321 0 0.030729815510233589 -4.3679554897131289e-05 0 0.029472192246976125 -9.0712248054604318e-05 0 0.029472192246976125 -9.0712248054604318e-05 0 0.029522168263313667 2.5070760225298548e-07 0 0.031005174137168245 6.1495122806417101e-05 0 0.030729815510233589 -4.3679554897131289e-05 0 0.029472192246976125 -9.0712248054604318e-05 0 0.031005174137168245 6.1495122806417101e-05 0 0.027648583175274584 -8.9252411609630459e-05 0 0.029472192246976125 -9.0712248054604318e-05 0 0.029522168263313667 2.5070760225298548e-07 0 0.029522168263313667 2.5070760225298548e-07 0 0.031005174137168245 6.1495122806417101e-05 0 0.03359887068532736 -3.6404138192457734e-05 0 0.029522168263313667 2.5070760225298548e-07 0 0.034997766794513697 -1.3405587867836844e-07 0 0.03359887068532736 -3.6404138192457734e-05 0 0.031005174137168245 6.1495122806417101e-05 0 0.03359887068532736 -3.6404138192457734e-05 0 0.031734050591332719 0.00025266803832072848 0 0.034997766794513697 -1.3405587867836844e-07 0 0.03359887068532736 -3.6404138192457734e-05 0 0.03499651259800083 -2.8529905004079278e-07 0 0.03359887068532736 -3.6404138192457734e-05 0 0.033750957761953471 -9.5290730524521264e-05 0 0.033004265852925249 2.0531773121814636e-05 0 0.03359887068532736 -3.6404138192457734e-05 0 0.03499651259800083 -2.8529905004079278e-07 0 0.033750957761953471 -9.5290730524521264e-05 0 0.034999979644821919 -2.4239471576235583e-09 0 0.034983614455764929 5.5892906274108694e-06 0 0.034994249434654609 2.7512516477962845e-06 0 0.034997529038026713 -5.773059302787492e-07 0 0.033633034986746912 -0.00011925700222155755 0 0.033750957761953471 -9.5290730524521264e-05 0 0.033004265852925249 2.0531773121814636e-05 0 0.033011457495492003 0.00044379555527448999 0 0.033633034986746912 -0.00011925700222155755 0 0.031730226878173486 0.00035507256620468416 0 0.034983614455764929 5.5892906274108694e-06 0 0.034970489500901918 2.1893325674303327e-05 0 0.034984324556421149 1.2203291405829763e-05 0 0.034970489500901918 2.1893325674303327e-05 0 0.034980339557192909 2.1943992788925959e-05 0 0.034984324556421149 1.2203291405829763e-05 0 0.03359887068532736 -3.6404138192457734e-05 0 0.033004265852925249 2.0531773121814636e-05 0 0.031734050591332719 0.00025266803832072848 0 0.033004265852925249 2.0531773121814636e-05 0 0.031734050591332719 0.00025266803832072848 0 0.033011457495492003 0.00044379555527448999 0 0.031766255013707737 0.00034950152064885113 0 0.031730226878173486 0.00035507256620468416 0 0.030729815510233589 -4.3679554897131289e-05 0 0.031734050591332719 0.00025266803832072848 0 0.030747071519415841 0.00026652117307983023 0 0.030729815510233589 -4.3679554897131289e-05 0 0.031005174137168245 6.1495122806417101e-05 0 0.031734050591332719 0.00025266803832072848 0 0.026630847667728233 -0.00082623431483243792 0 0.026734712980521373 -0.00078816278782807894 0 0.026772066052636601 -0.00083208308369061375 0 0.031730226878173486 0.00035507256620468416 0 0.03214063521662585 0.00013768857950903276 0 0.026722127023146049 -0.00065702765723033387 0 0.026630847667728233 -0.00082623431483243792 0 0.026734712980521373 -0.00078816278782807894 0 0.027004218390687514 -0.00079233189089008519 0 0.026748361085279282 -0.000858047580003433 0 0.027345260188575363 -0.0009185420771434192 0 0.03214063521662585 0.00013768857950903276 0 0.031533790572482387 -0.00011442991023706999 0 0.026851612978090907 -0.00067501395150195537 0 0.027004218390687514 -0.00079233189089008519 0 0.026748361085279282 -0.000858047580003433 0 0.026722127023146049 -0.00065702765723033387 0 0.026734712980521373 -0.00078816278782807894 0 0.026851612978090907 -0.00067501395150195537 0 0.026734712980521373 -0.00078816278782807894 0 0.026851612978090907 -0.00067501395150195537 0 0.026748361085279282 -0.000858047580003433 0 0.032052150563632927 0.0001809958577321108 0 0.03214063521662585 0.00013768857950903276 0 0.027004218390687514 -0.00079233189089008519 0 0.027345260188575363 -0.0009185420771434192 0 0.027263078790846593 -4.1312038124054369e-05 0 0.034939255119583651 4.1562804884060686e-05 0 0.034929181228131309 1.3005494183585833e-05 0 0.034965027717674971 1.5165778617899089e-05 0 0.03214063521662585 0.00013768857950903276 0 0.033820473151790618 -0.00026791408178310737 0 0.034892734889739062 4.6501442348746934e-05 0 0.034939255119583651 4.1562804884060686e-05 0 0.034929181228131309 1.3005494183585833e-05 0 0.034980339557192909 2.1943992788925959e-05 0 0.034993474522442246 9.8397521113627629e-06 0 0.034984324556421149 1.2203291405829763e-05 0 0.034983614455764929 5.5892906274108694e-06 0 0.034984324556421149 1.2203291405829763e-05 0 0.034994249434654609 2.7512516477962845e-06 0 0.034993474522442246 9.8397521113627629e-06 0 0.034984324556421149 1.2203291405829763e-05 0 0.034994249434654609 2.7512516477962845e-06 0 0.034929181228131309 1.3005494183585833e-05 0 0.034965495567864005 -3.4838389306448216e-06 0 0.034965027717674971 1.5165778617899089e-05 0 0.033820473151790618 -0.00026791408178310737 0 0.034555330122812214 -0.00017391625813460089 0 0.034993474522442246 9.8397521113627629e-06 0 0.034994249434654609 2.7512516477962845e-06 0 0.034999662343287455 2.0993293839204287e-06 0 0.034999662343287455 2.0993293839204287e-06 0 0.034999999388425733 9.0283281430344972e-10 0 0.035000001205389687 2.5516488410548706e-10 0 0.034994249434654609 2.7512516477962845e-06 0 0.034999662343287455 2.0993293839204287e-06 0 0.034999999388425733 9.0283281430344972e-10 0 0.034999979644821919 -2.4239471576235583e-09 0 0.034994249434654609 2.7512516477962845e-06 0 0.034999999388425733 9.0283281430344972e-10 0 0.034994163116396075 -3.9063254857939691e-06 0 0.034999912735599194 -4.6112622957542295e-08 0 0.034986393574658603 -2.9190157755577163e-07 0 0.034994163116396075 -3.9063254857939691e-06 0 0.034999912735599194 -4.6112622957542295e-08 0 0.035000067048306507 3.6369468017476179e-08 0 0.034965495567864005 -3.4838389306448216e-06 0 0.034999912735599194 -4.6112622957542295e-08 0 0.034986393574658603 -2.9190157755577163e-07 0 0.034555330122812214 -0.00017391625813460089 0 0.034999147959839383 -5.0739683296239116e-07 0 0.034965495567864005 -3.4838389306448216e-06 0 0.034986393574658603 -2.9190157755577163e-07 0 0.034965027717674971 1.5165778617899089e-05 0 0.034994163116396075 -3.9063254857939691e-06 0 0.034986393574658603 -2.9190157755577163e-07 0 0.034990823121493451 -1.2272050122064191e-05 0 0.034986393574658603 -2.9190157755577163e-07 0 0.034981231913401342 1.56711263104881e-05 0 0.034965027717674971 1.5165778617899089e-05 0 0.034986393574658603 -2.9190157755577163e-07 0 0.034981231913401342 1.56711263104881e-05 0 0.03499110351891279 7.686997351141477e-06 0 0.034939255119583651 4.1562804884060686e-05 0 0.034965027717674971 1.5165778617899089e-05 0 0.034969397229073183 3.105026042171577e-05 0 0.034981231913401342 1.56711263104881e-05 0 0.034965027717674971 1.5165778617899089e-05 0 0.034969397229073183 3.105026042171577e-05 0 0.027345260188575363 -0.0009185420771434192 0 0.028161322416192978 -0.00094051786034550467 0 0.027769530382407179 -0.00050021672037785724 0 0.031533790572482387 -0.00011442991023706999 0 0.03163204946935412 -0.00024213052626158288 0 0.028161322416192978 -0.00094051786034550467 0 0.028208901676911008 -0.00060680511930208685 0 0.027769530382407179 -0.00050021672037785724 0 0.028161322416192978 -0.00094051786034550467 0 0.028208901676911008 -0.00060680511930208685 0 0.028756715702179508 -0.00090608479640641156 0 0.03163204946935412 -0.00024213052626158288 0 0.031868424468854177 -0.00028830376216383764 0 0.028161322416192978 -0.00094051786034550467 0 0.028756715702179508 -0.00090608479640641156 0 0.02893841964388048 -0.00093288710467604472 0 0.028208901676911008 -0.00060680511930208685 0 0.028756715702179508 -0.00090608479640641156 0 0.028141351664471351 -8.0843750015953964e-05 0 0.034981231913401342 1.56711263104881e-05 0 0.034969397229073183 3.105026042171577e-05 0 0.034986674683997042 2.4655138127413831e-05 0 0.028756715702179508 -0.00090608479640641156 0 0.02877494290785804 -0.0002441998544886881 0 0.028333980786090156 -0.00025107449595473312 0 0.028078127997884516 -0.00080101997105562657 0 0.027696024929768474 -0.0005647566821143274 0 0.02877494290785804 -0.0002441998544886881 0 0.028528609868675878 6.0874094363905213e-05 0 0.028643376125589096 0.00038477216700726302 0 0.030514210559308932 2.9749928271177928e-05 0 0.030097969735138501 0.00025903988326971857 0 0.02877494290785804 -0.0002441998544886881 0 0.028528609868675878 6.0874094363905213e-05 0 0.028333980786090156 -0.00025107449595473312 0 0.028801232491040676 -0.00022454405944791669 0 0.028643376125589096 0.00038477216700726302 0 0.028825008297064147 0.00039550030631977859 0 0.028528609868675878 6.0874094363905213e-05 0 0.028322772624391309 0.00020516345316815441 0 0.028472848204587797 0.00026900158438952472 0 0.028528609868675878 6.0874094363905213e-05 0 0.028643376125589096 0.00038477216700726302 0 0.028472848204587797 0.00026900158438952472 0 0.028322772624391309 0.00020516345316815441 0 0.028333980786090156 -0.00025107449595473312 0 0.027921063772193784 0.00034801807688088552 0 0.027696024929768474 -0.0005647566821143274 0 0.026913422683869415 -0.00057680502141776904 0 0.028528609868675878 6.0874094363905213e-05 0 0.028322772624391309 0.00020516345316815441 0 0.028333980786090156 -0.00025107449595473312 0 0.028141351664471351 -8.0843750015953964e-05 0 0.027769530382407179 -0.00050021672037785724 0 0.027263078790846593 -4.1312038124054369e-05 0 0.028208901676911008 -0.00060680511930208685 0 0.028141351664471351 -8.0843750015953964e-05 0 0.027769530382407179 -0.00050021672037785724 0 0.027345260188575363 -0.0009185420771434192 0 0.027769530382407179 -0.00050021672037785724 0 0.027263078790846593 -4.1312038124054369e-05 0 0.02699483621211712 -0.00052412935410699429 0 0.027020322414858543 -0.00040690988154789041 0 0.026851612978090907 -0.00067501395150195537 0 0.027004218390687514 -0.00079233189089008519 0 0.02697090192133695 -0.00049920732881148227 0 0.026851612978090907 -0.00067501395150195537 0 0.02697090192133695 -0.00049920732881148227 0 0.026790233316334313 -0.00051935637169125547 0 0.026722127023146049 -0.00065702765723033387 0 0.026851612978090907 -0.00067501395150195537 0 0.026790233316334313 -0.00051935637169125547 0 0.02697090192133695 -0.00049920732881148227 0 0.026790233316334313 -0.00051935637169125547 0 0.026777981591243775 -0.00031597444747915129 0 0.028141351664471351 -8.0843750015953964e-05 0 0.027263078790846593 -4.1312038124054369e-05 0 0.027550808006881262 0.00072614021268439029 0 0.02697090192133695 -0.00049920732881148227 0 0.026994032383898584 -0.00030387997158108637 0 0.026777981591243775 -0.00031597444747915129 0 0.027020322414858543 -0.00040690988154789041 0 0.026913422683869415 -0.00057680502141776904 0 0.026913422683869415 -0.00057680502141776904 0 0.026227939510368302 -0.0010951847937142501 0 0.026994032383898584 -0.00030387997158108637 0 0.026777981591243775 -0.00031597444747915129 0 0.026786513764947877 -0.00012941023899272055 0 0.026669501745642008 -0.00015399820804900912 0 0.026777981591243775 -0.00031597444747915129 0 0.026786513764947877 -0.00012941023899272055 0 0.025663892783083706 -0.0035377866486842762 0 0.02505253246314473 -0.0027099815006684405 0 0.025994357126676821 -0.0026667244471075368 0 0.02817049392478067 0.00098733229330120217 0 0.028346632793123158 0.0006820523460362958 0 0.028609664896859333 0.0010100032526953074 0 0.027921063772193784 0.00034801807688088552 0 0.02817049392478067 0.00098733229330120217 0 0.028346632793123158 0.0006820523460362958 0 0.026913422683869415 -0.00057680502141776904 0 0.027272682005832934 -0.00056502268969857341 0 0.028609664896859333 0.0010100032526953074 0 0.028564674443948054 0.000580090467819386 0 0.028825008297064147 0.00039550030631977859 0 0.028346632793123158 0.0006820523460362958 0 0.028609664896859333 0.0010100032526953074 0 0.028564674443948054 0.000580090467819386 0 0.029142471057342613 0.0018421714367104912 0 0.030063333126736137 0.0016803298732541402 0 0.03129570402019461 0.0044088345167312103 0 0.031663127572653244 0.0034267682453350324 0 0.031771530528560459 0.0038978786610152538 0 0.028564674443948054 0.000580090467819386 0 0.028643376125589096 0.00038477216700726302 0 0.028397515211287139 0.00042495335792020459 0 0.028346632793123158 0.0006820523460362958 0 0.028564674443948054 0.000580090467819386 0 0.028397515211287139 0.00042495335792020459 0 0.028564674443948054 0.000580090467819386 0 0.028643376125589096 0.00038477216700726302 0 0.028825008297064147 0.00039550030631977859 0 0.028643376125589096 0.00038477216700726302 0 0.028472848204587797 0.00026900158438952472 0 0.028397515211287139 0.00042495335792020459 0 0.028322772624391309 0.00020516345316815441 0 0.028472848204587797 0.00026900158438952472 0 0.028397515211287139 0.00042495335792020459 0 0.027921063772193784 0.00034801807688088552 0 0.028346632793123158 0.0006820523460362958 0 0.028397515211287139 0.00042495335792020459 0 0.028322772624391309 0.00020516345316815441 0 0.027921063772193784 0.00034801807688088552 0 0.028397515211287139 0.00042495335792020459 0 0.032762075988099007 0.0038633810360795473 0 0.033325268185419511 0.00337855803629064 0 0.033790726450108742 0.0031025467447639908 0 0.031336368218400641 0.004415695340838903 0 0.031279665962802863 0.0044050567086528934 0 0.031257594555865527 0.004461977372292673 0 0.032182543762449993 0.003332813659372161 0 0.033045625307270801 0.0022967189127663869 0 0.032762075988099007 0.0038633810360795473 0 0.03266509484869394 0.0034552757378133467 0 0.032186279828169628 0.003775138154937708 0 0.032762075988099007 0.0038633810360795473 0 0.033325268185419511 0.00337855803629064 0 0.03266509484869394 0.0034552757378133467 0 0.031336368218400641 0.004415695340838903 0 0.031279665962802863 0.0044050567086528934 0 0.031297946695341215 0.0043602768960123318 0 0.033325268185419511 0.00337855803629064 0 0.03289505438009882 0.0031543373956744725 0 0.033187603882245696 0.0029584577376379384 0 0.033325268185419511 0.00337855803629064 0 0.033487018421979979 0.0029986467840878799 0 0.033187603882245696 0.0029584577376379384 0 0.033325268185419511 0.00337855803629064 0 0.03289505438009882 0.0031543373956744725 0 0.03266509484869394 0.0034552757378133467 0 0.03289505438009882 0.0031543373956744725 0 0.03266509484869394 0.0034552757378133467 0 0.032549542495995482 0.0031471167296189717 0 0.032549542495995482 0.0031471167296189717 0 0.032212651022747035 0.003165723693969948 0 0.03225828201909433 0.0034279196735724406 0 0.032212651022747035 0.003165723693969948 0 0.03225828201909433 0.0034279196735724406 0 0.031986265157732147 0.0035603170705014306 0 0.03266509484869394 0.0034552757378133467 0 0.032549542495995482 0.0031471167296189717 0 0.03225828201909433 0.0034279196735724406 0 0.032212651022747035 0.003165723693969948 0 0.031663127572653244 0.0034267682453350324 0 0.031986265157732147 0.0035603170705014306 0 0.031663127572653244 0.0034267682453350324 0 0.031986265157732147 0.0035603170705014306 0 0.031771530528560459 0.0038978786610152538 0 0.031986265157732147 0.0035603170705014306 0 0.032186279828169628 0.003775138154937708 0 0.031771530528560459 0.0038978786610152538 0 0.03266509484869394 0.0034552757378133467 0 0.03225828201909433 0.0034279196735724406 0 0.032186279828169628 0.003775138154937708 0 0.03225828201909433 0.0034279196735724406 0 0.031986265157732147 0.0035603170705014306 0 0.032186279828169628 0.003775138154937708 0 0.032762075988099007 0.0038633810360795473 0 0.032186279828169628 0.003775138154937708 0 0.031536389029215489 0.0043329100404690029 0 0.031536389029215489 0.0043329100404690029 0 0.031323317987335828 0.0043179016512285926 0 0.031338207668772072 0.00429170641759293 0 0.031336368218400641 0.004415695340838903 0 0.031536389029215489 0.0043329100404690029 0 0.031323317987335828 0.0043179016512285926 0 0.032182543762449993 0.003332813659372161 0 0.031924062832028394 0.0036293204343884906 0 0.032186279828169628 0.003775138154937708 0 0.031771530528560459 0.0038978786610152538 0 0.031536389029215489 0.0043329100404690029 0 0.03129570402019461 0.0044088345167312103 0 0.031771530528560459 0.0038978786610152538 0 0.031536389029215489 0.0043329100404690029 0 0.031323317987335828 0.0043179016512285926 0 0.031297946695341215 0.0043602768960123318 0 0.031263559207380873 0.0043204435734288992 0 0.031336368218400641 0.004415695340838903 0 0.031323317987335828 0.0043179016512285926 0 0.031297946695341215 0.0043602768960123318 0 0.032854140392919805 0.0019248065513842434 0 0.032933798114282008 0.001919062367594121 0 0.032957816216769471 0.0017956732410067903 0 0.031279665962802863 0.0044050567086528934 0 0.031297946695341215 0.0043602768960123318 0 0.031263559207380873 0.0043204435734288992 0 0.033249599523008835 0.0016996276768052958 0 0.033225780630969572 0.0017382413440257536 0 0.032933798114282008 0.001919062367594121 0 0.032957816216769471 0.0017956732410067903 0 0.033045164435319643 0.0019529926034620392 0 0.033125004276832987 0.0017199828472077364 0 0.032891314411752373 0.0016039419020977782 0 0.033045164435319643 0.0019529926034620392 0 0.033125004276832987 0.0017199828472077364 0 0.033045164435319643 0.0019529926034620392 0 0.033154844293766993 0.0019736034904118205 0 0.032891314411752373 0.0016039419020977782 0 0.033051059800214465 0.0013188046982784279 0 0.03271674931989936 0.0011946866838899767 0 0.033125004276832987 0.0017199828472077364 0 0.0332349820977531 0.0014482495682650181 0 0.032891314411752373 0.0016039419020977782 0 0.0332349820977531 0.0014482495682650181 0 0.032891314411752373 0.0016039419020977782 0 0.033051059800214465 0.0013188046982784279 0 0.0332349820977531 0.0014482495682650181 0 0.033051059800214465 0.0013188046982784279 0 0.033242914266404348 0.0012162591149538176 0 0.032394087500842939 0.0029676803268587648 0 0.033254821558676817 0.0020229534019031749 0 0.033249599523008835 0.0016996276768052958 0 0.033431667734989345 0.0017991377598886881 0 0.032957816216769471 0.0017956732410067903 0 0.032870629541990749 0.0016420350044189546 0 0.032888022208390877 0.0016279535891739793 0 0.032854140392919805 0.0019248065513842434 0 0.032957816216769471 0.0017956732410067903 0 0.032870629541990749 0.0016420350044189546 0 0.031279665962802863 0.0044050567086528934 0 0.031263559207380873 0.0043204435734288992 0 0.031245753044011011 0.0044716737518718441 0 0.031279665962802863 0.0044050567086528934 0 0.031257594555865527 0.004461977372292673 0 0.031245753044011011 0.0044716737518718441 0 0.033042398365223942 0.0023370455872164368 0 0.033045625307270801 0.0022967189127663869 0 0.033325268185419511 0.00337855803629064 0 0.03371255282062191 0.0031096707450014153 0 0.033487018421979979 0.0029986467840878799 0 0.033487018421979979 0.0029986467840878799 0 0.033608373679524212 0.0028327151719972632 0 0.033695363036414343 0.0029477285816267144 0 0.03371255282062191 0.0031096707450014153 0 0.033487018421979979 0.0029986467840878799 0 0.033695363036414343 0.0029477285816267144 0 0.033487018421979979 0.0029986467840878799 0 0.033608373679524212 0.0028327151719972632 0 0.033394742297972756 0.0027157647097279572 0 0.033608373679524212 0.0028327151719972632 0 0.033827313757113293 0.0027501358955446613 0 0.033601545930705412 0.0026829838413776632 0 0.033608373679524212 0.0028327151719972632 0 0.033601545930705412 0.0026829838413776632 0 0.033394742297972756 0.0027157647097279572 0 0.033608373679524212 0.0028327151719972632 0 0.033827313757113293 0.0027501358955446613 0 0.033695363036414343 0.0029477285816267144 0 0.033465292192627089 0.0018077191228722913 0 0.033254821558676817 0.0020229534019031749 0 0.033827313757113293 0.0027501358955446613 0 0.033695363036414343 0.0029477285816267144 0 0.03382599158684782 0.0030079361159377357 0 0.033532438415546581 0.0022125191625925046 0 0.033612942878351662 0.0010634333780920725 0 0.033192061984808945 0.0014078375246721825 0 0.033254821558676817 0.0020229534019031749 0 0.033431667734989345 0.0017991377598886881 0 0.03371255282062191 0.0031096707450014153 0 0.033695363036414343 0.0029477285816267144 0 0.03382599158684782 0.0030079361159377357 0 0.033045625307270801 0.0022967189127663869 0 0.033254821558676817 0.0020229534019031749 0 0.033465292192627089 0.0018077191228722913 0 0.033431667734989345 0.0017991377598886881 0 0.033431667734989345 0.0017991377598886881 0 0.034050629388730054 0.00096701775297086884 0 0.03503147632716995 -0.00050024415312833255 0 0.035010362486835318 -0.00043087452822801128 0 0.034948875463037869 -0.00043605618384803829 0 0.035040543197348589 -0.00047956644258041872 0 0.03503147632716995 -0.00050024415312833255 0 0.035010362486835318 -0.00043087452822801128 0 0.033827313757113293 0.0027501358955446613 0 0.03353713669615431 0.0024264270093684319 0 0.033601545930705412 0.0026829838413776632 0 0.03353713669615431 0.0024264270093684319 0 0.033601545930705412 0.0026829838413776632 0 0.033394742297972756 0.0027157647097279572 0 0.03271674931989936 0.0011946866838899767 0 0.03313068336950524 0.00096284504792525745 0 0.033174602321331084 0.00090373651906705391 0 0.03271674931989936 0.0011946866838899767 0 0.03308261828534706 0.0011455483532798189 0 0.03313068336950524 0.00096284504792525745 0 0.033431667734989345 0.0017991377598886881 0 0.033831838767257226 0.0010152889166852299 0 0.033434500351410545 0.0014784868661958741 0 0.033832129954676472 0.0011481779840968322 0 0.034011850183791693 0.0011121327795728221 0 0.03308261828534706 0.0011455483532798189 0 0.033242914266404348 0.0012162591149538176 0 0.033274075525264644 0.0010220104640145957 0 0.033051059800214465 0.0013188046982784279 0 0.03308261828534706 0.0011455483532798189 0 0.033242914266404348 0.0012162591149538176 0 0.033051059800214465 0.0013188046982784279 0 0.03271674931989936 0.0011946866838899767 0 0.03308261828534706 0.0011455483532798189 0 0.03308261828534706 0.0011455483532798189 0 0.03313068336950524 0.00096284504792525745 0 0.033274075525264644 0.0010220104640145957 0 0.033826774130585331 0.0010182297521060357 0 0.033831838767257226 0.0010152889166852299 0 0.03313068336950524 0.00096284504792525745 0 0.03317592953563802 0.00090059432435611272 0 0.033274075525264644 0.0010220104640145957 0 0.034948875463037869 -0.00043605618384803829 0 0.034942319000352072 -0.00032320288439610596 0 0.034854977625779916 -0.00037014826464414947 0 0.034948875463037869 -0.00043605618384803829 0 0.034986273184729806 -0.00037708600828353255 0 0.034942319000352072 -0.00032320288439610596 0 0.033832129954676472 0.0011481779840968322 0 0.034011850183791693 0.0011121327795728221 0 0.034229666806129773 0.00081829484106975812 0 0.034050629388730054 0.00096701775297086884 0 0.034135393201401958 0.00065558420788840133 0 0.035010362486835318 -0.00043087452822801128 0 0.034948875463037869 -0.00043605618384803829 0 0.034986273184729806 -0.00037708600828353255 0 0.034986273184729806 -0.00037708600828353255 0 0.035043167614483998 -0.00032823853736224607 0 0.034942319000352072 -0.00032320288439610596 0 0.034942319000352072 -0.00032320288439610596 0 0.034884430365988012 -0.00031058918135811912 0 0.034854977625779916 -0.00037014826464414947 0 0.033465292192627089 0.0018077191228722913 0 0.034180327169657396 0.00095172863582648932 0 0.035010362486835318 -0.00043087452822801128 0 0.034986273184729806 -0.00037708600828353255 0 0.035043167614483998 -0.00032823853736224607 0 0.033827313757113293 0.0027501358955446613 0 0.03353713669615431 0.0024264270093684319 0 0.033447292021523634 0.0018153904704422625 0 0.035040543197348589 -0.00047956644258041872 0 0.035010362486835318 -0.00043087452822801128 0 0.035043167614483998 -0.00032823853736224607 0 0.033465292192627089 0.0018077191228722913 0 0.033618371404602901 0.0018517347376495546 0 0.034670764339336239 0.0033011774129753308 0 0.034768619379468714 0.0020373565331616539 0 0.034206522233366919 0.0022010229223670577 0 0.033447292021523634 0.0018153904704422625 0 0.033169366105791888 0.0019564253872439452 0 0.033283722662096775 0.0021556574611381486 0 0.033447292021523634 0.0018153904704422625 0 0.033064196871177537 0.0017638906305274006 0 0.033162967162466597 0.0015552373482541962 0 0.033064196871177537 0.0017638906305274006 0 0.033169366105791888 0.0019564253872439452 0 0.032886170483530451 0.0020648742476384713 0 0.033447292021523634 0.0018153904704422625 0 0.033064196871177537 0.0017638906305274006 0 0.033169366105791888 0.0019564253872439452 0 0.033169366105791888 0.0019564253872439452 0 0.033025331151550631 0.0021889304592655418 0 0.033283722662096775 0.0021556574611381486 0 0.033169366105791888 0.0019564253872439452 0 0.032886170483530451 0.0020648742476384713 0 0.033025331151550631 0.0021889304592655418 0 0.032886170483530451 0.0020648742476384713 0 0.033025331151550631 0.0021889304592655418 0 0.032721781701207021 0.0023134603433636164 0 0.03353713669615431 0.0024264270093684319 0 0.033447292021523634 0.0018153904704422625 0 0.033283722662096775 0.0021556574611381486 0 0.033025331151550631 0.0021889304592655418 0 0.033283722662096775 0.0021556574611381486 0 0.033236488616224136 0.002423355337784061 0 0.03353713669615431 0.0024264270093684319 0 0.033283722662096775 0.0021556574611381486 0 0.033236488616224136 0.002423355337784061 0 0.03353713669615431 0.0024264270093684319 0 0.033236488616224136 0.002423355337784061 0 0.033394742297972756 0.0027157647097279572 0 0.033236488616224136 0.002423355337784061 0 0.033394742297972756 0.0027157647097279572 0 0.033144908148954065 0.0027005950009769725 0 0.033025331151550631 0.0021889304592655418 0 0.033236488616224136 0.002423355337784061 0 0.032861195958399252 0.002529643094561673 0 0.033025331151550631 0.0021889304592655418 0 0.032861195958399252 0.002529643094561673 0 0.032721781701207021 0.0023134603433636164 0 0.033236488616224136 0.002423355337784061 0 0.032861195958399252 0.002529643094561673 0 0.033144908148954065 0.0027005950009769725 0 0.032861195958399252 0.002529643094561673 0 0.032879428442467919 0.0028443143189283196 0 0.033144908148954065 0.0027005950009769725 0 0.032879428442467919 0.0028443143189283196 0 0.033187603882245696 0.0029584577376379384 0 0.033144908148954065 0.0027005950009769725 0 0.032861195958399252 0.002529643094561673 0 0.032879428442467919 0.0028443143189283196 0 0.032532415258999671 0.0028450818669255172 0 0.032549542495995482 0.0031471167296189717 0 0.032879428442467919 0.0028443143189283196 0 0.032532415258999671 0.0028450818669255172 0 0.03289505438009882 0.0031543373956744725 0 0.032549542495995482 0.0031471167296189717 0 0.032879428442467919 0.0028443143189283196 0 0.03289505438009882 0.0031543373956744725 0 0.032879428442467919 0.0028443143189283196 0 0.033187603882245696 0.0029584577376379384 0 0.033487018421979979 0.0029986467840878799 0 0.033187603882245696 0.0029584577376379384 0 0.033394742297972756 0.0027157647097279572 0 0.033187603882245696 0.0029584577376379384 0 0.033394742297972756 0.0027157647097279572 0 0.033144908148954065 0.0027005950009769725 0 0.028801232491040676 -0.00022454405944791669 0 0.028825008297064147 0.00039550030631977859 0 0.029053896027118904 -0.00021936663554508054 0 0.030063333126736137 0.0016803298732541402 0 0.031005711221274906 0.00097452270271860902 0 0.031663127572653244 0.0034267682453350324 0 0.032407963235598539 0.002728795217593216 0 0.032416810883994056 0.002151671951588113 0 0.032212651022747035 0.003165723693969948 0 0.031663127572653244 0.0034267682453350324 0 0.032407963235598539 0.002728795217593216 0 0.032212651022747035 0.003165723693969948 0 0.032532415258999671 0.0028450818669255172 0 0.032407963235598539 0.002728795217593216 0 0.032549542495995482 0.0031471167296189717 0 0.032212651022747035 0.003165723693969948 0 0.032532415258999671 0.0028450818669255172 0 0.032861195958399252 0.002529643094561673 0 0.032407963235598539 0.002728795217593216 0 0.032721781701207021 0.0023134603433636164 0 0.032407963235598539 0.002728795217593216 0 0.032416810883994056 0.002151671951588113 0 0.032721781701207021 0.0023134603433636164 0 0.032861195958399252 0.002529643094561673 0 0.032532415258999671 0.0028450818669255172 0 0.032407963235598539 0.002728795217593216 0 0.030514210559308932 2.9749928271177928e-05 0 0.031868424468854177 -0.00028830376216383764 0 0.028801232491040676 -0.00022454405944791669 0 0.029053896027118904 -0.00021936663554508054 0 0.028945667272652617 -0.00084061738929546521 0 0.031005711221274906 0.00097452270271860902 0 0.032273902957020636 -0.00028433172023553844 0 0.033064196871177537 0.0017638906305274006 0 0.032416810883994056 0.002151671951588113 0 0.033162967162466597 0.0015552373482541962 0 0.033064196871177537 0.0017638906305274006 0 0.032886170483530451 0.0020648742476384713 0 0.032416810883994056 0.002151671951588113 0 0.032886170483530451 0.0020648742476384713 0 0.032416810883994056 0.002151671951588113 0 0.032721781701207021 0.0023134603433636164 0 0.029053896027118904 -0.00021936663554508054 0 0.028945667272652617 -0.00084061738929546521 0 0.029270694626613778 -0.00084074393325743609 0 0.028756715702179508 -0.00090608479640641156 0 0.02877494290785804 -0.0002441998544886881 0 0.02893841964388048 -0.00093288710467604472 0 0.032416810883994056 0.002151671951588113 0 0.033162967162466597 0.0015552373482541962 0 0.033242699453551822 0.0012630319450805921 0 0.031868424468854177 -0.00028830376216383764 0 0.032273902957020636 -0.00028433172023553844 0 0.034979057443286561 -4.9194131303287142e-05 0 0.034971546954799503 -4.9047874343984495e-05 0 0.034978196785233749 -4.3485393978224923e-05 0 0.034206522233366919 0.0022010229223670577 0 0.033644550475018346 0.0010459897574457376 0 0.034375097363919777 0.0013883331640872165 0 0.033618371404602901 0.0018517347376495546 0 0.033546046895557485 0.0015532089993432257 0 0.033447292021523634 0.0018153904704422625 0 0.03337006870924137 0.0012743838575748417 0 0.033644550475018346 0.0010459897574457376 0 0.033447292021523634 0.0018153904704422625 0 0.033162967162466597 0.0015552373482541962 0 0.03337006870924137 0.0012743838575748417 0 0.033162967162466597 0.0015552373482541962 0 0.03337006870924137 0.0012743838575748417 0 0.033242699453551822 0.0012630319450805921 0 0.032280676585038554 -0.00028165712698819919 0 0.032273902957020636 -0.00028433172023553844 0 0.03337006870924137 0.0012743838575748417 0 0.033269498687601408 0.001285785512034499 0 0.033644550475018346 0.0010459897574457376 0 0.033269498687601408 0.001285785512034499 0 0.033644550475018346 0.0010459897574457376 0 0.034199080217110753 0.00034410314231822948 0 0.032273902957020636 -0.00028433172023553844 0 0.033248496536824899 -7.4996429631388556e-05 0 0.034971546954799503 -4.9047874343984495e-05 0 0.034978196785233749 -4.3485393978224923e-05 0 0.034972249618134992 -3.1255192043554553e-05 0 0.034268309301848245 0.00085895886516313118 0 0.033644550475018346 0.0010459897574457376 0 0.034199080217110753 0.00034410314231822948 0 0.034268309301848245 0.00085895886516313118 0 0.033644550475018346 0.0010459897574457376 0 0.034375097363919777 0.0013883331640872165 0 0.034983868208420268 -3.5984707985515665e-05 0 0.034978196785233749 -4.3485393978224923e-05 0 0.034972249618134992 -3.1255192043554553e-05 0 0.034981231913401342 1.56711263104881e-05 0 0.034986674683997042 2.4655138127413831e-05 0 0.03499110351891279 7.686997351141477e-06 0 0.031868424468854177 -0.00028830376216383764 0 0.032717954160328133 -0.00033986071436999582 0 0.034979057443286561 -4.9194131303287142e-05 0 0.034983868208420268 -3.5984707985515665e-05 0 0.034978196785233749 -4.3485393978224923e-05 0 0.034986393574658603 -2.9190157755577163e-07 0 0.03499110351891279 7.686997351141477e-06 0 0.034990823121493451 -1.2272050122064191e-05 0 0.034983868208420268 -3.5984707985515665e-05 0 0.034990823121493451 -1.2272050122064191e-05 0 0.034972249618134992 -3.1255192043554553e-05 0 0.032717954160328133 -0.00033986071436999582 0 0.03297642424375137 -0.00034045763349543266 0 0.033248496536824899 -7.4996429631388556e-05 0 0.033583080855424816 -0.00010000850973822007 0 0.034972249618134992 -3.1255192043554553e-05 0 0.034974438084531129 -1.7983650712100794e-05 0 0.034938046685610465 -1.7801798154102379e-05 0 0.034990823121493451 -1.2272050122064191e-05 0 0.034972249618134992 -3.1255192043554553e-05 0 0.034974438084531129 -1.7983650712100794e-05 0 0.034990823121493451 -1.2272050122064191e-05 0 0.034983535200819531 -5.9287222339723652e-06 0 0.034974438084531129 -1.7983650712100794e-05 0 0.034983535200819531 -5.9287222339723652e-06 0 0.035000067048306507 3.6369468017476179e-08 0 0.03499968391765091 -1.2276424004542799e-07 0 0.034983535200819531 -5.9287222339723652e-06 0 0.034974438084531129 -1.7983650712100794e-05 0 0.034938046685610465 -1.7801798154102379e-05 0 0.034983535200819531 -5.9287222339723652e-06 0 0.034938046685610465 -1.7801798154102379e-05 0 0.03499968391765091 -1.2276424004542799e-07 0 0.034994163116396075 -3.9063254857939691e-06 0 0.034990823121493451 -1.2272050122064191e-05 0 0.035000067048306507 3.6369468017476179e-08 0 0.034990823121493451 -1.2272050122064191e-05 0 0.034983535200819531 -5.9287222339723652e-06 0 0.035000067048306507 3.6369468017476179e-08 0 0.034971765355042934 2.3275438897997003e-05 0 0.034999988524044449 9.2290067240399061e-08 0 0.034984779960673 3.4899540557625414e-05 0 0.034971765355042934 2.3275438897997003e-05 0 0.034999988524044449 9.2290067240399061e-08 0 0.034944331057927179 4.3073850524109467e-05 0 0.034999988524044449 9.2290067240399061e-08 0 0.03499968391765091 -1.2276424004542799e-07 0 0.034984779960673 3.4899540557625414e-05 0 0.034938046685610465 -1.7801798154102379e-05 0 0.03499968391765091 -1.2276424004542799e-07 0 0.034984779960673 3.4899540557625414e-05 0 0.034614194673661808 0.0002256577652115602 0 0.034512628189832514 0.00043653473478465367 0 0.034199080217110753 0.00034410314231822948 0 0.034938046685610465 -1.7801798154102379e-05 0 0.034984779960673 3.4899540557625414e-05 0 0.034199080217110753 0.00034410314231822948 0 0.034984779960673 3.4899540557625414e-05 0 0.034817012413361909 0.00077815789107890893 0 0.034984779960673 3.4899540557625414e-05 0 0.034953826110769394 -5.0637797425780386e-05 0 0.03504222770550007 -0.00014071259799599848 0 0.034971765355042934 2.3275438897997003e-05 0 0.034984779960673 3.4899540557625414e-05 0 0.034953826110769394 -5.0637797425780386e-05 0 0.034971765355042934 2.3275438897997003e-05 0 0.034953826110769394 -5.0637797425780386e-05 0 0.034944331057927179 4.3073850524109467e-05 0 0.034953826110769394 -5.0637797425780386e-05 0 0.034900159713560849 -0.00013666264567101932 0 0.03504222770550007 -0.00014071259799599848 0 0.034900159713560849 -0.00013666264567101932 0 0.03504222770550007 -0.00014071259799599848 0 0.034909337298965358 -0.00022699755917879829 0 0.034268309301848245 0.00085895886516313118 0 0.034199080217110753 0.00034410314231822948 0 0.034817012413361909 0.00077815789107890893 0 0.034268309301848245 0.00085895886516313118 0 0.034817012413361909 0.00077815789107890893 0 0.034375097363919777 0.0013883331640872165 0 0.034180327169657396 0.00095172863582648932 0 0.034512628189832514 0.00043653473478465367 0 0.034768619379468714 0.0020373565331616539 0 0.034817012413361909 0.00077815789107890893 0 0.034375097363919777 0.0013883331640872165 0 0.035043167614483998 -0.00032823853736224607 0 0.03504222770550007 -0.00014071259799599848 0 0.034942319000352072 -0.00032320288439610596 0 0.034768619379468714 0.0020373565331616539 0 0.034206522233366919 0.0022010229223670577 0 0.034375097363919777 0.0013883331640872165 0 0.03504222770550007 -0.00014071259799599848 0 0.034909337298965358 -0.00022699755917879829 0 0.034942319000352072 -0.00032320288439610596 0 0.034909337298965358 -0.00022699755917879829 0 0.034942319000352072 -0.00032320288439610596 0 0.034884430365988012 -0.00031058918135811912 0 0.034112549926999115 0.00062441107369370311 0 0.034135393201401958 0.00065558420788840133 0 0.034334697406168936 0.00026582720703275124 0 0.034135393201401958 0.00065558420788840133 0 0.034836061812835842 -0.00029072873575194854 0 0.034747692244572741 -0.00027156670382046111 0 0.034854977625779916 -0.00037014826464414947 0 0.034884430365988012 -0.00031058918135811912 0 0.034836061812835842 -0.00029072873575194854 0 0.034854977625779916 -0.00037014826464414947 0 0.034037755171495064 0.00041515813151285692 0 0.033996455555658979 0.00037460463340671153 0 0.03385765712019842 0.0005663920412233936 0 0.034909337298965358 -0.00022699755917879829 0 0.034884430365988012 -0.00031058918135811912 0 0.034836061812835842 -0.00029072873575194854 0 0.034836061812835842 -0.00029072873575194854 0 0.03479545272144955 -0.00025032491325034911 0 0.034825662561852516 -0.00020619884435014467 0 0.034836061812835842 -0.00029072873575194854 0 0.03479545272144955 -0.00025032491325034911 0 0.034747692244572741 -0.00027156670382046111 0 0.034774221663947918 -0.00023005438194880141 0 0.03479545272144955 -0.00025032491325034911 0 0.034747692244572741 -0.00027156670382046111 0 0.034774221663947918 -0.00023005438194880141 0 0.03479545272144955 -0.00025032491325034911 0 0.034825662561852516 -0.00020619884435014467 0 0.034909337298965358 -0.00022699755917879829 0 0.034836061812835842 -0.00029072873575194854 0 0.034825662561852516 -0.00020619884435014467 0 0.034031572878130703 0.00066462176325679859 0 0.033928511097400152 0.00077799471944455184 0 0.034037755171495064 0.00041515813151285692 0 0.03418159183497279 0.00039233013882143019 0 0.033999920956051664 0.000512073504579078 0 0.03418159183497279 0.00039233013882143019 0 0.033960033373972562 0.00064600690037720397 0 0.033677990637939102 0.00059706672243317138 0 0.033996455555658979 0.00037460463340671153 0 0.034069668252016572 0.00036325156005861579 0 0.034109390661666468 0.00031227198111818575 0 0.034037755171495064 0.00041515813151285692 0 0.033996455555658979 0.00037460463340671153 0 0.034069668252016572 0.00036325156005861579 0 0.034037755171495064 0.00041515813151285692 0 0.034069668252016572 0.00036325156005861579 0 0.03418159183497279 0.00039233013882143019 0 0.034069668252016572 0.00036325156005861579 0 0.034109390661666468 0.00031227198111818575 0 0.03418159183497279 0.00039233013882143019 0 0.033996455555658979 0.00037460463340671153 0 0.034109390661666468 0.00031227198111818575 0 0.034163366686054991 0.0001947025830920937 0 0.034747692244572741 -0.00027156670382046111 0 0.034722101764059848 -0.00018062876066872682 0 0.034565645269629908 -0.00014400977470016679 0 0.034334697406168936 0.00026582720703275124 0 0.034371943833988276 0.0001550025736942669 0 0.034774221663947918 -0.00023005438194880141 0 0.034747692244572741 -0.00027156670382046111 0 0.034722101764059848 -0.00018062876066872682 0 0.034722101764059848 -0.00018062876066872682 0 0.034711677709370371 -0.00010140185540526491 0 0.034565645269629908 -0.00014400977470016679 0 0.034900159713560849 -0.00013666264567101932 0 0.034909337298965358 -0.00022699755917879829 0 0.034825662561852516 -0.00020619884435014467 0 0.034774221663947918 -0.00023005438194880141 0 0.034722101764059848 -0.00018062876066872682 0 0.034825662561852516 -0.00020619884435014467 0 0.034722101764059848 -0.00018062876066872682 0 0.034825662561852516 -0.00020619884435014467 0 0.034825689694100624 -0.00011299882794573162 0 0.034722101764059848 -0.00018062876066872682 0 0.034711677709370371 -0.00010140185540526491 0 0.034825689694100624 -0.00011299882794573162 0 0.034953826110769394 -5.0637797425780386e-05 0 0.034900159713560849 -0.00013666264567101932 0 0.034825689694100624 -0.00011299882794573162 0 0.034900159713560849 -0.00013666264567101932 0 0.034825662561852516 -0.00020619884435014467 0 0.034825689694100624 -0.00011299882794573162 0 0.034839171301697454 -3.6385417232276233e-05 0 0.03467666412747198 -4.6606863795478871e-06 0 0.034944331057927179 4.3073850524109467e-05 0 0.034953826110769394 -5.0637797425780386e-05 0 0.034825689694100624 -0.00011299882794573162 0 0.034839171301697454 -3.6385417232276233e-05 0 0.034953826110769394 -5.0637797425780386e-05 0 0.034839171301697454 -3.6385417232276233e-05 0 0.034944331057927179 4.3073850524109467e-05 0 0.034711677709370371 -0.00010140185540526491 0 0.034825689694100624 -0.00011299882794573162 0 0.034839171301697454 -3.6385417232276233e-05 0 0.034711677709370371 -0.00010140185540526491 0 0.034565645269629908 -0.00014400977470016679 0 0.03467666412747198 -4.6606863795478871e-06 0 0.03467666412747198 -4.6606863795478871e-06 0 0.034482314232167036 0.00016976229136562393 0 0.034944331057927179 4.3073850524109467e-05 0 0.034711677709370371 -0.00010140185540526491 0 0.034839171301697454 -3.6385417232276233e-05 0 0.03467666412747198 -4.6606863795478871e-06 0 0.034565645269629908 -0.00014400977470016679 0 0.034517641700970235 2.9612520360941951e-05 0 0.03467666412747198 -4.6606863795478871e-06 0 0.034517641700970235 2.9612520360941951e-05 0 0.03467666412747198 -4.6606863795478871e-06 0 0.034482314232167036 0.00016976229136562393 0 0.034999940508600877 -5.165227370260387e-09 0 0.035004844348526382 1.2339828015585426e-05 0 0.034944331057927179 4.3073850524109467e-05 0 0.034764952832905267 5.5872397973307544e-05 0 0.034819796695900782 5.4882553590255817e-05 0 0.034999988524044449 9.2290067240399061e-08 0 0.034999940508600877 -5.165227370260387e-09 0 0.034944331057927179 4.3073850524109467e-05 0 0.034999756623938102 9.1707388270871018e-08 0 0.03500012736397861 -3.2107593844775007e-08 0 0.035016221626554607 -1.0290244445806248e-05 0 0.034482314232167036 0.00016976229136562393 0 0.034303856181485022 7.6911688359024698e-05 0 0.034355948083074322 0.00010202916216605453 0 0.035004844348526382 1.2339828015585426e-05 0 0.03500012736397861 -3.2107593844775007e-08 0 0.035016221626554607 -1.0290244445806248e-05 0 0.034764952832905267 5.5872397973307544e-05 0 0.034738809503566927 4.3731115979925661e-05 0 0.034999940508600877 -5.165227370260387e-09 0 0.035004844348526382 1.2339828015585426e-05 0 0.03500012736397861 -3.2107593844775007e-08 0 0.034371943833988276 0.0001550025736942669 0 0.034370742958421414 0.00014165563015396807 0 0.034565645269629908 -0.00014400977470016679 0 0.034517641700970235 2.9612520360941951e-05 0 0.034358199194775313 0.00010227373555498018 0 0.034153752232566802 0.00020320583928178852 0 0.034094100620867651 0.00030644755799914911 0 0.034482314232167036 0.00016976229136562393 0 0.034355948083074322 0.00010202916216605453 0 0.034358199194775313 0.00010227373555498018 0 0.034355948083074322 0.00010202916216605453 0 0.034358199194775313 0.00010227373555498018 0 0.034298420413277624 0.00015589808059504831 0 0.034163366686054991 0.0001947025830920937 0 0.034358199194775313 0.00010227373555498018 0 0.034298420413277624 0.00015589808059504831 0 0.034355948083074322 0.00010202916216605453 0 0.034350860732581874 0.00021353211167091278 0 0.034298973238543549 0.00027946684452980359 0 0.034355948083074322 0.00010202916216605453 0 0.034298420413277624 0.00015589808059504831 0 0.034290021185003287 0.00023457251080344281 0 0.034517641700970235 2.9612520360941951e-05 0 0.034482314232167036 0.00016976229136562393 0 0.034358199194775313 0.00010227373555498018 0 0.034303856181485022 7.6911688359024698e-05 0 0.034355948083074322 0.00010202916216605453 0 0.034353309718593718 0.00016143647547065226 0 0.034355948083074322 0.00010202916216605453 0 0.034350860732581874 0.00021353211167091278 0 0.034353309718593718 0.00016143647547065226 0 0.034435627551758677 0.00017970812829664839 0 0.034303856181485022 7.6911688359024698e-05 0 0.034353309718593718 0.00016143647547065226 0 0.034435627551758677 0.00017970812829664839 0 0.034353309718593718 0.00016143647547065226 0 0.034383999215798038 0.00023988992298193507 0 0.034350860732581874 0.00021353211167091278 0 0.034353309718593718 0.00016143647547065226 0 0.034383999215798038 0.00023988992298193507 0 0.034350860732581874 0.00021353211167091278 0 0.034383999215798038 0.00023988992298193507 0 0.034365349034596412 0.00028918658607620382 0 0.034350860732581874 0.00021353211167091278 0 0.034365349034596412 0.00028918658607620382 0 0.034298973238543549 0.00027946684452980359 0 0.034365349034596412 0.00028918658607620382 0 0.034298973238543549 0.00027946684452980359 0 0.034351058399060441 0.00032412686878038915 0 0.034109390661666468 0.00031227198111818575 0 0.034163366686054991 0.0001947025830920937 0 0.034290021185003287 0.00023457251080344281 0 0.034109390661666468 0.00031227198111818575 0 0.034290021185003287 0.00023457251080344281 0 0.03418159183497279 0.00039233013882143019 0 0.034163366686054991 0.0001947025830920937 0 0.034298420413277624 0.00015589808059504831 0 0.034290021185003287 0.00023457251080344281 0 0.034094100620867651 0.00030644755799914911 0 0.033904000311764736 0.00059518947549167477 0 0.034298973238543549 0.00027946684452980359 0 0.034351058399060441 0.00032412686878038915 0 0.034300593460775602 0.0003564251826808635 0 0.034290021185003287 0.00023457251080344281 0 0.03418159183497279 0.00039233013882143019 0 0.034226855366817396 0.00060422647126188837 0 0.03418159183497279 0.00039233013882143019 0 0.034226855366817396 0.00060422647126188837 0 0.033960033373972562 0.00064600690037720397 0 0.034380320434464706 0.00031340952915767184 0 0.034365349034596412 0.00028918658607620382 0 0.034351058399060441 0.00032412686878038915 0 0.034389084061684769 0.00031071262127860939 0 0.034351058399060441 0.00032412686878038915 0 0.034346270031376018 0.00038368686948292126 0 0.033813537764285785 0.00075230492824816645 0 0.033639322795871937 0.00097559106258383692 0 0.034351058399060441 0.00032412686878038915 0 0.034346270031376018 0.00038368686948292126 0 0.034300593460775602 0.0003564251826808635 0 0.03271543380738736 0.001333875102598577 0 0.032429948259909122 0.0017124554374550415 0 0.03273626132656398 0.0017454577996597245 0 0.033173823570528074 0.0014386134125171696 0 0.03271543380738736 0.001333875102598577 0 0.03273626132656398 0.0017454577996597245 0 0.03348040282106899 0.0012789523824383649 0 0.033904000311764736 0.00059518947549167477 0 0.033639322795871937 0.00097559106258383692 0 0.03348040282106899 0.0012789523824383649 0 0.034346270031376018 0.00038368686948292126 0 0.034287724719667706 0.00044078064089318828 0 0.034300593460775602 0.0003564251826808635 0 0.034151975673461572 0.0011890762015753726 0 0.034226855366817396 0.00060422647126188837 0 0.03395805291356091 0.00086783428668237592 0 0.034226855366817396 0.00060422647126188837 0 0.033960033373972562 0.00064600690037720397 0 0.03395805291356091 0.00086783428668237592 0 0.033960033373972562 0.00064600690037720397 0 0.033677990637939102 0.00059706672243317138 0 0.03374969115854947 0.00081555693749832663 0 0.033960033373972562 0.00064600690037720397 0 0.03374969115854947 0.00081555693749832663 0 0.03395805291356091 0.00086783428668237592 0 0.033831838767257226 0.0010152889166852299 0 0.033928511097400152 0.00077799471944455184 0 0.03317592953563802 0.00090059432435611272 0 0.033677990637939102 0.00059706672243317138 0 0.033511564525382204 0.00088111862700425935 0 0.034037755171495064 0.00041515813151285692 0 0.033999920956051664 0.000512073504579078 0 0.033886344617850436 0.00054170490719415482 0 0.033817490632877277 0.0006360046898759422 0 0.033999920956051664 0.000512073504579078 0 0.033886344617850436 0.00054170490719415482 0 0.033677990637939102 0.00059706672243317138 0 0.03374969115854947 0.00081555693749832663 0 0.033511564525382204 0.00088111862700425935 0 0.033831838767257226 0.0010152889166852299 0 0.034135393201401958 0.00065558420788840133 0 0.033511564525382204 0.00088111862700425935 0 0.033274075525264644 0.0010220104640145957 0 0.033473229410878644 0.001219762287256676 0 0.03317592953563802 0.00090059432435611272 0 0.033511564525382204 0.00088111862700425935 0 0.033274075525264644 0.0010220104640145957 0 0.033511564525382204 0.00088111862700425935 0 0.033473229410878644 0.001219762287256676 0 0.033773000336706008 0.00111456814783778 0 0.033242914266404348 0.0012162591149538176 0 0.033274075525264644 0.0010220104640145957 0 0.033473229410878644 0.001219762287256676 0 0.034151975673461572 0.0011890762015753726 0 0.03395805291356091 0.00086783428668237592 0 0.033773000336706008 0.00111456814783778 0 0.03374969115854947 0.00081555693749832663 0 0.03395805291356091 0.00086783428668237592 0 0.033773000336706008 0.00111456814783778 0 0.03374969115854947 0.00081555693749832663 0 0.033511564525382204 0.00088111862700425935 0 0.033773000336706008 0.00111456814783778 0 0.032479096732685932 0.0020484655544615949 0 0.03253710318352511 0.0020791471622846392 0 0.032483356423528682 0.002020406718853339 0 0.03348040282106899 0.0012789523824383649 0 0.0331404600862421 0.0017059933139148367 0 0.033473229410878644 0.001219762287256676 0 0.033773000336706008 0.00111456814783778 0 0.033664679514379549 0.0016071254158854117 0 0.034151975673461572 0.0011890762015753726 0 0.033773000336706008 0.00111456814783778 0 0.033664679514379549 0.0016071254158854117 0 0.033125004276832987 0.0017199828472077364 0 0.0332349820977531 0.0014482495682650181 0 0.033664679514379549 0.0016071254158854117 0 0.0332349820977531 0.0014482495682650181 0 0.033473229410878644 0.001219762287256676 0 0.033664679514379549 0.0016071254158854117 0 0.0332349820977531 0.0014482495682650181 0 0.033242914266404348 0.0012162591149538176 0 0.033473229410878644 0.001219762287256676 0 0.03253710318352511 0.0020791471622846392 0 0.032584398921940795 0.0021048861394940121 0 0.032668055196079543 0.0021357632146115869 0 0.033125004276832987 0.0017199828472077364 0 0.033664679514379549 0.0016071254158854117 0 0.033154844293766993 0.0019736034904118205 0 0.0331404600862421 0.0017059933139148367 0 0.032974405488437691 0.0019113858504258318 0 0.03253710318352511 0.0020791471622846392 0 0.032584398921940795 0.0021048861394940121 0 0.032523125580721776 0.0020997337020127018 0 0.03253710318352511 0.0020791471622846392 0 0.032523125580721776 0.0020997337020127018 0 0.032483356423528682 0.002020406718853339 0 0.032523125580721776 0.0020997337020127018 0 0.032543411809954563 0.0021292474490135598 0 0.032483356423528682 0.002020406718853339 0 0.032543411809954563 0.0021292474490135598 0 0.032609381626234168 0.0019738294581116947 0 0.032483356423528682 0.002020406718853339 0 0.032734969449564215 0.0020193563526789476 0 0.032543411809954563 0.0021292474490135598 0 0.032609381626234168 0.0019738294581116947 0 0.032734969449564215 0.0020193563526789476 0 0.032543411809954563 0.0021292474490135598 0 0.032540061438925509 0.0022511523587850713 0 0.032429948259909122 0.0017124554374550415 0 0.03273626132656398 0.0017454577996597245 0 0.032609381626234168 0.0019738294581116947 0 0.032734969449564215 0.0020193563526789476 0 0.03273626132656398 0.0017454577996597245 0 0.032609381626234168 0.0019738294581116947 0 0.032429948259909122 0.0017124554374550415 0 0.032609381626234168 0.0019738294581116947 0 0.032483356423528682 0.002020406718853339 0 0.03348040282106899 0.0012789523824383649 0 0.0333632529995554 0.0015170358245040188 0 0.032523916010085155 0.0021214438597087206 0 0.032540061438925509 0.0022511523587850713 0 0.032402771830208087 0.0020402688496835835 0 0.032543411809954563 0.0021292474490135598 0 0.032523916010085155 0.0021214438597087206 0 0.032540061438925509 0.0022511523587850713 0 0.032523125580721776 0.0020997337020127018 0 0.032543411809954563 0.0021292474490135598 0 0.032523916010085155 0.0021214438597087206 0 0.032584398921940795 0.0021048861394940121 0 0.032523125580721776 0.0020997337020127018 0 0.032572857506920558 0.0020989084814692109 0 0.032523125580721776 0.0020997337020127018 0 0.032523916010085155 0.0021214438597087206 0 0.032572857506920558 0.0020989084814692109 0 0.032584398921940795 0.0021048861394940121 0 0.032626262677387267 0.0021026129645341706 0 0.032668055196079543 0.0021357632146115869 0 0.032626262677387267 0.0021026129645341706 0 0.032696788068561335 0.0020824361105186537 0 0.032668055196079543 0.0021357632146115869 0 0.032584398921940795 0.0021048861394940121 0 0.032572857506920558 0.0020989084814692109 0 0.032626262677387267 0.0021026129645341706 0 0.032572857506920558 0.0020989084814692109 0 0.032626262677387267 0.0021026129645341706 0 0.032646320148842424 0.0020714129055971297 0 0.032572857506920558 0.0020989084814692109 0 0.032646320148842424 0.0020714129055971297 0 0.032603510780614679 0.002057231861724444 0 0.032626262677387267 0.0021026129645341706 0 0.032646320148842424 0.0020714129055971297 0 0.032696788068561335 0.0020824361105186537 0 0.032646320148842424 0.0020714129055971297 0 0.032603510780614679 0.002057231861724444 0 0.032694702412843502 0.0019985713894347681 0 0.032646320148842424 0.0020714129055971297 0 0.032694702412843502 0.0019985713894347681 0 0.032728212215602626 0.0020449555170897167 0 0.032646320148842424 0.0020714129055971297 0 0.032728212215602626 0.0020449555170897167 0 0.032696788068561335 0.0020824361105186537 0 0.032523916010085155 0.0021214438597087206 0 0.032572857506920558 0.0020989084814692109 0 0.032603510780614679 0.002057231861724444 0 0.032523916010085155 0.0021214438597087206 0 0.032603510780614679 0.002057231861724444 0 0.032589389835988872 0.0019518553267562307 0 0.032603510780614679 0.002057231861724444 0 0.032589389835988872 0.0019518553267562307 0 0.032694702412843502 0.0019985713894347681 0 0.032589389835988872 0.0019518553267562307 0 0.032542327766584007 0.0017874324390098136 0 0.032482474735753969 0.0019408341833899248 0 0.03252494534649663 0.0018773154523667361 0 0.032470880884763451 0.0017857012735150446 0 0.032694702412843502 0.0019985713894347681 0 0.032690461407074135 0.0018893669426585165 0 0.032756704679056281 0.0019684500145428704 0 0.032589389835988872 0.0019518553267562307 0 0.032694702412843502 0.0019985713894347681 0 0.032742090087298489 0.0017666237931874876 0 0.032589389835988872 0.0019518553267562307 0 0.032742090087298489 0.0017666237931874876 0 0.032542327766584007 0.0017874324390098136 0 0.032742090087298489 0.0017666237931874876 0 0.032542327766584007 0.0017874324390098136 0 0.032577370863864009 0.0016530795130873361 0 0.032542327766584007 0.0017874324390098136 0 0.032352019448781293 0.001713903099374072 0 0.032482474735753969 0.0019408341833899248 0 0.032542327766584007 0.0017874324390098136 0 0.032352019448781293 0.001713903099374072 0 0.032577370863864009 0.0016530795130873361 0 0.032523916010085155 0.0021214438597087206 0 0.032589389835988872 0.0019518553267562307 0 0.032482474735753969 0.0019408341833899248 0 0.032523916010085155 0.0021214438597087206 0 0.032482474735753969 0.0019408341833899248 0 0.032402771830208087 0.0020402688496835835 0 0.032352019448781293 0.001713903099374072 0 0.032482474735753969 0.0019408341833899248 0 0.032402771830208087 0.0020402688496835835 0 0.032170050152033898 0.0017698962774745704 0 0.032352019448781293 0.001713903099374072 0 0.032402771830208087 0.0020402688496835835 0 0.032170050152033898 0.0017698962774745704 0 0.032352019448781293 0.001713903099374072 0 0.032151303779172781 0.0014427530053105879 0 0.032352019448781293 0.001713903099374072 0 0.032151303779172781 0.0014427530053105879 0 0.032299335282838619 0.0013565140468824229 0 0.032352019448781293 0.001713903099374072 0 0.032299335282838619 0.0013565140468824229 0 0.032418983692760334 0.0013712885542163664 0 0.032335568193805217 0.0016061909981747535 0 0.032386877266351366 0.0015468057576773575 0 0.032299335282838619 0.0013565140468824229 0 0.032334458771819924 0.001238085856121555 0 0.032418983692760334 0.0013712885542163664 0 0.032299335282838619 0.0013565140468824229 0 0.032334458771819924 0.001238085856121555 0 0.032213615571406076 0.0010888025852799229 0 0.032151303779172781 0.0014427530053105879 0 0.032299335282838619 0.0013565140468824229 0 0.032213615571406076 0.0010888025852799229 0 0.032151303779172781 0.0014427530053105879 0 0.031930223904269847 0.0010533693699309721 0 0.031976002272224802 0.0011510518705359978 0 0.031930223904269847 0.0010533693699309721 0 0.031976002272224802 0.0011510518705359978 0 0.031727841530203887 0.00096549521153384765 0 0.032334458771819924 0.001238085856121555 0 0.032213615571406076 0.0010888025852799229 0 0.032319732890632745 0.0011112180434888765 0 0.032021263715188659 0.0012294970200119597 0 0.032075363196062218 0.0010361811301726484 0 0.031944950526114235 0.0011739491544796915 0 0.032151303779172781 0.0014427530053105879 0 0.031976002272224802 0.0011510518705359978 0 0.031222320811755671 0.0012468220409743395 0 0.031976002272224802 0.0011510518705359978 0 0.031727841530203887 0.00096549521153384765 0 0.031453830775732293 0.0011786894576669761 0 0.031716954940113 0.0011526319024967398 0 0.031222320811755671 0.0012468220409743395 0 0.03152171431053083 0.00074884582122414266 0 0.031727841530203887 0.00096549521153384765 0 0.03152171431053083 0.00074884582122414266 0 0.031727841530203887 0.00096549521153384765 0 0.031798022526982238 0.00071378826717900107 0 0.032075363196062218 0.0010361811301726484 0 0.032200075430519705 0.00067480606179410381 0 0.031930223904269847 0.0010533693699309721 0 0.031798022526982238 0.00071378826717900107 0 0.032032401801347421 0.00058053512167880285 0 0.031930223904269847 0.0010533693699309721 0 0.031727841530203887 0.00096549521153384765 0 0.031798022526982238 0.00071378826717900107 0 0.032213615571406076 0.0010888025852799229 0 0.032325825177212809 0.00097505329603453448 0 0.032319732890632745 0.0011112180434888765 0 0.031798022526982238 0.00071378826717900107 0 0.031602708352197424 0.00046935384752018483 0 0.032032401801347421 0.00058053512167880285 0 0.03152171431053083 0.00074884582122414266 0 0.031798022526982238 0.00071378826717900107 0 0.031602708352197424 0.00046935384752018483 0 0.031329220487423724 0.00049211081147638026 0 0.03152171431053083 0.00074884582122414266 0 0.031602708352197424 0.00046935384752018483 0 0.032446435487096983 0.0006590465255213074 0 0.032392057754476317 0.00084359423212207203 0 0.032536777126041777 0.00082862750411892561 0 0.032446435487096983 0.0006590465255213074 0 0.032536777126041777 0.00082862750411892561 0 0.032588817950013359 0.00070457330948615589 0 0.032536777126041777 0.00082862750411892561 0 0.032588817950013359 0.00070457330948615589 0 0.032605759684037637 0.00078709169112255607 0 0.032446435487096983 0.0006590465255213074 0 0.032588817950013359 0.00070457330948615589 0 0.032617882866788586 0.00055862392530613668 0 0.032446435487096983 0.0006590465255213074 0 0.032241558755205187 0.00070787520112884595 0 0.032392057754476317 0.00084359423212207203 0 0.032392057754476317 0.00084359423212207203 0 0.032408259882955259 0.00098209658266385901 0 0.032465247572753146 0.00094030604942716204 0 0.032213615571406076 0.0010888025852799229 0 0.032241558755205187 0.00070787520112884595 0 0.032325825177212809 0.00097505329603453448 0 0.032392057754476317 0.00084359423212207203 0 0.032325825177212809 0.00097505329603453448 0 0.032408259882955259 0.00098209658266385901 0 0.032241558755205187 0.00070787520112884595 0 0.032392057754476317 0.00084359423212207203 0 0.032325825177212809 0.00097505329603453448 0 0.032325825177212809 0.00097505329603453448 0 0.032319732890632745 0.0011112180434888765 0 0.032395437644728402 0.0010917200554216386 0 0.032325825177212809 0.00097505329603453448 0 0.032408259882955259 0.00098209658266385901 0 0.032395437644728402 0.0010917200554216386 0 0.032408259882955259 0.00098209658266385901 0 0.0324653192801986 0.0010549057932195461 0 0.032395437644728402 0.0010917200554216386 0 0.0324653192801986 0.0010549057932195461 0 0.03251748019893666 0.0010048069221581487 0 0.032522034207214397 0.0010780085105068188 0 0.03251748019893666 0.0010048069221581487 0 0.032575472914846061 0.00097214640341398886 0 0.032522034207214397 0.0010780085105068188 0 0.03251748019893666 0.0010048069221581487 0 0.032465247572753146 0.00094030604942716204 0 0.032549217144752056 0.0009405240427591018 0 0.0324653192801986 0.0010549057932195461 0 0.03251748019893666 0.0010048069221581487 0 0.032465247572753146 0.00094030604942716204 0 0.032408259882955259 0.00098209658266385901 0 0.0324653192801986 0.0010549057932195461 0 0.032465247572753146 0.00094030604942716204 0 0.032392057754476317 0.00084359423212207203 0 0.032465247572753146 0.00094030604942716204 0 0.032536777126041777 0.00082862750411892561 0 0.032536777126041777 0.00082862750411892561 0 0.03252816453777245 0.00090874029565595274 0 0.03261845472954443 0.00085897748815711361 0 0.032536777126041777 0.00082862750411892561 0 0.032549217144752056 0.0009405240427591018 0 0.032577695308755587 0.00096997896097226956 0 0.032137341115881957 0.0014595829681399491 0 0.032126750697184937 0.0015176376259076665 0 0.032465247572753146 0.00094030604942716204 0 0.032536777126041777 0.00082862750411892561 0 0.032549217144752056 0.0009405240427591018 0 0.032126750697184937 0.0015176376259076665 0 0.032013912606707086 0.0017075476826491772 0 0.03251748019893666 0.0010048069221581487 0 0.032549217144752056 0.0009405240427591018 0 0.032575472914846061 0.00097214640341398886 0 0.032126867930494497 0.0015158042022445956 0 0.032126750697184937 0.0015176376259076665 0 0.032126750697184937 0.0015176376259076665 0 0.032268281109990006 0.0015755417844286472 0 0.032178309848541073 0.0015592048554583053 0 0.032176812053086722 0.0018132816432261652 0 0.032304560800741199 0.0017248320162445339 0 0.032477487824487006 0.0011734481095329633 0 0.03258393389691671 0.0011763699679455293 0 0.032418983692760334 0.0013712885542163664 0 0.032575472914846061 0.00097214640341398886 0 0.032522034207214397 0.0010780085105068188 0 0.03258393389691671 0.0011763699679455293 0 0.032268281109990006 0.0015755417844286472 0 0.032013912606707086 0.0017075476826491772 0 0.032522034207214397 0.0010780085105068188 0 0.032477487824487006 0.0011734481095329633 0 0.03258393389691671 0.0011763699679455293 0 0.0324653192801986 0.0010549057932195461 0 0.032522034207214397 0.0010780085105068188 0 0.032477487824487006 0.0011734481095329633 0 0.032319732890632745 0.0011112180434888765 0 0.032395437644728402 0.0010917200554216386 0 0.032389742666276061 0.0012004217944836749 0 0.0324653192801986 0.0010549057932195461 0 0.032477487824487006 0.0011734481095329633 0 0.032395437644728402 0.0010917200554216386 0 0.032477487824487006 0.0011734481095329633 0 0.032395437644728402 0.0010917200554216386 0 0.032389742666276061 0.0012004217944836749 0 0.032477487824487006 0.0011734481095329633 0 0.032389742666276061 0.0012004217944836749 0 0.032418983692760334 0.0013712885542163664 0 0.032334458771819924 0.001238085856121555 0 0.032389742666276061 0.0012004217944836749 0 0.032418983692760334 0.0013712885542163664 0 0.032334458771819924 0.001238085856121555 0 0.032319732890632745 0.0011112180434888765 0 0.032389742666276061 0.0012004217944836749 0 0.032690461407074135 0.0018893669426585165 0 0.032687220383663541 0.0017650395962952674 0 0.032735889523099373 0.001835946211064146 0 0.032470880884763451 0.0017857012735150446 0 0.032268281109990006 0.0015755417844286472 0 0.032268281109990006 0.0015755417844286472 0 0.032386877266351366 0.0015468057576773575 0 0.032742090087298489 0.0017666237931874876 0 0.032746102928344081 0.0015393671654195926 0 0.032577370863864009 0.0016530795130873361 0 0.031454616175574442 0.0019649174379122651 0 0.031862904234944082 0.0017412018677537867 0 0.032735889523099373 0.001835946211064146 0 0.032796301949584418 0.0018345460884978111 0 0.032769252145797345 0.0018938692104177616 0 0.032735889523099373 0.001835946211064146 0 0.032796301949584418 0.0018345460884978111 0 0.032728026555431736 0.0017802604835570077 0 0.030431695698079773 0.0012557260029696538 0 0.029968929743732949 0.0013750730099953295 0 0.030021171624711053 0.00072184377484665343 0 0.030431695698079773 0.0012557260029696538 0 0.030236909914884615 0.0017502055211760109 0 0.029968929743732949 0.0013750730099953295 0 0.030431695698079773 0.0012557260029696538 0 0.030236909914884615 0.0017502055211760109 0 0.030522957225196077 0.0018342941947642293 0 0.030236909914884615 0.0017502055211760109 0 0.029885680548171461 0.0020589192816386449 0 0.029968929743732949 0.0013750730099953295 0 0.030522957225196077 0.0018342941947642293 0 0.030318614350435404 0.0020792222420320098 0 0.030648814986695656 0.0021547085028587711 0 0.030236909914884615 0.0017502055211760109 0 0.030522957225196077 0.0018342941947642293 0 0.030318614350435404 0.0020792222420320098 0 0.030236909914884615 0.0017502055211760109 0 0.030318614350435404 0.0020792222420320098 0 0.029885680548171461 0.0020589192816386449 0 0.030431695698079773 0.0012557260029696538 0 0.030522957225196077 0.0018342941947642293 0 0.030848954762347829 0.0018052156498984744 0 0.032796301949584418 0.0018345460884978111 0 0.032738697487502286 0.001759875338561652 0 0.032728026555431736 0.0017802604835570077 0 0.032738759216546176 0.0017595932229625879 0 0.032728026555431736 0.0017802604835570077 0 0.032723339977031113 0.0017394783994644839 0 0.032687220383663541 0.0017650395962952674 0 0.032735889523099373 0.001835946211064146 0 0.032728026555431736 0.0017802604835570077 0 0.032687220383663541 0.0017650395962952674 0 0.032728026555431736 0.0017802604835570077 0 0.032723339977031113 0.0017394783994644839 0 0.031862904234944082 0.0017412018677537867 0 0.031876644385233639 0.0017318316967422148 0 0.030522957225196077 0.0018342941947642293 0 0.030848954762347829 0.0018052156498984744 0 0.030648814986695656 0.0021547085028587711 0 0.031862904234944082 0.0017412018677537867 0 0.031649452038234126 0.0018214203055822655 0 0.032013912606707086 0.0017075476826491772 0 0.031649452038234126 0.0018214203055822655 0 0.031700055318608721 0.0017686949296368043 0 0.031637244613939755 0.001686320144531527 0 0.031809270824502564 0.0015671897812072819 0 0.031862904234944082 0.0017412018677537867 0 0.032013912606707086 0.0017075476826491772 0 0.03252816453777245 0.00090874029565595274 0 0.032614355509176657 0.0010364817987827369 0 0.032626589597005887 0.00093321448925953038 0 0.032614355509176657 0.0010364817987827369 0 0.032626589597005887 0.00093321448925953038 0 0.032731288174030468 0.00096476572066347456 0 0.03252816453777245 0.00090874029565595274 0 0.032626589597005887 0.00093321448925953038 0 0.03261845472954443 0.00085897748815711361 0 0.032703626795455035 0.00083420590229297653 0 0.032731288174030468 0.00096476572066347456 0 0.032861706238264239 0.00065045966526101125 0 0.032536777126041777 0.00082862750411892561 0 0.03261845472954443 0.00085897748815711361 0 0.032605759684037637 0.00078709169112255607 0 0.032626589597005887 0.00093321448925953038 0 0.03261845472954443 0.00085897748815711361 0 0.032703626795455035 0.00083420590229297653 0 0.03261845472954443 0.00085897748815711361 0 0.032605759684037637 0.00078709169112255607 0 0.032686315525461189 0.00075201962450640084 0 0.03261845472954443 0.00085897748815711361 0 0.032703626795455035 0.00083420590229297653 0 0.032686315525461189 0.00075201962450640084 0 0.032626589597005887 0.00093321448925953038 0 0.032703626795455035 0.00083420590229297653 0 0.032731288174030468 0.00096476572066347456 0 0.031649452038234126 0.0018214203055822655 0 0.031154491407681395 0.0019903899489046176 0 0.031649452038234126 0.0018214203055822655 0 0.031181533989639694 0.0021017396111752888 0 0.030318614350435404 0.0020792222420320098 0 0.030648814986695656 0.0021547085028587711 0 0.030198101169608818 0.0025021141476738299 0 0.031133487042387942 0.00185400831583969 0 0.030198101169608818 0.0025021141476738299 0 0.030536059565458507 0.0030261110715781095 0 0.030318614350435404 0.0020792222420320098 0 0.030198101169608818 0.0025021141476738299 0 0.029885680548171461 0.0020589192816386449 0 0.030536059565458507 0.0030261110715781095 0 0.029683309948228893 0.0033590893416276853 0 0.029946473604476543 0.0044266298759434069 0 0.030536059565458507 0.0030261110715781095 0 0.029683309948228893 0.0033590893416276853 0 0.029926487982441876 0.0027580393265002486 0 0.030198101169608818 0.0025021141476738299 0 0.030536059565458507 0.0030261110715781095 0 0.029926487982441876 0.0027580393265002486 0 0.032861706238264239 0.00065045966526101125 0 0.032742254320300576 0.00062771182506977409 0 0.032852378086330028 0.00060978712514207897 0 0.032742254320300576 0.00062771182506977409 0 0.032588817950013359 0.00070457330948615589 0 0.032617882866788586 0.00055862392530613668 0 0.032742254320300576 0.00062771182506977409 0 0.032588817950013359 0.00070457330948615589 0 0.032686315525461189 0.00075201962450640084 0 0.032588817950013359 0.00070457330948615589 0 0.032605759684037637 0.00078709169112255607 0 0.032686315525461189 0.00075201962450640084 0 0.032703626795455035 0.00083420590229297653 0 0.032861706238264239 0.00065045966526101125 0 0.032686315525461189 0.00075201962450640084 0 0.032861706238264239 0.00065045966526101125 0 0.032742254320300576 0.00062771182506977409 0 0.032686315525461189 0.00075201962450640084 0 0.02810044393616027 0.0025863234950974597 0 0.028845905516259953 0.0032721206061552383 0 0.029292043556782971 0.0024450129153927788 0 0.02810044393616027 0.0025863234950974597 0 0.027889435859255855 0.0035260914058323346 0 0.028845905516259953 0.0032721206061552383 0 0.027889435859255855 0.0035260914058323346 0 0.028845905516259953 0.0032721206061552383 0 0.028807944808366209 0.004159556643747446 0 0.028845905516259953 0.0032721206061552383 0 0.029683309948228893 0.0033590893416276853 0 0.028807944808366209 0.004159556643747446 0 0.029683309948228893 0.0033590893416276853 0 0.029926487982441876 0.0027580393265002486 0 0.029292043556782971 0.0024450129153927788 0 0.028845905516259953 0.0032721206061552383 0 0.029683309948228893 0.0033590893416276853 0 0.029292043556782971 0.0024450129153927788 0 0.029292043556782971 0.0024450129153927788 0 0.029714989962280846 0.0021826722602504523 0 0.030017824609764647 0.0020468922740820689 0 0.029926487982441876 0.0027580393265002486 0 0.029292043556782971 0.0024450129153927788 0 0.029714989962280846 0.0021826722602504523 0 0.030198101169608818 0.0025021141476738299 0 0.029926487982441876 0.0027580393265002486 0 0.029714989962280846 0.0021826722602504523 0 0.030198101169608818 0.0025021141476738299 0 0.029714989962280846 0.0021826722602504523 0 0.029885680548171461 0.0020589192816386449 0 0.029322212412230344 0.0020335175819981587 0 0.029208333764270705 0.0016861345354489746 0 0.029292043556782971 0.0024450129153927788 0 0.028444936303607775 0.00072414206784075894 0 0.027764897352827122 0.0015742422161874449 0 0.02810044393616027 0.0025863234950974597 0 0.029292043556782971 0.0024450129153927788 0 0.027764897352827122 0.0015742422161874449 0 0.028444936303607775 0.00072414206784075894 0 0.02775172399702687 0.00085059907690884589 0 0.027764897352827122 0.0015742422161874449 0 0.030017824609764647 0.0020468922740820689 0 0.029888204055955252 0.0021078904014508537 0 0.030118336495487064 0.0023562438072321219 0 0.028444936303607775 0.00072414206784075894 0 0.02777407975649596 6.0866581990914022e-05 0 0.02775172399702687 0.00085059907690884589 0 0.030649921191279083 0.002139530697170816 0 0.030773802517849402 0.002185188921248719 0 0.029885680548171461 0.0020589192816386449 0 0.029888204055955252 0.0021078904014508537 0 0.029744153676806981 0.0023083544902880934 0 0.029714989962280846 0.0021826722602504523 0 0.029885680548171461 0.0020589192816386449 0 0.029888204055955252 0.0021078904014508537 0 0.029714989962280846 0.0021826722602504523 0 0.030017824609764647 0.0020468922740820689 0 0.029888204055955252 0.0021078904014508537 0 0.029744153676806981 0.0023083544902880934 0 0.030002696160675222 0.0026204314001507952 0 0.030118336495487064 0.0023562438072321219 0 0.029888204055955252 0.0021078904014508537 0 0.029744153676806981 0.0023083544902880934 0 0.030118336495487064 0.0023562438072321219 0 0.030773802517849402 0.002185188921248719 0 0.031177264563040624 0.0025743094384867537 0 0.029744153676806981 0.0023083544902880934 0 0.030002696160675222 0.0026204314001507952 0 0.029647819801571738 0.0029470935306919804 0 0.030002696160675222 0.0026204314001507952 0 0.030118336495487064 0.0023562438072321219 0 0.030346096973929329 0.0026784232740790104 0 0.030017824609764647 0.0020468922740820689 0 0.030118336495487064 0.0023562438072321219 0 0.030703731977540519 0.0025380493014866747 0 0.029208333764270705 0.0016861345354489746 0 0.029010011526551298 0.0012461855772373141 0 0.028444936303607775 0.00072414206784075894 0 0.027800237396056925 -0.00061768399818226715 0 0.02777407975649596 6.0866581990914022e-05 0 0.030118336495487064 0.0023562438072321219 0 0.030703731977540519 0.0025380493014866747 0 0.030346096973929329 0.0026784232740790104 0 0.030703731977540519 0.0025380493014866747 0 0.030346096973929329 0.0026784232740790104 0 0.030646409360032507 0.0029836466844614172 0 0.030346096973929329 0.0026784232740790104 0 0.030267500900759022 0.0029995065795679326 0 0.030646409360032507 0.0029836466844614172 0 0.030267500900759022 0.0029995065795679326 0 0.030646409360032507 0.0029836466844614172 0 0.030693277466696974 0.0033464700839750975 0 0.030646409360032507 0.0029836466844614172 0 0.030693277466696974 0.0033464700839750975 0 0.031249775158369141 0.0033706831259206248 0 0.030267500900759022 0.0029995065795679326 0 0.030693277466696974 0.0033464700839750975 0 0.030265282002445767 0.0036863790340945879 0 0.030693277466696974 0.0033464700839750975 0 0.030968947712404507 0.0037946669045148327 0 0.031249775158369141 0.0033706831259206248 0 0.030693277466696974 0.0033464700839750975 0 0.030968947712404507 0.0037946669045148327 0 0.030265282002445767 0.0036863790340945879 0 0.031211638846184272 0.0033724466380600738 0 0.031177264563040624 0.0025743094384867537 0 0.031266090743808747 0.0043276584723159804 0 0.031294983006127708 0.0043585622417280116 0 0.031296279288472506 0.0042895868671233347 0 0.030267500900759022 0.0029995065795679326 0 0.030265282002445767 0.0036863790340945879 0 0.029647819801571738 0.0029470935306919804 0 0.030002696160675222 0.0026204314001507952 0 0.030267500900759022 0.0029995065795679326 0 0.029647819801571738 0.0029470935306919804 0 0.030002696160675222 0.0026204314001507952 0 0.030346096973929329 0.0026784232740790104 0 0.030267500900759022 0.0029995065795679326 0 0.031454616175574442 0.0019649174379122651 0 0.031177264563040624 0.0025743094384867537 0 0.032796301949584418 0.0018345460884978111 0 0.032854973668464411 0.0019098574999001363 0 0.032769252145797345 0.0018938692104177616 0 0.032854973668464411 0.0019098574999001363 0 0.032769252145797345 0.0018938692104177616 0 0.032756704679056281 0.0019684500145428704 0 0.032690461407074135 0.0018893669426585165 0 0.032735889523099373 0.001835946211064146 0 0.032769252145797345 0.0018938692104177616 0 0.032690461407074135 0.0018893669426585165 0 0.032769252145797345 0.0018938692104177616 0 0.032756704679056281 0.0019684500145428704 0 0.032854973668464411 0.0019098574999001363 0 0.032805372797826068 0.0020158630480930479 0 0.03283535356309681 0.0020627698506558217 0 0.032854973668464411 0.0019098574999001363 0 0.032756704679056281 0.0019684500145428704 0 0.032805372797826068 0.0020158630480930479 0 0.031177264563040624 0.0025743094384867537 0 0.031850290705651048 0.0030378590817864777 0 0.03283535356309681 0.0020627698506558217 0 0.032846697238116347 0.0020563658224430313 0 0.032888461515498325 0.0019909352342904318 0 0.032805372797826068 0.0020158630480930479 0 0.03283535356309681 0.0020627698506558217 0 0.032846697238116347 0.0020563658224430313 0 0.032756704679056281 0.0019684500145428704 0 0.032805372797826068 0.0020158630480930479 0 0.032728212215602626 0.0020449555170897167 0 0.032694702412843502 0.0019985713894347681 0 0.032756704679056281 0.0019684500145428704 0 0.032728212215602626 0.0020449555170897167 0 0.032846697238116347 0.0020563658224430313 0 0.032728212215602626 0.0020449555170897167 0 0.032696788068561335 0.0020824361105186537 0 0.032805372797826068 0.0020158630480930479 0 0.032846697238116347 0.0020563658224430313 0 0.032728212215602626 0.0020449555170897167 0 0.032846697238116347 0.0020563658224430313 0 0.032696788068561335 0.0020824361105186537 0 0.032668055196079543 0.0021357632146115869 0 0.032922003404883222 0.0019704576696868733 0 0.032974405488437691 0.0019113858504258318 0 0.032846697238116347 0.0020563658224430313 0 0.033045164435319643 0.0019529926034620392 0 0.033154844293766993 0.0019736034904118205 0 0.032933798114282008 0.001919062367594121 0 0.033045164435319643 0.0019529926034620392 0 0.032888461515498325 0.0019909352342904318 0 0.032854140392919805 0.0019248065513842434 0 0.03283535356309681 0.0020627698506558217 0 0.032888461515498325 0.0019909352342904318 0 0.032846697238116347 0.0020563658224430313 0 0.033045164435319643 0.0019529926034620392 0 0.032888461515498325 0.0019909352342904318 0 0.032394087500842939 0.0029676803268587648 0 0.031850290705651048 0.0030378590817864777 0 0.032854140392919805 0.0019248065513842434 0 0.032933798114282008 0.001919062367594121 0 0.032888461515498325 0.0019909352342904318 0 0.031263559207380873 0.0043204435734288992 0 0.031296279288472506 0.0042895868671233347 0 0.031302205972466947 0.0042807703749111036 0 0.031323317987335828 0.0043179016512285926 0 0.031263559207380873 0.0043204435734288992 0 0.031302205972466947 0.0042807703749111036 0 0.031323317987335828 0.0043179016512285926 0 0.031302205972466947 0.0042807703749111036 0 0.031338207668772072 0.00429170641759293 0 0.031302205972466947 0.0042807703749111036 0 0.031338207668772072 0.00429170641759293 0 0.031165014683450232 0.0042680745082296504 0 0.031536389029215489 0.0043329100404690029 0 0.031338207668772072 0.00429170641759293 0 0.031300871695128303 0.0043450757103757785 0 0.031338207668772072 0.00429170641759293 0 0.031165014683450232 0.0042680745082296504 0 0.031300871695128303 0.0043450757103757785 0 0.031302205972466947 0.0042807703749111036 0 0.031165014683450232 0.0042680745082296504 0 0.031271315234352851 0.0042933252304231629 0 0.030968947712404507 0.0037946669045148327 0 0.030265282002445767 0.0036863790340945879 0 0.031165014683450232 0.0042680745082296504 0 0.031266090743808747 0.0043276584723159804 0 0.031165014683450232 0.0042680745082296504 0 0.031271315234352851 0.0042933252304231629 0 0.031211638846184272 0.0033724466380600738 0 0.031257879507178246 0.0036316552495572274 0 0.031266090743808747 0.0043276584723159804 0 0.031296279288472506 0.0042895868671233347 0 0.031271315234352851 0.0042933252304231629 0 0.031296279288472506 0.0042895868671233347 0 0.031302205972466947 0.0042807703749111036 0 0.031271315234352851 0.0042933252304231629 0 0.026338442320730449 -0.0017781390113608682 0 0.025667000333987746 -0.0020482763491387374 0 0.025718599362775804 -0.0014133586598095943 0 0.030968947712404507 0.0037946669045148327 0 0.031165014683450232 0.0042680745082296504 0 0.031524079276799628 0.0041288454720526469 0 0.029142471057342613 0.0018421714367104912 0 0.028088810716147578 0.00052101604517992102 0 0.03129570402019461 0.0044088345167312103 0 0.031524079276799628 0.0041288454720526469 0 0.031300871695128303 0.0043450757103757785 0 0.031165014683450232 0.0042680745082296504 0 0.031524079276799628 0.0041288454720526469 0 0.031300871695128303 0.0043450757103757785 0 0.03129570402019461 0.0044088345167312103 0 0.031536389029215489 0.0043329100404690029 0 0.031300871695128303 0.0043450757103757785 0 0.027272682005832934 -0.00056502268969857341 0 0.028088810716147578 0.00052101604517992102 0 0.02817049392478067 0.00098733229330120217 0 0.028609664896859333 0.0010100032526953074 0 0.028410020626809116 0.0016116503432296624 0 0.025994357126676821 -0.0026667244471075368 0 0.026338442320730449 -0.0017781390113608682 0 0.025667000333987746 -0.0020482763491387374 0 0.02505253246314473 -0.0027099815006684405 0 0.025994357126676821 -0.0026667244471075368 0 0.025667000333987746 -0.0020482763491387374 0 0.02505253246314473 -0.0027099815006684405 0 0.025667000333987746 -0.0020482763491387374 0 0.025068247401913629 -0.0020598813635317134 0 0.02505253246314473 -0.0027099815006684405 0 0.025068247401913629 -0.0020598813635317134 0 0.024407932595261025 -0.001871417740107806 0 0.026227939510368302 -0.0010951847937142501 0 0.025506364357867104 -0.00096127372029892035 0 0.0252079625330019 -0.0015688881351752775 0 0.024642434000040063 -0.0010278027080207175 0 0.024407932595261025 -0.001871417740107806 0 0.025068247401913629 -0.0020598813635317134 0 0.0252079625330019 -0.0015688881351752775 0 0.024407932595261025 -0.001871417740107806 0 0.025667000333987746 -0.0020482763491387374 0 0.0252079625330019 -0.0015688881351752775 0 0.025718599362775804 -0.0014133586598095943 0 0.025667000333987746 -0.0020482763491387374 0 0.025068247401913629 -0.0020598813635317134 0 0.0252079625330019 -0.0015688881351752775 0 0.025718599362775804 -0.0014133586598095943 0 0.025354985937619701 -0.00089409062911873177 0 0.026020290301604316 -0.00077241767646816118 0 0.0252079625330019 -0.0015688881351752775 0 0.025718599362775804 -0.0014133586598095943 0 0.025354985937619701 -0.00089409062911873177 0 0.0252079625330019 -0.0015688881351752775 0 0.025354985937619701 -0.00089409062911873177 0 0.024642434000040063 -0.0010278027080207175 0 0.025354985937619701 -0.00089409062911873177 0 0.024642434000040063 -0.0010278027080207175 0 0.024810675075523161 -0.00026203728389870165 0 0.025354985937619701 -0.00089409062911873177 0 0.025503125434974822 -0.00038156743396417495 0 0.026020290301604316 -0.00077241767646816118 0 0.025354985937619701 -0.00089409062911873177 0 0.025503125434974822 -0.00038156743396417495 0 0.024810675075523161 -0.00026203728389870165 0 0.026296455383771664 -0.0014859020323995595 0 0.026754803226727717 -0.00071312175117085755 0 0.02642393271812268 -0.00033416824136117787 0 0.026296455383771664 -0.0014859020323995595 0 0.027146216917044424 -0.001057640326689505 0 0.026754803226727717 -0.00071312175117085755 0 0.026839907175480043 -0.003061905788964731 0 0.026296455383771664 -0.0014859020323995595 0 0.027301673392249242 -0.0018400416459173098 0 0.026338442320730449 -0.0017781390113608682 0 0.025718599362775804 -0.0014133586598095943 0 0.026020290301604316 -0.00077241767646816118 0 0.028088810716147578 0.00052101604517992102 0 0.027170166844620522 -0.00052163460895708505 0 0.028088810716147578 0.00052101604517992102 0 0.028702891784594967 0.00092158350792457665 0 0.030968947712404507 0.0037946669045148327 0 0.031524079276799628 0.0041288454720526469 0 0.031249775158369141 0.0033706831259206248 0 0.030703731977540519 0.0025380493014866747 0 0.030646409360032507 0.0029836466844614172 0 0.031249775158369141 0.0033706831259206248 0 0.029010011526551298 0.0012461855772373141 0 0.028702891784594967 0.00092158350792457665 0 0.026296455383771664 -0.0014859020323995595 0 0.027301673392249242 -0.0018400416459173098 0 0.027146216917044424 -0.001057640326689505 0 0.027800237396056925 -0.00061768399818226715 0 0.027301673392249242 -0.0018400416459173098 0 0.027146216917044424 -0.001057640326689505 0 0.027800237396056925 -0.00061768399818226715 0 0.027146216917044424 -0.001057640326689505 0 0.027075361460496963 -0.00034204580992449425 0 0.027800237396056925 -0.00061768399818226715 0 0.027075361460496963 -0.00034204580992449425 0 0.02777407975649596 6.0866581990914022e-05 0 0.027075361460496963 -0.00034204580992449425 0 0.02777407975649596 6.0866581990914022e-05 0 0.026043792182338217 0.00054332175144649318 0 0.027146216917044424 -0.001057640326689505 0 0.027075361460496963 -0.00034204580992449425 0 0.026754803226727717 -0.00071312175117085755 0 0.026296455383771664 -0.0014859020323995595 0 0.02642393271812268 -0.00033416824136117787 0 0.025745032467263253 0.00025033884756392829 0 0.027170166844620522 -0.00052163460895708505 0 0.026713771808844163 -0.00013862392621498353 0 0.027075361460496963 -0.00034204580992449425 0 0.02642393271812268 -0.00033416824136117787 0 0.026043792182338217 0.00054332175144649318 0 0.027075361460496963 -0.00034204580992449425 0 0.026754803226727717 -0.00071312175117085755 0 0.02642393271812268 -0.00033416824136117787 0 0.02642393271812268 -0.00033416824136117787 0 0.026043792182338217 0.00054332175144649318 0 0.025745032467263253 0.00025033884756392829 0 0.02563805854609991 0.0004994906973495942 0 0.026617972461730723 0.00077056633381920154 0 0.026013803647405579 0.0014748821985718886 0 0.027029010672945362 0.0010852900438563897 0 0.026617972461730723 0.00077056633381920154 0 0.026013803647405579 0.0014748821985718886 0 0.02563805854609991 0.0004994906973495942 0 0.026013803647405579 0.0014748821985718886 0 0.024907201639679008 0.0014246750458748627 0 0.026615689198567005 0.00010701527374958164 0 0.025616900460713535 0.00028150030272987297 0 0.02777407975649596 6.0866581990914022e-05 0 0.02563805854609991 0.0004994906973495942 0 0.026617972461730723 0.00077056633381920154 0 0.02777407975649596 6.0866581990914022e-05 0 0.027029010672945362 0.0010852900438563897 0 0.02775172399702687 0.00085059907690884589 0 0.02777407975649596 6.0866581990914022e-05 0 0.027029010672945362 0.0010852900438563897 0 0.026617972461730723 0.00077056633381920154 0 0.027029010672945362 0.0010852900438563897 0 0.02775172399702687 0.00085059907690884589 0 0.027764897352827122 0.0015742422161874449 0 0.027029010672945362 0.0010852900438563897 0 0.027764897352827122 0.0015742422161874449 0 0.027037280911006992 0.0023267936589958845 0 0.027029010672945362 0.0010852900438563897 0 0.027037280911006992 0.0023267936589958845 0 0.026013803647405579 0.0014748821985718886 0 0.02810044393616027 0.0025863234950974597 0 0.027764897352827122 0.0015742422161874449 0 0.027037280911006992 0.0023267936589958845 0 0.026013803647405579 0.0014748821985718886 0 0.02603635255939294 0.0026822423229680989 0 0.025143759313682634 0.0023136605674646134 0 0.027037280911006992 0.0023267936589958845 0 0.026013803647405579 0.0014748821985718886 0 0.02603635255939294 0.0026822423229680989 0 0.02603635255939294 0.0026822423229680989 0 0.026676959030947068 0.003557463342728879 0 0.025316411771182549 0.0037278491497522341 0 0.02603635255939294 0.0026822423229680989 0 0.025143759313682634 0.0023136605674646134 0 0.025316411771182549 0.0037278491497522341 0 0.027889435859255855 0.0035260914058323346 0 0.027037280911006992 0.0023267936589958845 0 0.026676959030947068 0.003557463342728879 0 0.027037280911006992 0.0023267936589958845 0 0.02603635255939294 0.0026822423229680989 0 0.026676959030947068 0.003557463342728879 0 0.02810044393616027 0.0025863234950974597 0 0.027889435859255855 0.0035260914058323346 0 0.027037280911006992 0.0023267936589958845 0 0.024174153372112275 0.0031013360537895324 0 0.02279133738989645 0.0026385041006552999 0 0.023302812784887075 0.004316624956088401 0 0.024174153372112275 0.0031013360537895324 0 0.024141819281967715 0.0020139384068630088 0 0.02279133738989645 0.0026385041006552999 0 0.024174153372112275 0.0031013360537895324 0 0.025143759313682634 0.0023136605674646134 0 0.025316411771182549 0.0037278491497522341 0 0.024174153372112275 0.0031013360537895324 0 0.025143759313682634 0.0023136605674646134 0 0.024141819281967715 0.0020139384068630088 0 0.024907201639679008 0.0014246750458748627 0 0.024141819281967715 0.0020139384068630088 0 0.023494866294367481 0.0010566334716224362 0 0.025143759313682634 0.0023136605674646134 0 0.024907201639679008 0.0014246750458748627 0 0.024141819281967715 0.0020139384068630088 0 0.026013803647405579 0.0014748821985718886 0 0.025143759313682634 0.0023136605674646134 0 0.024907201639679008 0.0014246750458748627 0 0.024141819281967715 0.0020139384068630088 0 0.023494866294367481 0.0010566334716224362 0 0.02279133738989645 0.0026385041006552999 0 0.024826227665547027 0.00084810625233640172 0 0.025039393828521495 0.00020266110544570301 0 0.024272000720497719 0.00061451713451568426 0 0.025616900460713535 0.00028150030272987297 0 0.023749081826561227 0.00046182468849797912 0 0.02563805854609991 0.0004994906973495942 0 0.024907201639679008 0.0014246750458748627 0 0.023494866294367481 0.0010566334716224362 0 0.024826227665547027 0.00084810625233640172 0 0.025745032467263253 0.00025033884756392829 0 0.025039393828521495 0.00020266110544570301 0 0.026043792182338217 0.00054332175144649318 0 0.024826227665547027 0.00084810625233640172 0 0.025745032467263253 0.00025033884756392829 0 0.025503125434974822 -0.00038156743396417495 0 0.026020290301604316 -0.00077241767646816118 0 0.025745032467263253 0.00025033884756392829 0 0.025503125434974822 -0.00038156743396417495 0 0.025745032467263253 0.00025033884756392829 0 0.025039393828521495 0.00020266110544570301 0 0.025503125434974822 -0.00038156743396417495 0 0.025039393828521495 0.00020266110544570301 0 0.024810675075523161 -0.00026203728389870165 0 0.025039393828521495 0.00020266110544570301 0 0.024810675075523161 -0.00026203728389870165 0 0.024272000720497719 0.00061451713451568426 0 0.024810675075523161 -0.00026203728389870165 0 0.024020346830329165 0.00020924519684660756 0 0.024095783468673811 -0.00044255279189419087 0 0.023904665092284959 -0.00036371633530023651 0 0.023416853230752308 -0.00024686608300533637 0 0.024810675075523161 -0.00026203728389870165 0 0.023902711213699784 0.00012926078646896839 0 0.024272000720497719 0.00061451713451568426 0 0.024020346830329165 0.00020924519684660756 0 0.023111548736100648 0.00068727185932392196 0 0.023013426061532827 -1.8492475522562805e-05 0 0.024020346830329165 0.00020924519684660756 0 0.023013426061532827 -1.8492475522562805e-05 0 0.024095783468673811 -0.00044255279189419087 0 0.023681079236605822 0.00081458251547452201 0 0.023299648050335738 0.000971917037689417 0 0.022971659877791584 0.00056184849277972967 0 0.023416853230752308 -0.00024686608300533637 0 0.02224380035565782 -0.00010048820570158794 0 0.023902711213699784 0.00012926078646896839 0 0.023681079236605822 0.00081458251547452201 0 0.022971659877791584 0.00056184849277972967 0 0.023681079236605822 0.00081458251547452201 0 0.023299648050335738 0.000971917037689417 0 0.023643757246685264 0.0011979607531860338 0 0.024826227665547027 0.00084810625233640172 0 0.024272000720497719 0.00061451713451568426 0 0.023647787428198213 0.001173205874941933 0 0.023902711213699784 0.00012926078646896839 0 0.023681079236605822 0.00081458251547452201 0 0.024272000720497719 0.00061451713451568426 0 0.023681079236605822 0.00081458251547452201 0 0.024272000720497719 0.00061451713451568426 0 0.023647787428198213 0.001173205874941933 0 0.023749081826561227 0.00046182468849797912 0 0.020524019363781426 0.00055911305669005616 0 0.023494866294367481 0.0010566334716224362 0 0.021406773515701583 0.0016104458000147151 0 0.02279133738989645 0.0026385041006552999 0 0.020611250720406697 0.00057545891292675366 0 0.020524019363781426 0.00055911305669005616 0 0.023299648050335738 0.000971917037689417 0 0.023643757246685264 0.0011979607531860338 0 0.022933772882475643 0.0011329183021400414 0 0.020524019363781426 0.00055911305669005616 0 0.019128991009293553 0.001606888483082136 0 0.016119789166172578 0.00063702497361678065 0 0.016171220141085942 3.2103616940476347e-05 0 0.016443850461767776 0.00034853037012807315 0 0.016171220141085942 3.2103616940476347e-05 0 0.016555909243130978 -1.7646664599443795e-06 0 0.016443850461767776 0.00034853037012807315 0 0.021239486146032976 0.0033735341101476797 0 0.02279133738989645 0.0026385041006552999 0 0.022056932873296888 0.0042827906403529676 0 0.021406773515701583 0.0016104458000147151 0 0.021239486146032976 0.0033735341101476797 0 0.02279133738989645 0.0026385041006552999 0 0.017763933655397839 3.7052135455641939e-05 0 0.01777813160312542 -6.8320680990733566e-07 0 0.018372066899417262 6.7101160440153479e-05 0 0.017763933655397839 3.7052135455641939e-05 0 0.017235866283785397 -1.5744572904676197e-05 0 0.017547467367982232 0.00015514276335115883 0 0.017763933655397839 3.7052135455641939e-05 0 0.01777813160312542 -6.8320680990733566e-07 0 0.017235866283785397 -1.5744572904676197e-05 0 0.01916308398165106 -0.00021856461183389063 0 0.019759339565159229 0.00022560516582970468 0 0.016555909243130978 -1.7646664599443795e-06 0 0.016813131968918291 0.00037563086511047182 0 0.016443850461767776 0.00034853037012807315 0 0.017235866283785397 -1.5744572904676197e-05 0 0.016555909243130978 -1.7646664599443795e-06 0 0.017547467367982232 0.00015514276335115883 0 0.016119789166172578 0.00063702497361678065 0 0.016443850461767776 0.00034853037012807315 0 0.016859133991738405 0.00044472656371263554 0 0.020524019363781426 0.00055911305669005616 0 0.020006127624839238 0.00041385829105870537 0 0.023643757246685264 0.0011979607531860338 0 0.022933772882475643 0.0011329183021400414 0 0.022365972658818754 0.0015398427055646586 0 0.016813131968918291 0.00037563086511047182 0 0.016443850461767776 0.00034853037012807315 0 0.016859133991738405 0.00044472656371263554 0 0.023299648050335738 0.000971917037689417 0 0.022933772882475643 0.0011329183021400414 0 0.022903276014888334 0.00092232145420290102 0 0.022933772882475643 0.0011329183021400414 0 0.022512834734180979 0.0010629410140183221 0 0.022903276014888334 0.00092232145420290102 0 0.022933772882475643 0.0011329183021400414 0 0.022512834734180979 0.0010629410140183221 0 0.022365972658818754 0.0015398427055646586 0 0.020006127624839238 0.00041385829105870537 0 0.020113323494229503 3.4864400196691294e-05 0 0.017772217149962327 0.00015559193389390669 0 0.018372066899417262 6.7101160440153479e-05 0 0.018636136094994961 0.00052643433565897229 0 0.022512834734180979 0.0010629410140183221 0 0.022365972658818754 0.0015398427055646586 0 0.022018824078134731 0.0010269074176806913 0 0.01777813160312542 -6.8320680990733566e-07 0 0.018372066899417262 6.7101160440153479e-05 0 0.019417510231369228 1.7787431481120974e-06 0 0.017547467367982232 0.00015514276335115883 0 0.017772217149962327 0.00015559193389390669 0 0.018372066899417262 6.7101160440153479e-05 0 0.017763933655397839 3.7052135455641939e-05 0 0.017547467367982232 0.00015514276335115883 0 0.018372066899417262 6.7101160440153479e-05 0 0.019759339565159229 0.00022560516582970468 0 0.020006127624839238 0.00041385829105870537 0 0.018372066899417262 6.7101160440153479e-05 0 0.018636136094994961 0.00052643433565897229 0 0.019417510231369228 1.7787431481120974e-06 0 0.020113323494229503 3.4864400196691294e-05 0 0.019422547204714903 1.2048046364742776e-06 0 0.019645516712428902 -2.6733049464569098e-07 0 0.019421059402769544 -1.5308324241817975e-09 0 0.020311733601808945 4.4599434760102456e-10 0 0.020983142218567567 0.0011536404956161742 0 0.020319441916597042 3.095164623457057e-06 0 0.023111548736100648 0.00068727185932392196 0 0.020113323494229503 3.4864400196691294e-05 0 0.020312290819402442 2.7937248790106683e-07 0 0.020319441916597042 3.095164623457057e-06 0 0.023111548736100648 0.00068727185932392196 0 0.023013426061532827 -1.8492475522562805e-05 0 0.020113323494229503 3.4864400196691294e-05 0 0.02224380035565782 -0.00010048820570158794 0 0.022512834734180979 0.0010629410140183221 0 0.022018824078134731 0.0010269074176806913 0 0.022971659877791584 0.00056184849277972967 0 0.023299648050335738 0.000971917037689417 0 0.022903276014888334 0.00092232145420290102 0 0.022971659877791584 0.00056184849277972967 0 0.022512834734180979 0.0010629410140183221 0 0.022903276014888334 0.00092232145420290102 0 0.022971659877791584 0.00056184849277972967 0 0.020319441916597042 3.095164623457057e-06 0 0.023013426061532827 -1.8492475522562805e-05 0 0.025482167746730934 -1.5679445012983585e-06 0 0.023013426061532827 -1.8492475522562805e-05 0 0.025118028061000719 2.2924950708870691e-05 0 0.025482167746730934 -1.5679445012983585e-06 0 0.024273193338550148 -0.00031515558947132582 0 0.024752571244850748 -0.0006122830054165082 0 0.023013426061532827 -1.8492475522562805e-05 0 0.024095783468673811 -0.00044255279189419087 0 0.023724563720428121 -0.00099327304375437862 0 0.024642434000040063 -0.0010278027080207175 0 0.024810675075523161 -0.00026203728389870165 0 0.024095783468673811 -0.00044255279189419087 0 0.024642434000040063 -0.0010278027080207175 0 0.024095783468673811 -0.00044255279189419087 0 0.023724563720428121 -0.00099327304375437862 0 0.024752571244850748 -0.0006122830054165082 0 0.025506364357867104 -0.00096127372029892035 0 0.024642434000040063 -0.0010278027080207175 0 0.023724563720428121 -0.00099327304375437862 0 0.024407932595261025 -0.001871417740107806 0 0.025118028061000719 2.2924950708870691e-05 0 0.025961843001662068 -6.1941718562148824e-05 0 0.026472950191103368 -6.8633721200798482e-05 0 0.026669501745642008 -0.00015399820804900912 0 0.026472950191103368 -6.8633721200798482e-05 0 0.026692817760103821 -0.00012623798240162667 0 0.026669501745642008 -0.00015399820804900912 0 0.026786513764947877 -0.00012941023899272055 0 0.026472950191103368 -6.8633721200798482e-05 0 0.025961843001662068 -6.1941718562148824e-05 0 0.026472950191103368 -6.8633721200798482e-05 0 0.026692817760103821 -0.00012623798240162667 0 0.025961843001662068 -6.1941718562148824e-05 0 0.026692817760103821 -0.00012623798240162667 0 0.026514350715695127 -0.00010062564957604929 0 0.025118028061000719 2.2924950708870691e-05 0 0.025961843001662068 -6.1941718562148824e-05 0 0.025482167746730934 -1.5679445012983585e-06 0 0.027648583175274584 -8.9252411609630459e-05 0 0.026514350715695127 -0.00010062564957604929 0 0.025482167746730934 -1.5679445012983585e-06 0 0.025961843001662068 -6.1941718562148824e-05 0 0.026514350715695127 -0.00010062564957604929 0 0.025482167746730934 -1.5679445012983585e-06 0 0.0079997624780330772 0.00039741443195453747 0 0.0082299279121130775 0.00070924428998960615 0 0.0079093717273193438 0.0010897722409931687 0 0.011629802667491598 0.0016613621256579855 0 0.012026369027288999 0.0021117595322270757 0 0.0083138843350826826 0.00048036964205626175 0 0.0087694529664277716 0.00051008161760320557 0 0.0082740043127973884 0.00041202875466120526 0 0.0087694529664277716 0.00051008161760320557 0 0.0093148943644875207 0.00023759319475686463 0 0.0082740043127973884 0.00041202875466120526 0 0.0083138843350826826 0.00048036964205626175 0 0.0079997624780330772 0.00039741443195453747 0 0.0082299279121130775 0.00070924428998960615 0 0.0083138843350826826 0.00048036964205626175 0 0.0079997624780330772 0.00039741443195453747 0 0.0082740043127973884 0.00041202875466120526 0 0.0082299279121130775 0.00070924428998960615 0 0.0085227468354921922 0.0010098687702254474 0 0.0079093717273193438 0.0010897722409931687 0 0.0082299279121130775 0.00070924428998960615 0 0.0087694529664277716 0.00051008161760320557 0 0.0085227468354921922 0.0010098687702254474 0 0.0083138843350826826 0.00048036964205626175 0 0.0082299279121130775 0.00070924428998960615 0 0.0087694529664277716 0.00051008161760320557 0 0.0087694529664277716 0.00051008161760320557 0 0.0091095762994145655 0.00078199688807148373 0 0.0085227468354921922 0.0010098687702254474 0 0.0087694529664277716 0.00051008161760320557 0 0.0091095762994145655 0.00078199688807148373 0 0.0094714809832569212 0.00040670478957514238 0 0.0091095762994145655 0.00078199688807148373 0 0.0094714809832569212 0.00040670478957514238 0 0.010527231516428934 0.00031141372588759696 0 0.0087694529664277716 0.00051008161760320557 0 0.0094714809832569212 0.00040670478957514238 0 0.0093148943644875207 0.00023759319475686463 0 0.0094714809832569212 0.00040670478957514238 0 0.010527231516428934 0.00031141372588759696 0 0.0093148943644875207 0.00023759319475686463 0 0.010817425104715615 9.3421889470499486e-07 0 0.0093148943644875207 0.00023759319475686463 0 0.0087792677914093793 9.8372784212656196e-07 0 0.010817425104715615 9.3421889470499486e-07 0 0.010527231516428934 0.00031141372588759696 0 0.0093148943644875207 0.00023759319475686463 0 0.0093148943644875207 0.00023759319475686463 0 0.0087792677914093793 9.8372784212656196e-07 0 0.0082464345162147866 0.00038637626903657857 0 0.0093148943644875207 0.00023759319475686463 0 0.0082464345162147866 0.00038637626903657857 0 0.0082740043127973884 0.00041202875466120526 0 0.0082464345162147866 0.00038637626903657857 0 0.0075658150598879436 0.00075731920638974612 0 0.0072268595354691477 0.00064950150973377562 0 0.0075658150598879436 0.00075731920638974612 0 0.0081048719803061952 0.00040995844175224701 0 0.006573428432595143 0.0016085743702119737 0 0.0082464345162147866 0.00038637626903657857 0 0.0082740043127973884 0.00041202875466120526 0 0.0075658150598879436 0.00075731920638974612 0 0.0079997624780330772 0.00039741443195453747 0 0.0082740043127973884 0.00041202875466120526 0 0.0075658150598879436 0.00075731920638974612 0 0.0079997624780330772 0.00039741443195453747 0 0.0075658150598879436 0.00075731920638974612 0 0.0081048719803061952 0.00040995844175224701 0 0.005034386257799184 0.003118447259321408 0 0.0062670887777196531 0.0059013986877068398 0 0.006573428432595143 0.0016085743702119737 0 0.0095296970343571631 0.0035552613898483785 0 0.0091806479624261736 0.0028897012018273727 0 0.005034386257799184 0.003118447259321408 0 0.0049904616501686297 0.0050488283342145076 0 0.0041186172027359415 0.0048692181850834154 0 0.0049904616501686297 0.0050488283342145076 0 0.0041186172027359415 0.0048692181850834154 0 0.0046093657364422351 0.0062229203753732054 0 0.0049904616501686297 0.0050488283342145076 0 0.0062670887777196531 0.0059013986877068398 0 0.0046093657364422351 0.0062229203753732054 0 0.005034386257799184 0.003118447259321408 0 0.0049904616501686297 0.0050488283342145076 0 0.0062670887777196531 0.0059013986877068398 0 0.005034386257799184 0.003118447259321408 0 0.0041186172027359415 0.0048692181850834154 0 0.002793498525955417 0.0036162980222820881 0 0.0041186172027359415 0.0048692181850834154 0 0.0026129822581030531 0.0058644400586367251 0 0.0036925669476651065 0.0060223847681757092 0 0.0041186172027359415 0.0048692181850834154 0 0.0036925669476651065 0.0060223847681757092 0 0.0046093657364422351 0.0062229203753732054 0 0.0026129822581030531 0.0058644400586367251 0 0.001264289937976009 0.0053893833592198841 0 0.002793498525955417 0.0036162980222820881 0 0.0041186172027359415 0.0048692181850834154 0 0.0026129822581030531 0.0058644400586367251 0 0.002793498525955417 0.0036162980222820881 0 0.0026129822581030531 0.0058644400586367251 0 0.00348115099309673 0.0071019493078804258 0 0.0023125134951118647 0.0073224043658838235 0 0.00348115099309673 0.0071019493078804258 0 0.0046093657364422351 0.0062229203753732054 0 0.0046150652822331004 0.0076419382470161966 0 0.0026129822581030531 0.0058644400586367251 0 0.0036925669476651065 0.0060223847681757092 0 0.00348115099309673 0.0071019493078804258 0 0.0036925669476651065 0.0060223847681757092 0 0.00348115099309673 0.0071019493078804258 0 0.0046093657364422351 0.0062229203753732054 0 0.00348115099309673 0.0071019493078804258 0 0.0046150652822331004 0.0076419382470161966 0 0.0033504541523205491 0.0084397732585362682 0 0.0023125134951118647 0.0073224043658838235 0 0.0033504541523205491 0.0084397732585362682 0 0.0017001491386373171 0.0086759246051820466 0 0.00348115099309673 0.0071019493078804258 0 0.0023125134951118647 0.0073224043658838235 0 0.0033504541523205491 0.0084397732585362682 0 0.0081048719803061952 0.00040995844175224701 0 0.0081012581122625136 0.00032695974693988905 0 0.0080811177783065256 0.00032881209476666527 0 0.0079997624780330772 0.00039741443195453747 0 0.0081048719803061952 0.00040995844175224701 0 0.0080811177783065256 0.00032881209476666527 0 0.0095296970343571631 0.0035552613898483785 0 0.010720376097585044 0.0047141720598470821 0 0.0062670887777196531 0.0059013986877068398 0 0.0046150652822331004 0.0076419382470161966 0 0.0056103682366806188 0.0089308094142287447 0 0.0062670887777196531 0.0059013986877068398 0 0.0046093657364422351 0.0062229203753732054 0 0.0046150652822331004 0.0076419382470161966 0 0.0056103682366806188 0.0089308094142287447 0 0.0035900654479524472 0.010063812303410906 0 0.0051203513505603364 0.011740229641509474 0 0.010720376097585044 0.0047141720598470821 0 0.013380024272672847 0.0053037597789503954 0 0.0081012581122625136 0.00032695974693988905 0 0.0081123109297643967 0.00034342820419492373 0 0.0080811177783065256 0.00032881209476666527 0 0.0046150652822331004 0.0076419382470161966 0 0.0056103682366806188 0.0089308094142287447 0 0.0042888455027288502 0.0087766708725696262 0 0.0056103682366806188 0.0089308094142287447 0 0.0042888455027288502 0.0087766708725696262 0 0.0035900654479524472 0.010063812303410906 0 0.0033504541523205491 0.0084397732585362682 0 0.0035900654479524472 0.010063812303410906 0 0.0017001491386373171 0.0086759246051820466 0 0.0046150652822331004 0.0076419382470161966 0 0.0042888455027288502 0.0087766708725696262 0 0.0033504541523205491 0.0084397732585362682 0 0.0042888455027288502 0.0087766708725696262 0 0.0033504541523205491 0.0084397732585362682 0 0.0035900654479524472 0.010063812303410906 0 0.01373084304727475 0.005441681969514639 0 0.012533809847282563 0.0076201504080364501 0 0.021216398396554335 0.0086996804287497662 0 0.022581526776955709 0.0076748892493122877 0 0.023289663724619082 0.0087158949673015358 0 0.0035900654479524472 0.010063812303410906 0 0.0048416353098071595 0.011949306989132462 0 0.0012838234125084761 0.011805052683784921 0 0.0081012581122625136 0.00032695974693988905 0 0.0081123109297643967 0.00034342820419492373 0 0.0081064274651215084 0.00035785297749259314 0 0.0133021040289852 0.0036112593295102467 0 0.013380024272672847 0.0053037597789503954 0 0.0133021040289852 0.0036112593295102467 0 0.014246547125104996 0.0039853503103016536 0 0.0035900654479524472 0.010063812303410906 0 0.0051203513505603364 0.011740229641509474 0 0.0048416353098071595 0.011949306989132462 0 0.013380024272672847 0.0053037597789503954 0 0.01373084304727475 0.005441681969514639 0 0.013828382149133555 0.004621315849686467 0 0.013719843052181825 0.0053331401913091422 0 0.012917880494156124 0.0053203764813593169 0 0.013380024272672847 0.0053037597789503954 0 0.013680066537167471 0.005274244894196531 0 0.013680066537167471 0.005274244894196531 0 0.01373084304727475 0.005441681969514639 0 0.013566202660836538 0.0047651219947835496 0 0.014114155920340399 0.0043449766185461557 0 0.013616412107440079 0.0042420578115361877 0 0.013680066537167471 0.005274244894196531 0 0.014246547125104996 0.0039853503103016536 0 0.014114155920340399 0.0043449766185461557 0 0.014128485869525937 0.0042508437361544497 0 0.013616412107440079 0.0042420578115361877 0 0.015608456707301885 0.00068656830227902866 0 0.014730475173171264 0.00067958948993336696 0 0.015249623610219991 0.00017501568454713126 0 0.014246547125104996 0.0039853503103016536 0 0.013449049551198616 0.0018303205310505853 0 0.01144281602414313 0.0001882276210301538 0 0.011628110628151118 0.00020413691879991427 0 0.011548888444093741 9.4482249957643946e-05 0 0.011460341528349448 9.7640169944455447e-05 0 0.01144281602414313 0.0001882276210301538 0 0.011548888444093741 9.4482249957643946e-05 0 0.0133021040289852 0.0036112593295102467 0 0.012026369027288999 0.0021117595322270757 0 0.0133021040289852 0.0036112593295102467 0 0.012432090778532939 0.003096670607039353 0 0.0077322161664325137 0.00264185758117198 0 0.0087881897406087393 0.0018465716473018889 0 0.0079093717273193438 0.0010897722409931687 0 0.011460341528349448 9.7640169944455447e-05 0 0.011548888444093741 9.4482249957643946e-05 0 0.011557116873191742 3.9818717123292339e-05 0 0.011548888444093741 9.4482249957643946e-05 0 0.011557116873191742 3.9818717123292339e-05 0 0.011612051617380797 -3.3042059146545022e-05 0 0.0091095762994145655 0.00078199688807148373 0 0.0087881897406087393 0.0018465716473018889 0 0.0085227468354921922 0.0010098687702254474 0 0.0087881897406087393 0.0018465716473018889 0 0.0085227468354921922 0.0010098687702254474 0 0.0079093717273193438 0.0010897722409931687 0 0.010817425104715615 9.3421889470499486e-07 0 0.011612051617380797 -3.3042059146545022e-05 0 0.012852296537161237 3.4198034857624915e-07 0 0.010817425104715615 9.3421889470499486e-07 0 0.010527231516428934 0.00031141372588759696 0 0.011612051617380797 -3.3042059146545022e-05 0 0.010527231516428934 0.00031141372588759696 0 0.011557116873191742 3.9818717123292339e-05 0 0.011612051617380797 -3.3042059146545022e-05 0 0.012264193497553181 0.0028451507849737113 0 0.012432090778532939 0.003096670607039353 0 0.0091095762994145655 0.00078199688807148373 0 0.010527231516428934 0.00031141372588759696 0 0.0087881897406087393 0.0018465716473018889 0 0.013449049551198616 0.0018303205310505853 0 0.012855652621106979 5.3856227209539175e-06 0 0.011628110628151118 0.00020413691879991427 0 0.011612051617380797 -3.3042059146545022e-05 0 0.012852296537161237 3.4198034857624915e-07 0 0.011628110628151118 0.00020413691879991427 0 0.011548888444093741 9.4482249957643946e-05 0 0.011612051617380797 -3.3042059146545022e-05 0 0.014730475173171264 0.00067958948993336696 0 0.012857492258734941 2.1451958996941819e-06 0 0.014693732528996544 -4.0583855902214548e-05 0 0.012857492258734941 2.1451958996941819e-06 0 0.014693732528996544 -4.0583855902214548e-05 0 0.014495970180756802 -9.634060988519441e-07 0 0.015608456707301885 0.00068656830227902866 0 0.015249623610219991 0.00017501568454713126 0 0.015730640451615305 -0.00019066433263467867 0 0.014730475173171264 0.00067958948993336696 0 0.014693732528996544 -4.0583855902214548e-05 0 0.015249623610219991 0.00017501568454713126 0 0.014693732528996544 -4.0583855902214548e-05 0 0.015249623610219991 0.00017501568454713126 0 0.015387079100593462 -0.0001653920702659647 0 0.015249623610219991 0.00017501568454713126 0 0.015387079100593462 -0.0001653920702659647 0 0.015730640451615305 -0.00019066433263467867 0 0.014693732528996544 -4.0583855902214548e-05 0 0.015387079100593462 -0.0001653920702659647 0 0.015432051474542881 -0.00020479915623525198 0 0.015387079100593462 -0.0001653920702659647 0 0.015752183393413211 -0.00029205053051204832 0 0.015730640451615305 -0.00019066433263467867 0 0.015387079100593462 -0.0001653920702659647 0 0.015752183393413211 -0.00029205053051204832 0 0.015432051474542881 -0.00020479915623525198 0 0.014495970180756802 -9.634060988519441e-07 0 0.015432051474542881 -0.00020479915623525198 0 0.016137334655956886 -2.9687687200513379e-07 0 0.014693732528996544 -4.0583855902214548e-05 0 0.014495970180756802 -9.634060988519441e-07 0 0.015432051474542881 -0.00020479915623525198 0 0.015432051474542881 -0.00020479915623525198 0 0.016137334655956886 -2.9687687200513379e-07 0 0.016359888341086204 -0.00022721664828794975 0 0.015752183393413211 -0.00029205053051204832 0 0.016359888341086204 -0.00022721664828794975 0 0.015968819774886091 -0.00032753737269282439 0 0.015752183393413211 -0.00029205053051204832 0 0.015432051474542881 -0.00020479915623525198 0 0.016359888341086204 -0.00022721664828794975 0 0.017235866283785397 -1.5744572904676197e-05 0 0.016555909243130978 -1.7646664599443795e-06 0 0.016359888341086204 -0.00022721664828794975 0 0.016555909243130978 -1.7646664599443795e-06 0 0.016359888341086204 -0.00022721664828794975 0 0.015968819774886091 -0.00032753737269282439 0 0.01777813160312542 -6.8320680990733566e-07 0 0.016137334655956886 -2.9687687200513379e-07 0 0.016359888341086204 -0.00022721664828794975 0 0.01777813160312542 -6.8320680990733566e-07 0 0.017235866283785397 -1.5744572904676197e-05 0 0.016359888341086204 -0.00022721664828794975 0 0.02279133738989645 0.0026385041006552999 0 0.022056932873296888 0.0042827906403529676 0 0.023302812784887075 0.004316624956088401 0 0.022056932873296888 0.0042827906403529676 0 0.022577120352184472 0.0055471817532889434 0 0.023302812784887075 0.004316624956088401 0 0.019128991009293553 0.001606888483082136 0 0.017970152275335265 0.0023616480209946388 0 0.021239486146032976 0.0033735341101476797 0 0.022056932873296888 0.0042827906403529676 0 0.021069710557049027 0.0051179385596618991 0 0.016171220141085942 3.2103616940476347e-05 0 0.016555909243130978 -1.7646664599443795e-06 0 0.015968819774886091 -0.00032753737269282439 0 0.022056932873296888 0.0042827906403529676 0 0.021069710557049027 0.0051179385596618991 0 0.022577120352184472 0.0055471817532889434 0 0.021069710557049027 0.0051179385596618991 0 0.022577120352184472 0.0055471817532889434 0 0.021714533161533361 0.006259852123501268 0 0.022577120352184472 0.0055471817532889434 0 0.022486885375882646 0.0066795289448977448 0 0.021714533161533361 0.006259852123501268 0 0.022486885375882646 0.0066795289448977448 0 0.021714533161533361 0.006259852123501268 0 0.02157259791593381 0.0070114768401964445 0 0.021069710557049027 0.0051179385596618991 0 0.021714533161533361 0.006259852123501268 0 0.0209009854797488 0.006836308150245842 0 0.015752183393413211 -0.00029205053051204832 0 0.015968819774886091 -0.00032753737269282439 0 0.015730640451615305 -0.00019066433263467867 0 0.017970152275335265 0.0023616480209946388 0 0.016538873629733251 0.0031921009101016388 0 0.021714533161533361 0.006259852123501268 0 0.02157259791593381 0.0070114768401964445 0 0.0209009854797488 0.006836308150245842 0 0.021308351792172893 0.0085914896332635292 0 0.021439629375651414 0.0085939037313258141 0 0.02157259791593381 0.0070114768401964445 0 0.013680066537167471 0.005274244894196531 0 0.014904634666728379 0.0059798734896873134 0 0.02072591088357903 0.0084768817321382861 0 0.02157259791593381 0.0070114768401964445 0 0.0209009854797488 0.006836308150245842 0 0.02131583713861775 0.0084858946580421701 0 0.02072591088357903 0.0084768817321382861 0 0.02157259791593381 0.0070114768401964445 0 0.014246547125104996 0.0039853503103016536 0 0.016538873629733251 0.0031921009101016388 0 0.01373084304727475 0.005441681969514639 0 0.01847639968220758 0.0048961645964361727 0 0.021439629375651414 0.0085939037313258141 0 0.02157259791593381 0.0070114768401964445 0 0.022688855069734771 0.0076572756958261483 0 0.022486885375882646 0.0066795289448977448 0 0.02157259791593381 0.0070114768401964445 0 0.022688855069734771 0.0076572756958261483 0 0.01847639968220758 0.0048961645964361727 0 0.019915832820149606 0.0047153046851299701 0 0.022581526776955709 0.0076748892493122877 0 0.024089483765338229 0.007798677266627853 0 0.023289663724619082 0.0087158949673015358 0 0.022581526776955709 0.0076748892493122877 0 0.024089483765338229 0.007798677266627853 0 0.023924699569267995 0.0067317209920089056 0 0.024089483765338229 0.007798677266627853 0 0.023924699569267995 0.0067317209920089056 0 0.025318965358823206 0.0071882191115536908 0 0.024089483765338229 0.007798677266627853 0 0.025318965358823206 0.0071882191115536908 0 0.025253889990876764 0.0086798828560606493 0 0.023924699569267995 0.0067317209920089056 0 0.025290313881399747 0.0055850699787352454 0 0.025318965358823206 0.0071882191115536908 0 0.022486885375882646 0.0066795289448977448 0 0.022688855069734771 0.0076572756958261483 0 0.023924699569267995 0.0067317209920089056 0 0.022577120352184472 0.0055471817532889434 0 0.022486885375882646 0.0066795289448977448 0 0.023924699569267995 0.0067317209920089056 0 0.022577120352184472 0.0055471817532889434 0 0.023924699569267995 0.0067317209920089056 0 0.023868947591153732 0.0054254466358361906 0 0.022577120352184472 0.0055471817532889434 0 0.023868947591153732 0.0054254466358361906 0 0.023302812784887075 0.004316624956088401 0 0.023924699569267995 0.0067317209920089056 0 0.023868947591153732 0.0054254466358361906 0 0.025290313881399747 0.0055850699787352454 0 0.023868947591153732 0.0054254466358361906 0 0.025290313881399747 0.0055850699787352454 0 0.024443484531544837 0.0045202346931511872 0 0.024174153372112275 0.0031013360537895324 0 0.024443484531544837 0.0045202346931511872 0 0.025316411771182549 0.0037278491497522341 0 0.025290313881399747 0.0055850699787352454 0 0.024443484531544837 0.0045202346931511872 0 0.025316411771182549 0.0037278491497522341 0 0.024174153372112275 0.0031013360537895324 0 0.024443484531544837 0.0045202346931511872 0 0.023302812784887075 0.004316624956088401 0 0.023868947591153732 0.0054254466358361906 0 0.024443484531544837 0.0045202346931511872 0 0.023302812784887075 0.004316624956088401 0 0.027476889406639084 0.0044308973860128897 0 0.026258480467139213 0.0045641910655910079 0 0.026843717655429717 0.0054895406506527472 0 0.026676959030947068 0.003557463342728879 0 0.027476889406639084 0.0044308973860128897 0 0.026258480467139213 0.0045641910655910079 0 0.027889435859255855 0.0035260914058323346 0 0.026676959030947068 0.003557463342728879 0 0.027476889406639084 0.0044308973860128897 0 0.026676959030947068 0.003557463342728879 0 0.025316411771182549 0.0037278491497522341 0 0.026258480467139213 0.0045641910655910079 0 0.025290313881399747 0.0055850699787352454 0 0.025316411771182549 0.0037278491497522341 0 0.026258480467139213 0.0045641910655910079 0 0.025290313881399747 0.0055850699787352454 0 0.026843717655429717 0.0054895406506527472 0 0.026609769185377451 0.0066272748857270688 0 0.025290313881399747 0.0055850699787352454 0 0.026258480467139213 0.0045641910655910079 0 0.026843717655429717 0.0054895406506527472 0 0.026843717655429717 0.0054895406506527472 0 0.027512993768958303 0.0060951106837038539 0 0.028188252932118747 0.0051489293686055324 0 0.027476889406639084 0.0044308973860128897 0 0.026843717655429717 0.0054895406506527472 0 0.028188252932118747 0.0051489293686055324 0 0.026843717655429717 0.0054895406506527472 0 0.027512993768958303 0.0060951106837038539 0 0.026609769185377451 0.0066272748857270688 0 0.027512993768958303 0.0060951106837038539 0 0.026609769185377451 0.0066272748857270688 0 0.027906094847060029 0.0067566833203332342 0 0.026609769185377451 0.0066272748857270688 0 0.027657226659464986 0.007628222766393437 0 0.027906094847060029 0.0067566833203332342 0 0.025290313881399747 0.0055850699787352454 0 0.026609769185377451 0.0066272748857270688 0 0.025318965358823206 0.0071882191115536908 0 0.025318965358823206 0.0071882191115536908 0 0.026402804606825321 0.0077443085442604632 0 0.025253889990876764 0.0086798828560606493 0 0.026609769185377451 0.0066272748857270688 0 0.025318965358823206 0.0071882191115536908 0 0.026402804606825321 0.0077443085442604632 0 0.026609769185377451 0.0066272748857270688 0 0.026402804606825321 0.0077443085442604632 0 0.027657226659464986 0.007628222766393437 0 0.026402804606825321 0.0077443085442604632 0 0.027107140451651263 0.008606584810039411 0 0.027657226659464986 0.007628222766393437 0 -0.0046521206561143599 0.011010806540835838 0 -0.0037289773081700126 0.0094986879271391732 0 -0.0056132916292359275 0.0095323815416709732 0 -0.0037289773081700126 0.0094986879271391732 0 -0.0052109530133889947 0.008241838744927215 0 -0.0039230732957037297 0.0080591585970270045 0 -0.0037289773081700126 0.0094986879271391732 0 -0.0052109530133889947 0.008241838744927215 0 -0.0056132916292359275 0.0095323815416709732 0 -0.0037289773081700126 0.0094986879271391732 0 -0.0016961601142756859 0.0096522230968107327 0 -0.0025157404219203015 0.0084412072550162955 0 -0.0037289773081700126 0.0094986879271391732 0 -0.0020150683438483414 0.011448197268364345 0 -0.0016961601142756859 0.0096522230968107327 0 -0.0037289773081700126 0.0094986879271391732 0 -0.0039230732957037297 0.0080591585970270045 0 -0.0025157404219203015 0.0084412072550162955 0 -0.0046521206561143599 0.011010806540835838 0 -0.0037289773081700126 0.0094986879271391732 0 -0.0020150683438483414 0.011448197268364345 0 0.011412616306316372 0.0081144827597884692 0 0.01183951773316246 0.0083433546984265135 0 0.026402804606825321 0.0077443085442604632 0 0.027107140451651263 0.008606584810039411 0 0.025253889990876764 0.0086798828560606493 0 0.01183951773316246 0.0083433546984265135 0 0.012533809847282563 0.0076201504080364501 0 -0.0020150683438483414 0.011448197268364345 0 0.00034619899267133178 0.010065055976477945 0 -0.0016961601142756859 0.0096522230968107327 0 0.024089483765338229 0.007798677266627853 0 0.025253889990876764 0.0086798828560606493 0 0.023289663724619082 0.0087158949673015358 0 -0.0020150683438483414 0.011448197268364345 0 0.0012838234125084761 0.011805052683784921 0 0.00034619899267133178 0.010065055976477945 0 0.0035900654479524472 0.010063812303410906 0 0.0012838234125084761 0.011805052683784921 0 0.00034619899267133178 0.010065055976477945 0 0.0035900654479524472 0.010063812303410906 0 0.00034619899267133178 0.010065055976477945 0 0.0017001491386373171 0.0086759246051820466 0 0.00034619899267133178 0.010065055976477945 0 0.0017001491386373171 0.0086759246051820466 0 -0.00054618369222506774 0.0083938574900856051 0 0.00034619899267133178 0.010065055976477945 0 -0.0016961601142756859 0.0096522230968107327 0 -0.00054618369222506774 0.0083938574900856051 0 -0.0016961601142756859 0.0096522230968107327 0 -0.00054618369222506774 0.0083938574900856051 0 -0.0025157404219203015 0.0084412072550162955 0 -0.00054618369222506774 0.0083938574900856051 0 -0.0016991413237736777 0.0075028019041947407 0 -0.0025157404219203015 0.0084412072550162955 0 -0.00054618369222506774 0.0083938574900856051 0 -0.00060386366329949134 0.0071156766342807083 0 0.00090613668666994854 0.0069403396208342662 0 -0.00054618369222506774 0.0083938574900856051 0 -0.00060386366329949134 0.0071156766342807083 0 -0.0016991413237736777 0.0075028019041947407 0 -0.00060386366329949134 0.0071156766342807083 0 -0.0016991413237736777 0.0075028019041947407 0 -0.0015493730935659635 0.0063943958397503662 0 0.0017001491386373171 0.0086759246051820466 0 -0.00054618369222506774 0.0083938574900856051 0 0.00090613668666994854 0.0069403396208342662 0 0.0023125134951118647 0.0073224043658838235 0 0.0017001491386373171 0.0086759246051820466 0 0.00090613668666994854 0.0069403396208342662 0 -0.00060386366329949134 0.0071156766342807083 0 0.00090613668666994854 0.0069403396208342662 0 -0.00010865642256667733 0.0057539930297514051 0 0.0026129822581030531 0.0058644400586367251 0 0.0023125134951118647 0.0073224043658838235 0 0.00090613668666994854 0.0069403396208342662 0 0.001264289937976009 0.0053893833592198841 0 0.00066351451711388766 0.004042116694041923 0 0.002793498525955417 0.0036162980222820881 0 0.0026129822581030531 0.0058644400586367251 0 0.00090613668666994854 0.0069403396208342662 0 0.001264289937976009 0.0053893833592198841 0 0.00090613668666994854 0.0069403396208342662 0 0.001264289937976009 0.0053893833592198841 0 -0.00010865642256667733 0.0057539930297514051 0 0.001264289937976009 0.0053893833592198841 0 -0.00010865642256667733 0.0057539930297514051 0 0.00066351451711388766 0.004042116694041923 0 -0.0015493730935659635 0.0063943958397503662 0 -0.00010865642256667733 0.0057539930297514051 0 -0.001339960787033633 0.0047592299284050076 0 -0.00060386366329949134 0.0071156766342807083 0 -0.0015493730935659635 0.0063943958397503662 0 -0.00010865642256667733 0.0057539930297514051 0 -0.00010865642256667733 0.0057539930297514051 0 -0.001339960787033633 0.0047592299284050076 0 0.00066351451711388766 0.004042116694041923 0 -0.0015493730935659635 0.0063943958397503662 0 -0.001339960787033633 0.0047592299284050076 0 -0.0025981603895010785 0.0061401011145747284 0 -0.0041089681979456089 0.0061401854153394029 0 -0.0047283997236232701 0.0070591364674540916 0 -0.0032438158584997068 0.0071552394209456532 0 -0.001339960787033633 0.0047592299284050076 0 -0.0025981603895010785 0.0061401011145747284 0 -0.0041089681979456089 0.0061401854153394029 0 -0.0025981603895010785 0.0061401011145747284 0 -0.0041089681979456089 0.0061401854153394029 0 -0.0032438158584997068 0.0071552394209456532 0 -0.0015493730935659635 0.0063943958397503662 0 -0.0025981603895010785 0.0061401011145747284 0 -0.0032438158584997068 0.0071552394209456532 0 -0.0041089681979456089 0.0061401854153394029 0 -0.0047283997236232701 0.0070591364674540916 0 -0.0054616497485147223 0.0060187921585425543 0 -0.0041089681979456089 0.0061401854153394029 0 -0.0054616497485147223 0.0060187921585425543 0 -0.0043446799785575802 0.0062415595215345367 0 -0.0047283997236232701 0.0070591364674540916 0 -0.0039230732957037297 0.0080591585970270045 0 -0.0032438158584997068 0.0071552394209456532 0 -0.0047283997236232701 0.0070591364674540916 0 -0.0052109530133889947 0.008241838744927215 0 -0.0039230732957037297 0.0080591585970270045 0 -0.0039230732957037297 0.0080591585970270045 0 -0.0025157404219203015 0.0084412072550162955 0 -0.0032438158584997068 0.0071552394209456532 0 -0.0016991413237736777 0.0075028019041947407 0 -0.0025157404219203015 0.0084412072550162955 0 -0.0032438158584997068 0.0071552394209456532 0 -0.0016991413237736777 0.0075028019041947407 0 -0.0015493730935659635 0.0063943958397503662 0 -0.0032438158584997068 0.0071552394209456532 0 -0.0077857365973194575 0.0075333671886998795 0 -0.0069204387813536113 0.0084666155547688648 0 -0.0062191636764292665 0.007263852872333265 0 -0.0077857365973194575 0.0075333671886998795 0 -0.0069204387813536113 0.0084666155547688648 0 -0.0080840391391993182 0.0084641597965517991 0 -0.0047283997236232701 0.0070591364674540916 0 -0.0052109530133889947 0.008241838744927215 0 -0.0062191636764292665 0.007263852872333265 0 -0.0052109530133889947 0.008241838744927215 0 -0.0069204387813536113 0.0084666155547688648 0 -0.0062191636764292665 0.007263852872333265 0 -0.0062191636764292665 0.007263852872333265 0 -0.0054616497485147223 0.0060187921585425543 0 -0.007411263306107408 0.0062920748740528352 0 -0.0065837321646461961 0.0067678137499686732 0 -0.0074304682824762082 0.0069130847173258523 0 -0.0047283997236232701 0.0070591364674540916 0 -0.0062191636764292665 0.007263852872333265 0 -0.0054616497485147223 0.0060187921585425543 0 -0.0077857365973194575 0.0075333671886998795 0 -0.0062191636764292665 0.007263852872333265 0 -0.007411263306107408 0.0062920748740528352 0 -0.0074304682824762082 0.0069130847173258523 0 -0.0061355562249972425 0.0066601117790737177 0 -0.0077857365973194575 0.0075333671886998795 0 -0.007411263306107408 0.0062920748740528352 0 -0.0093217454642761585 0.0066498108632954784 0 -0.0095482465470557547 0.0079148111321345593 0 -0.011045197646590404 0.0079480829121370711 0 -0.010206696218039518 0.0067985212357111868 0 -0.011122845526934993 0.0071052685353670594 0 -0.011084983000560168 0.0071327149814178342 0 -0.011112356165794195 0.0071557653585258346 0 -0.011122845526934993 0.0071052685353670594 0 -0.011112356165794195 0.0071557653585258346 0 -0.011290222376899191 0.006974461000931507 0 -0.011122845526934993 0.0071052685353670594 0 -0.011084983000560168 0.0071327149814178342 0 -0.011068530244255753 0.0071225926262459098 0 -0.0061355562249972425 0.0066601117790737177 0 -0.0064192187316335272 0.0067140078012832231 0 -0.010965494498420882 0.0072887560865244113 0 -0.011112356165794195 0.0071557653585258346 0 -0.010926449974116762 0.0071842298531433653 0 -0.0061355562249972425 0.0066601117790737177 0 -0.007282390837342583 0.0068481355118475773 0 -0.010926449974116762 0.0071842298531433653 0 -0.010834575469367067 0.0070775808692453493 0 -0.011381358522878143 0.0073491784277088098 0 -0.010965494498420882 0.0072887560865244113 0 -0.010926449974116762 0.0071842298531433653 0 -0.011112260605330718 0.0068742043249310257 0 -0.0061355562249972425 0.0066601117790737177 0 0.00030368483940735068 0.0061242927592456194 0 -0.010926449974116762 0.0071842298531433653 0 -0.010834575469367067 0.0070775808692453493 0 -0.011112260605330718 0.0068742043249310257 0 -0.010834575469367067 0.0070775808692453493 0 -0.0098127252888811998 0.0063983654724693124 0 -0.008922109977385342 0.0069355980059781124 0 -0.0077857365973194575 0.0075333671886998795 0 -0.0093217454642761585 0.0066498108632954784 0 -0.0085767839650342497 0.0078288733377343874 0 -0.0093217454642761585 0.0066498108632954784 0 -0.0085767839650342497 0.0078288733377343874 0 -0.0091149296401320332 0.0086660872970255147 0 -0.0085767839650342497 0.0078288733377343874 0 -0.0080840391391993182 0.0084641597965517991 0 -0.0091149296401320332 0.0086660872970255147 0 -0.0077857365973194575 0.0075333671886998795 0 -0.0085767839650342497 0.0078288733377343874 0 -0.0080840391391993182 0.0084641597965517991 0 0.00030368483940735068 0.0061242927592456194 0 0.011787962443092452 0.0042509028141882168 0 -0.0080840391391993182 0.0084641597965517991 0 -0.0091149296401320332 0.0086660872970255147 0 -0.007933196221223458 0.0095653232449484302 0 -0.0091149296401320332 0.0086660872970255147 0 -0.007933196221223458 0.0095653232449484302 0 -0.0088853877760096105 0.010657661030831229 0 -0.011112260605330718 0.0068742043249310257 0 -0.010489001793876561 0.0051394000317969077 0 -0.011562971483808974 0.0037560460571039746 0 -0.0098127252888811998 0.0063983654724693124 0 -0.0098569878377505627 0.0057576329801943046 0 -0.0089690596637535831 0.0058487038243719841 0 -0.010834575469367067 0.0070775808692453493 0 -0.0098127252888811998 0.0063983654724693124 0 -0.010443140975601718 0.0063675646360914807 0 -0.0098127252888811998 0.0063983654724693124 0 -0.010443140975601718 0.0063675646360914807 0 -0.0098569878377505627 0.0057576329801943046 0 -0.011112260605330718 0.0068742043249310257 0 -0.010443140975601718 0.0063675646360914807 0 -0.010489001793876561 0.0051394000317969077 0 -0.010834575469367067 0.0070775808692453493 0 -0.011112260605330718 0.0068742043249310257 0 -0.010443140975601718 0.0063675646360914807 0 -0.0098569878377505627 0.0057576329801943046 0 -0.0090568070621737089 0.0047435990915686626 0 -0.0089690596637535831 0.0058487038243719841 0 -0.010489001793876561 0.0051394000317969077 0 -0.0098569878377505627 0.0057576329801943046 0 -0.0090568070621737089 0.0047435990915686626 0 -0.010443140975601718 0.0063675646360914807 0 -0.010489001793876561 0.0051394000317969077 0 -0.0098569878377505627 0.0057576329801943046 0 0.012516391605097037 0.0029622972809343661 0 0.0101709850400234 0.0017313309021018573 0 -0.010489001793876561 0.0051394000317969077 0 -0.010017515802346116 0.0037828314984219538 0 -0.0090568070621737089 0.0047435990915686626 0 -0.010489001793876561 0.0051394000317969077 0 -0.010017515802346116 0.0037828314984219538 0 -0.011562971483808974 0.0037560460571039746 0 0.012516391605097037 0.0029622972809343661 0 0.020915578772749691 0.004029094123480445 0 0.012516391605097037 0.0029622972809343661 0 0.011787962443092452 0.0042509028141882168 0 0.015947512038164503 0.0010182882537499792 0 0.017415376292028238 0.0010440365844617424 0 0.017553567428799675 0.0026311619924057105 0 0.011787962443092452 0.0042509028141882168 0 0.011256165766654324 0.0069357840251458398 0 0.030318530862783903 0.0084761226230297172 0 0.028796153541392991 0.0085127763059081006 0 0.029997631658006965 0.0077733080557942343 0 -0.007933196221223458 0.0095653232449484302 0 -0.0088853877760096105 0.010657661030831229 0 -0.0068112116020687796 0.010749337827540078 0 0.011787962443092452 0.0042509028141882168 0 0.020915578772749691 0.004029094123480445 0 -0.0069204387813536113 0.0084666155547688648 0 -0.007933196221223458 0.0095653232449484302 0 -0.0068112116020687796 0.010749337827540078 0 -0.0069204387813536113 0.0084666155547688648 0 -0.0080840391391993182 0.0084641597965517991 0 -0.007933196221223458 0.0095653232449484302 0 -0.0052109530133889947 0.008241838744927215 0 -0.0069204387813536113 0.0084666155547688648 0 -0.0056132916292359275 0.0095323815416709732 0 -0.0069204387813536113 0.0084666155547688648 0 -0.0068112116020687796 0.010749337827540078 0 -0.0056132916292359275 0.0095323815416709732 0 0.011412616306316372 0.0081144827597884692 0 0.011256165766654324 0.0069357840251458398 0 0.027107140451651263 0.008606584810039411 0 0.028796153541392991 0.0085127763059081006 0 0.027657226659464986 0.007628222766393437 0 -0.0046521206561143599 0.011010806540835838 0 -0.0068112116020687796 0.010749337827540078 0 -0.0056132916292359275 0.0095323815416709732 0 0.028796153541392991 0.0085127763059081006 0 0.027657226659464986 0.007628222766393437 0 0.028658050923014843 0.0073073994610397914 0 0.027657226659464986 0.007628222766393437 0 0.028658050923014843 0.0073073994610397914 0 0.027906094847060029 0.0067566833203332342 0 0.028796153541392991 0.0085127763059081006 0 0.029246158481492021 0.0076180204770207212 0 0.029997631658006965 0.0077733080557942343 0 0.028796153541392991 0.0085127763059081006 0 0.029246158481492021 0.0076180204770207212 0 0.028658050923014843 0.0073073994610397914 0 0.029246158481492021 0.0076180204770207212 0 0.028658050923014843 0.0073073994610397914 0 0.029528100530823408 0.0068829590506361933 0 0.029528100530823408 0.0068829590506361933 0 0.028554881581879837 0.006510648836151922 0 0.028790210918448966 0.0060760221144759881 0 0.028658050923014843 0.0073073994610397914 0 0.029528100530823408 0.0068829590506361933 0 0.028554881581879837 0.006510648836151922 0 0.02805078605497642 0.0046173649017038632 0 0.028083501162065302 0.0044804285372687797 0 0.032752630051404948 0.00081725504038343447 0 0.032691243765819729 0.00074215043504894122 0 0.032768702428109552 0.00072390353154224796 0 0.026129062450465253 0.0050263568264286287 0 0.028083501162065302 0.0044804285372687797 0 0.028658050923014843 0.0073073994610397914 0 0.027906094847060029 0.0067566833203332342 0 0.028554881581879837 0.006510648836151922 0 0.028554881581879837 0.006510648836151922 0 0.028195875327322234 0.0059239598051579996 0 0.028868134527933693 0.0059898225491437258 0 0.027906094847060029 0.0067566833203332342 0 0.028554881581879837 0.006510648836151922 0 0.028195875327322234 0.0059239598051579996 0 0.027512993768958303 0.0060951106837038539 0 0.027906094847060029 0.0067566833203332342 0 0.028195875327322234 0.0059239598051579996 0 0.027512993768958303 0.0060951106837038539 0 0.028188252932118747 0.0051489293686055324 0 0.028195875327322234 0.0059239598051579996 0 0.028188252932118747 0.0051489293686055324 0 0.029118032681258166 0.0060474045824666402 0 0.029019828753973756 0.0049369625988140587 0 0.028188252932118747 0.0051489293686055324 0 0.028195875327322234 0.0059239598051579996 0 0.028868134527933693 0.0059898225491437258 0 0.028256464031771792 0.0047102305410017227 0 0.028083501162065302 0.0044804285372687797 0 0.032691243765819729 0.00074215043504894122 0 0.032768702428109552 0.00072390353154224796 0 0.032809160185751272 0.00062074567540332574 0 0.028083501162065302 0.0044804285372687797 0 0.030161628346679088 0.0026919768103529627 0 0.029118032681258166 0.0060474045824666402 0 0.029019828753973756 0.0049369625988140587 0 0.029946473604476543 0.0044266298759434069 0 0.029019828753973756 0.0049369625988140587 0 0.029946473604476543 0.0044266298759434069 0 0.028807944808366209 0.004159556643747446 0 0.029683309948228893 0.0033590893416276853 0 0.029946473604476543 0.0044266298759434069 0 0.028807944808366209 0.004159556643747446 0 0.027889435859255855 0.0035260914058323346 0 0.027476889406639084 0.0044308973860128897 0 0.028807944808366209 0.004159556643747446 0 0.027476889406639084 0.0044308973860128897 0 0.028188252932118747 0.0051489293686055324 0 0.028807944808366209 0.004159556643747446 0 0.028188252932118747 0.0051489293686055324 0 0.029019828753973756 0.0049369625988140587 0 0.028807944808366209 0.004159556643747446 0 0.032741877817852441 0.00034508610113894432 0 0.032617882866788586 0.00055862392530613668 0 0.032294588966596309 0.00023125958784766507 0 0.032741877817852441 0.00034508610113894432 0 0.032617882866788586 0.00055862392530613668 0 0.032749510237410989 0.00053250777607543502 0 0.032742254320300576 0.00062771182506977409 0 0.032617882866788586 0.00055862392530613668 0 0.032749510237410989 0.00053250777607543502 0 0.02811280228572962 0.0011009821411195005 0 0.026564843822129199 0.0014838383793883689 0 0.032742254320300576 0.00062771182506977409 0 0.032749510237410989 0.00053250777607543502 0 0.032852378086330028 0.00060978712514207897 0 0.031154491407681395 0.0019903899489046176 0 0.030161628346679088 0.0026919768103529627 0 0.032741877817852441 0.00034508610113894432 0 0.032749510237410989 0.00053250777607543502 0 0.032852378086330028 0.00060978712514207897 0 0.032861706238264239 0.00065045966526101125 0 0.032809160185751272 0.00062074567540332574 0 0.032852378086330028 0.00060978712514207897 0 0.032741877817852441 0.00034508610113894432 0 0.032852378086330028 0.00060978712514207897 0 0.032901107421852614 5.6158661755223488e-05 0 0.032809160185751272 0.00062074567540332574 0 0.032852378086330028 0.00060978712514207897 0 0.032823094980958943 0.00072114644607897376 0 0.032768702428109552 0.00072390353154224796 0 0.032809160185751272 0.00062074567540332574 0 0.032823094980958943 0.00072114644607897376 0 0.032741877817852441 0.00034508610113894432 0 0.032589001272389576 1.0836671196628402e-05 0 0.032294588966596309 0.00023125958784766507 0 0.032741877817852441 0.00034508610113894432 0 0.032901107421852614 5.6158661755223488e-05 0 0.032589001272389576 1.0836671196628402e-05 0 0.032589001272389576 1.0836671196628402e-05 0 0.032665722369282099 -0.00027257042703529214 0 0.032385844451243359 -0.00037062692828605803 0 0.032901107421852614 5.6158661755223488e-05 0 0.032589001272389576 1.0836671196628402e-05 0 0.032665722369282099 -0.00027257042703529214 0 0.032901107421852614 5.6158661755223488e-05 0 0.032665722369282099 -0.00027257042703529214 0 0.032823143558992372 -0.00047918398857837302 0 0.026564843822129199 0.0014838383793883689 0 0.020915578772749691 0.004029094123480445 0 0.032752630051404948 0.00081725504038343447 0 0.032823094980958943 0.00072114644607897376 0 0.032797697020508887 0.00090145213845049051 0 0.032752630051404948 0.00081725504038343447 0 0.032768702428109552 0.00072390353154224796 0 0.032823094980958943 0.00072114644607897376 0 0.029528100530823408 0.0068829590506361933 0 0.030274570016765499 0.0076936230376232597 0 0.029997631658006965 0.0077733080557942343 0 0.026129062450465253 0.0050263568264286287 0 0.020915578772749691 0.004029094123480445 0 0.029246158481492021 0.0076180204770207212 0 0.029528100530823408 0.0068829590506361933 0 0.029997631658006965 0.0077733080557942343 0 0.030318530862783903 0.0084761226230297172 0 0.030264621303082301 0.0076965594416839971 0 0.029997631658006965 0.0077733080557942343 0 0.020915578772749691 0.004029094123480445 0 0.021196314414933116 0.0040070439628354061 0 0.02745712858349534 0.0015517859537628261 0 0.026572250432266666 0.00068757555000292195 0 0.02823074727460612 0.00023959857395484968 0 0.032665722369282099 -0.00027257042703529214 0 0.032823143558992372 -0.00047918398857837302 0 0.032385844451243359 -0.00037062692828605803 0 0.020915578772749691 0.004029094123480445 0 0.028533136103103447 0.0011871750120790118 0 0.032385844451243359 -0.00037062692828605803 0 0.031920984276781562 -0.00029654792138251724 0 0.032294588966596309 0.00023125958784766507 0 0.032589001272389576 1.0836671196628402e-05 0 0.032385844451243359 -0.00037062692828605803 0 0.032294588966596309 0.00023125958784766507 0 0.02823074727460612 0.00023959857395484968 0 0.029819025106476122 -0.00012442255533207089 0 0.029265786709961498 0.0015080651267421318 0 0.029819025106476122 -0.00012442255533207089 0 0.030412754637607078 0.00066251136396161265 0 0.029265786709961498 0.0015080651267421318 0 0.028533136103103447 0.0011871750120790118 0 0.030392142025540952 0.00036755623545342006 0 0.031920984276781562 -0.00029654792138251724 0 0.032294588966596309 0.00023125958784766507 0 0.031736041272304054 4.1430328436358698e-05 0 0.032294588966596309 0.00023125958784766507 0 0.031953706812685716 0.00028668069590055993 0 0.031736041272304054 4.1430328436358698e-05 0 0.032032401801347421 0.00058053512167880285 0 0.032294588966596309 0.00023125958784766507 0 0.031953706812685716 0.00028668069590055993 0 0.032200075430519705 0.00067480606179410381 0 0.032291551809645123 0.00045312346723132247 0 0.032446435487096983 0.0006590465255213074 0 0.032241558755205187 0.00070787520112884595 0 0.032294588966596309 0.00023125958784766507 0 0.032446435487096983 0.0006590465255213074 0 0.032617882866788586 0.00055862392530613668 0 0.032294588966596309 0.00023125958784766507 0 0.031602708352197424 0.00046935384752018483 0 0.031666315893180273 0.00026799430150945284 0 0.031323779910891303 0.00020054034073635176 0 0.031666315893180273 0.00026799430150945284 0 0.03141764937370313 6.0509823081291545e-05 0 0.031323779910891303 0.00020054034073635176 0 0.031329220487423724 0.00049211081147638026 0 0.031602708352197424 0.00046935384752018483 0 0.031323779910891303 0.00020054034073635176 0 0.032032401801347421 0.00058053512167880285 0 0.031953706812685716 0.00028668069590055993 0 0.031666315893180273 0.00026799430150945284 0 0.031602708352197424 0.00046935384752018483 0 0.032032401801347421 0.00058053512167880285 0 0.031666315893180273 0.00026799430150945284 0 0.031666315893180273 0.00026799430150945284 0 0.031736041272304054 4.1430328436358698e-05 0 0.03141764937370313 6.0509823081291545e-05 0 0.031953706812685716 0.00028668069590055993 0 0.031666315893180273 0.00026799430150945284 0 0.031736041272304054 4.1430328436358698e-05 0 0.03141764937370313 6.0509823081291545e-05 0 0.031313981198986818 -2.0795405954625127e-05 0 0.031323779910891303 0.00020054034073635176 0 0.031736041272304054 4.1430328436358698e-05 0 0.03141764937370313 6.0509823081291545e-05 0 0.031269585942973042 -0.00015195288826983178 0 0.03141764937370313 6.0509823081291545e-05 0 0.031269585942973042 -0.00015195288826983178 0 0.031313981198986818 -2.0795405954625127e-05 0 0.031269585942973042 -0.00015195288826983178 0 0.031119890672467457 0.00036618041907747744 0 0.031442449854910133 -2.704960786414151e-05 0 0.031269585942973042 -0.00015195288826983178 0 0.030815691415101012 0.00028981517390889582 0 0.031119890672467457 0.00036618041907747744 0 0.030392142025540952 0.00036755623545342006 0 0.030815133452054538 0.00017819497967550807 0 0.031920984276781562 -0.00029654792138251724 0 0.031736041272304054 4.1430328436358698e-05 0 0.031269585942973042 -0.00015195288826983178 0 0.029819025106476122 -0.00012442255533207089 0 0.031269585942973042 -0.00015195288826983178 0 0.030815691415101012 0.00028981517390889582 0 0.029819025106476122 -0.00012442255533207089 0 0.030815691415101012 0.00028981517390889582 0 0.030412754637607078 0.00066251136396161265 0 0.030815691415101012 0.00028981517390889582 0 0.030412754637607078 0.00066251136396161265 0 0.030867853807651183 0.00073653270663871198 0 0.030412754637607078 0.00066251136396161265 0 0.030867853807651183 0.00073653270663871198 0 0.030850007061105692 0.0013503200977656091 0 0.031119890672467457 0.00036618041907747744 0 0.031080651814869867 0.0011524790274404708 0 0.031442449854910133 -2.704960786414151e-05 0 0.022787312494555269 0.00028843173027928205 0 0.027216718350009494 -0.0010123948415335763 0 0.031119890672467457 0.00036618041907747744 0 0.030867853807651183 0.00073653270663871198 0 0.031080651814869867 0.0011524790274404708 0 0.022787312494555269 0.00028843173027928205 0 0.028461303470739812 -0.0012399976308546832 0 0.030815691415101012 0.00028981517390889582 0 0.031119890672467457 0.00036618041907747744 0 0.030867853807651183 0.00073653270663871198 0 0.018660621819164724 0.0017376264245620499 0 0.015169079607258894 0.001738575285052061 0 -0.003325876785898295 0.0039704516854692454 0 -0.0029129832706202381 0.0050489658941999978 0 -0.00052330875314181692 0.0041084935315047486 0 0.028210217086778747 -0.00029491062037089567 0 0.028135691812372673 -0.00023920331071054457 0 0.02857344487971037 -0.0002874968117915805 0 0.030867853807651183 0.00073653270663871198 0 0.031080651814869867 0.0011524790274404708 0 0.030850007061105692 0.0013503200977656091 0 0.022787312494555269 0.00028843173027928205 0 0.018660621819164724 0.0017376264245620499 0 -0.003325876785898295 0.0039704516854692454 0 -0.0029129832706202381 0.0050489658941999978 0 -0.0038121547327559404 0.0042439318997643215 0 -0.0029129832706202381 0.0050489658941999978 0 -0.0039190363895230378 0.0059253456024275326 0 -0.0021713832744053637 0.006957550656990651 0 -0.0029129832706202381 0.0050489658941999978 0 -0.0021713832744053637 0.006957550656990651 0 -0.00052330875314181692 0.0041084935315047486 0 -0.0039190363895230378 0.0059253456024275326 0 -0.0054790013183279081 0.0060253994235944987 0 -0.0044886479780998616 0.0070939158386969957 0 -0.0029129832706202381 0.0050489658941999978 0 -0.0039190363895230378 0.0059253456024275326 0 -0.0038098050219201752 0.0050879206228672605 0 -0.0039190363895230378 0.0059253456024275326 0 -0.0038098050219201752 0.0050879206228672605 0 -0.0045898694798821417 0.0052428870020191044 0 -0.0039190363895230378 0.0059253456024275326 0 -0.0045898694798821417 0.0052428870020191044 0 -0.0054790013183279081 0.0060253994235944987 0 -0.0045898694798821417 0.0052428870020191044 0 -0.0056779412325795144 0.0049680527937999699 0 -0.0054790013183279081 0.0060253994235944987 0 0.018660621819164724 0.0017376264245620499 0 0.012757730096247869 0.0023929960527941979 0 -0.0032709208342744716 0.003912731004702328 0 -0.0038121547327559404 0.0042439318997643215 0 -0.0066162126296238554 0.003779103903242092 0 -0.0045898694798821417 0.0052428870020191044 0 -0.0038121547327559404 0.0042439318997643215 0 -0.0056779412325795144 0.0049680527937999699 0 0.030412754637607078 0.00066251136396161265 0 0.030850007061105692 0.0013503200977656091 0 0.029265786709961498 0.0015080651267421318 0 -0.0029129832706202381 0.0050489658941999978 0 -0.0038098050219201752 0.0050879206228672605 0 -0.0038121547327559404 0.0042439318997643215 0 -0.0038098050219201752 0.0050879206228672605 0 -0.0045898694798821417 0.0052428870020191044 0 -0.0038121547327559404 0.0042439318997643215 0 0.018660621819164724 0.0017376264245620499 0 0.017915293099933793 0.0020911485202260928 0 -0.0038121547327559404 0.0042439318997643215 0 -0.0066162126296238554 0.003779103903242092 0 -0.0056779412325795144 0.0049680527937999699 0 -0.0066162126296238554 0.003779103903242092 0 -0.0074017113985519424 0.0056739141379846692 0 -0.0056779412325795144 0.0049680527937999699 0 0.012516391605097037 0.0029622972809343661 0 0.012757730096247869 0.0023929960527941979 0 -0.010026905326159411 0.0037477426092359569 0 -0.0066162126296238554 0.003779103903242092 0 -0.0090568070621737089 0.0047435990915686626 0 -0.0066162126296238554 0.003779103903242092 0 -0.0090568070621737089 0.0047435990915686626 0 -0.0074017113985519424 0.0056739141379846692 0 0.02745712858349534 0.0015517859537628261 0 0.02823074727460612 0.00023959857395484968 0 0.029265786709961498 0.0015080651267421318 0 -0.0074017113985519424 0.0056739141379846692 0 -0.0063192830165529111 0.0071062711909238097 0 -0.008922109977385342 0.0069355980059781124 0 -0.0090568070621737089 0.0047435990915686626 0 -0.0074017113985519424 0.0056739141379846692 0 -0.0089690596637535831 0.0058487038243719841 0 -0.0074017113985519424 0.0056739141379846692 0 -0.0089690596637535831 0.0058487038243719841 0 -0.008922109977385342 0.0069355980059781124 0 -0.0098127252888811998 0.0063983654724693124 0 -0.0089690596637535831 0.0058487038243719841 0 -0.008922109977385342 0.0069355980059781124 0 -0.0074017113985519424 0.0056739141379846692 0 -0.0056779412325795144 0.0049680527937999699 0 -0.0054790013183279081 0.0060253994235944987 0 -0.0074017113985519424 0.0056739141379846692 0 -0.0054790013183279081 0.0060253994235944987 0 -0.0063192830165529111 0.0071062711909238097 0 -0.0092733808062348492 0.0072036498577451868 0 -0.0081045634509800454 0.0071885846496924097 0 -0.0054790013183279081 0.0060253994235944987 0 -0.0063192830165529111 0.0071062711909238097 0 -0.0044886479780998616 0.0070939158386969957 0 -0.0063192830165529111 0.0071062711909238097 0 -0.0074507637746787803 0.0080198817977331499 0 -0.0044252405354429855 0.0085909858097236655 0 -0.0063192830165529111 0.0071062711909238097 0 -0.0074507637746787803 0.0080198817977331499 0 -0.008922109977385342 0.0069355980059781124 0 -0.0099562785184070871 0.0070953801167306079 0 -0.0092733808062348492 0.0072036498577451868 0 -0.011112356165794195 0.0071557653585258346 0 -0.010926449974116762 0.0071842298531433653 0 -0.011381358522878143 0.0073491784277088098 0 -0.010834575469367067 0.0070775808692453493 0 -0.0074507637746787803 0.0080198817977331499 0 -0.008922109977385342 0.0069355980059781124 0 -0.011112356165794195 0.0071557653585258346 0 -0.011525396290178192 0.0070037586198747597 0 -0.011290222376899191 0.006974461000931507 0 -0.011112356165794195 0.0071557653585258346 0 -0.011381358522878143 0.0073491784277088098 0 -0.011525396290178192 0.0070037586198747597 0 -0.011381358522878143 0.0073491784277088098 0 -0.011525396290178192 0.0070037586198747597 0 -0.01191927471200685 0.0072233701122318764 0 -0.011525396290178192 0.0070037586198747597 0 -0.01191927471200685 0.0072233701122318764 0 -0.01186786727937581 0.0068539749149156949 0 -0.0081045634509800454 0.0071885846496924097 0 -0.0070036112129663094 0.0067420717608000155 0 -0.01191927471200685 0.0072233701122318764 0 -0.012210142671814519 0.0068135769946918836 0 -0.012322869687603684 0.0070774843599688796 0 -0.0044252405354429855 0.0085909858097236655 0 -0.0021713832744053637 0.006957550656990651 0 -0.0016935743704090756 0.0091510143410444469 0 -0.0039190363895230378 0.0059253456024275326 0 -0.0021713832744053637 0.006957550656990651 0 -0.0044886479780998616 0.0070939158386969957 0 -0.0044252405354429855 0.0085909858097236655 0 -0.0021713832744053637 0.006957550656990651 0 -0.0044886479780998616 0.0070939158386969957 0 -0.0063192830165529111 0.0071062711909238097 0 -0.0044252405354429855 0.0085909858097236655 0 -0.0044886479780998616 0.0070939158386969957 0 -0.012057808355484523 0.0066448607670109208 0 -0.011895267450384014 0.0065536980676272399 0 -0.01186786727937581 0.0068539749149156949 0 -0.012057808355484523 0.0066448607670109208 0 -0.011895267450384014 0.0065536980676272399 0 -0.012068811512367333 0.006437310584523826 0 -0.012057808355484523 0.0066448607670109208 0 -0.012230218730693411 0.0065473980522476743 0 -0.012210142671814519 0.0068135769946918836 0 -0.012057808355484523 0.0066448607670109208 0 -0.012230218730693411 0.0065473980522476743 0 -0.012068811512367333 0.006437310584523826 0 -0.012230218730693411 0.0065473980522476743 0 -0.012210142671814519 0.0068135769946918836 0 -0.012409585588971208 0.0066140245478083816 0 -0.01191927471200685 0.0072233701122318764 0 -0.012210142671814519 0.0068135769946918836 0 -0.01186786727937581 0.0068539749149156949 0 -0.012057808355484523 0.0066448607670109208 0 -0.012210142671814519 0.0068135769946918836 0 -0.01186786727937581 0.0068539749149156949 0 -0.011525396290178192 0.0070037586198747597 0 -0.0114823184377589 0.006792782493486596 0 -0.011680632438347948 0.0067119465986417949 0 -0.011525396290178192 0.0070037586198747597 0 -0.01186786727937581 0.0068539749149156949 0 -0.011680632438347948 0.0067119465986417949 0 -0.011525396290178192 0.0070037586198747597 0 -0.011290222376899191 0.006974461000931507 0 -0.0114823184377589 0.006792782493486596 0 -0.011290222376899191 0.006974461000931507 0 -0.0114823184377589 0.006792782493486596 0 -0.011329948694784691 0.0066851943790889618 0 -0.0114823184377589 0.006792782493486596 0 -0.011329948694784691 0.0066851943790889618 0 -0.011558962765449831 0.0065807020641119457 0 -0.0114823184377589 0.006792782493486596 0 -0.011558962765449831 0.0065807020641119457 0 -0.011680632438347948 0.0067119465986417949 0 -0.011558962765449831 0.0065807020641119457 0 -0.011751073459955384 0.0064700438376711017 0 -0.011641548717019133 0.006393919435695109 0 -0.011329948694784691 0.0066851943790889618 0 -0.011558962765449831 0.0065807020641119457 0 -0.011424426961522368 0.0064206782108855581 0 -0.011895267450384014 0.0065536980676272399 0 -0.01186786727937581 0.0068539749149156949 0 -0.011680632438347948 0.0067119465986417949 0 -0.011558962765449831 0.0065807020641119457 0 -0.011680632438347948 0.0067119465986417949 0 -0.011751073459955384 0.0064700438376711017 0 -0.011895267450384014 0.0065536980676272399 0 -0.011680632438347948 0.0067119465986417949 0 -0.011751073459955384 0.0064700438376711017 0 -0.011895267450384014 0.0065536980676272399 0 -0.011751073459955384 0.0064700438376711017 0 -0.011913046562660288 0.0063451760396132182 0 -0.011751073459955384 0.0064700438376711017 0 -0.011913046562660288 0.0063451760396132182 0 -0.011797477913987999 0.0062809793203933385 0 -0.011751073459955384 0.0064700438376711017 0 -0.011797477913987999 0.0062809793203933385 0 -0.011641548717019133 0.006393919435695109 0 -0.011913046562660288 0.0063451760396132182 0 -0.011797477913987999 0.0062809793203933385 0 -0.011869390329892485 0.0061841186133808537 0 -0.011424426961522368 0.0064206782108855581 0 -0.011666094281567087 0.0062829086486627392 0 -0.011346386971613508 0.0062137588896206582 0 -0.011424426961522368 0.0064206782108855581 0 -0.011641548717019133 0.006393919435695109 0 -0.011666094281567087 0.0062829086486627392 0 -0.011558962765449831 0.0065807020641119457 0 -0.011424426961522368 0.0064206782108855581 0 -0.011641548717019133 0.006393919435695109 0 -0.011797477913987999 0.0062809793203933385 0 -0.011641548717019133 0.006393919435695109 0 -0.011666094281567087 0.0062829086486627392 0 -0.012249996807951408 0.0044112752743956053 0 -0.011753866981477243 0.00503002370920778 0 -0.011666094281567087 0.0062829086486627392 0 -0.012023737645385366 0.006117771780655124 0 -0.011346386971613508 0.0062137588896206582 0 -0.012023737645385366 0.006117771780655124 0 -0.011953453265659547 0.0052999101939797295 0 -0.011346386971613508 0.0062137588896206582 0 -0.011797477913987999 0.0062809793203933385 0 -0.011666094281567087 0.0062829086486627392 0 -0.012023737645385366 0.006117771780655124 0 -0.01292369739925084 0.0064655201958723459 0 -0.01471062105912925 0.0062400667050312329 0 -0.013626339004214146 0.0051080582308101561 0 -0.011797477913987999 0.0062809793203933385 0 -0.012023737645385366 0.006117771780655124 0 -0.011869390329892485 0.0061841186133808537 0 -0.013272678751848885 0.0041220137613952124 0 -0.01336422654789216 0.0040699877137012792 0 -0.012023737645385366 0.006117771780655124 0 -0.01292369739925084 0.0064655201958723459 0 -0.012787169002414295 0.0055946423114169499 0 -0.011913046562660288 0.0063451760396132182 0 -0.011869390329892485 0.0061841186133808537 0 -0.012079510544367572 0.0062384658642646506 0 -0.01336422654789216 0.0040699877137012792 0 -0.014339581204149313 0.0038350794624559957 0 -0.01336422654789216 0.0040699877137012792 0 -0.013422678633186734 0.0039444282989576467 0 -0.013547813052944731 0.0030123647045538042 0 -0.014123584682742388 0.0029165117783589195 0 -0.014217634083463814 0.0031742223414474202 0 -0.011913046562660288 0.0063451760396132182 0 -0.012079510544367572 0.0062384658642646506 0 -0.012068811512367333 0.006437310584523826 0 -0.011895267450384014 0.0065536980676272399 0 -0.011913046562660288 0.0063451760396132182 0 -0.012068811512367333 0.006437310584523826 0 -0.012079510544367572 0.0062384658642646506 0 -0.012255448266688191 0.0063449744124808912 0 -0.012443146265955525 0.0062943311427621582 0 -0.013422678633186734 0.0039444282989576467 0 -0.01381024712985004 0.0034057667859804029 0 -0.012230218730693411 0.0065473980522476743 0 -0.012255448266688191 0.0063449744124808912 0 -0.012384001542032877 0.0064629156535217329 0 -0.012230218730693411 0.0065473980522476743 0 -0.012068811512367333 0.006437310584523826 0 -0.012255448266688191 0.0063449744124808912 0 -0.012079510544367572 0.0062384658642646506 0 -0.012068811512367333 0.006437310584523826 0 -0.012255448266688191 0.0063449744124808912 0 -0.014217634083463814 0.0031742223414474202 0 -0.014699052276458078 0.0028220110484227863 0 -0.01488600930375357 0.0033359361305539507 0 -0.014123584682742388 0.0029165117783589195 0 -0.014217634083463814 0.0031742223414474202 0 -0.014699052276458078 0.0028220110484227863 0 -0.014339581204149313 0.0038350794624559957 0 -0.015373607957471128 0.0032803454858183687 0 -0.01471062105912925 0.0062400667050312329 0 -0.015010815368499129 0.0047754194819239698 0 -0.016202464937470774 0.0060195312909494892 0 -0.015010815368499129 0.0047754194819239698 0 -0.016202464937470774 0.0060195312909494892 0 -0.016512315853813974 0.0049129885934264756 0 -0.01471062105912925 0.0062400667050312329 0 -0.015010815368499129 0.0047754194819239698 0 -0.013626339004214146 0.0051080582308101561 0 -0.015010815368499129 0.0047754194819239698 0 -0.013283214441510458 0.0037022283459738057 0 -0.013626339004214146 0.0051080582308101561 0 -0.015010815368499129 0.0047754194819239698 0 -0.014718825271618803 0.0033292251390481015 0 -0.013283214441510458 0.0037022283459738057 0 -0.015010815368499129 0.0047754194819239698 0 -0.015896762209592231 0.0039149599639478417 0 -0.014718825271618803 0.0033292251390481015 0 -0.015010815368499129 0.0047754194819239698 0 -0.015896762209592231 0.0039149599639478417 0 -0.016512315853813974 0.0049129885934264756 0 -0.015896762209592231 0.0039149599639478417 0 -0.014718825271618803 0.0033292251390481015 0 -0.015784711331973057 0.0027487070011675079 0 -0.014718825271618803 0.0033292251390481015 0 -0.013587177915351441 0.0029394742871092392 0 -0.014873179711927758 0.002278965339975389 0 -0.014718825271618803 0.0033292251390481015 0 -0.015784711331973057 0.0027487070011675079 0 -0.014873179711927758 0.002278965339975389 0 -0.015784711331973057 0.0027487070011675079 0 -0.015806296679484036 0.0019311325898068172 0 -0.014873179711927758 0.002278965339975389 0 -0.012840294157713662 0.0026730157621611054 0 -0.013587177915351441 0.0029394742871092392 0 -0.013802304619615969 0.001948168461690302 0 -0.013587177915351441 0.0029394742871092392 0 -0.013802304619615969 0.001948168461690302 0 -0.014873179711927758 0.002278965339975389 0 -0.014718825271618803 0.0033292251390481015 0 -0.013587177915351441 0.0029394742871092392 0 -0.013283214441510458 0.0037022283459738057 0 -0.012840294157713662 0.0026730157621611054 0 -0.013587177915351441 0.0029394742871092392 0 -0.012555625600906593 0.0034771327132315398 0 -0.013587177915351441 0.0029394742871092392 0 -0.013283214441510458 0.0037022283459738057 0 -0.012555625600906593 0.0034771327132315398 0 -0.012551547770897451 0.0040439637774450079 0 -0.012249996807951408 0.0044112752743956053 0 -0.013283214441510458 0.0037022283459738057 0 -0.012540671961814576 0.0036294397385386724 0 -0.012555625600906593 0.0034771327132315398 0 -0.013283214441510458 0.0037022283459738057 0 -0.013626339004214146 0.0051080582308101561 0 -0.011953453265659547 0.0052999101939797295 0 -0.013626339004214146 0.0051080582308101561 0 -0.012787169002414295 0.0055946423114169499 0 -0.011953453265659547 0.0052999101939797295 0 -0.01292369739925084 0.0064655201958723459 0 -0.013626339004214146 0.0051080582308101561 0 -0.012787169002414295 0.0055946423114169499 0 -0.012023737645385366 0.006117771780655124 0 -0.012787169002414295 0.0055946423114169499 0 -0.011953453265659547 0.0052999101939797295 0 -0.012114896658771785 0.0035032931925414921 0 -0.012144530499742141 0.0035002243083999819 0 -0.01141120842161979 0.0034156945692000399 0 -0.012540671961814576 0.0036294397385386724 0 -0.012114896658771785 0.0035032931925414921 0 -0.012555625600906593 0.0034771327132315398 0 -0.011241350255062713 0.00080983769564989044 0 -0.0098113011728802896 0.002681562942884924 0 -0.01141120842161979 0.0034156945692000399 0 -0.011790101169428087 0.0023115036833302577 0 -0.011712649633067652 0.0029113702586704062 0 -0.011790101169428087 0.0023115036833302577 0 -0.011978655079894826 0.0015428598781405296 0 -0.012144530499742141 0.0035002243083999819 0 -0.012555625600906593 0.0034771327132315398 0 -0.01212592148617792 0.0030180418208568612 0 -0.012114896658771785 0.0035032931925414921 0 -0.012144530499742141 0.0035002243083999819 0 -0.012555625600906593 0.0034771327132315398 0 -0.012840294157713662 0.0026730157621611054 0 -0.012555625600906593 0.0034771327132315398 0 -0.01212592148617792 0.0030180418208568612 0 -0.011039961660758437 -0.00042827924689951342 0 -0.010986380428643239 -0.00037145953363011501 0 -0.010108722853126507 -0.00029860472795317837 0 -0.011241350255062713 0.00080983769564989044 0 -0.011039961660758437 -0.00042827924689951342 0 -0.010108722853126507 -0.00029860472795317837 0 -0.011039961660758437 -0.00042827924689951342 0 -0.010986380428643239 -0.00037145953363011501 0 -0.0112568128172155 7.9611441314646238e-05 0 -0.011978655079894826 0.0015428598781405296 0 -0.012405668721647761 0.0013537047344295782 0 -0.011039961660758437 -0.00042827924689951342 0 -0.0112568128172155 7.9611441314646238e-05 0 -0.011175312769701863 0.00012647801526903776 0 -0.01212592148617792 0.0030180418208568612 0 -0.012449006688213608 0.0024336477120661809 0 -0.012067552312917664 0.0019406392270879624 0 -0.012840294157713662 0.0026730157621611054 0 -0.01212592148617792 0.0030180418208568612 0 -0.012449006688213608 0.0024336477120661809 0 -0.012840294157713662 0.0026730157621611054 0 -0.012449006688213608 0.0024336477120661809 0 -0.012777582738928348 0.0020577517332311984 0 -0.0095353214397652548 -0.00067374652596819871 0 -0.0082321590685259741 -0.00068593522340050072 0 -0.010581914103870898 -0.00071201552438318854 0 -0.0087812567897121128 -0.00076839966968412316 0 -0.0088299496655430496 -0.0011899154583212182 0 -0.010581914103870898 -0.00071201552438318854 0 -0.012287432040349978 -0.00038370163232092849 0 -0.011733016268782009 0.00021449478147524047 0 -0.010581914103870898 -0.00071201552438318854 0 -0.010986380428643239 -0.00037145953363011501 0 -0.011209595961512648 1.5051778563514098e-05 0 -0.010581914103870898 -0.00071201552438318854 0 -0.010986380428643239 -0.00037145953363011501 0 -0.010108722853126507 -0.00029860472795317837 0 -0.010108722853126507 -0.00029860472795317837 0 -0.0087812567897121128 -0.00076839966968412316 0 -0.0082144684309054423 0.00048853948435056179 0 -0.010581914103870898 -0.00071201552438318854 0 -0.010108722853126507 -0.00029860472795317837 0 -0.0087812567897121128 -0.00076839966968412316 0 -0.010108722853126507 -0.00029860472795317837 0 -0.0082144684309054423 0.00048853948435056179 0 -0.0092323869069303472 0.0013114659038312093 0 -0.011241350255062713 0.00080983769564989044 0 -0.010108722853126507 -0.00029860472795317837 0 -0.0092323869069303472 0.0013114659038312093 0 -0.011241350255062713 0.00080983769564989044 0 -0.0092323869069303472 0.0013114659038312093 0 -0.0098113011728802896 0.002681562942884924 0 -0.0082144684309054423 0.00048853948435056179 0 -0.0092323869069303472 0.0013114659038312093 0 -0.0072545041070613703 0.001698869232779921 0 -0.0092323869069303472 0.0013114659038312093 0 -0.008182468363805229 0.0027801024462654504 0 -0.0072545041070613703 0.001698869232779921 0 -0.008182468363805229 0.0027801024462654504 0 -0.007271759967245277 0.0040221891858175061 0 -0.0065202849955013865 0.0029098057555007112 0 -0.008182468363805229 0.0027801024462654504 0 -0.0065202849955013865 0.0029098057555007112 0 -0.0072545041070613703 0.001698869232779921 0 -0.008182468363805229 0.0027801024462654504 0 -0.007271759967245277 0.0040221891858175061 0 -0.0089703033184369823 0.0040187758814416285 0 -0.007271759967245277 0.0040221891858175061 0 -0.0089703033184369823 0.0040187758814416285 0 -0.0083313119767350376 0.0053621272047284169 0 -0.0089703033184369823 0.0040187758814416285 0 -0.0098113011728802896 0.002681562942884924 0 -0.010387678089703211 0.0042467459204843872 0 -0.0089703033184369823 0.0040187758814416285 0 -0.010387678089703211 0.0042467459204843872 0 -0.0097070159290340279 0.0053459125077955456 0 -0.008182468363805229 0.0027801024462654504 0 -0.0089703033184369823 0.0040187758814416285 0 -0.0098113011728802896 0.002681562942884924 0 -0.0092323869069303472 0.0013114659038312093 0 -0.008182468363805229 0.0027801024462654504 0 -0.0098113011728802896 0.002681562942884924 0 -0.0098113011728802896 0.002681562942884924 0 -0.01141120842161979 0.0034156945692000399 0 -0.010387678089703211 0.0042467459204843872 0 -0.012114896658771785 0.0035032931925414921 0 -0.01141120842161979 0.0034156945692000399 0 -0.012154331593814321 0.0036538919678542497 0 -0.012540671961814576 0.0036294397385386724 0 -0.012114896658771785 0.0035032931925414921 0 -0.012154331593814321 0.0036538919678542497 0 -0.01141120842161979 0.0034156945692000399 0 -0.012154331593814321 0.0036538919678542497 0 -0.011413991741692907 0.0049431641180776075 0 -0.011424426961522368 0.0064206782108855581 0 -0.011346386971613508 0.0062137588896206582 0 -0.010982704535061481 0.0063980377111777353 0 -0.011753866981477243 0.00503002370920778 0 -0.011219860847188385 0.0057469316803899408 0 -0.01141120842161979 0.0034156945692000399 0 -0.010387678089703211 0.0042467459204843872 0 -0.011413991741692907 0.0049431641180776075 0 -0.010387678089703211 0.0042467459204843872 0 -0.011413991741692907 0.0049431641180776075 0 -0.0097070159290340279 0.0053459125077955456 0 -0.011219860847188385 0.0057469316803899408 0 -0.010882453685074813 0.0062185270955019854 0 -0.010982704535061481 0.0063980377111777353 0 -0.011007979531834144 0.0067327412864578405 0 -0.010206696218039518 0.0067985212357111868 0 -0.011413991741692907 0.0049431641180776075 0 -0.010206696218039518 0.0067985212357111868 0 -0.0097070159290340279 0.0053459125077955456 0 -0.011329948694784691 0.0066851943790889618 0 -0.011424426961522368 0.0064206782108855581 0 -0.010982704535061481 0.0063980377111777353 0 -0.011329948694784691 0.0066851943790889618 0 -0.010982704535061481 0.0063980377111777353 0 -0.011007979531834144 0.0067327412864578405 0 -0.011329948694784691 0.0066851943790889618 0 -0.011193921428775287 0.0069013868082977801 0 -0.011007979531834144 0.0067327412864578405 0 -0.011290222376899191 0.006974461000931507 0 -0.011329948694784691 0.0066851943790889618 0 -0.011193921428775287 0.0069013868082977801 0 -0.011193921428775287 0.0069013868082977801 0 -0.011007979531834144 0.0067327412864578405 0 -0.011068530244255753 0.0071225926262459098 0 -0.011122845526934993 0.0071052685353670594 0 -0.011193921428775287 0.0069013868082977801 0 -0.011068530244255753 0.0071225926262459098 0 -0.011122845526934993 0.0071052685353670594 0 -0.011290222376899191 0.006974461000931507 0 -0.011193921428775287 0.0069013868082977801 0 -0.011007979531834144 0.0067327412864578405 0 -0.011068530244255753 0.0071225926262459098 0 -0.010206696218039518 0.0067985212357111868 0 -0.011045197646590404 0.0079480829121370711 0 -0.011068530244255753 0.0071225926262459098 0 -0.010206696218039518 0.0067985212357111868 0 -0.0071430698851780907 0.0076109219111135992 0 -0.0095482465470557547 0.0079148111321345593 0 -0.0088309058740909212 0.0066847050418233278 0 -0.010206696218039518 0.0067985212357111868 0 -0.0088309058740909212 0.0066847050418233278 0 -0.0097070159290340279 0.0053459125077955456 0 -0.0095482465470557547 0.0079148111321345593 0 -0.010206696218039518 0.0067985212357111868 0 -0.0088309058740909212 0.0066847050418233278 0 -0.0071430698851780907 0.0076109219111135992 0 -0.0088309058740909212 0.0066847050418233278 0 -0.0074028205140979813 0.0061720960856629812 0 -0.0071430698851780907 0.0076109219111135992 0 -0.0074028205140979813 0.0061720960856629812 0 -0.0059192729711883248 0.006060281430447673 0 -0.0074028205140979813 0.0061720960856629812 0 -0.0083313119767350376 0.0053621272047284169 0 -0.0064759775458142132 0.0051779767800627556 0 -0.0088309058740909212 0.0066847050418233278 0 -0.0074028205140979813 0.0061720960856629812 0 -0.0083313119767350376 0.0053621272047284169 0 -0.007271759967245277 0.0040221891858175061 0 -0.0083313119767350376 0.0053621272047284169 0 -0.0064759775458142132 0.0051779767800627556 0 -0.0089703033184369823 0.0040187758814416285 0 -0.0083313119767350376 0.0053621272047284169 0 -0.0097070159290340279 0.0053459125077955456 0 -0.0088309058740909212 0.0066847050418233278 0 -0.0083313119767350376 0.0053621272047284169 0 -0.0097070159290340279 0.0053459125077955456 0 -0.0046286851662963764 0.005500023403328805 0 -0.0032172816163116846 0.0061608223003606277 0 -0.0034075369821060025 0.0046450476482100579 0 -0.0046286851662963764 0.005500023403328805 0 -0.0064759775458142132 0.0051779767800627556 0 -0.0059192729711883248 0.006060281430447673 0 -0.0046286851662963764 0.005500023403328805 0 -0.0064759775458142132 0.0051779767800627556 0 -0.0051923675748112271 0.003924813583472896 0 -0.0074028205140979813 0.0061720960856629812 0 -0.0064759775458142132 0.0051779767800627556 0 -0.0059192729711883248 0.006060281430447673 0 -0.0071430698851780907 0.0076109219111135992 0 -0.0059192729711883248 0.006060281430447673 0 -0.0043446799785575802 0.0062415595215345367 0 -0.0046286851662963764 0.005500023403328805 0 -0.0059192729711883248 0.006060281430447673 0 -0.0043446799785575802 0.0062415595215345367 0 -0.0065837321646461961 0.0067678137499686732 0 -0.0059129446521287076 0.0066351849716743952 0 -0.0046286851662963764 0.005500023403328805 0 -0.0043446799785575802 0.0062415595215345367 0 -0.0032172816163116846 0.0061608223003606277 0 -0.0025427693695863032 0.0050093221106472033 0 -0.0014961774512258661 0.0040932774344007699 0 -0.0041089681979456089 0.0061401854153394029 0 -0.0043446799785575802 0.0062415595215345367 0 -0.0032172816163116846 0.0061608223003606277 0 -0.001339960787033633 0.0047592299284050076 0 -0.00076298868133875238 0.0020484464182652143 0 0.00066351451711388766 0.004042116694041923 0 -0.001339960787033633 0.0047592299284050076 0 -0.0041089681979456089 0.0061401854153394029 0 -0.00076298868133875238 0.0020484464182652143 0 -0.00076298868133875238 0.0020484464182652143 0 0.0018915244458282761 0.0020876457426593641 0 0.00066351451711388766 0.004042116694041923 0 0.0018915244458282761 0.0020876457426593641 0 0.00066351451711388766 0.004042116694041923 0 0.002793498525955417 0.0036162980222820881 0 -0.0014961774512258661 0.0040932774344007699 0 0.00030665528146268012 0.0026101456959812569 0 -0.00076298868133875238 0.0020484464182652143 0 0.0018915244458282761 0.0020876457426593641 0 0.002370177554966085 0.00044358995273713391 0 -0.0032172816163116846 0.0061608223003606277 0 -0.0034075369821060025 0.0046450476482100579 0 -0.00055766067502240556 0.0045067777661699131 0 -0.0034075369821060025 0.0046450476482100579 0 -0.00055766067502240556 0.0045067777661699131 0 -0.0029416415431230644 0.002787373661046148 0 -0.00055766067502240556 0.0045067777661699131 0 -0.00077280267005792403 0.0015387569899617084 0 -0.0029416415431230644 0.002787373661046148 0 -0.00077280267005792403 0.0015387569899617084 0 -0.0029416415431230644 0.002787373661046148 0 -0.0028907093925615761 0.00061346437422033406 0 -0.0029416415431230644 0.002787373661046148 0 -0.0049929314432570222 0.0020735296496364247 0 -0.0051923675748112271 0.003924813583472896 0 -0.0034075369821060025 0.0046450476482100579 0 -0.0029416415431230644 0.002787373661046148 0 -0.0051923675748112271 0.003924813583472896 0 -0.0046286851662963764 0.005500023403328805 0 -0.0034075369821060025 0.0046450476482100579 0 -0.0051923675748112271 0.003924813583472896 0 -0.007271759967245277 0.0040221891858175061 0 -0.0064759775458142132 0.0051779767800627556 0 -0.0051923675748112271 0.003924813583472896 0 -0.007271759967245277 0.0040221891858175061 0 -0.0051923675748112271 0.003924813583472896 0 -0.0065202849955013865 0.0029098057555007112 0 -0.0049929314432570222 0.0020735296496364247 0 -0.0051923675748112271 0.003924813583472896 0 -0.0065202849955013865 0.0029098057555007112 0 -0.0049929314432570222 0.0020735296496364247 0 -0.0065202849955013865 0.0029098057555007112 0 -0.0072545041070613703 0.001698869232779921 0 -0.0082144684309054423 0.00048853948435056179 0 -0.0072545041070613703 0.001698869232779921 0 -0.0060400742978792034 0.00052484912422480923 0 -0.0049929314432570222 0.0020735296496364247 0 -0.0072545041070613703 0.001698869232779921 0 -0.0060400742978792034 0.00052484912422480923 0 -0.0049929314432570222 0.0020735296496364247 0 -0.0060400742978792034 0.00052484912422480923 0 -0.0028907093925615761 0.00061346437422033406 0 -0.0060400742978792034 0.00052484912422480923 0 -0.0044704839742441211 -0.001355049579666057 0 -0.0028907093925615761 0.00061346437422033406 0 -0.0087812567897121128 -0.00076839966968412316 0 -0.0082144684309054423 0.00048853948435056179 0 -0.0060400742978792034 0.00052484912422480923 0 -0.0087812567897121128 -0.00076839966968412316 0 -0.0060400742978792034 0.00052484912422480923 0 -0.0044704839742441211 -0.001355049579666057 0 -0.0087812567897121128 -0.00076839966968412316 0 -0.0044704839742441211 -0.001355049579666057 0 -0.0063875908368914505 -0.0039854668151438595 0 -0.0044704839742441211 -0.001355049579666057 0 -0.0063875908368914505 -0.0039854668151438595 0 -0.0028407711688615564 -0.0037119391963369658 0 -0.0082321590685259741 -0.00068593522340050072 0 -0.0050964757637569904 -0.0010031445893786317 0 -0.0081971567684599074 -0.00091824584252422838 0 -0.0082321590685259741 -0.00068593522340050072 0 -7.7622498289023429e-05 -0.0029375466794777797 0 -0.0028407711688615564 -0.0037119391963369658 0 -0.00089815607029781965 -0.0013032854371912651 0 -0.0027903799160254304 -0.00096968590638342412 0 -0.0050964757637569904 -0.0010031445893786317 0 -0.0044704839742441211 -0.001355049579666057 0 -0.0028407711688615564 -0.0037119391963369658 0 -0.00089815607029781965 -0.0013032854371912651 0 -0.00089815607029781965 -0.0013032854371912651 0 -0.0028907093925615761 0.00061346437422033406 0 -0.00011024620052880712 0.0001834446484963054 0 -0.0044704839742441211 -0.001355049579666057 0 -0.00089815607029781965 -0.0013032854371912651 0 -0.0028907093925615761 0.00061346437422033406 0 -0.0029416415431230644 0.002787373661046148 0 -0.0049929314432570222 0.0020735296496364247 0 -0.0028907093925615761 0.00061346437422033406 0 -0.00077280267005792403 0.0015387569899617084 0 -0.0028907093925615761 0.00061346437422033406 0 -0.00011024620052880712 0.0001834446484963054 0 -0.00077280267005792403 0.0015387569899617084 0 -0.00011024620052880712 0.0001834446484963054 0 0.0026430884927224462 0.00088140600407836779 0 0.0013596749792993499 -0.00048857261326477506 0 0.0031201937470023262 -0.00011111225609934116 0 0.0026430884927224462 0.00088140600407836779 0 -0.00011024620052880712 0.0001834446484963054 0 0.0013596749792993499 -0.00048857261326477506 0 0.0026430884927224462 0.00088140600407836779 0 0.0013596749792993499 -0.00048857261326477506 0 0.0019922176332966644 -0.00068841711576948371 0 0.0031201937470023262 -0.00011111225609934116 0 -0.00089815607029781965 -0.0013032854371912651 0 -0.00011024620052880712 0.0001834446484963054 0 0.0013596749792993499 -0.00048857261326477506 0 -7.7622498289023429e-05 -0.0029375466794777797 0 -0.00089815607029781965 -0.0013032854371912651 0 0.0012415837798745268 -0.0013412125968789682 0 -0.00089815607029781965 -0.0013032854371912651 0 0.0013596749792993499 -0.00048857261326477506 0 0.0012415837798745268 -0.0013412125968789682 0 0.0013596749792993499 -0.00048857261326477506 0 0.0012415837798745268 -0.0013412125968789682 0 0.0019922176332966644 -0.00068841711576948371 0 0.0012415837798745268 -0.0013412125968789682 0 0.0015131273074502419 -0.0010079553629196963 0 0.0019922176332966644 -0.00068841711576948371 0 0.0012415837798745268 -0.0013412125968789682 0 0.0015780192718514456 -0.0014656266528898496 0 0.0015131273074502419 -0.0010079553629196963 0 -7.7622498289023429e-05 -0.0029375466794777797 0 0.0012415837798745268 -0.0013412125968789682 0 0.0015780192718514456 -0.0014656266528898496 0 -0.0027903799160254304 -0.00096968590638342412 0 -0.0012212124723521697 -0.00078121632292391249 0 0.00063241411047978535 -4.989840899153722e-07 0 0.00029272866165994159 -6.7578681281727006e-05 0 0.0013592506496866025 -0.00044365306044800746 0 0.00029272866165994159 -6.7578681281727006e-05 0 0.0015131273074502419 -0.0010079553629196963 0 0.0013592506496866025 -0.00044365306044800746 0 0.0015780192718514456 -0.0014656266528898496 0 0.00029272866165994159 -6.7578681281727006e-05 0 0.0015131273074502419 -0.0010079553629196963 0 -0.0012212124723521697 -0.00078121632292391249 0 -0.00068061210613877814 -0.00067136161645795693 0 -0.0020671807891624065 0.00033232699622633529 0 0.00029272866165994159 -6.7578681281727006e-05 0 -0.00091112645074447067 -0.00027297455833014936 0 0.0015131273074502419 -0.0010079553629196963 0 0.0019922176332966644 -0.00068841711576948371 0 0.0013592506496866025 -0.00044365306044800746 0 0.0019922176332966644 -0.00068841711576948371 0 0.0013592506496866025 -0.00044365306044800746 0 0.0026697374446849275 -9.3903984334188572e-07 0 0.00063241411047978535 -4.989840899153722e-07 0 0.0013592506496866025 -0.00044365306044800746 0 0.0026697374446849275 -9.3903984334188572e-07 0 0.0019922176332966644 -0.00068841711576948371 0 0.0026697374446849275 -9.3903984334188572e-07 0 0.0031201937470023262 -0.00011111225609934116 0 0.0026697374446849275 -9.3903984334188572e-07 0 0.0031201937470023262 -0.00011111225609934116 0 0.0047059540917221533 2.3483386810850531e-07 0 0.0031201937470023262 -0.00011111225609934116 0 0.0047059540917221533 2.3483386810850531e-07 0 0.0043337004852533265 0.00025200690965608514 0 0.0047059540917221533 2.3483386810850531e-07 0 0.0043337004852533265 0.00025200690965608514 0 0.0067431429117373563 5.8206467655234074e-07 0 0.0043337004852533265 0.00025200690965608514 0 0.0067431429117373563 5.8206467655234074e-07 0 0.0050596950068148303 0.00052259085677218019 0 0.0031201937470023262 -0.00011111225609934116 0 0.0043337004852533265 0.00025200690965608514 0 0.0026430884927224462 0.00088140600407836779 0 0.0026430884927224462 0.00088140600407836779 0 0.004068649570935179 0.00099865608071035431 0 0.0050596950068148303 0.00052259085677218019 0 0.002370177554966085 0.00044358995273713391 0 0.0026430884927224462 0.00088140600407836779 0 0.004068649570935179 0.00099865608071035431 0 -0.00055766067502240556 0.0045067777661699131 0 -0.00077280267005792403 0.0015387569899617084 0 0.0026430884927224462 0.00088140600407836779 0 0.00030665528146268012 0.0026101456959812569 0 0.0012881805861827483 0.0017650594855393978 0 0.0043337004852533265 0.00025200690965608514 0 0.0026430884927224462 0.00088140600407836779 0 0.0050596950068148303 0.00052259085677218019 0 0.004068649570935179 0.00099865608071035431 0 0.006573428432595143 0.0016085743702119737 0 0.0050596950068148303 0.00052259085677218019 0 0.0018915244458282761 0.0020876457426593641 0 0.002370177554966085 0.00044358995273713391 0 0.004068649570935179 0.00099865608071035431 0 0.005034386257799184 0.003118447259321408 0 0.004068649570935179 0.00099865608071035431 0 0.002793498525955417 0.0036162980222820881 0 0.0018915244458282761 0.0020876457426593641 0 0.004068649570935179 0.00099865608071035431 0 0.002793498525955417 0.0036162980222820881 0 0.005034386257799184 0.003118447259321408 0 0.004068649570935179 0.00099865608071035431 0 0.006573428432595143 0.0016085743702119737 0 0.0075658150598879436 0.00075731920638974612 0 0.006573428432595143 0.0016085743702119737 0 0.0072268595354691477 0.00064950150973377562 0 0.006573428432595143 0.0016085743702119737 0 0.0072268595354691477 0.00064950150973377562 0 0.0050596950068148303 0.00052259085677218019 0 0.0087792677914093793 9.8372784212656196e-07 0 0.0072268595354691477 0.00064950150973377562 0 0.0067431429117373563 5.8206467655234074e-07 0 0.0087792677914093793 9.8372784212656196e-07 0 0.0082464345162147866 0.00038637626903657857 0 0.0072268595354691477 0.00064950150973377562 0 0.0072268595354691477 0.00064950150973377562 0 0.0067431429117373563 5.8206467655234074e-07 0 0.0050596950068148303 0.00052259085677218019 0 -0.0144590866795044 -0.0053884228081298524 0 -0.014413376773064018 -0.0054004370087715825 0 -0.014466816805435538 -0.0054142991070285588 0 -0.014413376773064018 -0.0054004370087715825 0 -0.014466816805435538 -0.0054142991070285588 0 -0.014395732094341552 -0.0054297026494930971 0 -0.014466816805435538 -0.0054142991070285588 0 -0.014395732094341552 -0.0054297026494930971 0 -0.014452605144188167 -0.005459380368068866 0 -0.014466816805435538 -0.0054142991070285588 0 -0.014505492761540881 -0.0053919776318416979 0 -0.014541854809471984 -0.0054349458062689475 0 -0.014505492761540881 -0.0053919776318416979 0 -0.014541854809471984 -0.0054349458062689475 0 -0.014557803878371838 -0.0053940282416179179 0 -0.014505492761540881 -0.0053919776318416979 0 -0.014525868614873469 -0.0053622767778018499 0 -0.014557803878371838 -0.0053940282416179179 0 -0.014482661628342525 -0.0053751351441736085 0 -0.014505492761540881 -0.0053919776318416979 0 -0.014525868614873469 -0.0053622767778018499 0 -0.0144590866795044 -0.0053884228081298524 0 -0.014482661628342525 -0.0053751351441736085 0 -0.014505492761540881 -0.0053919776318416979 0 -0.0144590866795044 -0.0053884228081298524 0 -0.014466816805435538 -0.0054142991070285588 0 -0.014505492761540881 -0.0053919776318416979 0 -0.014525868614873469 -0.0053622767778018499 0 -0.014438681680702654 -0.005358848744866529 0 -0.014569257328385951 -0.0053461072318713851 0 0.007609919573845483 -0.0046362862041006226 0 0.0074594917072205932 -0.0045844554256724169 0 0.0077540093744763085 -0.0045856407181253502 0 -0.0017748490208952558 -0.0036257991580116574 0 -0.0026675783160404194 -0.0050421879689383116 0 -0.014482661628342525 -0.0053751351441736085 0 -0.014525868614873469 -0.0053622767778018499 0 -0.014438681680702654 -0.005358848744866529 0 0.007609919573845483 -0.0046362862041006226 0 0.0077021890988083833 -0.0046801732754180115 0 0.0076444985640406766 -0.0047201256905310372 0 0.007609919573845483 -0.0046362862041006226 0 0.007554700781332707 -0.0047342662970155224 0 0.0076444985640406766 -0.0047201256905310372 0 0.007609919573845483 -0.0046362862041006226 0 0.0075276094866125638 -0.0046268853078441181 0 0.0074594917072205932 -0.0045844554256724169 0 0.007609919573845483 -0.0046362862041006226 0 0.0075276094866125638 -0.0046268853078441181 0 0.007554700781332707 -0.0047342662970155224 0 0.0075276094866125638 -0.0046268853078441181 0 0.0074994963492103191 -0.0046820161748388715 0 0.007554700781332707 -0.0047342662970155224 0 0.0075276094866125638 -0.0046268853078441181 0 0.0074994963492103191 -0.0046820161748388715 0 0.0074860678703446608 -0.0046238763682978105 0 0.0074607403311412815 -0.0046159905503577441 0 0.0074594917072205932 -0.0045844554256724169 0 0.0073451931004814624 -0.0045665123828641258 0 0.0074994963492103191 -0.0046820161748388715 0 0.0074607403311412815 -0.0046159905503577441 0 0.0074860678703446608 -0.0046238763682978105 0 0.0075276094866125638 -0.0046268853078441181 0 0.0074860678703446608 -0.0046238763682978105 0 0.0074594917072205932 -0.0045844554256724169 0 0.0074607403311412815 -0.0046159905503577441 0 0.0074860678703446608 -0.0046238763682978105 0 0.0074594917072205932 -0.0045844554256724169 0 -0.0144590866795044 -0.0053884228081298524 0 -0.014413376773064018 -0.0054004370087715825 0 -0.014438681680702654 -0.005358848744866529 0 -0.0144590866795044 -0.0053884228081298524 0 -0.014482661628342525 -0.0053751351441736085 0 -0.014438681680702654 -0.005358848744866529 0 -0.0017748490208952558 -0.0036257991580116574 0 0.0078789649594940923 -0.0010459746718989558 0 -0.014413376773064018 -0.0054004370087715825 0 -0.014438681680702654 -0.005358848744866529 0 -0.014325174224327221 -0.0054287056167662759 0 0.0078789649594940923 -0.0010459746718989558 0 0.014694993148011743 -0.0032013596432525497 0 0.0074607403311412815 -0.0046159905503577441 0 0.0073451931004814624 -0.0045665123828641258 0 0.0074269113435258827 -0.0046638181395383645 0 0.02787808440938716 -0.00094636741398771969 0 0.02812743530701891 -0.00070430400935544946 0 0.028323353681685745 -0.0008651025083583273 0 0.0078789649594940923 -0.0010459746718989558 0 0.016586109913443232 0.00049351099629668346 0 0.0078789649594940923 -0.0010459746718989558 0 0.0010674191681114028 0.0009957352136099485 0 -0.014325174224327221 -0.0054287056167662759 0 -0.014345521295933807 -0.0054654424469677085 0 -0.014381609066398092 -0.0055104292975891355 0 -0.014325174224327221 -0.0054287056167662759 0 -0.014395732094341552 -0.0054297026494930971 0 -0.014345521295933807 -0.0054654424469677085 0 -0.014413376773064018 -0.0054004370087715825 0 -0.014325174224327221 -0.0054287056167662759 0 -0.014395732094341552 -0.0054297026494930971 0 -0.014395732094341552 -0.0054297026494930971 0 -0.014345521295933807 -0.0054654424469677085 0 -0.014452605144188167 -0.005459380368068866 0 -0.014345521295933807 -0.0054654424469677085 0 -0.014391516062898716 -0.0054861856778223314 0 -0.014452605144188167 -0.005459380368068866 0 -0.014345521295933807 -0.0054654424469677085 0 -0.014282034641350609 -0.0054289372670442374 0 -0.014412375506716481 -0.005457523436248622 0 -0.014345521295933807 -0.0054654424469677085 0 -0.014381609066398092 -0.0055104292975891355 0 -0.014412375506716481 -0.005457523436248622 0 -0.014282034641350609 -0.0054289372670442374 0 -0.014412375506716481 -0.005457523436248622 0 -0.014530686440830044 -0.0052572011161426012 0 -0.014282034641350609 -0.0054289372670442374 0 -0.014391516062898716 -0.0054861856778223314 0 -0.014421246718804914 -0.0056031245566240248 0 -0.014345521295933807 -0.0054654424469677085 0 -0.014282034641350609 -0.0054289372670442374 0 -0.014391516062898716 -0.0054861856778223314 0 -0.014391516062898716 -0.0054861856778223314 0 -0.014540891179231399 -0.0055792387308994809 0 -0.014421246718804914 -0.0056031245566240248 0 -0.014391516062898716 -0.0054861856778223314 0 -0.014540891179231399 -0.0055792387308994809 0 -0.014452605144188167 -0.005459380368068866 0 -0.014466816805435538 -0.0054142991070285588 0 -0.014452605144188167 -0.005459380368068866 0 -0.014541854809471984 -0.0054349458062689475 0 -0.014452605144188167 -0.005459380368068866 0 -0.014541854809471984 -0.0054349458062689475 0 -0.014607337786826028 -0.0055086771598140735 0 -0.014540891179231399 -0.0055792387308994809 0 -0.014452605144188167 -0.005459380368068866 0 -0.014607337786826028 -0.0055086771598140735 0 -0.014540891179231399 -0.0055792387308994809 0 -0.014607337786826028 -0.0055086771598140735 0 -0.014681438203365827 -0.0055988690413139282 0 -0.014607337786826028 -0.0055086771598140735 0 -0.014736592048550518 -0.0055324541380455186 0 -0.014681438203365827 -0.0055988690413139282 0 -0.014908939233637343 -0.006351676449523432 0 -0.014711831735331806 -0.0063251002449845285 0 -0.01484004666233614 -0.0062160791066264119 0 -0.014908939233637343 -0.006351676449523432 0 -0.014711831735331806 -0.0063251002449845285 0 -0.014835242848314488 -0.0065764862533150212 0 -0.014736592048550518 -0.0055324541380455186 0 -0.014631747453366366 -0.0054454310777847055 0 -0.014706739355831269 -0.0054148565616099157 0 -0.011015172873689579 -0.0055771667212753222 0 -0.0072668535599495375 -0.0063357346410227089 0 -0.014607337786826028 -0.0055086771598140735 0 -0.014736592048550518 -0.0055324541380455186 0 -0.014631747453366366 -0.0054454310777847055 0 -0.014541854809471984 -0.0054349458062689475 0 -0.014607337786826028 -0.0055086771598140735 0 -0.014631747453366366 -0.0054454310777847055 0 -0.0026168435525718283 -0.0048272741840229665 0 -0.0023544387116629802 -0.0053663027023740919 0 -0.014656494832046273 -0.0063115222324462809 0 -0.014711831735331806 -0.0063251002449845285 0 -0.014691805867289257 -0.0062609386593322153 0 -0.014656494832046273 -0.0063115222324462809 0 -0.014711831735331806 -0.0063251002449845285 0 -0.014731228035456522 -0.0062447474830328691 0 -0.014711831735331806 -0.0063251002449845285 0 -0.014691805867289257 -0.0062609386593322153 0 -0.01452337995692011 -0.0062015338356161513 0 -0.010271964239044034 -0.0077793720477879521 0 -0.0072668535599495375 -0.0063357346410227089 0 0.0081290069045360236 -0.002809122840887177 0 0.0076645565886945578 -0.0036420875537938198 0 0.0081585370582033662 -0.0035158022047221821 0 0.0076645565886945578 -0.0036420875537938198 0 0.0081585370582033662 -0.0035158022047221821 0 0.0080293383562084659 -0.0040030551642410575 0 0.0084058544563204527 -0.0038530111227260671 0 0.0081585370582033662 -0.0035158022047221821 0 0.0080293383562084659 -0.0040030551642410575 0 0.0076645565886945578 -0.0036420875537938198 0 0.0080293383562084659 -0.0040030551642410575 0 0.0076801435531880322 -0.0042146196096413679 0 0.008396641549434692 -0.0041831056789265152 0 0.0080293383562084659 -0.0040030551642410575 0 0.0080072262891273931 -0.0045150538301885748 0 0.0080293383562084659 -0.0040030551642410575 0 0.0076801435531880322 -0.0042146196096413679 0 0.0080072262891273931 -0.0045150538301885748 0 -0.0023544387116629802 -0.0053663027023740919 0 -0.0010820844199631429 -0.0057259216535379678 0 -0.014691805867289257 -0.0062609386593322153 0 -0.014568399985140479 -0.0060606427119054701 0 -0.01452337995692011 -0.0062015338356161513 0 0.0076645565886945578 -0.0036420875537938198 0 0.0076801435531880322 -0.0042146196096413679 0 0.0071686785899940679 -0.0045309381036834576 0 0.0075118450359211554 -0.0044318847250570982 0 0.007952987922132268 -0.0047097262467948832 0 0.0082090929208334783 -0.0044304552388785738 0 -0.0010820844199631429 -0.0057259216535379678 0 0.0056242981890124747 -0.0052086303749293746 0 0.0076801435531880322 -0.0042146196096413679 0 0.0071686785899940679 -0.0045309381036834576 0 0.0080072262891273931 -0.0045150538301885748 0 0.0075118450359211554 -0.0044318847250570982 0 0.0072031838576679039 -0.00502957347684825 0 0.0076774538713568772 -0.0048638936394772977 0 0.0075118450359211554 -0.0044318847250570982 0 0.007952987922132268 -0.0047097262467948832 0 0.0076774538713568772 -0.0048638936394772977 0 0.007952987922132268 -0.0047097262467948832 0 0.0082347671224490479 -0.0047683098757810233 0 0.0082090929208334783 -0.0044304552388785738 0 0.0085249362656853473 -0.0046052120689594979 0 0.0082347671224490479 -0.0047683098757810233 0 0.0082090929208334783 -0.0044304552388785738 0 -0.014631747453366366 -0.0054454310777847055 0 -0.014630021024810232 -0.0053817033107324179 0 -0.014706739355831269 -0.0054148565616099157 0 -0.014630021024810232 -0.0053817033107324179 0 -0.014557803878371838 -0.0053940282416179179 0 -0.014602791448525344 -0.0053175293407493286 0 -0.014525868614873469 -0.0053622767778018499 0 -0.014557803878371838 -0.0053940282416179179 0 -0.014569257328385951 -0.0053461072318713851 0 -0.0043890579771944391 -0.0040000978199227584 0 -0.0026675783160404194 -0.0050421879689383116 0 -0.014631747453366366 -0.0054454310777847055 0 -0.014630021024810232 -0.0053817033107324179 0 -0.014557803878371838 -0.0053940282416179179 0 -0.014541854809471984 -0.0054349458062689475 0 -0.014631747453366366 -0.0054454310777847055 0 -0.014557803878371838 -0.0053940282416179179 0 -0.0072668535599495375 -0.0063357346410227089 0 -0.0035703657970744588 -0.0055127924199526663 0 -0.014630021024810232 -0.0053817033107324179 0 -0.014706739355831269 -0.0054148565616099157 0 -0.014633913362371216 -0.0053192186038644217 0 -0.014568399985140479 -0.0060606427119054701 0 -0.01452337995692011 -0.0062015338356161513 0 -0.014529364079500067 -0.0060597722068143345 0 -0.0072668535599495375 -0.0063357346410227089 0 -0.0031341420276343136 -0.0054427266188333918 0 -0.0054419420339137112 -0.0054627500286961962 0 -0.0054292534543141308 -0.0055004925997482051 0 -0.0054604679480394847 -0.0055001538815099985 0 -0.0010820844199631429 -0.0057259216535379678 0 0.0017631594377783043 -0.0051523924903450567 0 -0.00060867716905468384 -0.0056621486002750403 0 -0.00042977650293429467 -0.0056762035763853252 0 -0.0004778066382935498 -0.0057557236453665145 0 -0.00084074898022550569 -0.0057659257781958202 0 -0.00074819336705628302 -0.0057637190597393693 0 -0.00063533674328419159 -0.0053737693640995192 0 -0.00074819336705628302 -0.0057637190597393693 0 -0.00060867716905468384 -0.0056621486002750403 0 -0.00063533674328419159 -0.0053737693640995192 0 -0.00074819336705628302 -0.0057637190597393693 0 -0.00060867716905468384 -0.0056621486002750403 0 -0.0004778066382935498 -0.0057557236453665145 0 -0.0035703657970744588 -0.0055127924199526663 0 -0.0031341420276343136 -0.0054427266188333918 0 -0.0010820844199631429 -0.0057259216535379678 0 -0.0035703657970744588 -0.0055127924199526663 0 -0.00060867716905468384 -0.0056621486002750403 0 -0.00042977650293429467 -0.0056762035763853252 0 -0.00063533674328419159 -0.0053737693640995192 0 0.0077842012697959574 -0.0046250239688398753 0 0.0077540093744763085 -0.0045856407181253502 0 0.0077021890988083833 -0.0046801732754180115 0 -0.0016253274521113598 -0.0049932328987477882 0 -0.0031341420276343136 -0.0054427266188333918 0 -0.0031341420276343136 -0.0054427266188333918 0 -0.0026675783160404194 -0.0050421879689383116 0 -0.014630021024810232 -0.0053817033107324179 0 -0.014633913362371216 -0.0053192186038644217 0 -0.014602791448525344 -0.0053175293407493286 0 -0.00091922671208049948 -0.0059393908050635038 0 -3.8228008028862061e-05 -0.0044522728625546832 0 -0.0019393890743631098 -0.0044815090061356621 0 -0.0016253274521113598 -0.0049932328987477882 0 -0.0026675783160404194 -0.0050421879689383116 0 0.007609919573845483 -0.0046362862041006226 0 0.0077540093744763085 -0.0045856407181253502 0 0.0077021890988083833 -0.0046801732754180115 0 0.0077021890988083833 -0.0046801732754180115 0 0.0077111985157836595 -0.0048356634083947967 0 0.0076444985640406766 -0.0047201256905310372 0 0.0078926273994964959 -0.00462045974616583 0 0.007750509628234213 -0.0048875800783122134 0 0.00790752029451465 -0.0048848019946965337 0 0.0077842012697959574 -0.0046250239688398753 0 0.0077021890988083833 -0.0046801732754180115 0 0.0077111985157836595 -0.0048356634083947967 0 -0.0016253274521113598 -0.0049932328987477882 0 0.0023461011498053601 -0.0035181325188051167 0 0.007750509628234213 -0.0048875800783122134 0 0.00790752029451465 -0.0048848019946965337 0 0.007841169195490761 -0.00502184196915232 0 0.0078926273994964959 -0.00462045974616583 0 0.00790752029451465 -0.0048848019946965337 0 0.0080695146129335215 -0.0048537550150009705 0 -0.0016253274521113598 -0.0049932328987477882 0 0.0017631594377783043 -0.0051523924903450567 0 0.0017631594377783043 -0.0051523924903450567 0 0.0051271664085397288 -0.0058408278829025313 0 0.00790752029451465 -0.0048848019946965337 0 0.0080695146129335215 -0.0048537550150009705 0 0.0079970722280526142 -0.005038280330116717 0 0.0017631594377783043 -0.0051523924903450567 0 0.0024005262504640272 -0.0046968602640487947 0 0.0079970722280526142 -0.005038280330116717 0 0.0081165929391562412 -0.0052041101516931343 0 0.0082633615914323461 -0.0050865656302041201 0 0.0080887590631585991 -0.004847446425892396 0 0.0079970722280526142 -0.005038280330116717 0 0.0082633615914323461 -0.0050865656302041201 0 0.0081165929391562412 -0.0052041101516931343 0 0.0082633615914323461 -0.0050865656302041201 0 0.0081776258260782362 -0.0053865803392370345 0 0.0079970722280526142 -0.005038280330116717 0 0.0081165929391562412 -0.0052041101516931343 0 0.0080242395706806146 -0.0052948908031368643 0 0.0079970722280526142 -0.005038280330116717 0 0.00783610462141697 -0.0052028171179845208 0 0.0080242395706806146 -0.0052948908031368643 0 0.00783610462141697 -0.0052028171179845208 0 0.0077525507695872988 -0.0050635862930818931 0 0.007841169195490761 -0.00502184196915232 0 0.00783610462141697 -0.0052028171179845208 0 0.0077525507695872988 -0.0050635862930818931 0 0.0075849548591855392 -0.0051490952108186258 0 0.007750509628234213 -0.0048875800783122134 0 0.0077525507695872988 -0.0050635862930818931 0 0.007841169195490761 -0.00502184196915232 0 0.00790752029451465 -0.0048848019946965337 0 0.0079970722280526142 -0.005038280330116717 0 0.007841169195490761 -0.00502184196915232 0 0.0079970722280526142 -0.005038280330116717 0 0.00783610462141697 -0.0052028171179845208 0 0.007841169195490761 -0.00502184196915232 0 0.0086912759221784933 -0.0051119816815460937 0 0.0081253178119453026 -0.0050496951205229335 0 0.0084364946413015406 -0.0053683723210362182 0 0.0085582372996055624 -0.0048731053832573911 0 0.0082347671224490479 -0.0047683098757810233 0 0.0081253178119453026 -0.0050496951205229335 0 0.007952987922132268 -0.0047097262467948832 0 0.0082347671224490479 -0.0047683098757810233 0 0.0081253178119453026 -0.0050496951205229335 0 0.0081253178119453026 -0.0050496951205229335 0 0.0077356620256045236 -0.0051942636459883541 0 0.0080775099235371756 -0.0054883230020439733 0 0.0072031838576679039 -0.00502957347684825 0 0.0077356620256045236 -0.0051942636459883541 0 0.00751308255032719 -0.0054619576764735932 0 0.0072031838576679039 -0.00502957347684825 0 0.0077356620256045236 -0.0051942636459883541 0 0.0076774538713568772 -0.0048638936394772977 0 0.0081253178119453026 -0.0050496951205229335 0 0.0077356620256045236 -0.0051942636459883541 0 0.0076774538713568772 -0.0048638936394772977 0 0.007952987922132268 -0.0047097262467948832 0 0.0081253178119453026 -0.0050496951205229335 0 0.0076774538713568772 -0.0048638936394772977 0 0.00751308255032719 -0.0054619576764735932 0 0.0080775099235371756 -0.0054883230020439733 0 0.0078207949235192635 -0.0059010131058635827 0 0.0077356620256045236 -0.0051942636459883541 0 0.00751308255032719 -0.0054619576764735932 0 0.0080775099235371756 -0.0054883230020439733 0 0.0051271664085397288 -0.0058408278829025313 0 0.0072494096636556314 -0.0058658621237585567 0 0.0085788200440276834 -0.0056814638283374666 0 0.0080775099235371756 -0.0054883230020439733 0 0.0084364946413015406 -0.0053683723210362182 0 0.0085788200440276834 -0.0056814638283374666 0 0.0080775099235371756 -0.0054883230020439733 0 0.0078207949235192635 -0.0059010131058635827 0 0.0081253178119453026 -0.0050496951205229335 0 0.0080775099235371756 -0.0054883230020439733 0 0.0084364946413015406 -0.0053683723210362182 0 0.0091006717440322744 -0.005504990116914619 0 0.0088548771084074364 -0.0054247356067970908 0 0.0089497731181733819 -0.0055855821333601757 0 0.0085397200230775613 -0.0055506090785578041 0 0.0072494096636556314 -0.0058658621237585567 0 0.0092379274986479302 -0.0053805609460440013 0 0.0091006717440322744 -0.005504990116914619 0 0.0088548771084074364 -0.0054247356067970908 0 0.0087707764823384427 -0.0053083342000635522 0 0.0086311562694088607 -0.0057028599050007707 0 0.0089497731181733819 -0.0055855821333601757 0 0.0082633615914323461 -0.0050865656302041201 0 0.0084205440191322256 -0.0053144584864188056 0 0.0081776258260782362 -0.0053865803392370345 0 0.0087707764823384427 -0.0053083342000635522 0 0.0086311562694088607 -0.0057028599050007707 0 0.0083878316839894555 -0.0053960763882254167 0 0.0072494096636556314 -0.0058658621237585567 0 0.0074155449274473772 -0.0059309636433095923 0 0.0072494096636556314 -0.0058658621237585567 0 0.0078098087607618655 -0.0056627970386929176 0 0.0083551929752577001 -0.0059834005187583902 0 0.0089222192699056589 -0.0059538592471578737 0 0.0086311562694088607 -0.0057028599050007707 0 0.0089222192699056589 -0.0059538592471578737 0 0.0086311562694088607 -0.0057028599050007707 0 0.0089497731181733819 -0.0055855821333601757 0 0.0092519852453820488 -0.0059778446594917628 0 0.0089222192699056589 -0.0059538592471578737 0 0.0091571357718968488 -0.0057074790461955046 0 0.0089222192699056589 -0.0059538592471578737 0 0.0089497731181733819 -0.0055855821333601757 0 0.0091571357718968488 -0.0057074790461955046 0 0.0091006717440322744 -0.005504990116914619 0 0.0089497731181733819 -0.0055855821333601757 0 0.0091571357718968488 -0.0057074790461955046 0 0.00783610462141697 -0.0052028171179845208 0 0.0078219065275006664 -0.0054776788152611769 0 0.0075849548591855392 -0.0051490952108186258 0 0.0079709356137429837 -0.0054881777268163843 0 0.0079151642453530718 -0.0053623046879170176 0 0.0080242395706806146 -0.0052948908031368643 0 0.0079709356137429837 -0.0054881777268163843 0 0.0078219065275006664 -0.0054776788152611769 0 0.0079151642453530718 -0.0053623046879170176 0 0.00783610462141697 -0.0052028171179845208 0 0.0078219065275006664 -0.0054776788152611769 0 0.0079151642453530718 -0.0053623046879170176 0 0.00783610462141697 -0.0052028171179845208 0 0.0079151642453530718 -0.0053623046879170176 0 0.0080242395706806146 -0.0052948908031368643 0 0.0081165929391562412 -0.0052041101516931343 0 0.0080242395706806146 -0.0052948908031368643 0 0.0081776258260782362 -0.0053865803392370345 0 0.0079709356137429837 -0.0054881777268163843 0 0.0080242395706806146 -0.0052948908031368643 0 0.0081776258260782362 -0.0053865803392370345 0 0.0078967255539967775 -0.0056249337006833528 0 0.0078098087607618655 -0.0056627970386929176 0 0.0083551929752577001 -0.0059834005187583902 0 0.0086311562694088607 -0.0057028599050007707 0 0.0083878316839894555 -0.0053960763882254167 0 0.0083551929752577001 -0.0059834005187583902 0 0.0079709356137429837 -0.0054881777268163843 0 0.0083878316839894555 -0.0053960763882254167 0 0.0083551929752577001 -0.0059834005187583902 0 0.0079709356137429837 -0.0054881777268163843 0 0.0078219065275006664 -0.0054776788152611769 0 0.017185926741773449 -0.0029574083599269423 0 0.017223428277395127 -0.0029448528634767584 0 0.026008921745224355 9.6936702230779695e-06 0 0.026500816371395959 -0.00047861568688116403 0 0.026557527228633217 -7.0962971796494109e-05 0 0.026500816371395959 -0.00047861568688116403 0 0.026557527228633217 -7.0962971796494109e-05 0 0.026834639713964149 -0.00035719357194438531 0 0.026768702356475483 0.00027747342133284023 0 0.026557527228633217 -7.0962971796494109e-05 0 0.026834639713964149 -0.00035719357194438531 0 0.027254756921397474 0.0002952843484019331 0 0.027091350619520241 8.8429915068053845e-06 0 0.027386589653429484 -9.8753776824936674e-05 0 0.027254756921397474 0.0002952843484019331 0 0.027386589653429484 -9.8753776824936674e-05 0 0.027601302789328461 0.00012388270254183931 0 0.027386589653429484 -9.8753776824936674e-05 0 0.027231364177906441 -0.00043138433393692378 0 0.027641308842470947 -0.00027612350654445571 0 0.027386589653429484 -9.8753776824936674e-05 0 0.027641308842470947 -0.00027612350654445571 0 0.027601302789328461 0.00012388270254183931 0 0.017223428277395127 -0.0029448528634767584 0 0.017307441439737656 -0.0029157246061959573 0 0.027091350619520241 8.8429915068053845e-06 0 0.027386589653429484 -9.8753776824936674e-05 0 0.027231364177906441 -0.00043138433393692378 0 0.026500816371395959 -0.00047861568688116403 0 0.026834639713964149 -0.00035719357194438531 0 0.026915197307596145 -0.00092847440079607232 0 0.0078219065275006664 -0.0054776788152611769 0 0.0074888399364653512 -0.0050942056339895606 0 0.0075849548591855392 -0.0051490952108186258 0 0.022078237170531458 -0.0012135858936360591 0 0.017307441439737656 -0.0029157246061959573 0 0.007750509628234213 -0.0048875800783122134 0 0.0077525507695872988 -0.0050635862930818931 0 0.0075849548591855392 -0.0051490952108186258 0 0.0077111985157836595 -0.0048356634083947967 0 0.007573987709247213 -0.0049301911046555702 0 0.0075849548591855392 -0.0051490952108186258 0 0.0023461011498053601 -0.0035181325188051167 0 0.0033497656414212262 -0.0033871093247875234 0 0.017307441439737656 -0.0029157246061959573 0 0.015088012249518702 -0.0032593917730061386 0 0.007573987709247213 -0.0049301911046555702 0 0.0074888399364653512 -0.0050942056339895606 0 0.0074522233868188894 -0.0048368105074163619 0 0.007573987709247213 -0.0049301911046555702 0 0.0074888399364653512 -0.0050942056339895606 0 0.0075849548591855392 -0.0051490952108186258 0 0.027231364177906441 -0.00043138433393692378 0 0.027572170635271152 -0.00070280010160415961 0 0.027641308842470947 -0.00027612350654445571 0 0.017307441439737656 -0.0029157246061959573 0 0.014694993148011743 -0.0032013596432525497 0 0.0075500153049815263 -0.0047661726195883537 0 0.0075114026330007277 -0.0046794253888327846 0 0.0074269113435258827 -0.0046638181395383645 0 0.0074607403311412815 -0.0046159905503577441 0 0.0075114026330007277 -0.0046794253888327846 0 0.0074269113435258827 -0.0046638181395383645 0 0.0074994963492103191 -0.0046820161748388715 0 0.0074607403311412815 -0.0046159905503577441 0 0.0074522233868188894 -0.0048368105074163619 0 0.014391625092852779 -0.0033533699128283525 0 0.015088012249518702 -0.0032593917730061386 0 0.0074994963492103191 -0.0046820161748388715 0 0.0074522233868188894 -0.0048368105074163619 0 0.007554700781332707 -0.0047342662970155224 0 0.0077111985157836595 -0.0048356634083947967 0 0.007554700781332707 -0.0047342662970155224 0 0.0076444985640406766 -0.0047201256905310372 0 0.0077111985157836595 -0.0048356634083947967 0 0.007573987709247213 -0.0049301911046555702 0 0.007554700781332707 -0.0047342662970155224 0 0.007573987709247213 -0.0049301911046555702 0 0.0074522233868188894 -0.0048368105074163619 0 0.007554700781332707 -0.0047342662970155224 0 0.02787808440938716 -0.00094636741398771969 0 0.02812743530701891 -0.00070430400935544946 0 0.027572170635271152 -0.00070280010160415961 0 0.02812743530701891 -0.00070430400935544946 0 0.027572170635271152 -0.00070280010160415961 0 0.028034192631217262 -0.00045083405243040485 0 0.027572170635271152 -0.00070280010160415961 0 0.028034192631217262 -0.00045083405243040485 0 0.027641308842470947 -0.00027612350654445571 0 0.028034192631217262 -0.00045083405243040485 0 0.028013038270671524 -5.1539176698541787e-05 0 0.028261619916688671 -0.00024369560207095599 0 0.028034192631217262 -0.00045083405243040485 0 0.027641308842470947 -0.00027612350654445571 0 0.028013038270671524 -5.1539176698541787e-05 0 0.027641308842470947 -0.00027612350654445571 0 0.027601302789328461 0.00012388270254183931 0 0.028013038270671524 -5.1539176698541787e-05 0 0.027891852462945895 0.00027100158101569849 0 0.027601302789328461 0.00012388270254183931 0 0.028013038270671524 -5.1539176698541787e-05 0 0.028235493532085081 0.00041589042959385846 0 0.027891852462945895 0.00027100158101569849 0 0.028013038270671524 -5.1539176698541787e-05 0 0.028235493532085081 0.00041589042959385846 0 0.028013038270671524 -5.1539176698541787e-05 0 0.028495166595246722 -5.462269052641363e-05 0 0.028495166595246722 -5.462269052641363e-05 0 0.028261619916688671 -0.00024369560207095599 0 0.02848529787558976 -0.00040268192571343977 0 0.028013038270671524 -5.1539176698541787e-05 0 0.028495166595246722 -5.462269052641363e-05 0 0.028261619916688671 -0.00024369560207095599 0 0.028495166595246722 -5.462269052641363e-05 0 0.028773385052685906 -0.00023342141179695151 0 0.02848529787558976 -0.00040268192571343977 0 0.028495166595246722 -5.462269052641363e-05 0 0.028934077721868144 6.346461270679234e-05 0 0.028773385052685906 -0.00023342141179695151 0 0.028692379505892117 0.00037623634689263192 0 0.028495166595246722 -5.462269052641363e-05 0 0.028934077721868144 6.346461270679234e-05 0 0.028959272481610461 -0.00027241795650413193 0 0.029094775186423848 -0.00043639005147832208 0 0.028934077721868144 6.346461270679234e-05 0 0.028894761984331621 -0.00023559144996488179 0 0.028773385052685906 -0.00023342141179695151 0 0.029754647193084221 0.00055183763600480894 0 0.028934077721868144 6.346461270679234e-05 0 0.029687753853201871 -0.00029829319374700296 0 0.028894761984331621 -0.00023559144996488179 0 0.028812500113788515 -0.00045280298254446634 0 0.028897333129443113 -0.00041166869650013401 0 0.028894761984331621 -0.00023559144996488179 0 0.028773385052685906 -0.00023342141179695151 0 0.028812500113788515 -0.00045280298254446634 0 0.028773385052685906 -0.00023342141179695151 0 0.028812500113788515 -0.00045280298254446634 0 0.02848529787558976 -0.00040268192571343977 0 0.028812500113788515 -0.00045280298254446634 0 0.028509126475695958 -0.00062428671856243595 0 0.028664357121423938 -0.00071089823364953967 0 0.02812743530701891 -0.00070430400935544946 0 0.028509126475695958 -0.00062428671856243595 0 0.02848529787558976 -0.00040268192571343977 0 0.028034192631217262 -0.00045083405243040485 0 0.028261619916688671 -0.00024369560207095599 0 0.02848529787558976 -0.00040268192571343977 0 0.02812743530701891 -0.00070430400935544946 0 0.028034192631217262 -0.00045083405243040485 0 0.02848529787558976 -0.00040268192571343977 0 0.028812500113788515 -0.00045280298254446634 0 0.028509126475695958 -0.00062428671856243595 0 0.02848529787558976 -0.00040268192571343977 0 0.031313981198986818 -2.0795405954625127e-05 0 0.030965092654465336 -4.9460951307933343e-06 0 0.031442449854910133 -2.704960786414151e-05 0 0.031313981198986818 -2.0795405954625127e-05 0 0.031323779910891303 0.00020054034073635176 0 0.030965092654465336 -4.9460951307933343e-06 0 0.031010724988184277 0.00037965236178923466 0 0.031329220487423724 0.00049211081147638026 0 0.031323779910891303 0.00020054034073635176 0 0.030407818432429765 0.00030500142637713656 0 0.031010724988184277 0.00037965236178923466 0 0.030965092654465336 -4.9460951307933343e-06 0 0.031010724988184277 0.00037965236178923466 0 0.031323779910891303 0.00020054034073635176 0 0.030965092654465336 -4.9460951307933343e-06 0 0.030407818432429765 0.00030500142637713656 0 0.029687753853201871 -0.00029829319374700296 0 0.030284659240961482 -0.00059753903754951733 0 0.030407818432429765 0.00030500142637713656 0 0.030777513891476736 -0.00035601913357373525 0 0.030284659240961482 -0.00059753903754951733 0 0.030777513891476736 -0.00035601913357373525 0 0.030284659240961482 -0.00059753903754951733 0 0.030722869071129838 -0.00078371619216768558 0 0.029909232054359511 -0.00036959443583876108 0 0.029768339758180863 -0.00073795764122708371 0 0.029094775186423848 -0.00043639005147832208 0 0.029196256927380926 -0.00074332283488123645 0 0.028812500113788515 -0.00045280298254446634 0 0.028897333129443113 -0.00041166869650013401 0 0.028857163584590638 -0.00047195448884215427 0 0.028812500113788515 -0.00045280298254446634 0 0.028857163584590638 -0.00047195448884215427 0 0.028831344110612438 -0.00055672848622293554 0 0.028857163584590638 -0.00047195448884215427 0 0.028780275355131994 -0.0005124389936718445 0 0.028724846568709626 -0.00043515668780181688 0 0.028857163584590638 -0.00047195448884215427 0 0.028724846568709626 -0.00043515668780181688 0 0.028804730047498926 -0.00040482856744472357 0 0.028897333129443113 -0.00041166869650013401 0 0.028857163584590638 -0.00047195448884215427 0 0.028780275355131994 -0.0005124389936718445 0 0.029196256927380926 -0.00074332283488123645 0 0.028876331586945914 -0.0010469592829614903 0 0.029768339758180863 -0.00073795764122708371 0 0.028461303470739812 -0.0012399976308546832 0 0.030777513891476736 -0.00035601913357373525 0 0.030722869071129838 -0.00078371619216768558 0 0.030968396284558445 -0.00077552877193551957 0 0.028876331586945914 -0.0010469592829614903 0 0.027216718350009494 -0.0010123948415335763 0 0.028780275355131994 -0.0005124389936718445 0 0.028724846568709626 -0.00043515668780181688 0 0.028516548550758615 -0.0004707036111301461 0 0.028724846568709626 -0.00043515668780181688 0 0.028516548550758615 -0.0004707036111301461 0 0.02857344487971037 -0.0002874968117915805 0 0.030722869071129838 -0.00078371619216768558 0 0.030963123904209671 -0.00089347212611305259 0 0.030968396284558445 -0.00077552877193551957 0 0.031049739585255851 -0.00098230765739679865 0 0.030963123904209671 -0.00089347212611305259 0 0.030968396284558445 -0.00077552877193551957 0 0.031269585942973042 -0.00015195288826983178 0 0.031313981198986818 -2.0795405954625127e-05 0 0.031442449854910133 -2.704960786414151e-05 0 -0.0021713832744053637 0.006957550656990651 0 -0.00052330875314181692 0.0041084935315047486 0 0.00053527067819404684 0.0071383896944509535 0 0.028210217086778747 -0.00029491062037089567 0 0.028516548550758615 -0.0004707036111301461 0 0.02857344487971037 -0.0002874968117915805 0 -0.00052330875314181692 0.0041084935315047486 0 0.0018480639062159363 0.0059906897964056415 0 0.0021232725911230076 0.0042227194628817718 0 0.028724846568709626 -0.00043515668780181688 0 0.02857344487971037 -0.0002874968117915805 0 0.028804730047498926 -0.00040482856744472357 0 0.015169079607258894 0.001738575285052061 0 0.01559061084126988 0.0016964165370351974 0 -0.00052330875314181692 0.0041084935315047486 0 0.0018480639062159363 0.0059906897964056415 0 0.00053527067819404684 0.0071383896944509535 0 0.0018480639062159363 0.0059906897964056415 0 0.0021232725911230076 0.0042227194628817718 0 0.0047059126837686906 0.0042940041933684434 0 0.028857163584590638 -0.00047195448884215427 0 0.028804730047498926 -0.00040482856744472357 0 0.028831344110612438 -0.00055672848622293554 0 0.01559061084126988 0.0016964165370351974 0 0.016631807464420462 0.0015443127984472414 0 0.0018480639062159363 0.0059906897964056415 0 0.0047059126837686906 0.0042940041933684434 0 0.0047612848387764339 0.0064103058402243751 0 0.002882568646350254 0.0074165080421401174 0 0.0047612848387764339 0.0064103058402243751 0 0.0052433534809021689 0.0083203220283639343 0 0.0018480639062159363 0.0059906897964056415 0 0.002882568646350254 0.0074165080421401174 0 0.0047612848387764339 0.0064103058402243751 0 0.0052433534809021689 0.0083203220283639343 0 0.0054857820221034673 0.0097416955790155264 0 0.0033771895048973913 0.010331699041216363 0 0.002882568646350254 0.0074165080421401174 0 0.0052433534809021689 0.0083203220283639343 0 0.0033771895048973913 0.010331699041216363 0 0.002882568646350254 0.0074165080421401174 0 0.0015375702539695293 0.0087960682220196654 0 0.0033771895048973913 0.010331699041216363 0 0.0015375702539695293 0.0087960682220196654 0 0.00087697448567968254 0.009709729734888985 0 0.0033771895048973913 0.010331699041216363 0 0.0018480639062159363 0.0059906897964056415 0 0.002882568646350254 0.0074165080421401174 0 0.00053527067819404684 0.0071383896944509535 0 0.002882568646350254 0.0074165080421401174 0 0.00053527067819404684 0.0071383896944509535 0 0.0015375702539695293 0.0087960682220196654 0 0.00053527067819404684 0.0071383896944509535 0 0.0015375702539695293 0.0087960682220196654 0 0.00063650683936114754 0.0085101362651141387 0 0.00053527067819404684 0.0071383896944509535 0 0.00063650683936114754 0.0085101362651141387 0 -0.00025853208355805507 0.0085030865463920444 0 0.0015375702539695293 0.0087960682220196654 0 0.00087697448567968254 0.009709729734888985 0 0.00063650683936114754 0.0085101362651141387 0 0.00087697448567968254 0.009709729734888985 0 0.00063650683936114754 0.0085101362651141387 0 -0.00025853208355805507 0.0085030865463920444 0 0.00087697448567968254 0.009709729734888985 0 -0.00025853208355805507 0.0085030865463920444 0 -0.0016935743704090756 0.0091510143410444469 0 -0.0066516618632484689 0.0053160253035695543 0 -0.0070036112129663094 0.0067420717608000155 0 -0.0021713832744053637 0.006957550656990651 0 0.00053527067819404684 0.0071383896944509535 0 -0.00025853208355805507 0.0085030865463920444 0 -0.0021713832744053637 0.006957550656990651 0 -0.00025853208355805507 0.0085030865463920444 0 -0.0016935743704090756 0.0091510143410444469 0 0.0085711166492711162 0.0058408959496990109 0 0.010690793684058678 0.0060231689118221089 0 0.0090938088710818491 0.007675376695641117 0 0.0085711166492711162 0.0058408959496990109 0 0.010690793684058678 0.0060231689118221089 0 0.009772214753612873 0.0043715202506348933 0 0.01227103950605197 0.0043876331506134446 0 0.010690793684058678 0.0060231689118221089 0 0.009772214753612873 0.0043715202506348933 0 0.02812743530701891 -0.00070430400935544946 0 0.028509126475695958 -0.00062428671856243595 0 0.028323353681685745 -0.0008651025083583273 0 0.0085711166492711162 0.0058408959496990109 0 0.009772214753612873 0.0043715202506348933 0 0.0072522350953463169 0.0043395490082893378 0 0.016586109913443232 0.00049351099629668346 0 0.017413824508106683 0.0012041875731957235 0 0.028509126475695958 -0.00062428671856243595 0 0.028323353681685745 -0.0008651025083583273 0 0.028664357121423938 -0.00071089823364953967 0 0.028812500113788515 -0.00045280298254446634 0 0.028831344110612438 -0.00055672848622293554 0 0.028664357121423938 -0.00071089823364953967 0 0.016631807464420462 0.0015443127984472414 0 0.017413824508106683 0.0012041875731957235 0 0.0047059126837686906 0.0042940041933684434 0 0.0072522350953463169 0.0043395490082893378 0 0.0047612848387764339 0.0064103058402243751 0 0.0072522350953463169 0.0043395490082893378 0 0.0047612848387764339 0.0064103058402243751 0 0.0069853699083532858 0.0069266701773485154 0 0.0085711166492711162 0.0058408959496990109 0 0.0072522350953463169 0.0043395490082893378 0 0.0069853699083532858 0.0069266701773485154 0 0.0047612848387764339 0.0064103058402243751 0 0.0069853699083532858 0.0069266701773485154 0 0.0052433534809021689 0.0083203220283639343 0 0.0052433534809021689 0.0083203220283639343 0 0.0074737602582190697 0.0093354817345921177 0 0.0054857820221034673 0.0097416955790155264 0 0.0069853699083532858 0.0069266701773485154 0 0.0052433534809021689 0.0083203220283639343 0 0.0074737602582190697 0.0093354817345921177 0 -0.0048745999118109248 0.00096361089235205396 0 -0.0022653589147805047 0.0012032367477189982 0 -0.015041739285787734 -0.0052044727336685841 0 -0.014666168535144426 -0.0054911878646919862 0 -0.014846525533966362 -0.0050858632488783324 0 0.0085711166492711162 0.0058408959496990109 0 0.0069853699083532858 0.0069266701773485154 0 0.0090938088710818491 0.007675376695641117 0 0.0069853699083532858 0.0069266701773485154 0 0.0074737602582190697 0.0093354817345921177 0 0.0090938088710818491 0.007675376695641117 0 -0.014381609066398092 -0.0055104292975891355 0 -0.014666168535144426 -0.0054911878646919862 0 -0.014412375506716481 -0.005457523436248622 0 0.0010674191681114028 0.0009957352136099485 0 -0.0022653589147805047 0.0012032367477189982 0 -0.014666168535144426 -0.0054911878646919862 0 -0.014530686440830044 -0.0052572011161426012 0 -0.014846525533966362 -0.0050858632488783324 0 -0.014666168535144426 -0.0054911878646919862 0 -0.014412375506716481 -0.005457523436248622 0 -0.014530686440830044 -0.0052572011161426012 0 -0.014530686440830044 -0.0052572011161426012 0 -0.014667099735067397 -0.0049531500584239522 0 -0.014305011542633372 -0.004795190577280518 0 -0.014530686440830044 -0.0052572011161426012 0 -0.014667099735067397 -0.0049531500584239522 0 -0.014846525533966362 -0.0050858632488783324 0 -0.014123570541728863 -0.0057497079316400331 0 -0.014133654669184365 -0.0058535783609918049 0 -0.014147585484668617 -0.0058116185910982894 0 -0.014305011542633372 -0.004795190577280518 0 -0.014734694634456123 -0.0044984316489757991 0 -0.014655669891174894 -0.003508205407807398 0 -0.014707499017066403 -0.0052400282397782093 0 -0.015307794315123777 -0.0048773251171505784 0 -0.014667099735067397 -0.0049531500584239522 0 -0.014305011542633372 -0.004795190577280518 0 -0.014734694634456123 -0.0044984316489757991 0 -0.014667099735067397 -0.0049531500584239522 0 -0.014734694634456123 -0.0044984316489757991 0 -0.014966985822352133 -0.0048527795920133504 0 -0.015664901874666431 -0.004147957721976488 0 -0.01504085444802577 -0.0041732736644755171 0 -0.014966985822352133 -0.0048527795920133504 0 -0.014734694634456123 -0.0044984316489757991 0 -0.01504085444802577 -0.0041732736644755171 0 -0.014966985822352133 -0.0048527795920133504 0 -0.015041739285787734 -0.0052044727336685841 0 -0.014846525533966362 -0.0050858632488783324 0 -0.015036593900722907 -0.0048404321387451451 0 -0.014966985822352133 -0.0048527795920133504 0 -0.014846525533966362 -0.0050858632488783324 0 -0.015036593900722907 -0.0048404321387451451 0 -0.014667099735067397 -0.0049531500584239522 0 -0.014966985822352133 -0.0048527795920133504 0 -0.014846525533966362 -0.0050858632488783324 0 0.0074737602582190697 0.0093354817345921177 0 0.0054857820221034673 0.0097416955790155264 0 0.0058427571628731755 0.010982333284068535 0 -0.0079590452148739742 0.00019682075874619627 0 -0.01082453092191598 -0.00095700025806368778 0 -0.0048745999118109248 0.00096361089235205396 0 -0.0079590452148739742 0.00019682075874619627 0 -0.015041739285787734 -0.0052044727336685841 0 -0.015297763575262158 -0.004913160574166694 0 -0.015036593900722907 -0.0048404321387451451 0 0.0054857820221034673 0.0097416955790155264 0 0.0058427571628731755 0.010982333284068535 0 0.0033771895048973913 0.010331699041216363 0 -0.015075876874393417 -0.0048062669837015846 0 -0.015073765808012739 -0.0048010426048825513 0 -0.015076186218556043 -0.0047684944513542221 0 -0.014698361756162851 -0.0016007645108502497 0 -0.013574519901105527 0.0005679967228837383 0 -0.0079590452148739742 0.00019682075874619627 0 -0.013574519901105527 0.0005679967228837383 0 -0.016484543382254944 -0.0046176268834166503 0 -0.017158356619460257 -0.0040809157655731258 0 -0.017915088799727454 -0.0041828549861529429 0 -0.016484543382254944 -0.0046176268834166503 0 -0.016463386328239314 -0.0038846342917593663 0 -0.017158356619460257 -0.0040809157655731258 0 -0.015664901874666431 -0.004147957721976488 0 -0.014966985822352133 -0.0048527795920133504 0 -0.016484543382254944 -0.0046176268834166503 0 -0.014966985822352133 -0.0048527795920133504 0 -0.015036593900722907 -0.0048404321387451451 0 -0.015073765808012739 -0.0048010426048825513 0 -0.015075876874393417 -0.0048062669837015846 0 -0.015036593900722907 -0.0048404321387451451 0 -0.015073765808012739 -0.0048010426048825513 0 -0.014733503377598807 -0.0022387329626520655 0 -0.014698361756162851 -0.0016007645108502497 0 -0.015664901874666431 -0.004147957721976488 0 -0.016484543382254944 -0.0046176268834166503 0 -0.016463386328239314 -0.0038846342917593663 0 -0.015664901874666431 -0.004147957721976488 0 -0.016463386328239314 -0.0038846342917593663 0 -0.015931557647048511 -0.0035919225436596685 0 -0.016463386328239314 -0.0038846342917593663 0 -0.016359583130478226 -0.0033002456044822987 0 -0.015931557647048511 -0.0035919225436596685 0 -0.016463386328239314 -0.0038846342917593663 0 -0.016359583130478226 -0.0033002456044822987 0 -0.017050263713323129 -0.0033757486180365543 0 -0.016359583130478226 -0.0033002456044822987 0 -0.015931557647048511 -0.0035919225436596685 0 -0.015976855804384803 -0.0029971478191313495 0 -0.017411928890100722 -0.0034495017178064291 0 -0.018291828574161298 -0.0042478734941470272 0 -0.01819087695091107 -0.002959282418372219 0 -0.01604030577523494 -0.0019294756415720834 0 -0.013574519901105527 0.0005679967228837383 0 -0.017158356619460257 -0.0040809157655731258 0 -0.017050263713323129 -0.0033757486180365543 0 -0.017915088799727454 -0.0041828549861529429 0 -0.016463386328239314 -0.0038846342917593663 0 -0.017158356619460257 -0.0040809157655731258 0 -0.017050263713323129 -0.0033757486180365543 0 -0.017853580933434726 -0.0023071203907106515 0 -0.016948323471702317 -0.0026688229139705606 0 -0.018505693932099464 -0.0027321449140888321 0 -0.017411928890100722 -0.0034495017178064291 0 -0.016948323471702317 -0.0026688229139705606 0 -0.01819087695091107 -0.002959282418372219 0 -0.017574429323660695 -0.00069525745796395323 0 -0.01751907320197503 -0.00033986205929022921 0 -0.017853580933434726 -0.0023071203907106515 0 -0.016948323471702317 -0.0026688229139705606 0 -0.017049542460875432 -0.0020974989705825346 0 -0.015931557647048511 -0.0035919225436596685 0 -0.015976855804384803 -0.0029971478191313495 0 -0.015432512408078202 -0.0029868564156685564 0 -0.016359583130478226 -0.0033002456044822987 0 -0.015976855804384803 -0.0029971478191313495 0 -0.016314748146583333 -0.0025259814554175679 0 -0.017411928890100722 -0.0034495017178064291 0 -0.016948323471702317 -0.0026688229139705606 0 -0.016314748146583333 -0.0025259814554175679 0 -0.016359583130478226 -0.0033002456044822987 0 -0.017050263713323129 -0.0033757486180365543 0 -0.016314748146583333 -0.0025259814554175679 0 -0.01604030577523494 -0.0019294756415720834 0 -0.016337208084294636 -0.0022602159784919904 0 -0.016948323471702317 -0.0026688229139705606 0 -0.016416980912994487 -0.0021034265228184299 0 -0.017049542460875432 -0.0020974989705825346 0 -0.016948323471702317 -0.0026688229139705606 0 -0.016314748146583333 -0.0025259814554175679 0 -0.016416980912994487 -0.0021034265228184299 0 -0.016314748146583333 -0.0025259814554175679 0 -0.015901921077211476 -0.0024947619482195908 0 -0.016416980912994487 -0.0021034265228184299 0 -0.015976855804384803 -0.0029971478191313495 0 -0.016314748146583333 -0.0025259814554175679 0 -0.015901921077211476 -0.0024947619482195908 0 -0.015307794315123777 -0.0048773251171505784 0 -0.016690229182504911 -0.0043147918331226352 0 -0.015901921077211476 -0.0024947619482195908 0 -0.015432512408078202 -0.0029868564156685564 0 -0.015400839530178241 -0.0017865561687056587 0 -0.015432512408078202 -0.0029868564156685564 0 -0.014655669891174894 -0.003508205407807398 0 -0.015400839530178241 -0.0017865561687056587 0 -0.014133654669184365 -0.0058535783609918049 0 -0.014146774439616218 -0.0058486351988611641 0 -0.014158374152779582 -0.0058434774625951693 0 -0.015976855804384803 -0.0029971478191313495 0 -0.015901921077211476 -0.0024947619482195908 0 -0.015432512408078202 -0.0029868564156685564 0 -0.014146364884593279 -0.005851258937241202 0 -0.014133654669184365 -0.0058535783609918049 0 -0.0141539738670348 -0.0058461673360895193 0 -0.014146364884593279 -0.005851258937241202 0 -0.014133654669184365 -0.0058535783609918049 0 -0.014146774439616218 -0.0058486351988611641 0 -0.014146364884593279 -0.005851258937241202 0 -0.014146774439616218 -0.0058486351988611641 0 -0.014152629142161042 -0.005853196153245312 0 -0.014133654669184365 -0.0058535783609918049 0 -0.0141539738670348 -0.0058461673360895193 0 -0.014147585484668617 -0.0058116185910982894 0 -0.014734694634456123 -0.0044984316489757991 0 -0.01504085444802577 -0.0041732736644755171 0 -0.014655669891174894 -0.003508205407807398 0 -0.01504085444802577 -0.0041732736644755171 0 -0.014655669891174894 -0.003508205407807398 0 -0.015288150258904997 -0.0036611657200275815 0 -0.015664901874666431 -0.004147957721976488 0 -0.015931557647048511 -0.0035919225436596685 0 -0.015288150258904997 -0.0036611657200275815 0 -0.015664901874666431 -0.004147957721976488 0 -0.01504085444802577 -0.0041732736644755171 0 -0.015288150258904997 -0.0036611657200275815 0 -0.015931557647048511 -0.0035919225436596685 0 -0.015432512408078202 -0.0029868564156685564 0 -0.015288150258904997 -0.0036611657200275815 0 -0.015432512408078202 -0.0029868564156685564 0 -0.014655669891174894 -0.003508205407807398 0 -0.015288150258904997 -0.0036611657200275815 0 -0.012409585588971208 0.0066140245478083816 0 -0.012531793900870806 0.0067691597804025033 0 -0.012572148551784953 0.0065169027101269206 0 -0.012230218730693411 0.0065473980522476743 0 -0.012384001542032877 0.0064629156535217329 0 -0.012409585588971208 0.0066140245478083816 0 -0.012384001542032877 0.0064629156535217329 0 -0.012409585588971208 0.0066140245478083816 0 -0.012572148551784953 0.0065169027101269206 0 -0.012210142671814519 0.0068135769946918836 0 -0.012409585588971208 0.0066140245478083816 0 -0.012531793900870806 0.0067691597804025033 0 -0.012210142671814519 0.0068135769946918836 0 -0.012322869687603684 0.0070774843599688796 0 -0.012531793900870806 0.0067691597804025033 0 -0.012698356741273354 0.0069532221506264178 0 -0.012322869687603684 0.0070774843599688796 0 -0.012531793900870806 0.0067691597804025033 0 -0.012531793900870806 0.0067691597804025033 0 -0.012738099170611129 0.006757907391733169 0 -0.012755948936725291 0.0066180573409763436 0 -0.012698356741273354 0.0069532221506264178 0 -0.012738099170611129 0.006757907391733169 0 -0.012989475517090338 0.0066929196645984061 0 -0.012698356741273354 0.0069532221506264178 0 -0.012531793900870806 0.0067691597804025033 0 -0.012738099170611129 0.006757907391733169 0 -0.012531793900870806 0.0067691597804025033 0 -0.012755948936725291 0.0066180573409763436 0 -0.012572148551784953 0.0065169027101269206 0 -0.012755948936725291 0.0066180573409763436 0 -0.012572148551784953 0.0065169027101269206 0 -0.012835926795079429 0.0063752067849667561 0 -0.01392061204126672 0.004253922641404036 0 -0.014403194949343456 0.0029201297533422471 0 -0.012954990477813224 0.0064851124545707919 0 -0.013339262090806093 0.0063609485781315513 0 -0.012851336476742735 0.0062640418611828392 0 -0.012755948936725291 0.0066180573409763436 0 -0.012954990477813224 0.0064851124545707919 0 -0.012851336476742735 0.0062640418611828392 0 -0.012954990477813224 0.0064851124545707919 0 -0.012989475517090338 0.0066929196645984061 0 -0.013339262090806093 0.0063609485781315513 0 -0.012755948936725291 0.0066180573409763436 0 -0.012954990477813224 0.0064851124545707919 0 -0.012989475517090338 0.0066929196645984061 0 -0.0066516618632484689 0.0053160253035695543 0 -0.0042101984690887427 0.004258036234718785 0 -0.0068310918133214164 0.0039767143127139113 0 -0.0081734649707387169 0.002696943749861104 0 -0.0089030117175196571 0.0033758065235323445 0 -0.0066516618632484689 0.0053160253035695543 0 -0.0099245630904123989 0.0034911884009284091 0 -0.012738099170611129 0.006757907391733169 0 -0.012755948936725291 0.0066180573409763436 0 -0.012989475517090338 0.0066929196645984061 0 -0.0079590452148739742 0.00019682075874619627 0 -0.0042101984690887427 0.004258036234718785 0 -0.0081734649707387169 0.002696943749861104 0 -0.0089030117175196571 0.0033758065235323445 0 -0.0094448215211104195 0.0023522960210635474 0 -0.010961432776266898 0.0027823152389960921 0 -0.0089030117175196571 0.0033758065235323445 0 -0.0094448215211104195 0.0023522960210635474 0 -0.0099245630904123989 0.0034911884009284091 0 -0.013574519901105527 0.0005679967228837383 0 -0.0081734649707387169 0.002696943749861104 0 -0.0094448215211104195 0.0023522960210635474 0 -0.0095741782763589679 0.0013775435573539598 0 -0.010961432776266898 0.0027823152389960921 0 -0.0094448215211104195 0.0023522960210635474 0 -0.0095741782763589679 0.0013775435573539598 0 -0.013574519901105527 0.0005679967228837383 0 -0.015914001633929566 0.001104498120585875 0 -0.018291828574161298 -0.0042478734941470272 0 -0.01819087695091107 -0.002959282418372219 0 -0.019329629791264357 -0.0031832124943558201 0 -0.014187713947475748 0.0010131571975535534 0 -0.015506381041118768 0.0023447327773669399 0 -0.015120375312482136 0.0016069704735246636 0 -0.01751907320197503 -0.00033986205929022921 0 -0.015914001633929566 0.001104498120585875 0 -0.018505693932099464 -0.0027321449140888321 0 -0.01864235884168871 -0.0024421529300648931 0 -0.018615336307669511 -0.0024598173987876999 0 -0.017853580933434726 -0.0023071203907106515 0 -0.018505693932099464 -0.0027321449140888321 0 -0.018752361125221377 -0.0023317197156085966 0 -0.018505693932099464 -0.0027321449140888321 0 -0.018752361125221377 -0.0023317197156085966 0 -0.018615336307669511 -0.0024598173987876999 0 -0.018752361125221377 -0.0023317197156085966 0 -0.018615336307669511 -0.0024598173987876999 0 -0.018391506987334889 -0.0025842325428302297 0 -0.018615336307669511 -0.0024598173987876999 0 -0.01863466697870849 -0.0024290121462773534 0 -0.018391506987334889 -0.0025842325428302297 0 -0.016397523366540448 0.0016448471232764104 0 -0.016620728825418259 0.0018714787043899834 0 -0.016311042575832917 0.0019175857872267136 0 -0.015945173691128037 0.0011998137291777762 0 -0.017909989954623888 0.00065153548089905481 0 -0.01864235884168871 -0.0024421529300648931 0 -0.018615336307669511 -0.0024598173987876999 0 -0.01863466697870849 -0.0024290121462773534 0 -0.015662195954504202 0.003118939662414904 0 -0.015643369967288531 0.0031768046877455078 0 -0.015272926140407397 0.0027286709335279267 0 -0.015945173691128037 0.0011998137291777762 0 -0.015680797108101212 0.0013847417833871254 0 -0.015466056709246292 0.000348840144319103 0 -0.016653694890932137 0.0015493924724411007 0 -0.017153350071704494 9.1052443449975588e-06 0 -0.015914001633929566 0.001104498120585875 0 -0.015680797108101212 0.0013847417833871254 0 -0.015914001633929566 0.001104498120585875 0 -0.015945173691128037 0.0011998137291777762 0 -0.015680797108101212 0.0013847417833871254 0 -0.014403194949343456 0.0029201297533422471 0 -0.015687199350430298 0.0023085269393719734 0 -0.015120375312482136 0.0016069704735246636 0 -0.015979311196351934 0.0014056443833651384 0 -0.014187713947475748 0.0010131571975535534 0 -0.015120375312482136 0.0016069704735246636 0 -0.015979311196351934 0.0014056443833651384 0 -0.013574519901105527 0.0005679967228837383 0 -0.014403194949343456 0.0029201297533422471 0 -0.015506381041118768 0.0023447327773669399 0 -0.015687199350430298 0.0023085269393719734 0 -0.015120375312482136 0.0016069704735246636 0 -0.015680797108101212 0.0013847417833871254 0 -0.01381024712985004 0.0034057667859804029 0 -0.014403194949343456 0.0029201297533422471 0 -0.01381024712985004 0.0034057667859804029 0 -0.014201147484756042 0.0029058691747490765 0 -0.014236888695243501 0.0027941184381460394 0 -0.014467416677634177 0.0028564617925641621 0 -0.012572148551784953 0.0065169027101269206 0 -0.012835926795079429 0.0063752067849667561 0 -0.01245838040997492 0.006291348535577633 0 -0.015643369967288531 0.0031768046877455078 0 -0.01488600930375357 0.0033359361305539507 0 -0.015272926140407397 0.0027286709335279267 0 -0.015945173691128037 0.0011998137291777762 0 -0.016551350338855395 0.0022273834950432927 0 -0.014699052276458078 0.0028220110484227863 0 -0.01488600930375357 0.0033359361305539507 0 -0.015272926140407397 0.0027286709335279267 0 -0.013366398383958995 0.0036735218480173893 0 -0.01381024712985004 0.0034057667859804029 0 -0.012384001542032877 0.0064629156535217329 0 -0.012572148551784953 0.0065169027101269206 0 -0.01245838040997492 0.006291348535577633 0 -0.012255448266688191 0.0063449744124808912 0 -0.012384001542032877 0.0064629156535217329 0 -0.01245838040997492 0.006291348535577633 0 -0.015896762209592231 0.0039149599639478417 0 -0.017063759141135306 0.0042438052484557072 0 -0.016512315853813974 0.0049129885934264756 0 -0.017063759141135306 0.0042438052484557072 0 -0.016512315853813974 0.0049129885934264756 0 -0.017442305909377419 0.0048986432058283876 0 -0.016202464937470774 0.0060195312909494892 0 -0.016512315853813974 0.0049129885934264756 0 -0.017279029834084532 0.0054981638995536767 0 -0.016202464937470774 0.0060195312909494892 0 -0.017279029834084532 0.0054981638995536767 0 -0.017586068350159106 0.0058065816064543545 0 -0.015373607957471128 0.0032803454858183687 0 -0.016551350338855395 0.0022273834950432927 0 -0.016512315853813974 0.0049129885934264756 0 -0.017279029834084532 0.0054981638995536767 0 -0.017442305909377419 0.0048986432058283876 0 -0.017279029834084532 0.0054981638995536767 0 -0.017839314721116918 0.0053429369085297258 0 -0.017442305909377419 0.0048986432058283876 0 -0.017279029834084532 0.0054981638995536767 0 -0.017574761529597905 0.0057697873450921235 0 -0.017839314721116918 0.0053429369085297258 0 -0.016678160161385278 0.0024030235234887855 0 -0.016551350338855395 0.0022273834950432927 0 -0.017839314721116918 0.0053429369085297258 0 -0.017442305909377419 0.0048986432058283876 0 -0.018114329627528809 0.0049737732524053214 0 -0.017442305909377419 0.0048986432058283876 0 -0.017888919743148369 0.0044091862591225158 0 -0.018114329627528809 0.0049737732524053214 0 -0.017063759141135306 0.0042438052484557072 0 -0.017442305909377419 0.0048986432058283876 0 -0.017888919743148369 0.0044091862591225158 0 -0.017063759141135306 0.0042438052484557072 0 -0.017888919743148369 0.0044091862591225158 0 -0.018025726887758664 0.00380738644412212 0 -0.017888919743148369 0.0044091862591225158 0 -0.018114329627528809 0.0049737732524053214 0 -0.019163183359616458 0.0041937015183193035 0 -0.018114329627528809 0.0049737732524053214 0 -0.018733540889989506 0.0055500947516042669 0 -0.019163183359616458 0.0041937015183193035 0 -0.017574761529597905 0.0057697873450921235 0 -0.017839314721116918 0.0053429369085297258 0 -0.018733540889989506 0.0055500947516042669 0 -0.016551350338855395 0.0022273834950432927 0 -0.017909989954623888 0.00065153548089905481 0 -0.017839314721116918 0.0053429369085297258 0 -0.018114329627528809 0.0049737732524053214 0 -0.018733540889989506 0.0055500947516042669 0 -0.018752361125221377 -0.0023317197156085966 0 -0.018391506987334889 -0.0025842325428302297 0 -0.019291320090626212 -0.0031075260627192076 0 -0.022358006376489204 -0.0035055044172410859 0 -0.021951987146276056 -0.0034493676786077603 0 -0.022169595611764913 -0.002852871972868703 0 -0.017909989954623888 0.00065153548089905481 0 -0.01976784144600845 -0.00049093103501542112 0 -0.021951987146276056 -0.0034493676786077603 0 -0.022169595611764913 -0.002852871972868703 0 -0.02180925006767833 -0.0030567125603839251 0 -0.017909989954623888 0.00065153548089905481 0 -0.019560425027505914 0.00043432778384250813 0 -0.019560425027505914 0.00043432778384250813 0 -0.020390751773363441 0.00031925117150613394 0 -0.022169595611764913 -0.002852871972868703 0 -0.022073406957792321 -0.002205047523288838 0 -0.02168860217254797 -0.0027144413074149665 0 -0.019163183359616458 0.0041937015183193035 0 -0.019616170751131139 0.0031903501378714475 0 -0.018707100378339302 0.0033184811857607348 0 -0.019616170751131139 0.0031903501378714475 0 -0.018707100378339302 0.0033184811857607348 0 -0.018724858343151195 0.0025961989103076718 0 -0.018707100378339302 0.0033184811857607348 0 -0.017633713970553095 0.0029797836832647006 0 -0.018724858343151195 0.0025961989103076718 0 -0.017888919743148369 0.0044091862591225158 0 -0.019163183359616458 0.0041937015183193035 0 -0.018025726887758664 0.00380738644412212 0 -0.019163183359616458 0.0041937015183193035 0 -0.018707100378339302 0.0033184811857607348 0 -0.018025726887758664 0.00380738644412212 0 -0.017063759141135306 0.0042438052484557072 0 -0.018025726887758664 0.00380738644412212 0 -0.016714549368423894 0.0033780473700432607 0 -0.01758229030863313 0.0032085855206718159 0 -0.017228997972960552 0.0025966134655786748 0 -0.018025726887758664 0.00380738644412212 0 -0.016714549368423894 0.0033780473700432607 0 -0.016943066463836341 0.0022047164873404195 0 -0.018707100378339302 0.0033184811857607348 0 -0.018025726887758664 0.00380738644412212 0 -0.017633713970553095 0.0029797836832647006 0 -0.015784711331973057 0.0027487070011675079 0 -0.016943066463836341 0.0022047164873404195 0 -0.015806296679484036 0.0019311325898068172 0 -0.015784711331973057 0.0027487070011675079 0 -0.016714549368423894 0.0033780473700432607 0 -0.016943066463836341 0.0022047164873404195 0 -0.015896762209592231 0.0039149599639478417 0 -0.017063759141135306 0.0042438052484557072 0 -0.016714549368423894 0.0033780473700432607 0 -0.015896762209592231 0.0039149599639478417 0 -0.015784711331973057 0.0027487070011675079 0 -0.016714549368423894 0.0033780473700432607 0 -0.021042288588123702 -0.0032304158101330162 0 -0.021259075340125215 -0.0031102679870090425 0 -0.020980020833444919 -0.0029178617505062772 0 -0.021042288588123702 -0.0032304158101330162 0 -0.020636481278869623 -0.0030920005919372611 0 -0.020980020833444919 -0.0029178617505062772 0 -0.019033107971064368 -0.0037979170862370102 0 -0.019852884056396822 -0.0034065473309344454 0 -0.019027930221364415 -0.0038434237183054302 0 -0.019033107971064368 -0.0037979170862370102 0 -0.017786496668002343 -0.0042123832241371542 0 -0.017757631889811283 -0.0042044970663173142 0 -0.017768626378514389 -0.0042200113414425488 0 -0.017757631889811283 -0.0042044970663173142 0 -0.017768626378514389 -0.0042200113414425488 0 -0.017754738880582415 -0.0042231362202608804 0 -0.017768626378514389 -0.0042200113414425488 0 -0.017765490339493345 -0.0042361654542235321 0 -0.017782463271086579 -0.0042222061853582982 0 -0.017754738880582415 -0.0042231362202608804 0 -0.017765490339493345 -0.0042361654542235321 0 -0.017742272085819737 -0.0042421756814169029 0 -0.016325369867984343 -0.0048162516536231935 0 -0.016369212131289456 -0.0051976903142150008 0 -0.017768626378514389 -0.0042200113414425488 0 -0.017754738880582415 -0.0042231362202608804 0 -0.017765490339493345 -0.0042361654542235321 0 -0.017765490339493345 -0.0042361654542235321 0 -0.017782463271086579 -0.0042222061853582982 0 -0.017789540049244094 -0.0042290662548964304 0 -0.016325369867984343 -0.0048162516536231935 0 -0.016690229182504911 -0.0043147918331226352 0 -0.017786496668002343 -0.0042123832241371542 0 -0.017768626378514389 -0.0042200113414425488 0 -0.017782463271086579 -0.0042222061853582982 0 -0.017786496668002343 -0.0042123832241371542 0 -0.017782463271086579 -0.0042222061853582982 0 -0.017792916787964318 -0.0042223271970784531 0 -0.017782463271086579 -0.0042222061853582982 0 -0.017792916787964318 -0.0042223271970784531 0 -0.017789540049244094 -0.0042290662548964304 0 -0.016703936717856076 -0.0043030009060724059 0 -0.016690229182504911 -0.0043147918331226352 0 -0.015400839530178241 -0.0017865561687056587 0 -0.016416980912994487 -0.0021034265228184299 0 -0.016809900772183178 -0.0014142506538279078 0 -0.017792916787964318 -0.0042223271970784531 0 -0.017789661547292415 -0.0042278865423411027 0 -0.017817840857818245 -0.0042183440084359921 0 -0.017786496668002343 -0.0042123832241371542 0 -0.017792916787964318 -0.0042223271970784531 0 -0.017817840857818245 -0.0042183440084359921 0 -0.019027930221364415 -0.0038434237183054302 0 -0.018339186721751333 -0.0037508159531701164 0 -0.016690229182504911 -0.0043147918331226352 0 -0.018339186721751333 -0.0037508159531701164 0 -0.015901921077211476 -0.0024947619482195908 0 -0.015400839530178241 -0.0017865561687056587 0 -0.016416980912994487 -0.0021034265228184299 0 -0.016416980912994487 -0.0021034265228184299 0 -0.016809900772183178 -0.0014142506538279078 0 -0.017049542460875432 -0.0020974989705825346 0 -0.021495023239970205 -0.0033167941806898191 0 -0.021484329162274763 -0.0032480052530030131 0 -0.021259075340125215 -0.0031102679870090425 0 -0.021584412244874465 -0.0032850768600869284 0 -0.021495023239970205 -0.0033167941806898191 0 -0.021484329162274763 -0.0032480052530030131 0 -0.018363472816842877 -0.003746145666860096 0 -0.018339186721751333 -0.0037508159531701164 0 -0.021951987146276056 -0.0034493676786077603 0 -0.021360124663938961 -0.0033431681141451093 0 -0.021597216993257208 -0.0032154305749243738 0 -0.018752361125221377 -0.0023317197156085966 0 -0.019291320090626212 -0.0031075260627192076 0 -0.021360124663938961 -0.0033431681141451093 0 -0.018752361125221377 -0.0023317197156085966 0 -0.021584412244874465 -0.0032850768600869284 0 -0.021360124663938961 -0.0033431681141451093 0 -0.017853580933434726 -0.0023071203907106515 0 -0.018752361125221377 -0.0023317197156085966 0 -0.016809900772183178 -0.0014142506538279078 0 -0.018752361125221377 -0.0023317197156085966 0 -0.021584412244874465 -0.0032850768600869284 0 -0.021845009968160776 -0.0032160635659402772 0 -0.01976784144600845 -0.00049093103501542112 0 -0.020305645555333249 -0.00083974792687482684 0 -0.018524168384602028 -0.0034166799993304831 0 -0.018339186721751333 -0.0037508159531701164 0 -0.017853580933434726 -0.0023071203907106515 0 -0.016809900772183178 -0.0014142506538279078 0 -0.017049542460875432 -0.0020974989705825346 0 -0.021584412244874465 -0.0032850768600869284 0 -0.021484329162274763 -0.0032480052530030131 0 -0.021360124663938961 -0.0033431681141451093 0 -0.021484329162274763 -0.0032480052530030131 0 -0.021360124663938961 -0.0033431681141451093 0 -0.021597216993257208 -0.0032154305749243738 0 -0.021951987146276056 -0.0034493676786077603 0 -0.021597216993257208 -0.0032154305749243738 0 -0.02180925006767833 -0.0030567125603839251 0 -0.022169595611764913 -0.002852871972868703 0 -0.02180925006767833 -0.0030567125603839251 0 -0.02168860217254797 -0.0027144413074149665 0 -0.021597216993257208 -0.0032154305749243738 0 -0.02180925006767833 -0.0030567125603839251 0 -0.021557236830021871 -0.0030693710786664037 0 -0.021484329162274763 -0.0032480052530030131 0 -0.021597216993257208 -0.0032154305749243738 0 -0.021557236830021871 -0.0030693710786664037 0 -0.021557236830021871 -0.0030693710786664037 0 -0.02145578833182573 -0.0029150503232189141 0 -0.02168860217254797 -0.0027144413074149665 0 -0.02180925006767833 -0.0030567125603839251 0 -0.021557236830021871 -0.0030693710786664037 0 -0.02168860217254797 -0.0027144413074149665 0 -0.021042288588123702 -0.0032304158101330162 0 -0.021495023239970205 -0.0033167941806898191 0 -0.021259075340125215 -0.0031102679870090425 0 -0.021259075340125215 -0.0031102679870090425 0 -0.02145578833182573 -0.0029150503232189141 0 -0.021299074038748669 -0.0027310734195300692 0 -0.021484329162274763 -0.0032480052530030131 0 -0.021557236830021871 -0.0030693710786664037 0 -0.021259075340125215 -0.0031102679870090425 0 -0.021557236830021871 -0.0030693710786664037 0 -0.021259075340125215 -0.0031102679870090425 0 -0.02145578833182573 -0.0029150503232189141 0 -0.02145578833182573 -0.0029150503232189141 0 -0.021299074038748669 -0.0027310734195300692 0 -0.02168860217254797 -0.0027144413074149665 0 -0.021299074038748669 -0.0027310734195300692 0 -0.02168860217254797 -0.0027144413074149665 0 -0.021424012949058439 -0.002188186076461093 0 -0.022073406957792321 -0.002205047523288838 0 -0.02168860217254797 -0.0027144413074149665 0 -0.021424012949058439 -0.002188186076461093 0 -0.021424012949058439 -0.002188186076461093 0 -0.020885816040749964 -0.0023710201430622228 0 -0.020667603798184719 -0.0016675882025323234 0 -0.021299074038748669 -0.0027310734195300692 0 -0.021424012949058439 -0.002188186076461093 0 -0.020885816040749964 -0.0023710201430622228 0 -0.021259075340125215 -0.0031102679870090425 0 -0.021299074038748669 -0.0027310734195300692 0 -0.020980020833444919 -0.0029178617505062772 0 -0.021299074038748669 -0.0027310734195300692 0 -0.020885816040749964 -0.0023710201430622228 0 -0.020980020833444919 -0.0029178617505062772 0 -0.020236062189570535 -0.0034844964143043717 0 -0.020404156166892888 -0.00268083354753861 0 -0.019919372797960494 -0.0029945759698705543 0 -0.020885816040749964 -0.0023710201430622228 0 -0.020980020833444919 -0.0029178617505062772 0 -0.020404156166892888 -0.00268083354753861 0 -0.020236062189570535 -0.0034844964143043717 0 -0.020980020833444919 -0.0029178617505062772 0 -0.020404156166892888 -0.00268083354753861 0 -0.020450515128744049 -0.002212832733334009 0 -0.019800913748616117 -0.0021709169172121042 0 -0.020667603798184719 -0.0016675882025323234 0 -0.020885816040749964 -0.0023710201430622228 0 -0.020450515128744049 -0.002212832733334009 0 -0.020667603798184719 -0.0016675882025323234 0 -0.020404156166892888 -0.00268083354753861 0 -0.020450515128744049 -0.002212832733334009 0 -0.019800913748616117 -0.0021709169172121042 0 -0.020885816040749964 -0.0023710201430622228 0 -0.020404156166892888 -0.00268083354753861 0 -0.020450515128744049 -0.002212832733334009 0 -0.020787236900571746 -0.002106227609328327 0 -0.020319650909605896 -0.0020369962851522557 0 -0.020243185721479619 -0.0022877751319437898 0 -0.020787236900571746 -0.002106227609328327 0 -0.020319650909605896 -0.0020369962851522557 0 -0.020559708427107012 -0.0018675189909978377 0 -0.020787236900571746 -0.002106227609328327 0 -0.020243185721479619 -0.0022877751319437898 0 -0.020298995686209177 -0.0025980259677379634 0 -0.018725195274413509 -0.0035613509744608644 0 -0.019453679221006197 -0.0029221139118495347 0 -0.018765856983616686 -0.0042480177575752055 0 -0.020068478225115743 -0.0022997283069618605 0 -0.018980592890125162 -0.0032105850684807876 0 -0.019800913748616117 -0.0021709169172121042 0 -0.018462618986920459 -0.0031596361096736408 0 -0.018843011472488482 -0.0031027586628555627 0 -0.018313312030474198 -0.0032285292861918154 0 -0.018725195274413509 -0.0035613509744608644 0 -0.01824113289542614 -0.0040494776732161375 0 -0.018313312030474198 -0.0032285292861918154 0 -0.018725195274413509 -0.0035613509744608644 0 -0.018843011472488482 -0.0031027586628555627 0 -0.018980592890125162 -0.0032105850684807876 0 -0.01896813441078557 -0.0032114064712956245 0 -0.018725195274413509 -0.0035613509744608644 0 -0.018843011472488482 -0.0031027586628555627 0 -0.019453679221006197 -0.0029221139118495347 0 -0.019919372797960494 -0.0029945759698705543 0 -0.019453679221006197 -0.0029221139118495347 0 -0.019624630037083573 -0.0033390084831111983 0 -0.019800913748616117 -0.0021709169172121042 0 -0.018843011472488482 -0.0031027586628555627 0 -0.019453679221006197 -0.0029221139118495347 0 -0.020404156166892888 -0.00268083354753861 0 -0.019800913748616117 -0.0021709169172121042 0 -0.019919372797960494 -0.0029945759698705543 0 -0.019800913748616117 -0.0021709169172121042 0 -0.019919372797960494 -0.0029945759698705543 0 -0.019453679221006197 -0.0029221139118495347 0 -0.019045507532149772 -0.0036879014513651219 0 -0.017869946452799941 -0.0042331524338157719 0 -0.018212901015369563 -0.0035966260813932883 0 -0.018546601608890052 -0.0032796685771996244 0 -0.019045507532149772 -0.0036879014513651219 0 -0.018868667650450633 -0.002790173037555862 0 -0.018546601608890052 -0.0032796685771996244 0 -0.018212901015369563 -0.0035966260813932883 0 -0.018032405751403264 -0.0030397072307097569 0 -0.018546601608890052 -0.0032796685771996244 0 -0.019045507532149772 -0.0036879014513651219 0 -0.018212901015369563 -0.0035966260813932883 0 -0.020319650909605896 -0.0020369962851522557 0 -0.019759984955112015 -0.0022198501904033439 0 -0.020226097119749837 -0.0016405553274012634 0 -0.020319650909605896 -0.0020369962851522557 0 -0.020243185721479619 -0.0022877751319437898 0 -0.019759984955112015 -0.0022198501904033439 0 -0.020243185721479619 -0.0022877751319437898 0 -0.019759984955112015 -0.0022198501904033439 0 -0.020026144130154612 -0.0024721746785676983 0 -0.020298995686209177 -0.0025980259677379634 0 -0.020026144130154612 -0.0024721746785676983 0 -0.019800122807117761 -0.0027204058893901479 0 -0.018003037641727129 -0.0036962018359288328 0 -0.017015820852312642 -0.0039408057330311101 0 -0.017392294862820505 -0.0042734335781037872 0 -0.019759984955112015 -0.0022198501904033439 0 -0.020026144130154612 -0.0024721746785676983 0 -0.019800122807117761 -0.0027204058893901479 0 -0.018980592890125162 -0.0032105850684807876 0 -0.018366544545366084 -0.003537193154714928 0 -0.020243185721479619 -0.0022877751319437898 0 -0.020298995686209177 -0.0025980259677379634 0 -0.020026144130154612 -0.0024721746785676983 0 -0.018980592890125162 -0.0032105850684807876 0 -0.018605157808441831 -0.003519941666620249 0 -0.019037564019577718 -0.0029006881921726322 0 -0.017612607630977405 -0.0039525141457628296 0 -0.019759984955112015 -0.0022198501904033439 0 -0.019800122807117761 -0.0027204058893901479 0 -0.019286339794431714 -0.0028378393395380353 0 -0.019045507532149772 -0.0036879014513651219 0 -0.017931807605785478 -0.00513559789719113 0 -0.017869946452799941 -0.0042331524338157719 0 -0.018366544545366084 -0.003537193154714928 0 -0.017612607630977405 -0.0039525141457628296 0 -0.017015820852312642 -0.0039408057330311101 0 -0.01640459655814281 -0.0044473984778431999 0 -0.015974617867809664 -0.0043483248818082347 0 -0.016227355592356933 -0.004811634476820547 0 -0.01640459655814281 -0.0044473984778431999 0 -0.016726582770304841 -0.0044801991535515645 0 -0.016227355592356933 -0.004811634476820547 0 -0.016726582770304841 -0.0044801991535515645 0 -0.016576742867963425 -0.0049254030009203437 0 -0.016227355592356933 -0.004811634476820547 0 -0.01640459655814281 -0.0044473984778431999 0 -0.016083412385094274 -0.0046361916558785854 0 -0.017015820852312642 -0.0039408057330311101 0 -0.01640459655814281 -0.0044473984778431999 0 -0.016726582770304841 -0.0044801991535515645 0 -0.016726582770304841 -0.0044801991535515645 0 -0.016576742867963425 -0.0049254030009203437 0 -0.016984684259805895 -0.0047513313223301523 0 -0.016726582770304841 -0.0044801991535515645 0 -0.016984684259805895 -0.0047513313223301523 0 -0.017392294862820505 -0.0042734335781037872 0 -0.016984684259805895 -0.0047513313223301523 0 -0.017392294862820505 -0.0042734335781037872 0 -0.01738518261980828 -0.0049403602274903291 0 -0.017015820852312642 -0.0039408057330311101 0 -0.016726582770304841 -0.0044801991535515645 0 -0.017392294862820505 -0.0042734335781037872 0 -0.018313312030474198 -0.0032285292861918154 0 -0.017392294862820505 -0.0042734335781037872 0 -0.01824113289542614 -0.0040494776732161375 0 -0.017392294862820505 -0.0042734335781037872 0 -0.018078449467774534 -0.0047216098684730512 0 -0.01824113289542614 -0.0040494776732161375 0 -0.017392294862820505 -0.0042734335781037872 0 -0.018078449467774534 -0.0047216098684730512 0 -0.01738518261980828 -0.0049403602274903291 0 -0.018078449467774534 -0.0047216098684730512 0 -0.017614627440498066 -0.0056137333524081965 0 -0.01738518261980828 -0.0049403602274903291 0 -0.017614627440498066 -0.0056137333524081965 0 -0.01738518261980828 -0.0049403602274903291 0 -0.016941172725456744 -0.005318995567259838 0 -0.016984684259805895 -0.0047513313223301523 0 -0.01738518261980828 -0.0049403602274903291 0 -0.016941172725456744 -0.005318995567259838 0 -0.016941172725456744 -0.005318995567259838 0 -0.0160591375028479 -0.0059768052122585787 0 -0.016105289567994854 -0.0055437398656000888 0 -0.017614627440498066 -0.0056137333524081965 0 -0.016941172725456744 -0.005318995567259838 0 -0.0160591375028479 -0.0059768052122585787 0 -0.016576742867963425 -0.0049254030009203437 0 -0.016984684259805895 -0.0047513313223301523 0 -0.016941172725456744 -0.005318995567259838 0 -0.016576742867963425 -0.0049254030009203437 0 -0.016941172725456744 -0.005318995567259838 0 -0.016498424652816625 -0.0052509272241129789 0 -0.016941172725456744 -0.005318995567259838 0 -0.016498424652816625 -0.0052509272241129789 0 -0.016105289567994854 -0.0055437398656000888 0 -0.016498424652816625 -0.0052509272241129789 0 -0.016149912339889876 -0.0052363900379519763 0 -0.016105289567994854 -0.0055437398656000888 0 -0.016576742867963425 -0.0049254030009203437 0 -0.016498424652816625 -0.0052509272241129789 0 -0.016149912339889876 -0.0052363900379519763 0 -0.016227355592356933 -0.004811634476820547 0 -0.016576742867963425 -0.0049254030009203437 0 -0.016149912339889876 -0.0052363900379519763 0 -0.01813579376694863 -0.0039703387505351361 0 -0.017889679051378393 -0.0044550595447103089 0 -0.019453679221006197 -0.0029221139118495347 0 -0.019683153978454569 -0.0037697710341590396 0 -0.019624630037083573 -0.0033390084831111983 0 -0.017757631889811283 -0.0042044970663173142 0 -0.017754738880582415 -0.0042231362202608804 0 -0.017739827649922654 -0.0042137536712214462 0 -0.019033107971064368 -0.0037979170862370102 0 -0.017889679051378393 -0.0044550595447103089 0 -0.019033107971064368 -0.0037979170862370102 0 -0.019188608738615762 -0.0038031143728041177 0 -0.020142264306573173 -0.0035288891853423278 0 -0.019683153978454569 -0.0037697710341590396 0 -0.019624630037083573 -0.0033390084831111983 0 -0.020236062189570535 -0.0034844964143043717 0 -0.019919372797960494 -0.0029945759698705543 0 -0.019624630037083573 -0.0033390084831111983 0 -0.019453679221006197 -0.0029221139118495347 0 -0.019728058488509698 -0.0047300676695904344 0 -0.018765856983616686 -0.0042480177575752055 0 -0.018078449467774534 -0.0047216098684730512 0 -0.019728058488509698 -0.0047300676695904344 0 -0.018765856983616686 -0.0042480177575752055 0 -0.018078449467774534 -0.0047216098684730512 0 -0.018765856983616686 -0.0042480177575752055 0 -0.01824113289542614 -0.0040494776732161375 0 -0.018725195274413509 -0.0035613509744608644 0 -0.018765856983616686 -0.0042480177575752055 0 -0.01824113289542614 -0.0040494776732161375 0 -0.018078449467774534 -0.0047216098684730512 0 -0.017614627440498066 -0.0056137333524081965 0 -0.019728058488509698 -0.0047300676695904344 0 -0.017220883346271115 -0.0051863815962607616 0 -0.017889679051378393 -0.0044550595447103089 0 -0.016873278159239374 -0.0055808624524227076 0 -0.017634206985262423 -0.0051992484232815722 0 -0.017336152696481855 -0.0055541960430751502 0 -0.017336152696481855 -0.0055541960430751502 0 -0.01723118404285906 -0.0057172721841270077 0 -0.017737546426780666 -0.005781622353088451 0 -0.016873278159239374 -0.0055808624524227076 0 -0.017336152696481855 -0.0055541960430751502 0 -0.01723118404285906 -0.0057172721841270077 0 -0.017889679051378393 -0.0044550595447103089 0 -0.016369212131289456 -0.0051976903142150008 0 -0.017754738880582415 -0.0042231362202608804 0 -0.017739827649922654 -0.0042137536712214462 0 -0.017742272085819737 -0.0042421756814169029 0 -0.017634206985262423 -0.0051992484232815722 0 -0.017336152696481855 -0.0055541960430751502 0 -0.017737546426780666 -0.005781622353088451 0 -0.014146364884593279 -0.005851258937241202 0 -0.014152629142161042 -0.005853196153245312 0 -0.0141539738670348 -0.0058461673360895193 0 -0.014199721021960229 -0.0061755705220203714 0 -0.014166749356193973 -0.006009253846279451 0 -0.01431911484149726 -0.0060670432195381345 0 -0.016369212131289456 -0.0051976903142150008 0 -0.015842536632557698 -0.0054727498316640187 0 -0.015842536632557698 -0.0054727498316640187 0 -0.015674539168825833 -0.0055301257289042819 0 -0.014166749356193973 -0.006009253846279451 0 -0.014258194228621335 -0.0058739001736471943 0 -0.014147585484668617 -0.0058116185910982894 0 -0.014166749356193973 -0.006009253846279451 0 -0.014277780629783115 -0.0059721586938226365 0 -0.014258194228621335 -0.0058739001736471943 0 -0.014166749356193973 -0.006009253846279451 0 -0.014277780629783115 -0.0059721586938226365 0 -0.01431911484149726 -0.0060670432195381345 0 -0.014363290774732381 -0.0059384661918043449 0 -0.014433250064715386 -0.0060045849047879515 0 -0.014457097071376683 -0.0058951706562363195 0 -0.014277780629783115 -0.0059721586938226365 0 -0.014258194228621335 -0.0058739001736471943 0 -0.014363290774732381 -0.0059384661918043449 0 -0.014277780629783115 -0.0059721586938226365 0 -0.014363290774732381 -0.0059384661918043449 0 -0.01431911484149726 -0.0060670432195381345 0 -0.014363290774732381 -0.0059384661918043449 0 -0.014433250064715386 -0.0060045849047879515 0 -0.01431911484149726 -0.0060670432195381345 0 -0.016369212131289456 -0.0051976903142150008 0 -0.015757010616354362 -0.0056983121790137306 0 -0.014433250064715386 -0.0060045849047879515 0 -0.01431911484149726 -0.0060670432195381345 0 -0.014458906144145162 -0.0061359298330241983 0 -0.014199721021960229 -0.0061755705220203714 0 -0.01431911484149726 -0.0060670432195381345 0 -0.014458906144145162 -0.0061359298330241983 0 -0.01723118404285906 -0.0057172721841270077 0 -0.017737546426780666 -0.005781622353088451 0 -0.016976079027736259 -0.0059498178224397175 0 -0.016873278159239374 -0.0055808624524227076 0 -0.01723118404285906 -0.0057172721841270077 0 -0.016976079027736259 -0.0059498178224397175 0 -0.015757010616354362 -0.0056983121790137306 0 -0.015492789256074672 -0.0059061043620385941 0 -0.016873278159239374 -0.0055808624524227076 0 -0.016976079027736259 -0.0059498178224397175 0 -0.016523544456861376 -0.0059124841460342862 0 -0.016976079027736259 -0.0059498178224397175 0 -0.016523544456861376 -0.0059124841460342862 0 -0.016178251632876953 -0.0061410834202378231 0 -0.016873278159239374 -0.0055808624524227076 0 -0.016523544456861376 -0.0059124841460342862 0 -0.0160591375028479 -0.0059768052122585787 0 -0.014458906144145162 -0.0061359298330241983 0 -0.014759287674135819 -0.0061322662721585942 0 -0.014657197885436232 -0.0060495056328304488 0 -0.017220883346271115 -0.0051863815962607616 0 -0.016667691373907556 -0.0055433361833548507 0 -0.016523544456861376 -0.0059124841460342862 0 -0.016178251632876953 -0.0061410834202378231 0 -0.0160591375028479 -0.0059768052122585787 0 -0.014710133522527582 -0.0059474571800519106 0 -0.014558423453644085 -0.005979120761310729 0 -0.014523929069016287 -0.0057744599752782887 0 -0.014657197885436232 -0.0060495056328304488 0 -0.014710133522527582 -0.0059474571800519106 0 -0.014836469597433942 -0.0060394252507646158 0 -0.014759287674135819 -0.0061322662721585942 0 -0.014657197885436232 -0.0060495056328304488 0 -0.014836469597433942 -0.0060394252507646158 0 -0.014657197885436232 -0.0060495056328304488 0 -0.014710133522527582 -0.0059474571800519106 0 -0.014558423453644085 -0.005979120761310729 0 -0.014458906144145162 -0.0061359298330241983 0 -0.014657197885436232 -0.0060495056328304488 0 -0.014558423453644085 -0.005979120761310729 0 -0.014433250064715386 -0.0060045849047879515 0 -0.014458906144145162 -0.0061359298330241983 0 -0.014558423453644085 -0.005979120761310729 0 -0.014433250064715386 -0.0060045849047879515 0 -0.014558423453644085 -0.005979120761310729 0 -0.014457097071376683 -0.0058951706562363195 0 -0.014457097071376683 -0.0058951706562363195 0 -0.014523929069016287 -0.0057744599752782887 0 -0.014364917812186519 -0.0057644161559143575 0 -0.014558423453644085 -0.005979120761310729 0 -0.014457097071376683 -0.0058951706562363195 0 -0.014523929069016287 -0.0057744599752782887 0 -0.014523929069016287 -0.0057744599752782887 0 -0.014421246718804914 -0.0056031245566240248 0 -0.014364917812186519 -0.0057644161559143575 0 -0.014710133522527582 -0.0059474571800519106 0 -0.014523929069016287 -0.0057744599752782887 0 -0.014690869699115884 -0.0057392845478135834 0 -0.014540891179231399 -0.0055792387308994809 0 -0.014523929069016287 -0.0057744599752782887 0 -0.014690869699115884 -0.0057392845478135834 0 -0.014540891179231399 -0.0055792387308994809 0 -0.014690869699115884 -0.0057392845478135834 0 -0.014681438203365827 -0.0055988690413139282 0 -0.014540891179231399 -0.0055792387308994809 0 -0.014523929069016287 -0.0057744599752782887 0 -0.014421246718804914 -0.0056031245566240248 0 -0.014282034641350609 -0.0054289372670442374 0 -0.014421246718804914 -0.0056031245566240248 0 -0.014364917812186519 -0.0057644161559143575 0 -0.014282034641350609 -0.0054289372670442374 0 -0.014530686440830044 -0.0052572011161426012 0 -0.014305011542633372 -0.004795190577280518 0 -0.014282034641350609 -0.0054289372670442374 0 -0.014123570541728863 -0.0057497079316400331 0 -0.014230403281830209 -0.0057407654071712473 0 -0.014282034641350609 -0.0054289372670442374 0 -0.014230403281830209 -0.0057407654071712473 0 -0.014364917812186519 -0.0057644161559143575 0 -0.014550924005455556 -0.0053597490132998582 0 -0.014707499017066403 -0.0052400282397782093 0 -0.014123570541728863 -0.0057497079316400331 0 -0.014230403281830209 -0.0057407654071712473 0 -0.014147585484668617 -0.0058116185910982894 0 -0.014258194228621335 -0.0058739001736471943 0 -0.014230403281830209 -0.0057407654071712473 0 -0.014147585484668617 -0.0058116185910982894 0 -0.014258194228621335 -0.0058739001736471943 0 -0.014230403281830209 -0.0057407654071712473 0 -0.014364917812186519 -0.0057644161559143575 0 -0.014258194228621335 -0.0058739001736471943 0 -0.014363290774732381 -0.0059384661918043449 0 -0.014364917812186519 -0.0057644161559143575 0 -0.014363290774732381 -0.0059384661918043449 0 -0.014457097071376683 -0.0058951706562363195 0 -0.014364917812186519 -0.0057644161559143575 0 -0.01479875066068167 -0.0061377752927109508 0 -0.01495604624274316 -0.006071113531109837 0 -0.014896334275114564 -0.0060134565725927635 0 -0.01479875066068167 -0.0061377752927109508 0 -0.014896334275114564 -0.0060134565725927635 0 -0.014659247734347999 -0.0060487764047032766 0 -0.01479875066068167 -0.0061377752927109508 0 -0.01484004666233614 -0.0062160791066264119 0 -0.01495604624274316 -0.006071113531109837 0 -0.01479875066068167 -0.0061377752927109508 0 -0.014663725485985053 -0.0061905056028927433 0 -0.014659247734347999 -0.0060487764047032766 0 -0.014478067980541428 -0.006162598010106944 0 -0.014663725485985053 -0.0061905056028927433 0 -0.014659247734347999 -0.0060487764047032766 0 -0.01479875066068167 -0.0061377752927109508 0 -0.014663725485985053 -0.0061905056028927433 0 -0.014731228035456522 -0.0062447474830328691 0 -0.014478067980541428 -0.006162598010106944 0 -0.014656494832046273 -0.0063115222324462809 0 -0.014663725485985053 -0.0061905056028927433 0 -0.014656494832046273 -0.0063115222324462809 0 -0.014663725485985053 -0.0061905056028927433 0 -0.014731228035456522 -0.0062447474830328691 0 -0.014711831735331806 -0.0063251002449845285 0 -0.014731228035456522 -0.0062447474830328691 0 -0.01484004666233614 -0.0062160791066264119 0 -0.01479875066068167 -0.0061377752927109508 0 -0.014731228035456522 -0.0062447474830328691 0 -0.01484004666233614 -0.0062160791066264119 0 -0.01484004666233614 -0.0062160791066264119 0 -0.014981910401576221 -0.0061535375188148649 0 -0.01495604624274316 -0.006071113531109837 0 -0.011015172873689579 -0.0055771667212753222 0 -0.01264442288114819 -0.0055927546263428839 0 -0.014908939233637343 -0.006351676449523432 0 -0.01484004666233614 -0.0062160791066264119 0 -0.014981910401576221 -0.0061535375188148649 0 -0.014736592048550518 -0.0055324541380455186 0 -0.014820920399392619 -0.0056914591291112515 0 -0.014681438203365827 -0.0055988690413139282 0 -0.014690869699115884 -0.0057392845478135834 0 -0.014820920399392619 -0.0056914591291112515 0 -0.014681438203365827 -0.0055988690413139282 0 -0.01264442288114819 -0.0055927546263428839 0 -0.013102092678830238 -0.005653765212711253 0 -0.014710133522527582 -0.0059474571800519106 0 -0.014690869699115884 -0.0057392845478135834 0 -0.014930483017122428 -0.0059817682855161421 0 -0.014690869699115884 -0.0057392845478135834 0 -0.014820920399392619 -0.0056914591291112515 0 -0.014930483017122428 -0.0059817682855161421 0 -0.014981910401576221 -0.0061535375188148649 0 -0.01495604624274316 -0.006071113531109837 0 -0.014930483017122428 -0.0059817682855161421 0 -0.01495604624274316 -0.006071113531109837 0 -0.01512170466160268 -0.0060485761505497037 0 -0.014896334275114564 -0.0060134565725927635 0 -0.01495604624274316 -0.006071113531109837 0 -0.01512170466160268 -0.0060485761505497037 0 -0.014930483017122428 -0.0059817682855161421 0 -0.01512170466160268 -0.0060485761505497037 0 -0.014930483017122428 -0.0059817682855161421 0 -0.014836469597433942 -0.0060394252507646158 0 -0.014759287674135819 -0.0061322662721585942 0 -0.01512170466160268 -0.0060485761505497037 0 -0.014836469597433942 -0.0060394252507646158 0 -0.014710133522527582 -0.0059474571800519106 0 -0.014930483017122428 -0.0059817682855161421 0 -0.014836469597433942 -0.0060394252507646158 0 -0.016178251632876953 -0.0061410834202378231 0 -0.01512170466160268 -0.0060485761505497037 0 -0.015717622813234827 -0.0059138053240344896 0 -0.015492789256074672 -0.0059061043620385941 0 -0.015360073520030338 -0.0059627315810806209 0 -0.016178251632876953 -0.0061410834202378231 0 -0.0160591375028479 -0.0059768052122585787 0 -0.015717622813234827 -0.0059138053240344896 0 -0.015717622813234827 -0.0059138053240344896 0 -0.015802124861898515 -0.005715598237290313 0 -0.015449521469886422 -0.005691672822540429 0 -0.0160591375028479 -0.0059768052122585787 0 -0.015717622813234827 -0.0059138053240344896 0 -0.015802124861898515 -0.005715598237290313 0 -0.0160591375028479 -0.0059768052122585787 0 -0.015802124861898515 -0.005715598237290313 0 -0.016105289567994854 -0.0055437398656000888 0 -0.01512170466160268 -0.0060485761505497037 0 -0.015449521469886422 -0.005691672822540429 0 -0.015117429178568603 -0.0056175288410018898 0 -0.01512170466160268 -0.0060485761505497037 0 -0.015117429178568603 -0.0056175288410018898 0 -0.014955972932459878 -0.0058355586757125304 0 -0.01512170466160268 -0.0060485761505497037 0 -0.015717622813234827 -0.0059138053240344896 0 -0.015449521469886422 -0.005691672822540429 0 -0.015117429178568603 -0.0056175288410018898 0 -0.014955972932459878 -0.0058355586757125304 0 -0.014906234565222826 -0.005612878041561806 0 -0.014955972932459878 -0.0058355586757125304 0 -0.014744624579008886 -0.0058739869869121894 0 -0.014906234565222826 -0.005612878041561806 0 -0.01512170466160268 -0.0060485761505497037 0 -0.014955972932459878 -0.0058355586757125304 0 -0.014896334275114564 -0.0060134565725927635 0 -0.014955972932459878 -0.0058355586757125304 0 -0.014896334275114564 -0.0060134565725927635 0 -0.014744624579008886 -0.0058739869869121894 0 -0.014896334275114564 -0.0060134565725927635 0 -0.014659247734347999 -0.0060487764047032766 0 -0.014744624579008886 -0.0058739869869121894 0 -0.014659247734347999 -0.0060487764047032766 0 -0.014571387491496045 -0.0058929845889768998 0 -0.014744624579008886 -0.0058739869869121894 0 -0.014476325970719971 -0.005978023031941883 0 -0.014659247734347999 -0.0060487764047032766 0 -0.014571387491496045 -0.0058929845889768998 0 -0.014571387491496045 -0.0058929845889768998 0 -0.014744624579008886 -0.0058739869869121894 0 -0.014600242141198646 -0.0057400732069278308 0 -0.014600242141198646 -0.0057400732069278308 0 -0.014680420656046652 -0.0055527555841301587 0 -0.014906234565222826 -0.005612878041561806 0 -0.014744624579008886 -0.0058739869869121894 0 -0.014600242141198646 -0.0057400732069278308 0 -0.014906234565222826 -0.005612878041561806 0 -0.014680420656046652 -0.0055527555841301587 0 -0.014906234565222826 -0.005612878041561806 0 -0.015101642628309483 -0.0052688165092547781 0 -0.014680420656046652 -0.0055527555841301587 0 -0.015101642628309483 -0.0052688165092547781 0 -0.014646916589479343 -0.0052547895236199843 0 -0.015117429178568603 -0.0056175288410018898 0 -0.015101642628309483 -0.0052688165092547781 0 -0.015331393195862002 -0.0053080331578780572 0 -0.015117429178568603 -0.0056175288410018898 0 -0.014906234565222826 -0.005612878041561806 0 -0.015101642628309483 -0.0052688165092547781 0 -0.016025897425260199 -0.0046443681539486952 0 -0.016462389675869396 -0.0044705388092556387 0 -0.015101642628309483 -0.0052688165092547781 0 -0.016548877602287293 -0.0053425378290275589 0 -0.015939185338798852 -0.0046444425874060486 0 -0.015101642628309483 -0.0052688165092547781 0 -0.015226567063134218 -0.0046480012623475063 0 -0.015939185338798852 -0.0046444425874060486 0 -0.015101642628309483 -0.0052688165092547781 0 -0.014792517632471231 -0.0048492737116180868 0 -0.015226567063134218 -0.0046480012623475063 0 -0.014792517632471231 -0.0048492737116180868 0 -0.0145334070868713 -0.0049742287446516006 0 -0.014646916589479343 -0.0052547895236199843 0 -0.014448090574272113 -0.0046970650795353109 0 -0.014792517632471231 -0.0048492737116180868 0 -0.0145334070868713 -0.0049742287446516006 0 -0.015101642628309483 -0.0052688165092547781 0 -0.014792517632471231 -0.0048492737116180868 0 -0.014646916589479343 -0.0052547895236199843 0 -0.016227355592356933 -0.004811634476820547 0 -0.015894497804123813 -0.0050815615119864082 0 -0.016149912339889876 -0.0052363900379519763 0 -0.015894497804123813 -0.0050815615119864082 0 -0.016149912339889876 -0.0052363900379519763 0 -0.015699211046612149 -0.0053904687691062958 0 -0.015802124861898515 -0.005715598237290313 0 -0.016105289567994854 -0.0055437398656000888 0 -0.015699211046612149 -0.0053904687691062958 0 -0.016149912339889876 -0.0052363900379519763 0 -0.016105289567994854 -0.0055437398656000888 0 -0.015699211046612149 -0.0053904687691062958 0 -0.015802124861898515 -0.005715598237290313 0 -0.015449521469886422 -0.005691672822540429 0 -0.015699211046612149 -0.0053904687691062958 0 -0.015894497804123813 -0.0050815615119864082 0 -0.015699211046612149 -0.0053904687691062958 0 -0.015654955683891768 -0.0050621783091309071 0 -0.015699211046612149 -0.0053904687691062958 0 -0.015331393195862002 -0.0053080331578780572 0 -0.015654955683891768 -0.0050621783091309071 0 -0.015449521469886422 -0.005691672822540429 0 -0.015699211046612149 -0.0053904687691062958 0 -0.015331393195862002 -0.0053080331578780572 0 -0.015449521469886422 -0.005691672822540429 0 -0.015117429178568603 -0.0056175288410018898 0 -0.015331393195862002 -0.0053080331578780572 0 -0.015101642628309483 -0.0052688165092547781 0 -0.015331393195862002 -0.0053080331578780572 0 -0.015345054472101435 -0.004948441075875284 0 -0.015331393195862002 -0.0053080331578780572 0 -0.015345054472101435 -0.004948441075875284 0 -0.015654955683891768 -0.0050621783091309071 0 -0.016462389675869396 -0.0044705388092556387 0 -0.017612607630977405 -0.0039525141457628296 0 -0.015345054472101435 -0.004948441075875284 0 -0.015824696169390598 -0.0047117227262410809 0 -0.015929097237178648 -0.0045230383373531854 0 -0.015345054472101435 -0.004948441075875284 0 -0.015654955683891768 -0.0050621783091309071 0 -0.015824696169390598 -0.0047117227262410809 0 -0.016548877602287293 -0.0053425378290275589 0 -0.017931807605785478 -0.00513559789719113 0 -0.017333588565936531 -0.0047913452305575711 0 -0.015654955683891768 -0.0050621783091309071 0 -0.015824696169390598 -0.0047117227262410809 0 -0.015941192335893674 -0.0048606654537091815 0 -0.01640459655814281 -0.0044473984778431999 0 -0.015974617867809664 -0.0043483248818082347 0 -0.016083412385094274 -0.0046361916558785854 0 -0.017554187565351397 -0.004008028584788906 0 -0.017612607630977405 -0.0039525141457628296 0 -0.015824696169390598 -0.0047117227262410809 0 -0.015974617867809664 -0.0043483248818082347 0 -0.016083412385094274 -0.0046361916558785854 0 -0.016227355592356933 -0.004811634476820547 0 -0.016083412385094274 -0.0046361916558785854 0 -0.015941192335893674 -0.0048606654537091815 0 -0.015824696169390598 -0.0047117227262410809 0 -0.016083412385094274 -0.0046361916558785854 0 -0.015941192335893674 -0.0048606654537091815 0 -0.015894497804123813 -0.0050815615119864082 0 -0.015654955683891768 -0.0050621783091309071 0 -0.015941192335893674 -0.0048606654537091815 0 -0.016227355592356933 -0.004811634476820547 0 -0.015894497804123813 -0.0050815615119864082 0 -0.015941192335893674 -0.0048606654537091815 0 -0.017931807605785478 -0.00513559789719113 0 -0.017869946452799941 -0.0042331524338157719 0 -0.017333588565936531 -0.0047913452305575711 0 -0.017869946452799941 -0.0042331524338157719 0 -0.017333588565936531 -0.0047913452305575711 0 -0.016984547100973645 -0.0044493364083205674 0 -0.017869946452799941 -0.0042331524338157719 0 -0.016984547100973645 -0.0044493364083205674 0 -0.017414217981029097 -0.003781330640292911 0 -0.016984547100973645 -0.0044493364083205674 0 -0.016416791832066013 -0.003924226786304579 0 -0.017414217981029097 -0.003781330640292911 0 -0.016548877602287293 -0.0053425378290275589 0 -0.017333588565936531 -0.0047913452305575711 0 -0.016984547100973645 -0.0044493364083205674 0 -0.016548877602287293 -0.0053425378290275589 0 -0.016984547100973645 -0.0044493364083205674 0 -0.015939185338798852 -0.0046444425874060486 0 -0.016984547100973645 -0.0044493364083205674 0 -0.016416791832066013 -0.003924226786304579 0 -0.015939185338798852 -0.0046444425874060486 0 -0.016416791832066013 -0.003924226786304579 0 -0.017115732864806669 -0.003189504566094915 0 -0.01599075686391244 -0.002953550159951026 0 -0.016416791832066013 -0.003924226786304579 0 -0.017115732864806669 -0.003189504566094915 0 -0.017414217981029097 -0.003781330640292911 0 -0.017115732864806669 -0.003189504566094915 0 -0.017414217981029097 -0.003781330640292911 0 -0.018032405751403264 -0.0030397072307097569 0 -0.017414217981029097 -0.003781330640292911 0 -0.018212901015369563 -0.0035966260813932883 0 -0.018032405751403264 -0.0030397072307097569 0 -0.017869946452799941 -0.0042331524338157719 0 -0.017414217981029097 -0.003781330640292911 0 -0.018212901015369563 -0.0035966260813932883 0 -0.014929510640840502 -0.0043468327435246404 0 -0.01459300351079609 -0.0043133480803400634 0 -0.015001294717429827 -0.00370799039869455 0 -0.014929510640840502 -0.0043468327435246404 0 -0.015418208198619932 -0.0040595037444744629 0 -0.015001294717429827 -0.00370799039869455 0 -0.014929510640840502 -0.0043468327435246404 0 -0.01459300351079609 -0.0043133480803400634 0 -0.014680315216695052 -0.0045514357360242064 0 -0.014448090574272113 -0.0046970650795353109 0 -0.01459300351079609 -0.0043133480803400634 0 -0.014680315216695052 -0.0045514357360242064 0 -0.014448090574272113 -0.0046970650795353109 0 -0.014792517632471231 -0.0048492737116180868 0 -0.014680315216695052 -0.0045514357360242064 0 -0.014792517632471231 -0.0048492737116180868 0 -0.014929510640840502 -0.0043468327435246404 0 -0.014680315216695052 -0.0045514357360242064 0 -0.014792517632471231 -0.0048492737116180868 0 -0.014929510640840502 -0.0043468327435246404 0 -0.015226567063134218 -0.0046480012623475063 0 -0.015226567063134218 -0.0046480012623475063 0 -0.015939185338798852 -0.0046444425874060486 0 -0.015418208198619932 -0.0040595037444744629 0 -0.016416791832066013 -0.003924226786304579 0 -0.015939185338798852 -0.0046444425874060486 0 -0.015418208198619932 -0.0040595037444744629 0 -0.014929510640840502 -0.0043468327435246404 0 -0.015226567063134218 -0.0046480012623475063 0 -0.015418208198619932 -0.0040595037444744629 0 -0.015496326387051708 -0.0048449785466901244 0 -0.015256268585053327 -0.0055244789680474202 0 -0.01124283508497176 -0.013354726019772148 0 -0.011361199490574982 -0.0117771195724052 0 -0.013172730671253442 -0.012360685733066709 0 -0.016416791832066013 -0.003924226786304579 0 -0.015418208198619932 -0.0040595037444744629 0 -0.01599075686391244 -0.002953550159951026 0 -0.01273851015954339 -0.0070952571877989749 0 -0.015256268585053327 -0.0055244789680474202 0 -0.015418208198619932 -0.0040595037444744629 0 -0.015001294717429827 -0.00370799039869455 0 -0.015746678201289933 -0.0033142305503342118 0 -0.0094781236974451344 -0.013202094652452988 0 -0.01124283508497176 -0.013354726019772148 0 -0.0098110753583136208 -0.012317809917897457 0 -0.0094781236974451344 -0.013202094652452988 0 -0.0096738976692690593 -0.013868367570475826 0 -0.01124283508497176 -0.013354726019772148 0 -0.010405401305001597 -0.008068081272111071 0 -0.01273851015954339 -0.0070952571877989749 0 -0.0093509361898786933 -0.014261245981595219 0 -0.0096738976692690593 -0.013868367570475826 0 -0.01124283508497176 -0.013354726019772148 0 -0.01124283508497176 -0.013354726019772148 0 -0.011361199490574982 -0.0117771195724052 0 -0.0098110753583136208 -0.012317809917897457 0 -0.014266600674171733 -0.0041442388356554023 0 -0.01459300351079609 -0.0043133480803400634 0 -0.015001294717429827 -0.00370799039869455 0 -0.011361199490574982 -0.0117771195724052 0 -0.0098110753583136208 -0.012317809917897457 0 -0.008737828715928481 -0.011132477863460164 0 -0.011361199490574982 -0.0117771195724052 0 -0.011571491762490702 -0.010176941579220576 0 -0.008737828715928481 -0.011132477863460164 0 -0.013172730671253442 -0.012360685733066709 0 -0.012656379251200639 -0.010678251535963813 0 -0.014289294310438249 -0.0098979570886205855 0 -0.011361199490574982 -0.0117771195724052 0 -0.013172730671253442 -0.012360685733066709 0 -0.012656379251200639 -0.010678251535963813 0 -0.011361199490574982 -0.0117771195724052 0 -0.012656379251200639 -0.010678251535963813 0 -0.011571491762490702 -0.010176941579220576 0 -0.012656379251200639 -0.010678251535963813 0 -0.012871315378316818 -0.0091983622197581386 0 -0.011571491762490702 -0.010176941579220576 0 -0.012656379251200639 -0.010678251535963813 0 -0.012871315378316818 -0.0091983622197581386 0 -0.014289294310438249 -0.0098979570886205855 0 -0.011571491762490702 -0.010176941579220576 0 -0.010694162357023284 -0.0085001109456647288 0 -0.008737828715928481 -0.011132477863460164 0 -0.012871315378316818 -0.0091983622197581386 0 -0.011571491762490702 -0.010176941579220576 0 -0.010694162357023284 -0.0085001109456647288 0 -0.018032405751403264 -0.0030397072307097569 0 -0.017693580784608129 -0.0022643119027241131 0 -0.018868667650450633 -0.002790173037555862 0 -0.017115732864806669 -0.003189504566094915 0 -0.018032405751403264 -0.0030397072307097569 0 -0.017693580784608129 -0.0022643119027241131 0 -0.018794705412086377 -0.0024941391551681763 0 -0.019175359657428986 -0.002294636023443966 0 -0.018979938029883091 -0.0021178215603483153 0 -0.015256268585053327 -0.0055244789680474202 0 -0.016024463679859154 -0.0055382838060575876 0 -0.017115732864806669 -0.003189504566094915 0 -0.01599075686391244 -0.002953550159951026 0 -0.017693580784608129 -0.0022643119027241131 0 -0.015256268585053327 -0.0055244789680474202 0 -0.018059964960308296 -0.003318876636537754 0 -0.012871315378316818 -0.0091983622197581386 0 -0.014289294310438249 -0.0098979570886205855 0 -0.01376084746716162 -0.0082672323514655678 0 -0.019175359657428986 -0.002294636023443966 0 -0.018979938029883091 -0.0021178215603483153 0 -0.019158923454412728 -0.0021664572635550806 0 -0.018979938029883091 -0.0021178215603483153 0 -0.019158923454412728 -0.0021664572635550806 0 -0.018987923044997752 -0.002073441191250532 0 -0.019158923454412728 -0.0021664572635550806 0 -0.01932876649825209 -0.0020184843654069305 0 -0.019364069298477365 -0.0021545822623353765 0 -0.019175359657428986 -0.002294636023443966 0 -0.019158923454412728 -0.0021664572635550806 0 -0.019364069298477365 -0.0021545822623353765 0 -0.018987923044997752 -0.002073441191250532 0 -0.01897266039986183 -0.0023061736317046624 0 -0.018157933573973946 -0.0028670636864294315 0 -0.018987923044997752 -0.002073441191250532 0 -0.019628848395145556 -0.0010458794743284767 0 -0.019534348654595499 -0.0016591666482867618 0 -0.01932876649825209 -0.0020184843654069305 0 -0.018987923044997752 -0.002073441191250532 0 -0.019534348654595499 -0.0016591666482867618 0 -0.019158923454412728 -0.0021664572635550806 0 -0.01932876649825209 -0.0020184843654069305 0 -0.018987923044997752 -0.002073441191250532 0 -0.016024463679859154 -0.0055382838060575876 0 -0.01671981695523678 -0.0047975669814391345 0 -0.018979938029883091 -0.0021178215603483153 0 -0.018987923044997752 -0.002073441191250532 0 -0.01897266039986183 -0.0023061736317046624 0 -0.014289294310438249 -0.0098979570886205855 0 -0.015341804129351731 -0.00753790625464396 0 -0.01376084746716162 -0.0082672323514655678 0 -0.015341804129351731 -0.00753790625464396 0 -0.01376084746716162 -0.0082672323514655678 0 -0.01383489106032397 -0.0071230404369952722 0 -0.01383489106032397 -0.0071230404369952722 0 -0.014281088848743477 -0.0058758434408681635 0 -0.01476002597994518 -0.0067917882103139806 0 -0.01383489106032397 -0.0071230404369952722 0 -0.014281088848743477 -0.0058758434408681635 0 -0.01267441387121563 -0.0061197602709357965 0 -0.014281088848743477 -0.0058758434408681635 0 -0.01476002597994518 -0.0067917882103139806 0 -0.015286984829153614 -0.0060211542928820415 0 -0.015341804129351731 -0.00753790625464396 0 -0.01476002597994518 -0.0067917882103139806 0 -0.015286984829153614 -0.0060211542928820415 0 -0.015341804129351731 -0.00753790625464396 0 -0.01383489106032397 -0.0071230404369952722 0 -0.01476002597994518 -0.0067917882103139806 0 -0.01897266039986183 -0.0023061736317046624 0 -0.018245559214853893 -0.003044509509785819 0 -0.018157933573973946 -0.0028670636864294315 0 -0.019013098107290398 -0.0021299847301453709 0 -0.019101445253809121 -0.0020151650778084998 0 -0.01671981695523678 -0.0047975669814391345 0 -0.017185488098753299 -0.0040563823407445019 0 -0.015341804129351731 -0.00753790625464396 0 -0.015286984829153614 -0.0060211542928820415 0 -0.016414669951555588 -0.0053641904429111006 0 -0.010694162357023284 -0.0085001109456647288 0 -0.011053420032574932 -0.0065171763946342345 0 -0.0085750917717913565 -0.0075061509975194451 0 -0.010694162357023284 -0.0085001109456647288 0 -0.012433545065620291 -0.0075947623297563044 0 -0.011053420032574932 -0.0065171763946342345 0 -0.012871315378316818 -0.0091983622197581386 0 -0.010694162357023284 -0.0085001109456647288 0 -0.012433545065620291 -0.0075947623297563044 0 -0.012871315378316818 -0.0091983622197581386 0 -0.01376084746716162 -0.0082672323514655678 0 -0.012433545065620291 -0.0075947623297563044 0 -0.01376084746716162 -0.0082672323514655678 0 -0.01383489106032397 -0.0071230404369952722 0 -0.012433545065620291 -0.0075947623297563044 0 -0.01267441387121563 -0.0061197602709357965 0 -0.011053420032574932 -0.0065171763946342345 0 -0.011956005699985077 -0.0046433882102830878 0 -0.012433545065620291 -0.0075947623297563044 0 -0.01267441387121563 -0.0061197602709357965 0 -0.011053420032574932 -0.0065171763946342345 0 -0.01383489106032397 -0.0071230404369952722 0 -0.012433545065620291 -0.0075947623297563044 0 -0.01267441387121563 -0.0061197602709357965 0 -0.011053420032574932 -0.0065171763946342345 0 -0.011956005699985077 -0.0046433882102830878 0 -0.0098531705593142335 -0.0048977604988949151 0 -0.01080577896316723 -0.0033976003171192698 0 -0.011956005699985077 -0.0046433882102830878 0 -0.0098531705593142335 -0.0048977604988949151 0 -0.01080577896316723 -0.0033976003171192698 0 -0.010546117491501245 -0.00201133076133115 0 -0.012567221255214183 -0.0024242822727755338 0 -0.01080577896316723 -0.0033976003171192698 0 -0.011956005699985077 -0.0046433882102830878 0 -0.012567221255214183 -0.0024242822727755338 0 -0.011956005699985077 -0.0046433882102830878 0 -0.013704853537689061 -0.0044588642421812368 0 -0.012567221255214183 -0.0024242822727755338 0 -0.013704853537689061 -0.0044588642421812368 0 -0.014329680663939052 -0.003238289655999255 0 -0.012567221255214183 -0.0024242822727755338 0 -0.01267441387121563 -0.0061197602709357965 0 -0.011956005699985077 -0.0046433882102830878 0 -0.013704853537689061 -0.0044588642421812368 0 -0.014281088848743477 -0.0058758434408681635 0 -0.01267441387121563 -0.0061197602709357965 0 -0.013704853537689061 -0.0044588642421812368 0 -0.014281088848743477 -0.0058758434408681635 0 -0.015047142263670307 -0.0050487839463278011 0 -0.013704853537689061 -0.0044588642421812368 0 -0.014281088848743477 -0.0058758434408681635 0 -0.015286984829153614 -0.0060211542928820415 0 -0.015047142263670307 -0.0050487839463278011 0 -0.015047142263670307 -0.0050487839463278011 0 -0.013704853537689061 -0.0044588642421812368 0 -0.015074150549565429 -0.0040000191715777976 0 -0.015286984829153614 -0.0060211542928820415 0 -0.015047142263670307 -0.0050487839463278011 0 -0.01563807045264954 -0.0052508867030363693 0 -0.015286984829153614 -0.0060211542928820415 0 -0.016414669951555588 -0.0053641904429111006 0 -0.01563807045264954 -0.0052508867030363693 0 -0.016414669951555588 -0.0053641904429111006 0 -0.01563807045264954 -0.0052508867030363693 0 -0.015797839498349071 -0.0045674491381424188 0 -0.015047142263670307 -0.0050487839463278011 0 -0.01563807045264954 -0.0052508867030363693 0 -0.015797839498349071 -0.0045674491381424188 0 -0.015047142263670307 -0.0050487839463278011 0 -0.015797839498349071 -0.0045674491381424188 0 -0.015074150549565429 -0.0040000191715777976 0 -0.016414669951555588 -0.0053641904429111006 0 -0.015797839498349071 -0.0045674491381424188 0 -0.016550108364438074 -0.0039553416016420298 0 -0.016414669951555588 -0.0053641904429111006 0 -0.016550108364438074 -0.0039553416016420298 0 -0.017691186834125235 -0.0031450529590045257 0 -0.016550108364438074 -0.0039553416016420298 0 -0.016033228219715555 -0.0036625589096020436 0 -0.01659679426500309 -0.0029784199123758016 0 -0.015797839498349071 -0.0045674491381424188 0 -0.016033228219715555 -0.0036625589096020436 0 -0.015074150549565429 -0.0040000191715777976 0 -0.016033228219715555 -0.0036625589096020436 0 -0.015546892792335112 -0.0030270443900914795 0 -0.015074150549565429 -0.0040000191715777976 0 -0.015797839498349071 -0.0045674491381424188 0 -0.016550108364438074 -0.0039553416016420298 0 -0.016033228219715555 -0.0036625589096020436 0 -0.016033228219715555 -0.0036625589096020436 0 -0.015546892792335112 -0.0030270443900914795 0 -0.01659679426500309 -0.0029784199123758016 0 -0.015546892792335112 -0.0030270443900914795 0 -0.01659679426500309 -0.0029784199123758016 0 -0.016334109318074323 -0.0021432850202342856 0 -0.016550108364438074 -0.0039553416016420298 0 -0.01659679426500309 -0.0029784199123758016 0 -0.017691186834125235 -0.0031450529590045257 0 -0.014329680663939052 -0.003238289655999255 0 -0.014845166499421247 -0.0021276598470791946 0 -0.012567221255214183 -0.0024242822727755338 0 -0.013704853537689061 -0.0044588642421812368 0 -0.015074150549565429 -0.0040000191715777976 0 -0.014329680663939052 -0.003238289655999255 0 -0.015546892792335112 -0.0030270443900914795 0 -0.015074150549565429 -0.0040000191715777976 0 -0.014329680663939052 -0.003238289655999255 0 -0.015546892792335112 -0.0030270443900914795 0 -0.014329680663939052 -0.003238289655999255 0 -0.014845166499421247 -0.0021276598470791946 0 -0.013900554179700207 -0.0011298606402554939 0 -0.014845166499421247 -0.0021276598470791946 0 -0.016226231971936414 -0.000627789616557959 0 -0.013900554179700207 -0.0011298606402554939 0 -0.014845166499421247 -0.0021276598470791946 0 -0.012567221255214183 -0.0024242822727755338 0 -0.014845166499421247 -0.0021276598470791946 0 -0.016334109318074323 -0.0021432850202342856 0 -0.016226231971936414 -0.000627789616557959 0 -0.016334109318074323 -0.0021432850202342856 0 -0.016226231971936414 -0.000627789616557959 0 -0.017857408674172306 -0.0016841135220849591 0 -0.01659679426500309 -0.0029784199123758016 0 -0.016334109318074323 -0.0021432850202342856 0 -0.017374722051224836 -0.0025337289768269425 0 -0.015546892792335112 -0.0030270443900914795 0 -0.014845166499421247 -0.0021276598470791946 0 -0.016334109318074323 -0.0021432850202342856 0 -0.013900554179700207 -0.0011298606402554939 0 -0.012783239754267615 -5.4319812879579613e-05 0 -0.01455321179887922 0.00088534276934390272 0 -0.013900554179700207 -0.0011298606402554939 0 -0.016226231971936414 -0.000627789616557959 0 -0.01455321179887922 0.00088534276934390272 0 -0.012783239754267615 -5.4319812879579613e-05 0 -0.010987856131122872 -0.00037919585441512901 0 -0.012567221255214183 -0.0024242822727755338 0 -0.012783239754267615 -5.4319812879579613e-05 0 -0.010987856131122872 -0.00037919585441512901 0 -0.012665537106183039 0.0018674139952581923 0 -0.010987856131122872 -0.00037919585441512901 0 -0.010546117491501245 -0.00201133076133115 0 -0.012567221255214183 -0.0024242822727755338 0 -0.013900554179700207 -0.0011298606402554939 0 -0.012783239754267615 -5.4319812879579613e-05 0 -0.012567221255214183 -0.0024242822727755338 0 -0.021368859959363891 -6.7624357496184567e-05 0 -0.021603611425653785 0.00021423060720793989 0 -0.021077292689856055 0.00025013699345296554 0 -0.021754071672726728 -1.634247033136227e-05 0 -0.021934603717398232 0.00024295721565719712 0 -0.021603611425653785 0.00021423060720793989 0 -0.021368859959363891 -6.7624357496184567e-05 0 -0.021754071672726728 -1.634247033136227e-05 0 -0.021603611425653785 0.00021423060720793989 0 -0.021368859959363891 -6.7624357496184567e-05 0 -0.021754071672726728 -1.634247033136227e-05 0 -0.021603401090596698 -0.00039628398881640537 0 -0.021754071672726728 -1.634247033136227e-05 0 -0.022043342645958558 -7.1109297775132974e-05 0 -0.021603401090596698 -0.00039628398881640537 0 -0.021754071672726728 -1.634247033136227e-05 0 -0.022043342645958558 -7.1109297775132974e-05 0 -0.022154768145084353 0.0001646949610114059 0 -0.022043342645958558 -7.1109297775132974e-05 0 -0.022154768145084353 0.0001646949610114059 0 -0.022407595635054255 0.00017184338648722889 0 -0.021754071672726728 -1.634247033136227e-05 0 -0.022154768145084353 0.0001646949610114059 0 -0.021934603717398232 0.00024295721565719712 0 -0.022154768145084353 0.0001646949610114059 0 -0.021934603717398232 0.00024295721565719712 0 -0.022239217638629738 0.00039449150915080877 0 -0.021934603717398232 0.00024295721565719712 0 -0.022239217638629738 0.00039449150915080877 0 -0.021961337249111795 0.00041804945169777498 0 -0.022154768145084353 0.0001646949610114059 0 -0.022239217638629738 0.00039449150915080877 0 -0.022404989506682443 0.00033350014516608128 0 -0.022239217638629738 0.00039449150915080877 0 -0.022453565793364248 0.00055763427010438232 0 -0.022230265137377397 0.0005491247528274613 0 -0.022239217638629738 0.00039449150915080877 0 -0.022463098004081937 0.0004503189615661332 0 -0.022453565793364248 0.00055763427010438232 0 -0.022239217638629738 0.00039449150915080877 0 -0.022463098004081937 0.0004503189615661332 0 -0.022404989506682443 0.00033350014516608128 0 -0.022239217638629738 0.00039449150915080877 0 -0.021961337249111795 0.00041804945169777498 0 -0.022230265137377397 0.0005491247528274613 0 -0.021703442457763341 0.00047467443976239096 0 -0.021603611425653785 0.00021423060720793989 0 -0.021077292689856055 0.00025013699345296554 0 -0.021961337249111795 0.00041804945169777498 0 -0.021703442457763341 0.00047467443976239096 0 -0.022030345893335961 0.00067715068157185598 0 -0.021703442457763341 0.00047467443976239096 0 -0.021077292689856055 0.00025013699345296554 0 -0.02156099697637464 0.0009498827282867396 0 -0.021961337249111795 0.00041804945169777498 0 -0.021703442457763341 0.00047467443976239096 0 -0.021603611425653785 0.00021423060720793989 0 -0.021934603717398232 0.00024295721565719712 0 -0.021961337249111795 0.00041804945169777498 0 -0.021603611425653785 0.00021423060720793989 0 -0.019550270393440958 -0.0012771491626868028 0 -0.018399954407352443 -0.00029976948049210934 0 -0.019623301501589408 0.00050504740967205659 0 -0.020226887220119727 -0.00041602115607502636 0 -0.020723920947415406 0.00037258249681040525 0 -0.019550270393440958 -0.0012771491626868028 0 -0.018399954407352443 -0.00029976948049210934 0 -0.017857408674172306 -0.0016841135220849591 0 -0.016226231971936414 -0.000627789616557959 0 -0.018399954407352443 -0.00029976948049210934 0 -0.01783681431194423 0.00093967326461985633 0 -0.016226231971936414 -0.000627789616557959 0 -0.018399954407352443 -0.00029976948049210934 0 -0.017857408674172306 -0.0016841135220849591 0 -0.019550270393440958 -0.0012771491626868028 0 -0.017857408674172306 -0.0016841135220849591 0 -0.017980928252870381 -0.0033028187640288752 0 -0.017857408674172306 -0.0016841135220849591 0 -0.017374722051224836 -0.0025337289768269425 0 -0.017980928252870381 -0.0033028187640288752 0 -0.016334109318074323 -0.0021432850202342856 0 -0.017857408674172306 -0.0016841135220849591 0 -0.017374722051224836 -0.0025337289768269425 0 -0.020226887220119727 -0.00041602115607502636 0 -0.019483902443249244 -0.0015237794620486199 0 -0.021077292689856055 0.00025013699345296554 0 -0.020915620571290993 -0.00021405525092763159 0 -0.020417295562402731 -0.00030100106821485663 0 -0.021368859959363891 -6.7624357496184567e-05 0 -0.021077292689856055 0.00025013699345296554 0 -0.020915620571290993 -0.00021405525092763159 0 -0.021368859959363891 -6.7624357496184567e-05 0 -0.020915620571290993 -0.00021405525092763159 0 -0.021026565271092819 -0.0004961036083365308 0 -0.020915620571290993 -0.00021405525092763159 0 -0.020676498403739776 -0.00051993821756159033 0 -0.020417295562402731 -0.00030100106821485663 0 -0.020915620571290993 -0.00021405525092763159 0 -0.020676498403739776 -0.00051993821756159033 0 -0.021026565271092819 -0.0004961036083365308 0 -0.018245559214853893 -0.003044509509785819 0 -0.017691186834125235 -0.0031450529590045257 0 -0.017980928252870381 -0.0033028187640288752 0 -0.017374722051224836 -0.0025337289768269425 0 -0.017691186834125235 -0.0031450529590045257 0 -0.017980928252870381 -0.0033028187640288752 0 -0.01659679426500309 -0.0029784199123758016 0 -0.017374722051224836 -0.0025337289768269425 0 -0.017691186834125235 -0.0031450529590045257 0 -0.018245559214853893 -0.003044509509785819 0 -0.017980928252870381 -0.0033028187640288752 0 -0.018157933573973946 -0.0028670636864294315 0 -0.017185488098753299 -0.0040563823407445019 0 -0.017406966925916867 -0.0036208909791329374 0 -0.020417295562402731 -0.00030100106821485663 0 -0.020351053367328755 -0.00080551707811006275 0 -0.019628848395145556 -0.0010458794743284767 0 -0.019483902443249244 -0.0015237794620486199 0 -0.019101445253809121 -0.0020151650778084998 0 -0.020676498403739776 -0.00051993821756159033 0 -0.020417295562402731 -0.00030100106821485663 0 -0.020351053367328755 -0.00080551707811006275 0 -0.021026565271092819 -0.0004961036083365308 0 -0.020736951526312469 -0.00078724011257967315 0 -0.020996129313924861 -0.00082215733306930164 0 -0.020676498403739776 -0.00051993821756159033 0 -0.021026565271092819 -0.0004961036083365308 0 -0.020736951526312469 -0.00078724011257967315 0 -0.020676498403739776 -0.00051993821756159033 0 -0.020351053367328755 -0.00080551707811006275 0 -0.020736951526312469 -0.00078724011257967315 0 -0.020351053367328755 -0.00080551707811006275 0 -0.020736951526312469 -0.00078724011257967315 0 -0.020508725218556675 -0.001070391096802768 0 -0.020736951526312469 -0.00078724011257967315 0 -0.020908075329980992 -0.0010302080041206898 0 -0.020508725218556675 -0.001070391096802768 0 -0.020736951526312469 -0.00078724011257967315 0 -0.020996129313924861 -0.00082215733306930164 0 -0.020908075329980992 -0.0010302080041206898 0 -0.020996129313924861 -0.00082215733306930164 0 -0.021243120520467514 -0.00074559959083887338 0 -0.02119444857340963 -0.00099694928242629547 0 -0.020996129313924861 -0.00082215733306930164 0 -0.02119444857340963 -0.00099694928242629547 0 -0.020908075329980992 -0.0010302080041206898 0 -0.021243120520467514 -0.00074559959083887338 0 -0.021525435487032975 -0.00072092454822165585 0 -0.021460568586663804 -0.00095752161282151762 0 -0.021243120520467514 -0.00074559959083887338 0 -0.021460568586663804 -0.00095752161282151762 0 -0.02119444857340963 -0.00099694928242629547 0 -0.021243120520467514 -0.00074559959083887338 0 -0.021603401090596698 -0.00039628398881640537 0 -0.021525435487032975 -0.00072092454822165585 0 -0.021026565271092819 -0.0004961036083365308 0 -0.020996129313924861 -0.00082215733306930164 0 -0.021243120520467514 -0.00074559959083887338 0 -0.021368859959363891 -6.7624357496184567e-05 0 -0.021026565271092819 -0.0004961036083365308 0 -0.021603401090596698 -0.00039628398881640537 0 -0.021026565271092819 -0.0004961036083365308 0 -0.021243120520467514 -0.00074559959083887338 0 -0.021603401090596698 -0.00039628398881640537 0 -0.021603401090596698 -0.00039628398881640537 0 -0.021783553170291133 -0.00070043972103199157 0 -0.022085931729012662 -0.00032234012354404235 0 -0.022043342645958558 -7.1109297775132974e-05 0 -0.021603401090596698 -0.00039628398881640537 0 -0.022085931729012662 -0.00032234012354404235 0 -0.021603401090596698 -0.00039628398881640537 0 -0.021783553170291133 -0.00070043972103199157 0 -0.021525435487032975 -0.00072092454822165585 0 -0.021783553170291133 -0.00070043972103199157 0 -0.021525435487032975 -0.00072092454822165585 0 -0.021460568586663804 -0.00095752161282151762 0 -0.021783553170291133 -0.00070043972103199157 0 -0.021460568586663804 -0.00095752161282151762 0 -0.021659011512067443 -0.0010459630124357083 0 -0.021783553170291133 -0.00070043972103199157 0 -0.021659011512067443 -0.0010459630124357083 0 -0.021770852160471737 -0.0010439133310525214 0 -0.021659011512067443 -0.0010459630124357083 0 -0.02175685461441167 -0.0011477762365485651 0 -0.021502450373931292 -0.0011850891144339567 0 -0.021659011512067443 -0.0010459630124357083 0 -0.02175685461441167 -0.0011477762365485651 0 -0.021770852160471737 -0.0010439133310525214 0 -0.02175685461441167 -0.0011477762365485651 0 -0.021502450373931292 -0.0011850891144339567 0 -0.021384743656593042 -0.0014584488506563958 0 -0.021460568586663804 -0.00095752161282151762 0 -0.021659011512067443 -0.0010459630124357083 0 -0.021502450373931292 -0.0011850891144339567 0 -0.021460568586663804 -0.00095752161282151762 0 -0.02119444857340963 -0.00099694928242629547 0 -0.021205045033883863 -0.001252448622975539 0 -0.021460568586663804 -0.00095752161282151762 0 -0.021502450373931292 -0.0011850891144339567 0 -0.021205045033883863 -0.001252448622975539 0 -0.020908075329980992 -0.0010302080041206898 0 -0.021205045033883863 -0.001252448622975539 0 -0.020717895651005069 -0.0013445320723439274 0 -0.02119444857340963 -0.00099694928242629547 0 -0.020908075329980992 -0.0010302080041206898 0 -0.021205045033883863 -0.001252448622975539 0 -0.021205045033883863 -0.001252448622975539 0 -0.020961778768917225 -0.001638198383653203 0 -0.020717895651005069 -0.0013445320723439274 0 -0.021205045033883863 -0.001252448622975539 0 -0.021384743656593042 -0.0014584488506563958 0 -0.020961778768917225 -0.001638198383653203 0 -0.021502450373931292 -0.0011850891144339567 0 -0.021205045033883863 -0.001252448622975539 0 -0.021384743656593042 -0.0014584488506563958 0 -0.021384743656593042 -0.0014584488506563958 0 -0.020961778768917225 -0.001638198383653203 0 -0.021443592457860372 -0.0019285125275344125 0 -0.020961778768917225 -0.001638198383653203 0 -0.021443592457860372 -0.0019285125275344125 0 -0.020590982816374562 -0.0021724686626444062 0 -0.020769638514854038 -0.0015128684798444297 0 -0.020233621172382265 -0.0017483314089884955 0 -0.02175685461441167 -0.0011477762365485651 0 -0.021384743656593042 -0.0014584488506563958 0 -0.021443592457860372 -0.0019285125275344125 0 -0.020659683556741599 -0.0011216767717818507 0 -0.020966058306964498 -0.0013378133669444405 0 -0.021054148420594186 -0.0010803070703689708 0 -0.02175685461441167 -0.0011477762365485651 0 -0.021939032031018796 -0.0008961003964897573 0 -0.021704158924634051 -0.00093535946144799459 0 -0.020769638514854038 -0.0015128684798444297 0 -0.021170473231987109 -0.0013419577981252523 0 -0.02109435505388001 -0.0012632935452912722 0 -0.020769638514854038 -0.0015128684798444297 0 -0.019628848395145556 -0.0010458794743284767 0 -0.019870332424830786 -0.0013725748518206272 0 -0.019534348654595499 -0.0016591666482867618 0 -0.019870332424830786 -0.0013725748518206272 0 -0.019852429195951763 -0.0016016970667147802 0 -0.019534348654595499 -0.0016591666482867618 0 -0.019628848395145556 -0.0010458794743284767 0 -0.020096885803175344 -0.0011357693305456768 0 -0.019870332424830786 -0.0013725748518206272 0 -0.020351053367328755 -0.00080551707811006275 0 -0.019628848395145556 -0.0010458794743284767 0 -0.020096885803175344 -0.0011357693305456768 0 -0.019870332424830786 -0.0013725748518206272 0 -0.020215240611662126 -0.0014274896963392336 0 -0.019852429195951763 -0.0016016970667147802 0 -0.020096885803175344 -0.0011357693305456768 0 -0.019870332424830786 -0.0013725748518206272 0 -0.020215240611662126 -0.0014274896963392336 0 -0.020215240611662126 -0.0014274896963392336 0 -0.020717895651005069 -0.0013445320723439274 0 -0.020450873199209081 -0.0016965021414165104 0 -0.020215240611662126 -0.0014274896963392336 0 -0.020508725218556675 -0.001070391096802768 0 -0.020717895651005069 -0.0013445320723439274 0 -0.020351053367328755 -0.00080551707811006275 0 -0.020096885803175344 -0.0011357693305456768 0 -0.020508725218556675 -0.001070391096802768 0 -0.020096885803175344 -0.0011357693305456768 0 -0.020215240611662126 -0.0014274896963392336 0 -0.020508725218556675 -0.001070391096802768 0 -0.020908075329980992 -0.0010302080041206898 0 -0.020508725218556675 -0.001070391096802768 0 -0.020717895651005069 -0.0013445320723439274 0 -0.020961778768917225 -0.001638198383653203 0 -0.020717895651005069 -0.0013445320723439274 0 -0.020450873199209081 -0.0016965021414165104 0 -0.020961778768917225 -0.001638198383653203 0 -0.020450873199209081 -0.0016965021414165104 0 -0.020590982816374562 -0.0021724686626444062 0 -0.020450873199209081 -0.0016965021414165104 0 -0.019885070837778001 -0.0018509700911980326 0 -0.020590982816374562 -0.0021724686626444062 0 -0.020215240611662126 -0.0014274896963392336 0 -0.020450873199209081 -0.0016965021414165104 0 -0.019885070837778001 -0.0018509700911980326 0 -0.019885070837778001 -0.0018509700911980326 0 -0.019364069298477365 -0.0021545822623353765 0 -0.020590982816374562 -0.0021724686626444062 0 -0.020215240611662126 -0.0014274896963392336 0 -0.019852429195951763 -0.0016016970667147802 0 -0.019885070837778001 -0.0018509700911980326 0 -0.019852429195951763 -0.0016016970667147802 0 -0.019885070837778001 -0.0018509700911980326 0 -0.019594002181372246 -0.0018729241425261352 0 -0.01932876649825209 -0.0020184843654069305 0 -0.019594002181372246 -0.0018729241425261352 0 -0.019364069298477365 -0.0021545822623353765 0 -0.019885070837778001 -0.0018509700911980326 0 -0.019594002181372246 -0.0018729241425261352 0 -0.019364069298477365 -0.0021545822623353765 0 -0.01932876649825209 -0.0020184843654069305 0 -0.019594002181372246 -0.0018729241425261352 0 -0.019534348654595499 -0.0016591666482867618 0 -0.019852429195951763 -0.0016016970667147802 0 -0.019594002181372246 -0.0018729241425261352 0 -0.019534348654595499 -0.0016591666482867618 0 -0.01996568042303223 -0.0018373416005394803 0 -0.020233621172382265 -0.0017483314089884955 0 -0.018059964960308296 -0.003318876636537754 0 -0.018741010297400853 -0.0027913026738070508 0 -0.019175359657428986 -0.002294636023443966 0 -0.019364069298477365 -0.0021545822623353765 0 -0.019389960909814187 -0.0020501897098653648 0 -0.019364069298477365 -0.0021545822623353765 0 -0.019389960909814187 -0.0020501897098653648 0 -0.019542564866345848 -0.0019030987449196975 0 -0.017693580784608129 -0.0022643119027241131 0 -0.019389960909814187 -0.0020501897098653648 0 -0.018860724106318838 -0.0023509188316370847 0 -0.019389960909814187 -0.0020501897098653648 0 -0.018860724106318838 -0.0023509188316370847 0 -0.019339211219500604 -0.0023002088143292019 0 -0.019339211219500604 -0.0023002088143292019 0 -0.019542564866345848 -0.0019030987449196975 0 -0.019790014658363442 -0.0025390641815557953 0 -0.019389960909814187 -0.0020501897098653648 0 -0.019339211219500604 -0.0023002088143292019 0 -0.019542564866345848 -0.0019030987449196975 0 -0.019339211219500604 -0.0023002088143292019 0 -0.019790014658363442 -0.0025390641815557953 0 -0.018868667650450633 -0.002790173037555862 0 -0.019045507532149772 -0.0036879014513651219 0 -0.019790014658363442 -0.0025390641815557953 0 -0.018868667650450633 -0.002790173037555862 0 -0.019037564019577718 -0.0029006881921726322 0 -0.019944081144837512 -0.0021601873310580304 0 -0.017693580784608129 -0.0022643119027241131 0 -0.018860724106318838 -0.0023509188316370847 0 -0.018868667650450633 -0.002790173037555862 0 -0.018860724106318838 -0.0023509188316370847 0 -0.019339211219500604 -0.0023002088143292019 0 -0.018868667650450633 -0.002790173037555862 0 -0.018546601608890052 -0.0032796685771996244 0 -0.018032405751403264 -0.0030397072307097569 0 -0.018868667650450633 -0.002790173037555862 0 -0.020659683556741599 -0.0011216767717818507 0 -0.020966058306964498 -0.0013378133669444405 0 -0.020740409065115494 -0.0015974676106501821 0 -0.020966058306964498 -0.0013378133669444405 0 -0.020740409065115494 -0.0015974676106501821 0 -0.021230537897132248 -0.0016234458889305848 0 -0.020659683556741599 -0.0011216767717818507 0 -0.020226097119749837 -0.0016405553274012634 0 -0.020740409065115494 -0.0015974676106501821 0 -0.020769638514854038 -0.0015128684798444297 0 -0.019944081144837512 -0.0021601873310580304 0 -0.020285428231619294 -0.001773517584576761 0 -0.019542564866345848 -0.0019030987449196975 0 -0.019790014658363442 -0.0025390641815557953 0 -0.020319650909605896 -0.0020369962851522557 0 -0.020226097119749837 -0.0016405553274012634 0 -0.020559708427107012 -0.0018675189909978377 0 -0.020226097119749837 -0.0016405553274012634 0 -0.020559708427107012 -0.0018675189909978377 0 -0.020740409065115494 -0.0015974676106501821 0 -0.020787236900571746 -0.002106227609328327 0 -0.020559708427107012 -0.0018675189909978377 0 -0.020740409065115494 -0.0015974676106501821 0 -0.020787236900571746 -0.002106227609328327 0 -0.020740409065115494 -0.0015974676106501821 0 -0.021230537897132248 -0.0016234458889305848 0 -0.020068478225115743 -0.0022997283069618605 0 -0.020730970840032722 -0.0017594045685859186 0 -0.020966058306964498 -0.0013378133669444405 0 -0.021230537897132248 -0.0016234458889305848 0 -0.021249380488843856 -0.0012773219734511557 0 -0.020966058306964498 -0.0013378133669444405 0 -0.021249380488843856 -0.0012773219734511557 0 -0.021054148420594186 -0.0010803070703689708 0 -0.020667603798184719 -0.0016675882025323234 0 -0.021453545691124849 -0.0012495731579711677 0 -0.021557367914760997 -0.0016538284995838023 0 -0.021230537897132248 -0.0016234458889305848 0 -0.021249380488843856 -0.0012773219734511557 0 -0.021453545691124849 -0.0012495731579711677 0 -0.020730970840032722 -0.0017594045685859186 0 -0.02101868366440892 -0.0015215580452648924 0 -0.021424012949058439 -0.002188186076461093 0 -0.020667603798184719 -0.0016675882025323234 0 -0.021557367914760997 -0.0016538284995838023 0 -0.022073406957792321 -0.002205047523288838 0 -0.021424012949058439 -0.002188186076461093 0 -0.021557367914760997 -0.0016538284995838023 0 -0.022073406957792321 -0.002205047523288838 0 -0.021557367914760997 -0.0016538284995838023 0 -0.021931962072010591 -0.0015039359006430374 0 -0.020390751773363441 0.00031925117150613394 0 -0.020903347846246496 0.00012544316195331706 0 -0.021453545691124849 -0.0012495731579711677 0 -0.021557367914760997 -0.0016538284995838023 0 -0.021931962072010591 -0.0015039359006430374 0 -0.021453545691124849 -0.0012495731579711677 0 -0.021783813380795609 -0.0010391586908268034 0 -0.021590833051193119 -0.0010293469619793091 0 -0.021453545691124849 -0.0012495731579711677 0 -0.021931962072010591 -0.0015039359006430374 0 -0.021783813380795609 -0.0010391586908268034 0 -0.020903347846246496 0.00012544316195331706 0 -0.021280937343447735 -0.00018153575358801486 0 -0.020277783100002198 0.0021423273570276946 0 -0.021064055408812631 0.00088642282096052189 0 -0.019898495949005352 0.0010864946314912795 0 -0.021064055408812631 0.00088642282096052189 0 -0.020892686105154417 0.00014238684325012754 0 -0.019898495949005352 0.0010864946314912795 0 -0.021280937343447735 -0.00018153575358801486 0 -0.021530253140614117 -0.00043692473243836137 0 -0.021064055408812631 0.00088642282096052189 0 -0.020892686105154417 0.00014238684325012754 0 -0.021689225776348183 -0.00040455098595112689 0 -0.021783813380795609 -0.0010391586908268034 0 -0.021694233956396115 -0.00095004007367991035 0 -0.021590833051193119 -0.0010293469619793091 0 -0.021783813380795609 -0.0010391586908268034 0 -0.021694233956396115 -0.00095004007367991035 0 -0.021815841864211989 -0.00085041942973437508 0 -0.021694233956396115 -0.00095004007367991035 0 -0.021590833051193119 -0.0010293469619793091 0 -0.021611037947802364 -0.00096601829285496003 0 -0.021590833051193119 -0.0010293469619793091 0 -0.021562036251456342 -0.0010268194362936384 0 -0.021611037947802364 -0.00096601829285496003 0 -0.021562036251456342 -0.0010268194362936384 0 -0.021611037947802364 -0.00096601829285496003 0 -0.021609933201039409 -0.0010438000649127979 0 -0.021562036251456342 -0.0010268194362936384 0 -0.021609933201039409 -0.0010438000649127979 0 -0.021460979042983535 -0.0010647204279188101 0 -0.021611037947802364 -0.00096601829285496003 0 -0.021642186512195963 -0.00098570851388004492 0 -0.021609933201039409 -0.0010438000649127979 0 -0.021642186512195963 -0.00098570851388004492 0 -0.021696598461090903 -0.0010675304495628708 0 -0.021609933201039409 -0.0010438000649127979 0 -0.02175685461441167 -0.0011477762365485651 0 -0.021696598461090903 -0.0010675304495628708 0 -0.021770852160471737 -0.0010439133310525214 0 -0.021642186512195963 -0.00098570851388004492 0 -0.021696598461090903 -0.0010675304495628708 0 -0.021770852160471737 -0.0010439133310525214 0 -0.02175685461441167 -0.0011477762365485651 0 -0.021696598461090903 -0.0010675304495628708 0 -0.021652585164843828 -0.0010490676256462298 0 -0.021696598461090903 -0.0010675304495628708 0 -0.021609933201039409 -0.0010438000649127979 0 -0.021652585164843828 -0.0010490676256462298 0 -0.021170473231987109 -0.0013419577981252523 0 -0.021282387362667372 -0.0012943276450654959 0 -0.021652585164843828 -0.0010490676256462298 0 -0.021704158924634051 -0.00093535946144799459 0 -0.021460979042983535 -0.0010647204279188101 0 -0.021249380488843856 -0.0012773219734511557 0 -0.021054148420594186 -0.0010803070703689708 0 -0.021460979042983535 -0.0010647204279188101 0 -0.021609933201039409 -0.0010438000649127979 0 -0.021652585164843828 -0.0010490676256462298 0 -0.021460979042983535 -0.0010647204279188101 0 -0.02175685461441167 -0.0011477762365485651 0 -0.021652585164843828 -0.0010490676256462298 0 -0.021704158924634051 -0.00093535946144799459 0 -0.021249380488843856 -0.0012773219734511557 0 -0.021453545691124849 -0.0012495731579711677 0 -0.021460979042983535 -0.0010647204279188101 0 -0.021453545691124849 -0.0012495731579711677 0 -0.021590833051193119 -0.0010293469619793091 0 -0.021460979042983535 -0.0010647204279188101 0 -0.021590833051193119 -0.0010293469619793091 0 -0.021562036251456342 -0.0010268194362936384 0 -0.021460979042983535 -0.0010647204279188101 0 -0.016885256544795689 0.00190950738807887 0 -0.017633713970553095 0.0029797836832647006 0 -0.017983566129391605 0.00204786865356445 0 -0.016676580082598119 0.0016584567351277659 0 -0.017228997972960552 0.0025966134655786748 0 -0.016172091773914179 0.0012353780100079856 0 -0.016943066463836341 0.0022047164873404195 0 -0.015806296679484036 0.0019311325898068172 0 -0.017633713970553095 0.0029797836832647006 0 -0.017983566129391605 0.00204786865356445 0 -0.018724858343151195 0.0025961989103076718 0 -0.016885256544795689 0.00190950738807887 0 -0.017983566129391605 0.00204786865356445 0 -0.017842012606417584 0.001185422535837286 0 -0.017983566129391605 0.00204786865356445 0 -0.018724858343151195 0.0025961989103076718 0 -0.018849466564991018 0.0014484290177919027 0 -0.018724858343151195 0.0025961989103076718 0 -0.019400471699968107 0.0020563820677677743 0 -0.018849466564991018 0.0014484290177919027 0 -0.019616170751131139 0.0031903501378714475 0 -0.018724858343151195 0.0025961989103076718 0 -0.019400471699968107 0.0020563820677677743 0 -0.019616170751131139 0.0031903501378714475 0 -0.020277783100002198 0.0021423273570276946 0 -0.019400471699968107 0.0020563820677677743 0 -0.020277783100002198 0.0021423273570276946 0 -0.019400471699968107 0.0020563820677677743 0 -0.019898495949005352 0.0010864946314912795 0 -0.019400471699968107 0.0020563820677677743 0 -0.019898495949005352 0.0010864946314912795 0 -0.018849466564991018 0.0014484290177919027 0 -0.019898495949005352 0.0010864946314912795 0 -0.0197469238762502 0.00022785090813207842 0 -0.018987266926634615 0.00063041808363710136 0 -0.020892686105154417 0.00014238684325012754 0 -0.019898495949005352 0.0010864946314912795 0 -0.0197469238762502 0.00022785090813207842 0 -0.01959822138840479 0.00064520679148620931 0 -0.019822352255051332 0.0004462652397101139 0 -0.0197469238762502 0.00022785090813207842 0 -0.018987266926634615 0.00063041808363710136 0 -0.019038609221673199 -0.00026670951766333663 0 -0.018853720468872247 0.00059952400676171612 0 -0.017676416975071496 3.1177694555148207e-05 0 -0.018873159530773759 -0.0002744603181945829 0 -0.018853720468872247 0.00059952400676171612 0 -0.018849466564991018 0.0014484290177919027 0 -0.017842012606417584 0.001185422535837286 0 -0.01959822138840479 0.00064520679148620931 0 -0.01952357076494976 0.00083878958251348335 0 -0.019898495949005352 0.0010864946314912795 0 -0.018987266926634615 0.00063041808363710136 0 -0.018849466564991018 0.0014484290177919027 0 -0.017983566129391605 0.00204786865356445 0 -0.018849466564991018 0.0014484290177919027 0 -0.017842012606417584 0.001185422535837286 0 -0.017842012606417584 0.001185422535837286 0 -0.017676416975071496 3.1177694555148207e-05 0 -0.016911406878871178 0.00094396539759593746 0 -0.018853720468872247 0.00059952400676171612 0 -0.017842012606417584 0.001185422535837286 0 -0.017676416975071496 3.1177694555148207e-05 0 -0.018429223700574721 0.00068627908419262524 0 -0.017494135415284343 0.00086834726335252035 0 -0.018777569159755477 0.001189026347896732 0 -0.017682000759864053 0.0013990937084590554 0 -0.017687061378129455 0.00085801167197437479 0 -0.017676416975071496 3.1177694555148207e-05 0 -0.016911406878871178 0.00094396539759593746 0 -0.016346657039552615 0.0004408378086434388 0 -0.016885256544795689 0.00190950738807887 0 -0.017842012606417584 0.001185422535837286 0 -0.016911406878871178 0.00094396539759593746 0 -0.018492293997073882 0.00017863417323119151 0 -0.01814312288249852 0.00053171504157898449 0 -0.017830066182425126 5.4080788490360275e-05 0 -0.018492293997073882 0.00017863417323119151 0 -0.01814312288249852 0.00053171504157898449 0 -0.018999752832309227 0.00049825377902159467 0 -0.018777569159755477 0.001189026347896732 0 -0.01814312288249852 0.00053171504157898449 0 -0.017687061378129455 0.00085801167197437479 0 -0.018777569159755477 0.001189026347896732 0 -0.01814312288249852 0.00053171504157898449 0 -0.018999752832309227 0.00049825377902159467 0 -0.018777569159755477 0.001189026347896732 0 -0.018999752832309227 0.00049825377902159467 0 -0.019507941965256841 0.00097683538843896123 0 -0.018429223700574721 0.00068627908419262524 0 -0.019822352255051332 0.0004462652397101139 0 -0.018999752832309227 0.00049825377902159467 0 -0.019505482040342071 0.00026880740774194858 0 -0.019507941965256841 0.00097683538843896123 0 -0.020434858294739254 0.00011414459911436264 0 -0.019822352255051332 0.0004462652397101139 0 -0.022430387614233396 -8.8827182751979628e-05 0 -0.022465313312293667 -0.00064540362962408032 0 -0.022105215575070419 -0.00056422543658922106 0 -0.020892686105154417 0.00014238684325012754 0 -0.0197469238762502 0.00022785090813207842 0 -0.020153209336778333 -0.00048863213933161246 0 -0.019822352255051332 0.0004462652397101139 0 -0.020688445260202068 5.6702937828435007e-05 0 -0.0197469238762502 0.00022785090813207842 0 -0.019038609221673199 -0.00026670951766333663 0 -0.020153209336778333 -0.00048863213933161246 0 -0.022430387614233396 -8.8827182751979628e-05 0 -0.022105215575070419 -0.00056422543658922106 0 -0.022026116662826434 -0.0002312160268170956 0 -0.022430387614233396 -8.8827182751979628e-05 0 -0.022026116662826434 -0.0002312160268170956 0 -0.022134538625954322 8.2186757579090825e-05 0 -0.022430387614233396 -8.8827182751979628e-05 0 -0.02227724841295884 0.00034297606215947396 0 -0.022134538625954322 8.2186757579090825e-05 0 -0.02227724841295884 0.00034297606215947396 0 -0.022134538625954322 8.2186757579090825e-05 0 -0.022249909612415315 0.00041583901643389357 0 -0.020434858294739254 0.00011414459911436264 0 -0.020741379148143075 -5.6940567151214678e-05 0 -0.019505482040342071 0.00026880740774194858 0 -0.019651630258639911 -9.7086982593588836e-05 0 -0.019075314380241536 -7.6930569061829421e-05 0 -0.018492293997073882 0.00017863417323119151 0 -0.018999752832309227 0.00049825377902159467 0 -0.019075314380241536 -7.6930569061829421e-05 0 -0.018999752832309227 0.00049825377902159467 0 -0.019505482040342071 0.00026880740774194858 0 -0.019075314380241536 -7.6930569061829421e-05 0 -0.019651630258639911 -9.7086982593588836e-05 0 -0.019075314380241536 -7.6930569061829421e-05 0 -0.019587413704366282 -0.0002342828804361487 0 -0.019075314380241536 -7.6930569061829421e-05 0 -0.01886738206353341 -0.00030008144942101549 0 -0.018273381182491093 -0.00025139961977196885 0 -0.018492293997073882 0.00017863417323119151 0 -0.019075314380241536 -7.6930569061829421e-05 0 -0.018273381182491093 -0.00025139961977196885 0 -0.021670415966316605 -0.00064265612282472383 0 -0.021453380235718907 -0.00065288720001134516 0 -0.021751120939369904 -0.00019361649873039807 0 -0.021670415966316605 -0.00064265612282472383 0 -0.021453380235718907 -0.00065288720001134516 0 -0.021663621254375019 -0.00084029319066729737 0 -0.021783553170291133 -0.00070043972103199157 0 -0.022085931729012662 -0.00032234012354404235 0 -0.022524754421147493 -0.00040797646875610701 0 -0.022085931729012662 -0.00032234012354404235 0 -0.022524754421147493 -0.00040797646875610701 0 -0.022453298790774224 -2.2419948626360066e-06 0 -0.021642186512195963 -0.00098570851388004492 0 -0.021770852160471737 -0.0010439133310525214 0 -0.021453380235718907 -0.00065288720001134516 0 -0.021783553170291133 -0.00070043972103199157 0 -0.021770852160471737 -0.0010439133310525214 0 -0.022524754421147493 -0.00040797646875610701 0 -0.021954086107856995 -0.00056962052132864872 0 -0.022053064939003459 -0.00036491481980798298 0 -0.021642186512195963 -0.00098570851388004492 0 -0.021453380235718907 -0.00065288720001134516 0 -0.021598993855921567 -0.00087600630496734719 0 -0.021611037947802364 -0.00096601829285496003 0 -0.021642186512195963 -0.00098570851388004492 0 -0.021598993855921567 -0.00087600630496734719 0 -0.021611037947802364 -0.00096601829285496003 0 -0.021598993855921567 -0.00087600630496734719 0 -0.021663621254375019 -0.00084029319066729737 0 -0.021453380235718907 -0.00065288720001134516 0 -0.021598993855921567 -0.00087600630496734719 0 -0.021663621254375019 -0.00084029319066729737 0 -0.021694233956396115 -0.00095004007367991035 0 -0.021611037947802364 -0.00096601829285496003 0 -0.021663621254375019 -0.00084029319066729737 0 -0.021694233956396115 -0.00095004007367991035 0 -0.021663621254375019 -0.00084029319066729737 0 -0.021815841864211989 -0.00085041942973437508 0 -0.021670415966316605 -0.00064265612282472383 0 -0.021663621254375019 -0.00084029319066729737 0 -0.021815841864211989 -0.00085041942973437508 0 -0.022105215575070419 -0.00056422543658922106 0 -0.021554136091550623 -0.00046802220446022741 0 -0.022026116662826434 -0.0002312160268170956 0 -0.020892686105154417 0.00014238684325012754 0 -0.020153209336778333 -0.00048863213933161246 0 -0.021554136091550623 -0.00046802220446022741 0 -0.020688445260202068 5.6702937828435007e-05 0 -0.020948613394286986 -5.354178795188511e-05 0 -0.020892686105154417 0.00014238684325012754 0 -0.021689225776348183 -0.00040455098595112689 0 -0.021554136091550623 -0.00046802220446022741 0 -0.022026116662826434 -0.0002312160268170956 0 -0.021807436222873039 -0.00023438719011334525 0 -0.022134538625954322 8.2186757579090825e-05 0 -0.021554136091550623 -0.00046802220446022741 0 -0.022026116662826434 -0.0002312160268170956 0 -0.021807436222873039 -0.00023438719011334525 0 -0.021670415966316605 -0.00064265612282472383 0 -0.021815841864211989 -0.00085041942973437508 0 -0.021751120939369904 -0.00019361649873039807 0 -0.021689225776348183 -0.00040455098595112689 0 -0.021807436222873039 -0.00023438719011334525 0 -0.021751120939369904 -0.00019361649873039807 0 -0.021689225776348183 -0.00040455098595112689 0 -0.021554136091550623 -0.00046802220446022741 0 -0.021807436222873039 -0.00023438719011334525 0 -0.021530253140614117 -0.00043692473243836137 0 -0.021580781966245587 -0.000400033236141993 0 -0.021807436222873039 -0.00023438719011334525 0 -0.022016687562359895 9.0802574493959405e-05 0 -0.021751120939369904 -0.00019361649873039807 0 -0.022016687562359895 9.0802574493959405e-05 0 -0.021710671468026847 6.2531143529580678e-05 0 -0.021751120939369904 -0.00019361649873039807 0 -0.021807436222873039 -0.00023438719011334525 0 -0.022016687562359895 9.0802574493959405e-05 0 -0.022134538625954322 8.2186757579090825e-05 0 -0.022016687562359895 9.0802574493959405e-05 0 -0.022447884856275038 0.00045044285209986821 0 -0.022249909612415315 0.00041583901643389357 0 -0.022016687562359895 9.0802574493959405e-05 0 -0.022134538625954322 8.2186757579090825e-05 0 -0.022249909612415315 0.00041583901643389357 0 -0.022016687562359895 9.0802574493959405e-05 0 -0.021710671468026847 6.2531143529580678e-05 0 -0.022447884856275038 0.00045044285209986821 0 -0.022847816698941505 0.00031916413457523933 0 -0.022728767339417946 0.00045337022478569047 0 -0.022447884856275038 0.00045044285209986821 0 -0.022209401371623992 -3.6192184578034838e-05 0 -0.022276341111469651 9.9195660485388226e-05 0 -0.022747751352131255 0.00038182238177779355 0 -0.022847816698941505 0.00031916413457523933 0 -0.022728767339417946 0.00045337022478569047 0 -0.022708881889833506 0.00041589336649637266 0 -0.022747751352131255 0.00038182238177779355 0 -0.022728767339417946 0.00045337022478569047 0 -0.022708881889833506 0.00041589336649637266 0 -0.022763097011316055 0.00048726829792065436 0 -0.022728767339417946 0.00045337022478569047 0 -0.022747751352131255 0.00038182238177779355 0 -0.022847816698941505 0.00031916413457523933 0 -0.022647753162307296 0.00026786777251920391 0 -0.022708881889833506 0.00041589336649637266 0 -0.022747751352131255 0.00038182238177779355 0 -0.022647753162307296 0.00026786777251920391 0 -0.022053064939003459 -0.00036491481980798298 0 -0.022209401371623992 -3.6192184578034838e-05 0 -0.022847816698941505 0.00031916413457523933 0 -0.022647753162307296 0.00026786777251920391 0 -0.022453298790774224 -2.2419948626360066e-06 0 -0.022524754421147493 -0.00040797646875610701 0 -0.022847816698941505 0.00031916413457523933 0 -0.022453298790774224 -2.2419948626360066e-06 0 -0.021453380235718907 -0.00065288720001134516 0 -0.021710671468026847 6.2531143529580678e-05 0 -0.021751120939369904 -0.00019361649873039807 0 -0.022043342645958558 -7.1109297775132974e-05 0 -0.022453298790774224 -2.2419948626360066e-06 0 -0.022407595635054255 0.00017184338648722889 0 -0.022043342645958558 -7.1109297775132974e-05 0 -0.022085931729012662 -0.00032234012354404235 0 -0.022453298790774224 -2.2419948626360066e-06 0 -0.022647753162307296 0.00026786777251920391 0 -0.022453298790774224 -2.2419948626360066e-06 0 -0.022407595635054255 0.00017184338648722889 0 -0.022647753162307296 0.00026786777251920391 0 -0.022407595635054255 0.00017184338648722889 0 -0.022569577931899006 0.0003262953606116414 0 -0.022154768145084353 0.0001646949610114059 0 -0.022407595635054255 0.00017184338648722889 0 -0.022404989506682443 0.00033350014516608128 0 -0.022407595635054255 0.00017184338648722889 0 -0.022404989506682443 0.00033350014516608128 0 -0.022569577931899006 0.0003262953606116414 0 -0.022404989506682443 0.00033350014516608128 0 -0.022569577931899006 0.0003262953606116414 0 -0.022604721030381723 0.00042434254768264682 0 -0.022708881889833506 0.00041589336649637266 0 -0.022647753162307296 0.00026786777251920391 0 -0.022569577931899006 0.0003262953606116414 0 -0.022708881889833506 0.00041589336649637266 0 -0.022604721030381723 0.00042434254768264682 0 -0.022763097011316055 0.00048726829792065436 0 -0.022708881889833506 0.00041589336649637266 0 -0.022569577931899006 0.0003262953606116414 0 -0.022604721030381723 0.00042434254768264682 0 -0.022463098004081937 0.0004503189615661332 0 -0.022404989506682443 0.00033350014516608128 0 -0.022604721030381723 0.00042434254768264682 0 -0.022463098004081937 0.0004503189615661332 0 -0.022604721030381723 0.00042434254768264682 0 -0.022637522257094377 0.00051910825605334856 0 -0.022637522257094377 0.00051910825605334856 0 -0.022678647280667083 0.00060065113419045248 0 -0.022453565793364248 0.00055763427010438232 0 -0.022637522257094377 0.00051910825605334856 0 -0.022783710381635187 0.00055553982118245436 0 -0.022678647280667083 0.00060065113419045248 0 -0.022637522257094377 0.00051910825605334856 0 -0.022763097011316055 0.00048726829792065436 0 -0.022783710381635187 0.00055553982118245436 0 -0.022604721030381723 0.00042434254768264682 0 -0.022637522257094377 0.00051910825605334856 0 -0.022763097011316055 0.00048726829792065436 0 -0.022783710381635187 0.00055553982118245436 0 -0.02289757990790825 0.00062568617073711235 0 -0.022901064192132548 0.00049977485489618144 0 -0.022763097011316055 0.00048726829792065436 0 -0.022783710381635187 0.00055553982118245436 0 -0.022901064192132548 0.00049977485489618144 0 -0.022783710381635187 0.00055553982118245436 0 -0.022678647280667083 0.00060065113419045248 0 -0.02289757990790825 0.00062568617073711235 0 -0.02289757990790825 0.00062568617073711235 0 -0.02324424058812103 0.00039206139907403638 0 -0.023097596947663675 0.00063821862513487992 0 -0.02289757990790825 0.00062568617073711235 0 -0.022901064192132548 0.00049977485489618144 0 -0.02324424058812103 0.00039206139907403638 0 -0.022901064192132548 0.00049977485489618144 0 -0.022830750931314616 0.00036234894212870623 0 -0.02324424058812103 0.00039206139907403638 0 -0.022830750931314616 0.00036234894212870623 0 -0.023002912547053264 0.00011625168205463129 0 -0.02324424058812103 0.00039206139907403638 0 -0.022901064192132548 0.00049977485489618144 0 -0.022728767339417946 0.00045337022478569047 0 -0.022830750931314616 0.00036234894212870623 0 -0.022763097011316055 0.00048726829792065436 0 -0.022901064192132548 0.00049977485489618144 0 -0.022728767339417946 0.00045337022478569047 0 -0.022728767339417946 0.00045337022478569047 0 -0.022447884856275038 0.00045044285209986821 0 -0.022830750931314616 0.00036234894212870623 0 -0.022447884856275038 0.00045044285209986821 0 -0.022249909612415315 0.00041583901643389357 0 -0.022464554158487297 0.00020939271280250141 0 -0.022447884856275038 0.00045044285209986821 0 -0.022464554158487297 0.00020939271280250141 0 -0.022830750931314616 0.00036234894212870623 0 -0.022464554158487297 0.00020939271280250141 0 -0.022830750931314616 0.00036234894212870623 0 -0.023002912547053264 0.00011625168205463129 0 -0.023002912547053264 0.00011625168205463129 0 -0.022943489094512423 -0.0002851449038538033 0 -0.02346287450399559 -0.00013487281403097673 0 -0.022464554158487297 0.00020939271280250141 0 -0.023002912547053264 0.00011625168205463129 0 -0.022943489094512423 -0.0002851449038538033 0 -0.022464554158487297 0.00020939271280250141 0 -0.022943489094512423 -0.0002851449038538033 0 -0.022521399992535045 -0.00076908598863957979 0 -0.022943489094512423 -0.0002851449038538033 0 -0.022521399992535045 -0.00076908598863957979 0 -0.023480507963461485 -0.0009134143636288398 0 -0.022943489094512423 -0.0002851449038538033 0 -0.02346287450399559 -0.00013487281403097673 0 -0.023480507963461485 -0.0009134143636288398 0 -0.02346287450399559 -0.00013487281403097673 0 -0.024027749779785144 -0.00083632182575055572 0 -0.023480507963461485 -0.0009134143636288398 0 -0.02346287450399559 -0.00013487281403097673 0 -0.024053590831565098 -0.00035537433182844584 0 -0.024027749779785144 -0.00083632182575055572 0 -0.02346287450399559 -0.00013487281403097673 0 -0.024053590831565098 -0.00035537433182844584 0 -0.023535054429700181 0.00055851210332588273 0 -0.02324424058812103 0.00039206139907403638 0 -0.023535054429700181 0.00055851210332588273 0 -0.023097596947663675 0.00063821862513487992 0 -0.02346287450399559 -0.00013487281403097673 0 -0.02324424058812103 0.00039206139907403638 0 -0.023535054429700181 0.00055851210332588273 0 -0.023002912547053264 0.00011625168205463129 0 -0.02346287450399559 -0.00013487281403097673 0 -0.02324424058812103 0.00039206139907403638 0 -0.019096967663941651 -0.00036636044199594422 0 -0.019587413704366282 -0.0002342828804361487 0 -0.019912088981131906 -0.00029619138867654213 0 -0.019096967663941651 -0.00036636044199594422 0 -0.01886738206353341 -0.00030008144942101549 0 -0.019587413704366282 -0.0002342828804361487 0 -0.019075314380241536 -7.6930569061829421e-05 0 -0.01886738206353341 -0.00030008144942101549 0 -0.019587413704366282 -0.0002342828804361487 0 -0.019587413704366282 -0.0002342828804361487 0 -0.02017296861140682 -0.00016669596976631097 0 -0.019912088981131906 -0.00029619138867654213 0 -0.020914435516002472 -0.00028814040857286634 0 -0.020992334398584681 -0.00048745982453246735 0 -0.019651630258639911 -9.7086982593588836e-05 0 -0.019587413704366282 -0.0002342828804361487 0 -0.02017296861140682 -0.00016669596976631097 0 -0.020741379148143075 -5.6940567151214678e-05 0 -0.020914435516002472 -0.00028814040857286634 0 -0.02227724841295884 0.00034297606215947396 0 -0.022249909612415315 0.00041583901643389357 0 -0.02189226299571654 0.000353517150088358 0 -0.022464554158487297 0.00020939271280250141 0 -0.02189226299571654 0.000353517150088358 0 -0.021350653680749433 -0.00032161227895623396 0 -0.022249909612415315 0.00041583901643389357 0 -0.022464554158487297 0.00020939271280250141 0 -0.02189226299571654 0.000353517150088358 0 -0.022464554158487297 0.00020939271280250141 0 -0.022521399992535045 -0.00076908598863957979 0 -0.021350653680749433 -0.00032161227895623396 0 -0.022521399992535045 -0.00076908598863957979 0 -0.021350653680749433 -0.00032161227895623396 0 -0.021671647354856747 -0.00092080277980242833 0 -0.021350653680749433 -0.00032161227895623396 0 -0.020230175456083261 -0.00065068487189416289 0 -0.021671647354856747 -0.00092080277980242833 0 -0.02017296861140682 -0.00016669596976631097 0 -0.021350653680749433 -0.00032161227895623396 0 -0.019912088981131906 -0.00029619138867654213 0 -0.021350653680749433 -0.00032161227895623396 0 -0.019912088981131906 -0.00029619138867654213 0 -0.020230175456083261 -0.00065068487189416289 0 -0.020230175456083261 -0.00065068487189416289 0 -0.020911617241280562 -0.0011232562222413852 0 -0.021671647354856747 -0.00092080277980242833 0 -0.020230175456083261 -0.00065068487189416289 0 -0.019631463469610089 -0.00082402119042231938 0 -0.020278867595348509 -0.0011204928097770617 0 -0.020230175456083261 -0.00065068487189416289 0 -0.019631463469610089 -0.00082402119042231938 0 -0.019423346859586597 -0.00047766518619915852 0 -0.019912088981131906 -0.00029619138867654213 0 -0.020230175456083261 -0.00065068487189416289 0 -0.019423346859586597 -0.00047766518619915852 0 -0.019096967663941651 -0.00036636044199594422 0 -0.019912088981131906 -0.00029619138867654213 0 -0.019423346859586597 -0.00047766518619915852 0 -0.019812655123659557 -0.0020734108241144836 0 -0.019906334533519712 -0.0014964877653286682 0 -0.020362500895723296 -0.0027338747908535834 0 -0.022015696204741468 -0.0014193742729034994 0 -0.022876871002957842 -0.0016631369744353321 0 -0.019812655123659557 -0.0020734108241144836 0 -0.019906334533519712 -0.0014964877653286682 0 -0.019269737223411618 -0.0014163708262642592 0 -0.019631463469610089 -0.00082402119042231938 0 -0.019906334533519712 -0.0014964877653286682 0 -0.019269737223411618 -0.0014163708262642592 0 -0.019631463469610089 -0.00082402119042231938 0 -0.020278867595348509 -0.0011204928097770617 0 -0.019906334533519712 -0.0014964877653286682 0 -0.020230175456083261 -0.00065068487189416289 0 -0.020278867595348509 -0.0011204928097770617 0 -0.020911617241280562 -0.0011232562222413852 0 -0.020278867595348509 -0.0011204928097770617 0 -0.019906334533519712 -0.0014964877653286682 0 -0.020997223845142108 -0.001722757481082086 0 -0.020278867595348509 -0.0011204928097770617 0 -0.020911617241280562 -0.0011232562222413852 0 -0.020997223845142108 -0.001722757481082086 0 -0.019906334533519712 -0.0014964877653286682 0 -0.020997223845142108 -0.001722757481082086 0 -0.020633452204206849 -0.0027700003533026852 0 -0.020911617241280562 -0.0011232562222413852 0 -0.020997223845142108 -0.001722757481082086 0 -0.022072842115604282 -0.0016060362373197259 0 -0.020997223845142108 -0.001722757481082086 0 -0.022072842115604282 -0.0016060362373197259 0 -0.02232363436258827 -0.0024879032130570287 0 -0.020911617241280562 -0.0011232562222413852 0 -0.022072842115604282 -0.0016060362373197259 0 -0.021671647354856747 -0.00092080277980242833 0 -0.022521399992535045 -0.00076908598863957979 0 -0.021671647354856747 -0.00092080277980242833 0 -0.022982845799708773 -0.0014388104425734831 0 -0.022072842115604282 -0.0016060362373197259 0 -0.021671647354856747 -0.00092080277980242833 0 -0.022982845799708773 -0.0014388104425734831 0 -0.022072842115604282 -0.0016060362373197259 0 -0.022982845799708773 -0.0014388104425734831 0 -0.02367657237677288 -0.0021599507474311091 0 -0.022072842115604282 -0.0016060362373197259 0 -0.02232363436258827 -0.0024879032130570287 0 -0.02367657237677288 -0.0021599507474311091 0 -0.024613989880566605 -0.0033033934349062859 0 -0.02232363436258827 -0.0024879032130570287 0 -0.02367657237677288 -0.0021599507474311091 0 -0.024452395481228188 -0.0026977977181980566 0 -0.024494680832632641 -0.0024543352492433957 0 -0.024613989880566605 -0.0033033934349062859 0 -0.02232363436258827 -0.0024879032130570287 0 -0.022026018375569591 -0.0043127363824473491 0 -0.020997223845142108 -0.001722757481082086 0 -0.02232363436258827 -0.0024879032130570287 0 -0.020633452204206849 -0.0027700003533026852 0 -0.022876871002957842 -0.0016631369744353321 0 -0.024494680832632641 -0.0024543352492433957 0 -0.023565471403913626 -0.0016280998183268299 0 -0.023990496575189067 -0.0028338222248769532 0 -0.024436725673666369 -0.0027049595113879657 0 -0.022876871002957842 -0.0016631369744353321 0 -0.025024029727739774 -0.0021694445881148385 0 -0.023276028681981985 -0.00073212988656597047 0 -0.023273573593006181 -0.00074272707946149662 0 -0.023288221497242724 -0.0007523362566945463 0 -0.02232363436258827 -0.0024879032130570287 0 -0.020633452204206849 -0.0027700003533026852 0 -0.022026018375569591 -0.0043127363824473491 0 -0.023273573593006181 -0.00074272707946149662 0 -0.023259920774069055 -0.00073458270404432339 0 -0.023270504265933249 -0.00075192638656338155 0 -0.023276028681981985 -0.00073212988656597047 0 -0.023273573593006181 -0.00074272707946149662 0 -0.023259920774069055 -0.00073458270404432339 0 -0.023263988976434211 -0.00072220198201877815 0 -0.023276028681981985 -0.00073212988656597047 0 -0.023259920774069055 -0.00073458270404432339 0 -0.021969879305341472 -0.0012111656870053258 0 -0.022876871002957842 -0.0016631369744353321 0 -0.024378096206934135 -0.0016334014676034681 0 -0.025098548693355541 -0.002065573861236859 0 -0.024789788823248084 -0.0012420764457896009 0 -0.024053590831565098 -0.00035537433182844584 0 -0.024027749779785144 -0.00083632182575055572 0 -0.024789788823248084 -0.0012420764457896009 0 -0.024378096206934135 -0.0016334014676034681 0 -0.024027749779785144 -0.00083632182575055572 0 -0.024789788823248084 -0.0012420764457896009 0 -0.024378096206934135 -0.0016334014676034681 0 -0.024027749779785144 -0.00083632182575055572 0 -0.023480507963461485 -0.0009134143636288398 0 -0.022521399992535045 -0.00076908598863957979 0 -0.022982845799708773 -0.0014388104425734831 0 -0.023480507963461485 -0.0009134143636288398 0 -0.022982845799708773 -0.0014388104425734831 0 -0.023480507963461485 -0.0009134143636288398 0 -0.023801921994229102 -0.0016577148411566352 0 -0.022982845799708773 -0.0014388104425734831 0 -0.023801921994229102 -0.0016577148411566352 0 -0.02367657237677288 -0.0021599507474311091 0 -0.024378096206934135 -0.0016334014676034681 0 -0.023801921994229102 -0.0016577148411566352 0 -0.02447709832773786 -0.0022077115104362569 0 -0.024378096206934135 -0.0016334014676034681 0 -0.023480507963461485 -0.0009134143636288398 0 -0.023801921994229102 -0.0016577148411566352 0 -0.023801921994229102 -0.0016577148411566352 0 -0.02447709832773786 -0.0022077115104362569 0 -0.02367657237677288 -0.0021599507474311091 0 -0.02447709832773786 -0.0022077115104362569 0 -0.02367657237677288 -0.0021599507474311091 0 -0.024620843616461364 -0.0026946533484753336 0 -0.024613989880566605 -0.0033033934349062859 0 -0.02367657237677288 -0.0021599507474311091 0 -0.024620843616461364 -0.0026946533484753336 0 -0.024613989880566605 -0.0033033934349062859 0 -0.024620843616461364 -0.0026946533484753336 0 -0.025180405407007993 -0.002913109229770716 0 -0.02447709832773786 -0.0022077115104362569 0 -0.025154767698788744 -0.0027099773092630203 0 -0.025078448385034927 -0.0024113737178144954 0 -0.024620843616461364 -0.0026946533484753336 0 -0.025154767698788744 -0.0027099773092630203 0 -0.025180405407007993 -0.002913109229770716 0 -0.02447709832773786 -0.0022077115104362569 0 -0.024620843616461364 -0.0026946533484753336 0 -0.025154767698788744 -0.0027099773092630203 0 -0.025154767698788744 -0.0027099773092630203 0 -0.025382211622406604 -0.0026386984202006691 0 -0.025078448385034927 -0.0024113737178144954 0 -0.025382211622406604 -0.0026386984202006691 0 -0.025078448385034927 -0.0024113737178144954 0 -0.025446423382747475 -0.0025893352263293523 0 -0.024378096206934135 -0.0016334014676034681 0 -0.02447709832773786 -0.0022077115104362569 0 -0.025078448385034927 -0.0024113737178144954 0 -0.024378096206934135 -0.0016334014676034681 0 -0.025078448385034927 -0.0024113737178144954 0 -0.025098548693355541 -0.002065573861236859 0 -0.024470980191586941 -0.00016580623203168375 0 -0.025076378479140467 -0.00065374340491542143 0 -0.025078448385034927 -0.0024113737178144954 0 -0.025098548693355541 -0.002065573861236859 0 -0.025428259704181905 -0.0026014796119080371 0 -0.025078448385034927 -0.0024113737178144954 0 -0.025446423382747475 -0.0025893352263293523 0 -0.025428259704181905 -0.0026014796119080371 0 -0.023961511447641037 0.0017350476979623166 0 -0.024034549268061225 0.0016560171220067566 0 -0.023912171867828572 0.001562192175682889 0 -0.024034549268061225 0.0016560171220067566 0 -0.024026885212484344 0.0015604367763620585 0 -0.023912171867828572 0.001562192175682889 0 -0.024034549268061225 0.0016560171220067566 0 -0.024141092233821642 0.0015570002511424857 0 -0.024026885212484344 0.0015604367763620585 0 -0.024034549268061225 0.0016560171220067566 0 -0.024132342864957142 0.0016979672185734214 0 -0.024141092233821642 0.0015570002511424857 0 -0.024132342864957142 0.0016979672185734214 0 -0.024067740953899276 0.0017878507736764635 0 -0.024173101947295442 0.0017894219086427533 0 -0.024034549268061225 0.0016560171220067566 0 -0.024132342864957142 0.0016979672185734214 0 -0.024067740953899276 0.0017878507736764635 0 -0.023961511447641037 0.0017350476979623166 0 -0.024034549268061225 0.0016560171220067566 0 -0.024067740953899276 0.0017878507736764635 0 -0.024067740953899276 0.0017878507736764635 0 -0.024082219675857504 0.0019154624818359272 0 -0.024024702955171836 0.0018958363215019149 0 -0.023961511447641037 0.0017350476979623166 0 -0.024067740953899276 0.0017878507736764635 0 -0.024024702955171836 0.0018958363215019149 0 -0.024470980191586941 -0.00016580623203168375 0 -0.023915544484816646 0.00059891993622039803 0 -0.024082219675857504 0.0019154624818359272 0 -0.024038329374206621 0.0019707123438901784 0 -0.024056640206175088 0.0020602195489254379 0 -0.024848013382840768 0.0020626071434487344 0 -0.025080008075842625 0.0019408521208591591 0 -0.024067740953899276 0.0017878507736764635 0 -0.024082219675857504 0.0019154624818359272 0 -0.024173101947295442 0.0017894219086427533 0 -0.024082219675857504 0.0019154624818359272 0 -0.024037453868630178 0.001903591381210744 0 -0.024073092268053639 0.0019284191409037284 0 -0.023915544484816646 0.00059891993622039803 0 -0.023232544023803373 0.0021350589565637883 0 -0.024082219675857504 0.0019154624818359272 0 -0.024024702955171836 0.0018958363215019149 0 -0.024073092268053639 0.0019284191409037284 0 -0.021778900647154775 0.003879013164396837 0 -0.020835849252062142 0.0043963161491825916 0 -0.017557151839188712 0.007609422950499334 0 -0.020262144850422815 0.0077553037183291157 0 -0.017622224641639726 0.0096766938566443163 0 -0.024037453868630178 0.001903591381210744 0 -0.023973267133870706 0.0020182359581160979 0 -0.024038329374206621 0.0019707123438901784 0 -0.024082219675857504 0.0019154624818359272 0 -0.024037453868630178 0.001903591381210744 0 -0.024038329374206621 0.0019707123438901784 0 -0.024037453868630178 0.001903591381210744 0 -0.023973267133870706 0.0020182359581160979 0 -0.023860973027224092 0.0020018483223692915 0 -0.023973267133870706 0.0020182359581160979 0 -0.024038329374206621 0.0019707123438901784 0 -0.024056640206175088 0.0020602195489254379 0 -0.023973267133870706 0.0020182359581160979 0 -0.024056640206175088 0.0020602195489254379 0 -0.023940290757803743 0.0021340209900861367 0 -0.023973267133870706 0.0020182359581160979 0 -0.023860973027224092 0.0020018483223692915 0 -0.023940290757803743 0.0021340209900861367 0 -0.020835849252062142 0.0043963161491825916 0 -0.021284460178718059 0.0039460067803204039 0 -0.023818899533038684 0.0019581527645778957 0 -0.023868947274512636 0.0021332986928033933 0 -0.023734432579880831 0.0020202499972757581 0 -0.024892675819152901 0.0023181020076429022 0 -0.022382178633813223 0.0030837924228368581 0 -0.023818899533038684 0.0019581527645778957 0 -0.023868947274512636 0.0021332986928033933 0 -0.023940290757803743 0.0021340209900861367 0 -0.031311676777498069 2.1207979234491541e-05 0 -0.031397089781720171 2.9994058431125279e-05 0 -0.031397351560238151 9.0697201560142562e-05 0 -0.023868947274512636 0.0021332986928033933 0 -0.023940290757803743 0.0021340209900861367 0 -0.023990123167669495 0.0022297227688964751 0 -0.031311676777498069 2.1207979234491541e-05 0 -0.031086482473127494 -0.000164300315893712 0 -0.031311272830869 -0.00017622694866519374 0 -0.024892675819152901 0.0023181020076429022 0 -0.02602054451611692 0.001195030903036872 0 -0.031311676777498069 2.1207979234491541e-05 0 -0.031390606682157228 -9.3370420026073163e-05 0 -0.031397089781720171 2.9994058431125279e-05 0 -0.031311676777498069 2.1207979234491541e-05 0 -0.031390606682157228 -9.3370420026073163e-05 0 -0.031311272830869 -0.00017622694866519374 0 -0.024132342864957142 0.0016979672185734214 0 -0.024173101947295442 0.0017894219086427533 0 -0.024244871170145708 0.0016532541140012317 0 -0.024056640206175088 0.0020602195489254379 0 -0.023940290757803743 0.0021340209900861367 0 -0.023990123167669495 0.0022297227688964751 0 -0.025080008075842625 0.0019408521208591591 0 -0.02602054451611692 0.001195030903036872 0 -0.02602054451611692 0.001195030903036872 0 -0.026232805178072114 -0.00034835109088362143 0 -0.026325006590205882 -0.00028488092239985425 0 -0.026010428519236812 0.00038682503274812917 0 -0.027027542935498357 0.0003497453438334264 0 -0.024132342864957142 0.0016979672185734214 0 -0.024244871170145708 0.0016532541140012317 0 -0.024141092233821642 0.0015570002511424857 0 -0.02602054451611692 0.001195030903036872 0 -0.028372145688191262 -0.00050451032090055689 0 -0.031404510683986281 -0.00020419253895432126 0 -0.031311272830869 -0.00017622694866519374 0 -0.031394821319430624 -0.00030204716879227958 0 -0.031390606682157228 -9.3370420026073163e-05 0 -0.031404510683986281 -0.00020419253895432126 0 -0.031470849633644445 -0.00017712599084627711 0 -0.031390606682157228 -9.3370420026073163e-05 0 -0.031404510683986281 -0.00020419253895432126 0 -0.031311272830869 -0.00017622694866519374 0 -0.031086482473127494 -0.000164300315893712 0 -0.031311272830869 -0.00017622694866519374 0 -0.031271329168270724 -0.0002877661325148736 0 -0.031271329168270724 -0.0002877661325148736 0 -0.03134221305350586 -0.00036248423528570481 0 -0.031211789303953078 -0.00043465542286725141 0 -0.031086482473127494 -0.000164300315893712 0 -0.031271329168270724 -0.0002877661325148736 0 -0.031211789303953078 -0.00043465542286725141 0 -0.03134221305350586 -0.00036248423528570481 0 -0.031451211255638246 -0.00036377901506303611 0 -0.031377019008633524 -0.00044338004741012877 0 -0.031311272830869 -0.00017622694866519374 0 -0.031271329168270724 -0.0002877661325148736 0 -0.031394821319430624 -0.00030204716879227958 0 -0.031271329168270724 -0.0002877661325148736 0 -0.03134221305350586 -0.00036248423528570481 0 -0.031394821319430624 -0.00030204716879227958 0 -0.031404510683986281 -0.00020419253895432126 0 -0.031394821319430624 -0.00030204716879227958 0 -0.031454499052914406 -0.00027464120747407796 0 -0.031394821319430624 -0.00030204716879227958 0 -0.031455630179914186 -0.00032657261777584487 0 -0.031454499052914406 -0.00027464120747407796 0 -0.031394821319430624 -0.00030204716879227958 0 -0.031455630179914186 -0.00032657261777584487 0 -0.031451211255638246 -0.00036377901506303611 0 -0.03134221305350586 -0.00036248423528570481 0 -0.031394821319430624 -0.00030204716879227958 0 -0.031451211255638246 -0.00036377901506303611 0 -0.031524248098488722 -0.00036480930146341918 0 -0.031454499052914406 -0.00027464120747407796 0 -0.031470849633644445 -0.00017712599084627711 0 -0.031524248098488722 -0.00036480930146341918 0 -0.03150765836059307 -0.00039862124352046756 0 -0.031506585795186864 -0.00044994230744103676 0 -0.031524248098488722 -0.00036480930146341918 0 -0.031470849633644445 -0.00017712599084627711 0 -0.031546822509565496 -6.1552327764757809e-05 0 -0.026835211472265461 0.0017705748318222621 0 -0.026268432398706319 0.0021668344540376619 0 -0.031451211255638246 -0.00036377901506303611 0 -0.031524248098488722 -0.00036480930146341918 0 -0.031549199156955608 -0.00041010067303490314 0 -0.031455630179914186 -0.00032657261777584487 0 -0.031451211255638246 -0.00036377901506303611 0 -0.031524248098488722 -0.00036480930146341918 0 -0.031455630179914186 -0.00032657261777584487 0 -0.031524248098488722 -0.00036480930146341918 0 -0.031454499052914406 -0.00027464120747407796 0 -0.031404510683986281 -0.00020419253895432126 0 -0.031454499052914406 -0.00027464120747407796 0 -0.031470849633644445 -0.00017712599084627711 0 -0.03150765836059307 -0.00039862124352046756 0 -0.031460708007756112 -0.00042503883142654602 0 -0.031506585795186864 -0.00044994230744103676 0 -0.031524248098488722 -0.00036480930146341918 0 -0.03150765836059307 -0.00039862124352046756 0 -0.031533892943519402 -0.00038872641519768303 0 -0.03150765836059307 -0.00039862124352046756 0 -0.03149739148563007 -0.00038496840099974482 0 -0.031533892943519402 -0.00038872641519768303 0 -0.031460708007756112 -0.00042503883142654602 0 -0.031372663321629066 -0.00045881868668289864 0 -0.031435708038161439 -0.00038840362219711024 0 -0.031460708007756112 -0.00042503883142654602 0 -0.031435708038161439 -0.00038840362219711024 0 -0.03149739148563007 -0.00038496840099974482 0 -0.03150765836059307 -0.00039862124352046756 0 -0.031460708007756112 -0.00042503883142654602 0 -0.03149739148563007 -0.00038496840099974482 0 -0.031444645839472735 -0.00047231897306864362 0 -0.031372663321629066 -0.00045881868668289864 0 -0.03143603227263031 -0.00052637045568085608 0 -0.031460708007756112 -0.00042503883142654602 0 -0.031444645839472735 -0.00047231897306864362 0 -0.031372663321629066 -0.00045881868668289864 0 -0.031444645839472735 -0.00047231897306864362 0 -0.031506585795186864 -0.00044994230744103676 0 -0.031465168469815674 -0.00051075047581568397 0 -0.031460708007756112 -0.00042503883142654602 0 -0.031444645839472735 -0.00047231897306864362 0 -0.031506585795186864 -0.00044994230744103676 0 -0.026268432398706319 0.0021668344540376619 0 -0.024442555645192883 0.0035018090439314252 0 -0.031397089781720171 2.9994058431125279e-05 0 -0.031546822509565496 -6.1552327764757809e-05 0 -0.031627475292043017 0.00021111016357676558 0 -0.026143942449315938 0.0036660575646080842 0 -0.024442555645192883 0.0035018090439314252 0 -0.031390606682157228 -9.3370420026073163e-05 0 -0.031397089781720171 2.9994058431125279e-05 0 -0.031454195848864622 -7.1253277249091364e-05 0 -0.031397089781720171 2.9994058431125279e-05 0 -0.031454195848864622 -7.1253277249091364e-05 0 -0.031546822509565496 -6.1552327764757809e-05 0 -0.031390606682157228 -9.3370420026073163e-05 0 -0.031470849633644445 -0.00017712599084627711 0 -0.031454195848864622 -7.1253277249091364e-05 0 -0.031470849633644445 -0.00017712599084627711 0 -0.031454195848864622 -7.1253277249091364e-05 0 -0.031546822509565496 -6.1552327764757809e-05 0 -0.024056599228654985 0.0035970557163489854 0 -0.024230535550135154 0.0036199772070680362 0 -0.024246008861667629 0.0033554372447034079 0 -0.031372663321629066 -0.00045881868668289864 0 -0.031361880380718167 -0.00034613195741850695 0 -0.031279293148047872 -0.00037166029933472617 0 -0.024230535550135154 0.0036199772070680362 0 -0.024246008861667629 0.0033554372447034079 0 -0.024336110547786238 0.0034968605549726231 0 -0.026414939003150267 0.0011088164783399281 0 -0.027463366863007863 -0.00015451081282597326 0 -0.031372663321629066 -0.00045881868668289864 0 -0.031361880380718167 -0.00034613195741850695 0 -0.031435708038161439 -0.00038840362219711024 0 -0.026414939003150267 0.0011088164783399281 0 -0.023208786283204851 0.003476800730938528 0 -0.024230535550135154 0.0036199772070680362 0 -0.024170324644744303 0.0037892877611528293 0 -0.024284200578195594 0.0037926888470837979 0 -0.024056599228654985 0.0035970557163489854 0 -0.024230535550135154 0.0036199772070680362 0 -0.024170324644744303 0.0037892877611528293 0 -0.024170324644744303 0.0037892877611528293 0 -0.024232040360561615 0.0039218013611554492 0 -0.024284200578195594 0.0037926888470837979 0 -0.024170324644744303 0.0037892877611528293 0 -0.024138866856411458 0.0038832440535699134 0 -0.024042847139409386 0.0038388364261458217 0 -0.024170324644744303 0.0037892877611528293 0 -0.024138866856411458 0.0038832440535699134 0 -0.024232040360561615 0.0039218013611554492 0 -0.024056599228654985 0.0035970557163489854 0 -0.024042847139409386 0.0038388364261458217 0 -0.023872489597473828 0.003826229062204034 0 -0.024056599228654985 0.0035970557163489854 0 -0.024170324644744303 0.0037892877611528293 0 -0.024042847139409386 0.0038388364261458217 0 -0.024042847139409386 0.0038388364261458217 0 -0.024110179747797316 0.0039824079826781961 0 -0.023872489597473828 0.003826229062204034 0 -0.012057348459697279 0.0072781585209794582 0 -0.014686111525320207 0.0078533479184641399 0 -0.012481729884789359 0.0059455603577390189 0 -0.021086785970287628 0.0041020981981082618 0 -0.017792296903650733 0.0035498950933586177 0 -0.019415279845474177 0.0041246321256739578 0 -0.023208786283204851 0.003476800730938528 0 -0.024138866856411458 0.0038832440535699134 0 -0.024042847139409386 0.0038388364261458217 0 -0.024110179747797316 0.0039824079826781961 0 -0.024110179747797316 0.0039824079826781961 0 -0.024232040360561615 0.0039218013611554492 0 -0.024348787449739191 0.0040973380352793643 0 -0.024138866856411458 0.0038832440535699134 0 -0.024110179747797316 0.0039824079826781961 0 -0.024232040360561615 0.0039218013611554492 0 -0.022382178633813223 0.0030837924228368581 0 -0.022287703935826467 0.0042630038250596747 0 -0.016194213764383052 0.0090366008001972649 0 -0.014975699818318438 0.0079479306017327545 0 -0.015787585867824413 0.0078677481466433077 0 -0.031397351560238151 9.0697201560142562e-05 0 -0.031406808000058933 9.8071840886533747e-05 0 -0.031395879408258082 0.00011323042846986968 0 -0.016990893053532016 0.008441779413010643 0 -0.016194213764383052 0.0090366008001972649 0 -0.015787585867824413 0.0078677481466433077 0 -0.031397089781720171 2.9994058431125279e-05 0 -0.031397351560238151 9.0697201560142562e-05 0 -0.031406808000058933 9.8071840886533747e-05 0 -0.020835849252062142 0.0043963161491825916 0 -0.022382178633813223 0.0030837924228368581 0 -0.031444645839472735 -0.00047231897306864362 0 -0.031465168469815674 -0.00051075047581568397 0 -0.03143603227263031 -0.00052637045568085608 0 -0.024442555645192883 0.0035018090439314252 0 -0.023208786283204851 0.003476800730938528 0 -0.031406808000058933 9.8071840886533747e-05 0 -0.031398333825644081 0.00011086803259507815 0 -0.031395879408258082 0.00011323042846986968 0 -0.014587653578304842 0.0089789377104985725 0 -0.014958018851416909 0.0085218366415521062 0 -0.014686111525320207 0.0078533479184641399 0 -0.024442555645192883 0.0035018090439314252 0 -0.022542264299429213 0.003993601114121061 0 -0.023602636741573833 0.0032724840201188345 0 -0.023051269211723339 0.0028950265092321744 0 -0.023320432084604346 0.0025641294666650634 0 -0.023208786283204851 0.003476800730938528 0 -0.022542264299429213 0.003993601114121061 0 -0.022542264299429213 0.003993601114121061 0 -0.022287703935826467 0.0042630038250596747 0 -0.021086785970287628 0.0041020981981082618 0 -0.017920020444991153 0.0040478173926762817 0 -0.014972690948915748 0.0079507469195326148 0 -0.014548751533608911 0.0075751896732302792 0 -0.015221297470286154 0.0076440659399089044 0 -0.014548751533608911 0.0075751896732302792 0 -0.014986163208807309 0.0068541350278931105 0 -0.015221297470286154 0.0076440659399089044 0 -0.022287703935826467 0.0042630038250596747 0 -0.022144841600675414 0.0044016723605833467 0 -0.012057348459697279 0.0072781585209794582 0 -0.014587653578304842 0.0089789377104985725 0 -0.014686111525320207 0.0078533479184641399 0 -0.014548751533608911 0.0075751896732302792 0 -0.014986163208807309 0.0068541350278931105 0 -0.014572750259679929 0.0060665552378382104 0 -0.021786999162095835 0.0049011735979036459 0 -0.021821163583894021 0.0048588939169781692 0 -0.021739971657061187 0.0047864649435177698 0 -0.022542264299429213 0.003993601114121061 0 -0.021086785970287628 0.0041020981981082618 0 -0.022287703935826467 0.0042630038250596747 0 -0.021086785970287628 0.0041020981981082618 0 -0.020835849252062142 0.0043963161491825916 0 -0.017638747919905631 0.0050013955681097238 0 -0.015787585867824413 0.0078677481466433077 0 -0.015221297470286154 0.0076440659399089044 0 -0.015558515132249935 0.0062671126640617934 0 -0.016990893053532016 0.008441779413010643 0 -0.015787585867824413 0.0078677481466433077 0 -0.015558515132249935 0.0062671126640617934 0 -0.017557151839188712 0.007609422950499334 0 -0.017622224641639726 0.0096766938566443163 0 -0.015873632472161166 0.0069380937506359677 0 -0.014986163208807309 0.0068541350278931105 0 -0.015221297470286154 0.0076440659399089044 0 -0.015558515132249935 0.0062671126640617934 0 -0.014975699818318438 0.0079479306017327545 0 -0.015787585867824413 0.0078677481466433077 0 -0.015221297470286154 0.0076440659399089044 0 -0.01698664970072394 0.0060386038108833718 0 -0.015873632472161166 0.0069380937506359677 0 -0.016083392658183329 0.0048696571361505929 0 -0.017557151839188712 0.007609422950499334 0 -0.01698664970072394 0.0060386038108833718 0 -0.015873632472161166 0.0069380937506359677 0 -0.014572750259679929 0.0060665552378382104 0 -0.013692341922097387 0.00554753801701462 0 -0.014080070374077392 0.0040696679856818225 0 -0.014986163208807309 0.0068541350278931105 0 -0.015558515132249935 0.0062671126640617934 0 -0.014572750259679929 0.0060665552378382104 0 -0.015558515132249935 0.0062671126640617934 0 -0.014572750259679929 0.0060665552378382104 0 -0.014080070374077392 0.0040696679856818225 0 -0.014548751533608911 0.0075751896732302792 0 -0.014572750259679929 0.0060665552378382104 0 -0.013692341922097387 0.00554753801701462 0 -0.017638747919905631 0.0050013955681097238 0 -0.015123550726921618 0.003588541028777318 0 -0.014233591730851007 0.0042662566135557205 0 -0.016083392658183329 0.0048696571361505929 0 -0.015393010528716297 0.0035451139847942396 0 -0.015873632472161166 0.0069380937506359677 0 -0.014233591730851007 0.0042662566135557205 0 -0.016083392658183329 0.0048696571361505929 0 -0.016083392658183329 0.0048696571361505929 0 -0.016637873084957996 0.0034759673064078487 0 -0.015393010528716297 0.0035451139847942396 0 -0.016083392658183329 0.0048696571361505929 0 -0.016637873084957996 0.0034759673064078487 0 -0.017760853791460023 0.0046405687165434967 0 -0.01698664970072394 0.0060386038108833718 0 -0.016083392658183329 0.0048696571361505929 0 -0.017760853791460023 0.0046405687165434967 0 -0.012481729884789359 0.0059455603577390189 0 -0.011277980714665837 0.004462899931802853 0 -0.0096310058842397194 0.0056059643087105013 0 -0.019415279845474177 0.0041246321256739578 0 -0.017413928879526488 0.0042149221395684612 0 -0.012057348459697279 0.0072781585209794582 0 -0.012481729884789359 0.0059455603577390189 0 -0.0096310058842397194 0.0056059643087105013 0 -0.014566619708201155 0.007786391746527674 0 -0.013685398235595904 0.0056397449051917179 0 -0.012481729884789359 0.0059455603577390189 0 -0.013685398235595904 0.0056397449051917179 0 -0.012481729884789359 0.0059455603577390189 0 -0.01252691586928989 0.0048289465789232659 0 -0.017920020444991153 0.0040478173926762817 0 -0.016797268297833602 0.0035221334386509825 0 -0.013692341922097387 0.00554753801701462 0 -0.014080070374077392 0.0040696679856818225 0 -0.012781651708228111 0.0034885704878898707 0 -0.013685398235595904 0.0056397449051917179 0 -0.01252691586928989 0.0048289465789232659 0 -0.012781651708228111 0.0034885704878898707 0 -0.01252691586928989 0.0048289465789232659 0 -0.011277980714665837 0.004462899931802853 0 -0.012781651708228111 0.0034885704878898707 0 -0.012481729884789359 0.0059455603577390189 0 -0.01252691586928989 0.0048289465789232659 0 -0.011277980714665837 0.004462899931802853 0 -0.011277980714665837 0.004462899931802853 0 -0.01151566664473987 0.0027930486256837212 0 -0.01030251757959594 0.0033798270909323638 0 -0.011277980714665837 0.004462899931802853 0 -0.01151566664473987 0.0027930486256837212 0 -0.012781651708228111 0.0034885704878898707 0 -0.01151566664473987 0.0027930486256837212 0 -0.010452460144664659 0.0014188177966218888 0 -0.01030251757959594 0.0033798270909323638 0 -0.01151566664473987 0.0027930486256837212 0 -0.012524225876287588 0.0018210079228767773 0 -0.010452460144664659 0.0014188177966218888 0 -0.015123550726921618 0.003588541028777318 0 -0.013249783567288205 0.0017612370576326523 0 -0.01151566664473987 0.0027930486256837212 0 -0.012781651708228111 0.0034885704878898707 0 -0.012524225876287588 0.0018210079228767773 0 -0.014080070374077392 0.0040696679856818225 0 -0.012781651708228111 0.0034885704878898707 0 -0.012524225876287588 0.0018210079228767773 0 -0.012783239754267615 -5.4319812879579613e-05 0 -0.012665537106183039 0.0018674139952581923 0 -0.01455321179887922 0.00088534276934390272 0 -0.012329926052754682 0.00065610051738527759 0 -0.013249783567288205 0.0017612370576326523 0 -0.010987856131122872 -0.00037919585441512901 0 -0.012524225876287588 0.0018210079228767773 0 -0.010452460144664659 0.0014188177966218888 0 -0.015569884636459256 0.0021783891200796352 0 -0.017100542328182533 0.0021026618045455977 0 -0.016637873084957996 0.0034759673064078487 0 -0.015569884636459256 0.0021783891200796352 0 -0.016637873084957996 0.0034759673064078487 0 -0.015393010528716297 0.0035451139847942396 0 -0.014233591730851007 0.0042662566135557205 0 -0.012665537106183039 0.0018674139952581923 0 -0.014478303733616773 0.0025382016610940128 0 -0.014233591730851007 0.0042662566135557205 0 -0.015393010528716297 0.0035451139847942396 0 -0.014478303733616773 0.0025382016610940128 0 -0.015569884636459256 0.0021783891200796352 0 -0.015393010528716297 0.0035451139847942396 0 -0.014478303733616773 0.0025382016610940128 0 -0.015569884636459256 0.0021783891200796352 0 -0.014478303733616773 0.0025382016610940128 0 -0.01455321179887922 0.00088534276934390272 0 -0.012665537106183039 0.0018674139952581923 0 -0.014478303733616773 0.0025382016610940128 0 -0.01455321179887922 0.00088534276934390272 0 -0.016226231971936414 -0.000627789616557959 0 -0.01455321179887922 0.00088534276934390272 0 -0.016252951747576287 0.0010838093998243093 0 -0.016226231971936414 -0.000627789616557959 0 -0.016252951747576287 0.0010838093998243093 0 -0.01783681431194423 0.00093967326461985633 0 -0.015569884636459256 0.0021783891200796352 0 -0.01455321179887922 0.00088534276934390272 0 -0.016252951747576287 0.0010838093998243093 0 -0.015569884636459256 0.0021783891200796352 0 -0.017100542328182533 0.0021026618045455977 0 -0.016252951747576287 0.0010838093998243093 0 -0.017100542328182533 0.0021026618045455977 0 -0.016252951747576287 0.0010838093998243093 0 -0.01783681431194423 0.00093967326461985633 0 -0.018399954407352443 -0.00029976948049210934 0 -0.01783681431194423 0.00093967326461985633 0 -0.018876773976639238 0.0011788653508067685 0 -0.01783681431194423 0.00093967326461985633 0 -0.018876773976639238 0.0011788653508067685 0 -0.018365513638953744 0.002035823144218032 0 -0.017100542328182533 0.0021026618045455977 0 -0.01783681431194423 0.00093967326461985633 0 -0.018365513638953744 0.002035823144218032 0 -0.017100542328182533 0.0021026618045455977 0 -0.018365513638953744 0.002035823144218032 0 -0.017933703185218024 0.0031463144330878975 0 -0.018365513638953744 0.002035823144218032 0 -0.018801116433301311 0.0027643195733295491 0 -0.019590041740489433 0.0022180927835135041 0 -0.018876773976639238 0.0011788653508067685 0 -0.018365513638953744 0.002035823144218032 0 -0.019590041740489433 0.0022180927835135041 0 -0.018365513638953744 0.002035823144218032 0 -0.018801116433301311 0.0027643195733295491 0 -0.017933703185218024 0.0031463144330878975 0 -0.018801116433301311 0.0027643195733295491 0 -0.017933703185218024 0.0031463144330878975 0 -0.019256058976493427 0.0035878293914110237 0 -0.017100542328182533 0.0021026618045455977 0 -0.016637873084957996 0.0034759673064078487 0 -0.017933703185218024 0.0031463144330878975 0 -0.020250609632619397 0.0027799918176554068 0 -0.021210331494939963 0.0024279241927914258 0 -0.020778179776528922 0.0036856517861346724 0 -0.020250609632619397 0.0027799918176554068 0 -0.019256058976493427 0.0035878293914110237 0 -0.020778179776528922 0.0036856517861346724 0 -0.018801116433301311 0.0027643195733295491 0 -0.019590041740489433 0.0022180927835135041 0 -0.019256058976493427 0.0035878293914110237 0 -0.020250609632619397 0.0027799918176554068 0 -0.019590041740489433 0.0022180927835135041 0 -0.019256058976493427 0.0035878293914110237 0 -0.019590041740489433 0.0022180927835135041 0 -0.020491257970268812 0.0019692811070830718 0 -0.020218564454664894 0.0013683751647323734 0 -0.020250609632619397 0.0027799918176554068 0 -0.019590041740489433 0.0022180927835135041 0 -0.020491257970268812 0.0019692811070830718 0 -0.020491257970268812 0.0019692811070830718 0 -0.021081103410178104 0.0015638525917317887 0 -0.021210331494939963 0.0024279241927914258 0 -0.020250609632619397 0.0027799918176554068 0 -0.020491257970268812 0.0019692811070830718 0 -0.021210331494939963 0.0024279241927914258 0 -0.020491257970268812 0.0019692811070830718 0 -0.020218564454664894 0.0013683751647323734 0 -0.021081103410178104 0.0015638525917317887 0 -0.020218564454664894 0.0013683751647323734 0 -0.02156099697637464 0.0009498827282867396 0 -0.021081103410178104 0.0015638525917317887 0 -0.020218564454664894 0.0013683751647323734 0 -0.019623301501589408 0.00050504740967205659 0 -0.02156099697637464 0.0009498827282867396 0 -0.019550270393440958 -0.0012771491626868028 0 -0.019623301501589408 0.00050504740967205659 0 -0.02156099697637464 0.0009498827282867396 0 -0.018876773976639238 0.0011788653508067685 0 -0.020218564454664894 0.0013683751647323734 0 -0.019623301501589408 0.00050504740967205659 0 -0.018876773976639238 0.0011788653508067685 0 -0.019590041740489433 0.0022180927835135041 0 -0.020218564454664894 0.0013683751647323734 0 -0.018399954407352443 -0.00029976948049210934 0 -0.018876773976639238 0.0011788653508067685 0 -0.019623301501589408 0.00050504740967205659 0 -0.021703442457763341 0.00047467443976239096 0 -0.022030345893335961 0.00067715068157185598 0 -0.02156099697637464 0.0009498827282867396 0 -0.022030345893335961 0.00067715068157185598 0 -0.022029248615193463 0.00095549147783128077 0 -0.02156099697637464 0.0009498827282867396 0 -0.022030345893335961 0.00067715068157185598 0 -0.022194301749529719 0.00083271122863774511 0 -0.022029248615193463 0.00095549147783128077 0 -0.022194301749529719 0.00083271122863774511 0 -0.022029248615193463 0.00095549147783128077 0 -0.02228331330701697 0.0010077163340394691 0 -0.022029248615193463 0.00095549147783128077 0 -0.02156099697637464 0.0009498827282867396 0 -0.021932665726518349 0.0012786169369784074 0 -0.02156099697637464 0.0009498827282867396 0 -0.021081103410178104 0.0015638525917317887 0 -0.021932665726518349 0.0012786169369784074 0 -0.022453565793364248 0.00055763427010438232 0 -0.02230795841352895 0.00068668186577185879 0 -0.022562988271416531 0.00070032152866976189 0 -0.022463098004081937 0.0004503189615661332 0 -0.022637522257094377 0.00051910825605334856 0 -0.022453565793364248 0.00055763427010438232 0 -0.021961337249111795 0.00041804945169777498 0 -0.022030345893335961 0.00067715068157185598 0 -0.022230265137377397 0.0005491247528274613 0 -0.022453565793364248 0.00055763427010438232 0 -0.022230265137377397 0.0005491247528274613 0 -0.02230795841352895 0.00068668186577185879 0 -0.022030345893335961 0.00067715068157185598 0 -0.022230265137377397 0.0005491247528274613 0 -0.02230795841352895 0.00068668186577185879 0 -0.022400210800842656 0.00081829986902155001 0 -0.022562988271416531 0.00070032152866976189 0 -0.022637659056307043 0.00079852839572129943 0 -0.022194301749529719 0.00083271122863774511 0 -0.02230795841352895 0.00068668186577185879 0 -0.022400210800842656 0.00081829986902155001 0 -0.022030345893335961 0.00067715068157185598 0 -0.022194301749529719 0.00083271122863774511 0 -0.02230795841352895 0.00068668186577185879 0 -0.022194301749529719 0.00083271122863774511 0 -0.022400210800842656 0.00081829986902155001 0 -0.02228331330701697 0.0010077163340394691 0 -0.02230795841352895 0.00068668186577185879 0 -0.022400210800842656 0.00081829986902155001 0 -0.022562988271416531 0.00070032152866976189 0 -0.022678647280667083 0.00060065113419045248 0 -0.02289757990790825 0.00062568617073711235 0 -0.022562988271416531 0.00070032152866976189 0 -0.022678647280667083 0.00060065113419045248 0 -0.022453565793364248 0.00055763427010438232 0 -0.022562988271416531 0.00070032152866976189 0 -0.022637659056307043 0.00079852839572129943 0 -0.023097596947663675 0.00063821862513487992 0 -0.022583103100002649 0.00079962573381614889 0 -0.02289757990790825 0.00062568617073711235 0 -0.022562988271416531 0.00070032152866976189 0 -0.022637659056307043 0.00079852839572129943 0 -0.02289757990790825 0.00062568617073711235 0 -0.022637659056307043 0.00079852839572129943 0 -0.023097596947663675 0.00063821862513487992 0 -0.022400210800842656 0.00081829986902155001 0 -0.022637659056307043 0.00079852839572129943 0 -0.02228331330701697 0.0010077163340394691 0 -0.022637659056307043 0.00079852839572129943 0 -0.02228331330701697 0.0010077163340394691 0 -0.022583103100002649 0.00079962573381614889 0 -0.022779872707341695 0.0016433690572542471 0 -0.022946829643692417 0.0019307797557990825 0 -0.021932665726518349 0.0012786169369784074 0 -0.02228331330701697 0.0010077163340394691 0 -0.022583103100002649 0.00079962573381614889 0 -0.021932665726518349 0.0012786169369784074 0 -0.021210331494939963 0.0024279241927914258 0 -0.022468646594475124 0.0037735195610959413 0 -0.021081103410178104 0.0015638525917317887 0 -0.021932665726518349 0.0012786169369784074 0 -0.021210331494939963 0.0024279241927914258 0 -0.022029248615193463 0.00095549147783128077 0 -0.021932665726518349 0.0012786169369784074 0 -0.02228331330701697 0.0010077163340394691 0 -0.021210331494939963 0.0024279241927914258 0 -0.022468646594475124 0.0037735195610959413 0 -0.020778179776528922 0.0036856517861346724 0 -0.022946829643692417 0.0019307797557990825 0 -0.023232544023803373 0.0021350589565637883 0 -0.022468646594475124 0.0037735195610959413 0 -0.021216503266346054 0.0052525307810929629 0 -0.020778179776528922 0.0036856517861346724 0 -0.022468646594475124 0.0037735195610959413 0 -0.021216503266346054 0.0052525307810929629 0 -0.02300381606965653 0.0057960140821404832 0 -0.023535054429700181 0.00055851210332588273 0 -0.022583103100002649 0.00079962573381614889 0 -0.022856522230524094 0.0012670959754089621 0 -0.023535054429700181 0.00055851210332588273 0 -0.023097596947663675 0.00063821862513487992 0 -0.022583103100002649 0.00079962573381614889 0 -0.023561211124007397 0.0017362078241416779 0 -0.023232544023803373 0.0021350589565637883 0 -0.024053590831565098 -0.00035537433182844584 0 -0.023535054429700181 0.00055851210332588273 0 -0.024808253406152964 -8.9382581337695721e-05 0 -0.024053590831565098 -0.00035537433182844584 0 -0.024789788823248084 -0.0012420764457896009 0 -0.024808253406152964 -8.9382581337695721e-05 0 -0.020262144850422815 0.0077553037183291157 0 -0.021216503266346054 0.0052525307810929629 0 -0.02300381606965653 0.0057960140821404832 0 -0.021778900647154775 0.003879013164396837 0 -0.023232544023803373 0.0021350589565637883 0 -0.020262144850422815 0.0077553037183291157 0 -0.018236664447835428 0.00628327571155325 0 -0.019594959863665516 0.0051654465171546279 0 -0.020262144850422815 0.0077553037183291157 0 -0.021216503266346054 0.0052525307810929629 0 -0.019594959863665516 0.0051654465171546279 0 -0.017557151839188712 0.007609422950499334 0 -0.020262144850422815 0.0077553037183291157 0 -0.018236664447835428 0.00628327571155325 0 -0.017557151839188712 0.007609422950499334 0 -0.01698664970072394 0.0060386038108833718 0 -0.018236664447835428 0.00628327571155325 0 -0.01698664970072394 0.0060386038108833718 0 -0.018236664447835428 0.00628327571155325 0 -0.017760853791460023 0.0046405687165434967 0 -0.018236664447835428 0.00628327571155325 0 -0.017760853791460023 0.0046405687165434967 0 -0.019594959863665516 0.0051654465171546279 0 -0.016637873084957996 0.0034759673064078487 0 -0.017933703185218024 0.0031463144330878975 0 -0.017760853791460023 0.0046405687165434967 0 -0.017933703185218024 0.0031463144330878975 0 -0.017760853791460023 0.0046405687165434967 0 -0.019256058976493427 0.0035878293914110237 0 -0.017760853791460023 0.0046405687165434967 0 -0.019256058976493427 0.0035878293914110237 0 -0.019594959863665516 0.0051654465171546279 0 -0.019256058976493427 0.0035878293914110237 0 -0.020778179776528922 0.0036856517861346724 0 -0.019594959863665516 0.0051654465171546279 0 -0.021216503266346054 0.0052525307810929629 0 -0.020778179776528922 0.0036856517861346724 0 -0.019594959863665516 0.0051654465171546279 0 -0.0082068946204674892 -0.00017632618815655176 0 -0.0086039724062047466 -0.0003581441495926806 0 -0.0095251436879349866 -0.00051289391166894362 0 -0.0082068946204674892 -0.00017632618815655176 0 -0.0095251436879349866 -0.00051289391166894362 0 -0.0093225055503548277 -4.0463248424205925e-05 0 -0.0082068946204674892 -0.00017632618815655176 0 -0.0075471816932733936 -2.0532715254557679e-06 0 -0.0054835695805486827 3.5610138687398598e-06 0 -0.0082068946204674892 -0.00017632618815655176 0 -0.0075471816932733936 -2.0532715254557679e-06 0 -0.0086039724062047466 -0.0003581441495926806 0 -0.0075471816932733936 -2.0532715254557679e-06 0 -0.0085953600187919435 -0.00025528771563108714 0 -0.0086039724062047466 -0.0003581441495926806 0 -0.0085953600187919435 -0.00025528771563108714 0 -0.0086039724062047466 -0.0003581441495926806 0 -0.0093253606299537554 -0.00076108139662689521 0 -0.0075471816932733936 -2.0532715254557679e-06 0 -0.0085953600187919435 -0.00025528771563108714 0 -0.0096169683551549645 -2.213793702598844e-07 0 -0.0086039724062047466 -0.0003581441495926806 0 -0.0095251436879349866 -0.00051289391166894362 0 -0.0093253606299537554 -0.00076108139662689521 0 -0.0095251436879349866 -0.00051289391166894362 0 -0.010077571445072766 -0.00095642902935223523 0 -0.0093253606299537554 -0.00076108139662689521 0 -0.0095251436879349866 -0.00051289391166894362 0 -0.010736130670344292 -0.0009031969878381716 0 -0.010448300105903526 -0.00014697792890427542 0 -0.0095251436879349866 -0.00051289391166894362 0 -0.010736130670344292 -0.0009031969878381716 0 -0.010077571445072766 -0.00095642902935223523 0 -0.010736130670344292 -0.0009031969878381716 0 -0.010448300105903526 -0.00014697792890427542 0 -0.011791507124228769 -0.0010188606704774152 0 -0.010448300105903526 -0.00014697792890427542 0 -0.0093225055503548277 -4.0463248424205925e-05 0 -0.0097259594071650805 0.00045057652901863955 0 -0.0095251436879349866 -0.00051289391166894362 0 -0.010448300105903526 -0.00014697792890427542 0 -0.0093225055503548277 -4.0463248424205925e-05 0 -0.0097259594071650805 0.00045057652901863955 0 -0.0089484857409884433 0.0012263306796216396 0 -0.008408947970501025 0.0003952308614696789 0 -0.0093225055503548277 -4.0463248424205925e-05 0 -0.0097259594071650805 0.00045057652901863955 0 -0.008408947970501025 0.0003952308614696789 0 -0.0097259594071650805 0.00045057652901863955 0 -0.010740062349253796 0.00044713246599589659 0 -0.01005188244787906 0.0010968224761518334 0 -0.010448300105903526 -0.00014697792890427542 0 -0.0097259594071650805 0.00045057652901863955 0 -0.010740062349253796 0.00044713246599589659 0 -0.010448300105903526 -0.00014697792890427542 0 -0.010740062349253796 0.00044713246599589659 0 -0.011390938603578744 -4.4040756793904398e-05 0 -0.01005188244787906 0.0010968224761518334 0 -0.010387870251461213 0.0017345675672336652 0 -0.010911962661156157 0.0010627608773914269 0 -0.010740062349253796 0.00044713246599589659 0 -0.01005188244787906 0.0010968224761518334 0 -0.010911962661156157 0.0010627608773914269 0 -0.01005188244787906 0.0010968224761518334 0 -0.0089484857409884433 0.0012263306796216396 0 -0.0095143899933547334 0.0018393122636036366 0 -0.0097259594071650805 0.00045057652901863955 0 -0.01005188244787906 0.0010968224761518334 0 -0.0089484857409884433 0.0012263306796216396 0 -0.0089484857409884433 0.0012263306796216396 0 -0.008408947970501025 0.0003952308614696789 0 -0.0078102804950873793 0.0019298830967687073 0 -0.0089484857409884433 0.0012263306796216396 0 -0.0078102804950873793 0.0019298830967687073 0 -0.0095143899933547334 0.0018393122636036366 0 -0.0082068946204674892 -0.00017632618815655176 0 -0.0093225055503548277 -4.0463248424205925e-05 0 -0.008408947970501025 0.0003952308614696789 0 -0.0082068946204674892 -0.00017632618815655176 0 -0.008408947970501025 0.0003952308614696789 0 -0.0054835695805486827 3.5610138687398598e-06 0 -0.0054764247475223692 1.5055669250893997e-06 0 -0.0034413482908875622 -5.294583598387117e-07 0 -0.0030220461711737657 0.00025180869808628443 0 -0.008408947970501025 0.0003952308614696789 0 -0.0054835695805486827 3.5610138687398598e-06 0 -0.0078102804950873793 0.0019298830967687073 0 -0.0054782921525042801 2.3081917957326728e-07 0 -0.0055084880585028594 0.00028018476488986179 0 -0.0034413482908875622 -5.294583598387117e-07 0 -0.0030220461711737657 0.00025180869808628443 0 -0.0021645447440483772 -0.00018776583883521329 0 -0.0078102804950873793 0.0019298830967687073 0 -0.0090987931277167478 0.0026187622414208765 0 -0.0095143899933547334 0.0018393122636036366 0 -0.0055084880585028594 0.00028018476488986179 0 -0.0057532565605978025 0.00041129774308842107 0 -0.0030220461711737657 0.00025180869808628443 0 -0.0021645447440483772 -0.00018776583883521329 0 -0.001766563170088703 -5.9994226791604948e-05 0 -0.0021645447440483772 -0.00018776583883521329 0 -0.0016698397762459813 -0.00024752311296332135 0 -0.001766563170088703 -5.9994226791604948e-05 0 -0.0034413482908875622 -5.294583598387117e-07 0 -0.0021645447440483772 -0.00018776583883521329 0 -0.0014043916493938079 -3.3189254289585582e-07 0 -0.0021645447440483772 -0.00018776583883521329 0 -0.0014043916493938079 -3.3189254289585582e-07 0 -0.0013173394597085558 -0.00018821595566340248 0 -0.0021645447440483772 -0.00018776583883521329 0 -0.0016698397762459813 -0.00024752311296332135 0 -0.0013173394597085558 -0.00018821595566340248 0 -0.0016698397762459813 -0.00024752311296332135 0 -0.0013173394597085558 -0.00018821595566340248 0 -0.0015614992250893198 -0.00015977903656965646 0 -0.0013173394597085558 -0.00018821595566340248 0 -0.00024667136868924803 -0.00017219080784252176 0 -0.0015614992250893198 -0.00015977903656965646 0 -0.0025960180760835178 0.00040478370000026124 0 -0.003372937108911761 0.00022583332974887463 0 -0.00091112645074447067 -0.00027297455833014936 0 -0.00024667136868924803 -0.00017219080784252176 0 -0.0016194836482968816 -0.0012877804067970577 0 0.00029272866165994159 -6.7578681281727006e-05 0 -0.00091112645074447067 -0.00027297455833014936 0 -0.00024667136868924803 -0.00017219080784252176 0 -0.0014043916493938079 -3.3189254289585582e-07 0 -0.0013173394597085558 -0.00018821595566340248 0 -0.00024667136868924803 -0.00017219080784252176 0 0.00063241411047978535 -4.989840899153722e-07 0 0.00029272866165994159 -6.7578681281727006e-05 0 -0.0014043916493938079 -3.3189254289585582e-07 0 0.00029272866165994159 -6.7578681281727006e-05 0 -0.0014043916493938079 -3.3189254289585582e-07 0 -0.00024667136868924803 -0.00017219080784252176 0 -0.0042739853550994482 0.00035908858896875081 0 -0.0020671807891624065 0.00033232699622633529 0 -0.0029764530966844777 -0.00081247957105992218 0 -0.0042739853550994482 0.00035908858896875081 0 -0.0029764530966844777 -0.00081247957105992218 0 -0.0040598764309737346 -0.0014549771536358424 0 -0.0020671807891624065 0.00033232699622633529 0 -0.0029764530966844777 -0.00081247957105992218 0 -0.0016194836482968816 -0.0012877804067970577 0 -0.0020671807891624065 0.00033232699622633529 0 -0.00091112645074447067 -0.00027297455833014936 0 -0.0016194836482968816 -0.0012877804067970577 0 -0.0029764530966844777 -0.00081247957105992218 0 -0.0016194836482968816 -0.0012877804067970577 0 -0.0031398302640010074 -0.002388003442774633 0 -0.0016698397762459813 -0.00024752311296332135 0 -0.0015614992250893198 -0.00015977903656965646 0 -0.0016044843925846219 -0.00023477828779751319 0 -0.003372937108911761 0.00022583332974887463 0 -0.0057389953587427666 -0.00027255730806733958 0 -0.0029764530966844777 -0.00081247957105992218 0 -0.0031398302640010074 -0.002388003442774633 0 -0.0040598764309737346 -0.0014549771536358424 0 -0.0032098610197300276 -0.0023039116886406472 0 -0.0040598764309737346 -0.0014549771536358424 0 -0.0043082282231259239 -0.0031270610486352985 0 -0.0057389953587427666 -0.00027255730806733958 0 -0.0052379784561770622 -0.00072999779201706264 0 -0.010085694512199877 0.0034554015195663911 0 -0.010121703993342959 0.0024406363423505571 0 -0.010853131038661264 0.0028594620337738662 0 -0.0057389953587427666 -0.00027255730806733958 0 -0.007025877636803823 -0.0002268924809367995 0 -0.010121703993342959 0.0024406363423505571 0 -0.010851741710511219 0.0021094515005415215 0 -0.010853131038661264 0.0028594620337738662 0 -0.0016698397762459813 -0.00024752311296332135 0 -0.0016044843925846219 -0.00023477828779751319 0 -0.001766563170088703 -5.9994226791604948e-05 0 -0.010085694512199877 0.0034554015195663911 0 -0.010121703993342959 0.0024406363423505571 0 -0.0090987931277167478 0.0026187622414208765 0 -0.0057389953587427666 -0.00027255730806733958 0 -0.0057532565605978025 0.00041129774308842107 0 -0.010121703993342959 0.0024406363423505571 0 -0.0090987931277167478 0.0026187622414208765 0 -0.0095143899933547334 0.0018393122636036366 0 -0.010121703993342959 0.0024406363423505571 0 -0.010387870251461213 0.0017345675672336652 0 -0.010851741710511219 0.0021094515005415215 0 -0.010121703993342959 0.0024406363423505571 0 -0.0095143899933547334 0.0018393122636036366 0 -0.010387870251461213 0.0017345675672336652 0 -0.01005188244787906 0.0010968224761518334 0 -0.0095143899933547334 0.0018393122636036366 0 -0.010387870251461213 0.0017345675672336652 0 -0.010387870251461213 0.0017345675672336652 0 -0.010942053298446606 0.0015577747192390631 0 -0.010911962661156157 0.0010627608773914269 0 -0.010387870251461213 0.0017345675672336652 0 -0.010942053298446606 0.0015577747192390631 0 -0.010851741710511219 0.0021094515005415215 0 -0.010942053298446606 0.0015577747192390631 0 -0.011382430570186064 0.0016525912723260371 0 -0.011546045214615013 0.001107258308796877 0 -0.011382430570186064 0.0016525912723260371 0 -0.011696435589451177 0.002143716922245124 0 -0.010851741710511219 0.0021094515005415215 0 -0.0081562744765360032 0.00020026905598381957 0 -0.007949221028424068 -2.1422447947921685e-05 0 -0.010942053298446606 0.0015577747192390631 0 -0.011382430570186064 0.0016525912723260371 0 -0.010851741710511219 0.0021094515005415215 0 -0.012278235849781612 0.0010402279824699679 0 -0.012058316623547597 0.0011817201270636932 0 -0.012192964178451374 0.00097362840129332391 0 -0.012058316623547597 0.0011817201270636932 0 -0.012183954669756102 0.00093882316174026591 0 -0.012046272721656709 0.0007675364750686026 0 -0.011382430570186064 0.0016525912723260371 0 -0.012058316623547597 0.0011817201270636932 0 -0.011546045214615013 0.001107258308796877 0 -0.007949221028424068 -2.1422447947921685e-05 0 -0.0084813874161120285 -0.00015889581208446271 0 -0.011382430570186064 0.0016525912723260371 0 -0.011586933694382438 0.0018524319247732986 0 -0.012058316623547597 0.0011817201270636932 0 -0.012058316623547597 0.0011817201270636932 0 -0.012192964178451374 0.00097362840129332391 0 -0.012183954669756102 0.00093882316174026591 0 -0.012278235849781612 0.0010402279824699679 0 -0.012337900022403633 0.00081117600794811985 0 -0.012192964178451374 0.00097362840129332391 0 -0.0054150758867269428 -0.0039531285477237728 0 -0.0053103979977761999 -0.0029345058177059915 0 -0.0064445849335325479 -0.0024911247428766469 0 -0.007949221028424068 -2.1422447947921685e-05 0 -0.0085158847946055043 -0.00026978650304084671 0 -0.011696435589451177 0.002143716922245124 0 -0.010851741710511219 0.0021094515005415215 0 -0.010853131038661264 0.0028594620337738662 0 -0.007949221028424068 -2.1422447947921685e-05 0 -0.007025877636803823 -0.0002268924809367995 0 -0.0054150758867269428 -0.0039531285477237728 0 -0.0053103979977761999 -0.0029345058177059915 0 -0.0043082282231259239 -0.0031270610486352985 0 -0.0053103979977761999 -0.0029345058177059915 0 -0.0043082282231259239 -0.0031270610486352985 0 -0.0050772926486092537 -0.0021662813445538784 0 -0.0040598764309737346 -0.0014549771536358424 0 -0.0050772926486092537 -0.0021662813445538784 0 -0.0056515120119004711 -0.0010640835030540096 0 -0.0040598764309737346 -0.0014549771536358424 0 -0.0043082282231259239 -0.0031270610486352985 0 -0.0050772926486092537 -0.0021662813445538784 0 -0.0064445849335325479 -0.0024911247428766469 0 -0.0056515120119004711 -0.0010640835030540096 0 -0.0074788922646483614 -0.0010176642103727786 0 -0.0050772926486092537 -0.0021662813445538784 0 -0.0064445849335325479 -0.0024911247428766469 0 -0.0056515120119004711 -0.0010640835030540096 0 -0.0053103979977761999 -0.0029345058177059915 0 -0.0050772926486092537 -0.0021662813445538784 0 -0.0064445849335325479 -0.0024911247428766469 0 -0.0063997567345119169 0.00039788013826104219 0 -0.0056515120119004711 -0.0010640835030540096 0 -0.0074788922646483614 -0.0010176642103727786 0 -0.0042739853550994482 0.00035908858896875081 0 -0.0040598764309737346 -0.0014549771536358424 0 -0.0056515120119004711 -0.0010640835030540096 0 -0.0042739853550994482 0.00035908858896875081 0 -0.0063997567345119169 0.00039788013826104219 0 -0.0056515120119004711 -0.0010640835030540096 0 -0.012287432040349978 -0.00038370163232092849 0 -0.012478785431347282 0.00043984155851596227 0 -0.011733016268782009 0.00021449478147524047 0 -0.012478785431347282 0.00043984155851596227 0 -0.012087948651439261 0.00071179512905079781 0 -0.011733016268782009 0.00021449478147524047 0 -0.0082321590685259741 -0.00068593522340050072 0 -0.0087958800172022577 -0.00021532404232832634 0 -0.0085075896535159196 0.00045138472958071202 0 -0.0063997567345119169 0.00039788013826104219 0 -0.0074788922646483614 -0.0010176642103727786 0 -0.0085158847946055043 -0.00026978650304084671 0 -0.0087958800172022577 -0.00021532404232832634 0 -0.012337900022403633 0.00081117600794811985 0 -0.012478785431347282 0.00043984155851596227 0 -0.012277342621475049 0.00078199385310335752 0 -0.012478785431347282 0.00043984155851596227 0 -0.012277342621475049 0.00078199385310335752 0 -0.012087948651439261 0.00071179512905079781 0 -0.012087948651439261 0.00071179512905079781 0 -0.012236460170838194 0.00092633878247588722 0 -0.012313542404115802 0.00086015648377938889 0 -0.012277342621475049 0.00078199385310335752 0 -0.012087948651439261 0.00071179512905079781 0 -0.012236460170838194 0.00092633878247588722 0 -0.012337900022403633 0.00081117600794811985 0 -0.012277342621475049 0.00078199385310335752 0 -0.012192964178451374 0.00097362840129332391 0 -0.012277342621475049 0.00078199385310335752 0 -0.012236460170838194 0.00092633878247588722 0 -0.012192964178451374 0.00097362840129332391 0 -0.012236460170838194 0.00092633878247588722 0 -0.012183954669756102 0.00093882316174026591 0 -0.012333127779676475 0.00071291944732907451 0 -0.012236460170838194 0.00092633878247588722 0 -0.012192964178451374 0.00097362840129332391 0 -0.012183954669756102 0.00093882316174026591 0 -0.012236460170838194 0.00092633878247588722 0 -0.012333127779676475 0.00071291944732907451 0 -0.012313542404115802 0.00086015648377938889 0 -0.012333127779676475 0.00071291944732907451 0 -0.012748557232207452 0.00052361197944454055 0 -0.012313542404115802 0.00086015648377938889 0 -0.012333127779676475 0.00071291944732907451 0 -0.012778231209841884 3.3657375850915027e-05 0 -0.012748557232207452 0.00052361197944454055 0 -0.012529348506985796 -0.00013396801021053103 0 -0.012776631504582541 -0.00042232286199355643 0 -0.012778231209841884 3.3657375850915027e-05 0 -0.012333127779676475 0.00071291944732907451 0 -0.012189559626610792 0.0001042455810966336 0 -0.012778231209841884 3.3657375850915027e-05 0 -0.012207999224394297 2.8525195138526642e-06 0 -0.012510342193653717 4.4248082620265576e-05 0 -0.012333127779676475 0.00071291944732907451 0 -0.012189559626610792 0.0001042455810966336 0 -0.012046272721656709 0.0007675364750686026 0 -0.012183954669756102 0.00093882316174026591 0 -0.012333127779676475 0.00071291944732907451 0 -0.012046272721656709 0.0007675364750686026 0 -0.012058316623547597 0.0011817201270636932 0 -0.012046272721656709 0.0007675364750686026 0 -0.011546045214615013 0.001107258308796877 0 -0.012046272721656709 0.0007675364750686026 0 -0.011550534612952846 0.00058176709782169981 0 -0.011546045214615013 0.001107258308796877 0 -0.010740062349253796 0.00044713246599589659 0 -0.011550534612952846 0.00058176709782169981 0 -0.010911962661156157 0.0010627608773914269 0 -0.010942053298446606 0.0015577747192390631 0 -0.010911962661156157 0.0010627608773914269 0 -0.011546045214615013 0.001107258308796877 0 -0.011550534612952846 0.00058176709782169981 0 -0.010911962661156157 0.0010627608773914269 0 -0.011546045214615013 0.001107258308796877 0 -0.010740062349253796 0.00044713246599589659 0 -0.011550534612952846 0.00058176709782169981 0 -0.011390938603578744 -4.4040756793904398e-05 0 -0.012189559626610792 0.0001042455810966336 0 -0.012046272721656709 0.0007675364750686026 0 -0.011550534612952846 0.00058176709782169981 0 -0.012207999224394297 2.8525195138526642e-06 0 -0.011572934488090672 -8.0323923990704543e-05 0 -0.012189559626610792 0.0001042455810966336 0 -0.011550534612952846 0.00058176709782169981 0 -0.011390938603578744 -4.4040756793904398e-05 0 -0.012529348506985796 -0.00013396801021053103 0 -0.011851935664768134 -6.6192473533436657e-05 0 -0.012541739902071403 -0.0007844771102295964 0 -0.010448300105903526 -0.00014697792890427542 0 -0.011851935664768134 -6.6192473533436657e-05 0 -0.011791507124228769 -0.0010188606704774152 0 -0.011116104099065211 -0.00014258148616115958 0 -0.011572934488090672 -8.0323923990704543e-05 0 -0.011851935664768134 -6.6192473533436657e-05 0 -0.011791507124228769 -0.0010188606704774152 0 -0.012541739902071403 -0.0007844771102295964 0 -0.012541739902071403 -0.0007844771102295964 0 -0.012943890281577374 -0.00091901145954116777 0 -0.012930083413417448 -0.001422311835003767 0 -0.012943890281577374 -0.00091901145954116777 0 -0.012776631504582541 -0.00042232286199355643 0 -0.013191279094107182 -0.00063718702496595486 0 -0.012541739902071403 -0.0007844771102295964 0 -0.012943890281577374 -0.00091901145954116777 0 -0.012776631504582541 -0.00042232286199355643 0 -0.012776631504582541 -0.00042232286199355643 0 -0.013191279094107182 -0.00063718702496595486 0 -0.012778231209841884 3.3657375850915027e-05 0 -0.012529348506985796 -0.00013396801021053103 0 -0.012541739902071403 -0.0007844771102295964 0 -0.012776631504582541 -0.00042232286199355643 0 -0.013191279094107182 -0.00063718702496595486 0 -0.01388638670324898 -0.001026775942282536 0 -0.013460196582336992 -0.00017722904480180066 0 -0.013191279094107182 -0.00063718702496595486 0 -0.013460196582336992 -0.00017722904480180066 0 -0.012778231209841884 3.3657375850915027e-05 0 -0.012943890281577374 -0.00091901145954116777 0 -0.013191279094107182 -0.00063718702496595486 0 -0.013397475189700192 -0.0013135432046599007 0 -0.013191279094107182 -0.00063718702496595486 0 -0.01388638670324898 -0.001026775942282536 0 -0.013397475189700192 -0.0013135432046599007 0 -0.01388638670324898 -0.001026775942282536 0 -0.014865303323879734 -0.00077399053365497504 0 -0.014507916255281743 -0.0017002131982911531 0 -0.01388638670324898 -0.001026775942282536 0 -0.014119927152537596 -0.00048384452619099766 0 -0.014865303323879734 -0.00077399053365497504 0 -0.014119927152537596 -0.00048384452619099766 0 -0.0142608788734083 0.00012257218025560988 0 -0.014865303323879734 -0.00077399053365497504 0 -0.01388638670324898 -0.001026775942282536 0 -0.014119927152537596 -0.00048384452619099766 0 -0.013460196582336992 -0.00017722904480180066 0 -0.0142608788734083 0.00012257218025560988 0 -0.013438596095178197 0.00032446412342400865 0 -0.013460196582336992 -0.00017722904480180066 0 -0.014119927152537596 -0.00048384452619099766 0 -0.0142608788734083 0.00012257218025560988 0 -0.013460196582336992 -0.00017722904480180066 0 -0.0142608788734083 0.00012257218025560988 0 -0.013951318192013923 0.00053886486889456427 0 -0.015032157260885652 0.00045688154811604638 0 -0.0142608788734083 0.00012257218025560988 0 -0.013951318192013923 0.00053886486889456427 0 -0.013438596095178197 0.00032446412342400865 0 -0.013951318192013923 0.00053886486889456427 0 -0.013438596095178197 0.00032446412342400865 0 -0.012978071600270816 0.00068022890593445989 0 -0.013438596095178197 0.00032446412342400865 0 -0.012748557232207452 0.00052361197944454055 0 -0.012978071600270816 0.00068022890593445989 0 -0.013438596095178197 0.00032446412342400865 0 -0.013460196582336992 -0.00017722904480180066 0 -0.012748557232207452 0.00052361197944454055 0 -0.013460196582336992 -0.00017722904480180066 0 -0.012778231209841884 3.3657375850915027e-05 0 -0.012748557232207452 0.00052361197944454055 0 -0.012748557232207452 0.00052361197944454055 0 -0.012438452036882703 0.00083878085213211478 0 -0.012313542404115802 0.00086015648377938889 0 -0.012748557232207452 0.00052361197944454055 0 -0.012438452036882703 0.00083878085213211478 0 -0.012978071600270816 0.00068022890593445989 0 -0.012438452036882703 0.00083878085213211478 0 -0.011840548533167218 0.00067708647698752156 0 -0.012429792401670404 0.0009816882760234685 0 -0.012438452036882703 0.00083878085213211478 0 -0.012429792401670404 0.0009816882760234685 0 -0.012978071600270816 0.00068022890593445989 0 -0.012438452036882703 0.00083878085213211478 0 -0.012313542404115802 0.00086015648377938889 0 -0.011840548533167218 0.00067708647698752156 0 -0.012087948651439261 0.00071179512905079781 0 -0.011840548533167218 0.00067708647698752156 0 -0.011733016268782009 0.00021449478147524047 0 -0.012087948651439261 0.00071179512905079781 0 -0.012313542404115802 0.00086015648377938889 0 -0.011840548533167218 0.00067708647698752156 0 -0.011840548533167218 0.00067708647698752156 0 -0.011839833623587703 0.00076137088636216653 0 -0.012429792401670404 0.0009816882760234685 0 -0.011840548533167218 0.00067708647698752156 0 -0.011476852936036614 0.00024804301182095007 0 -0.011839833623587703 0.00076137088636216653 0 -0.011840548533167218 0.00067708647698752156 0 -0.011476852936036614 0.00024804301182095007 0 -0.011209595961512648 1.5051778563514098e-05 0 -0.010986380428643239 -0.00037145953363011501 0 -0.011476852936036614 0.00024804301182095007 0 -0.011209595961512648 1.5051778563514098e-05 0 -0.011840548533167218 0.00067708647698752156 0 -0.011209595961512648 1.5051778563514098e-05 0 -0.011733016268782009 0.00021449478147524047 0 -0.010581914103870898 -0.00071201552438318854 0 -0.011209595961512648 1.5051778563514098e-05 0 -0.011733016268782009 0.00021449478147524047 0 -0.012405668721647761 0.0013537047344295782 0 -0.013511456599925753 0.0013379270524777435 0 -0.012777582738928348 0.0020577517332311984 0 -0.012067552312917664 0.0019406392270879624 0 -0.013077155886128039 0.0013720329366309497 0 -0.012449006688213608 0.0024336477120661809 0 -0.012777582738928348 0.0020577517332311984 0 -0.012067552312917664 0.0019406392270879624 0 -0.012390529239179604 0.0013445095329385069 0 -0.012405668721647761 0.0013537047344295782 0 -0.010986380428643239 -0.00037145953363011501 0 -0.011476852936036614 0.00024804301182095007 0 -0.0112568128172155 7.9611441314646238e-05 0 -0.011476852936036614 0.00024804301182095007 0 -0.0112568128172155 7.9611441314646238e-05 0 -0.011839833623587703 0.00076137088636216653 0 -0.0112568128172155 7.9611441314646238e-05 0 -0.011214903392031494 0.00029035968559305749 0 -0.011839833623587703 0.00076137088636216653 0 -0.011214903392031494 0.00029035968559305749 0 -0.012473073420808174 0.0012775119615533249 0 -0.011839833623587703 0.00076137088636216653 0 -0.012405668721647761 0.0013537047344295782 0 -0.012392860058082872 0.001195737514704603 0 -0.012473073420808174 0.0012775119615533249 0 -0.011839833623587703 0.00076137088636216653 0 -0.012429792401670404 0.0009816882760234685 0 -0.012439633996592316 0.0027849361307091714 0 -0.012473073420808174 0.0012775119615533249 0 -0.014324401831569045 0.0020475339163423417 0 -0.012473073420808174 0.0012775119615533249 0 -0.014499707619209488 0.0012374334332245407 0 -0.014324401831569045 0.0020475339163423417 0 -0.012473073420808174 0.0012775119615533249 0 -0.01351695228453398 0.00088397021733870062 0 -0.014499707619209488 0.0012374334332245407 0 -0.012473073420808174 0.0012775119615533249 0 -0.01351695228453398 0.00088397021733870062 0 -0.012429792401670404 0.0009816882760234685 0 -0.01351695228453398 0.00088397021733870062 0 -0.012429792401670404 0.0009816882760234685 0 -0.012978071600270816 0.00068022890593445989 0 -0.013951318192013923 0.00053886486889456427 0 -0.01351695228453398 0.00088397021733870062 0 -0.012978071600270816 0.00068022890593445989 0 -0.013951318192013923 0.00053886486889456427 0 -0.01351695228453398 0.00088397021733870062 0 -0.014722476882857802 0.0008011155713862631 0 -0.014722476882857802 0.0008011155713862631 0 -0.015465404869628463 0.0010918856431001982 0 -0.014499707619209488 0.0012374334332245407 0 -0.014722476882857802 0.0008011155713862631 0 -0.015465404869628463 0.0010918856431001982 0 -0.015875489953690591 0.00068567988836373535 0 -0.015465404869628463 0.0010918856431001982 0 -0.016057722044022699 0.0011141179394627792 0 -0.015875489953690591 0.00068567988836373535 0 -0.015465404869628463 0.0010918856431001982 0 -0.015644317569995021 0.0015482856673088273 0 -0.014499707619209488 0.0012374334332245407 0 -0.015465404869628463 0.0010918856431001982 0 -0.015644317569995021 0.0015482856673088273 0 -0.016057722044022699 0.0011141179394627792 0 -0.01351695228453398 0.00088397021733870062 0 -0.014722476882857802 0.0008011155713862631 0 -0.014499707619209488 0.0012374334332245407 0 -0.015644317569995021 0.0015482856673088273 0 -0.014499707619209488 0.0012374334332245407 0 -0.014324401831569045 0.0020475339163423417 0 -0.014521108031281675 0.0011054534919962978 0 -0.013511456599925753 0.0013379270524777435 0 -0.014412861883572952 0.00088100057334138343 0 -0.013077155886128039 0.0013720329366309497 0 -0.013802304619615969 0.001948168461690302 0 -0.014412861883572952 0.00088100057334138343 0 -0.013802304619615969 0.001948168461690302 0 -0.01532409778416584 0.0014018122578483745 0 -0.012840294157713662 0.0026730157621611054 0 -0.012777582738928348 0.0020577517332311984 0 -0.013802304619615969 0.001948168461690302 0 -0.012777582738928348 0.0020577517332311984 0 -0.013077155886128039 0.0013720329366309497 0 -0.013802304619615969 0.001948168461690302 0 -0.015806296679484036 0.0019311325898068172 0 -0.014873179711927758 0.002278965339975389 0 -0.01532409778416584 0.0014018122578483745 0 -0.013802304619615969 0.001948168461690302 0 -0.014873179711927758 0.002278965339975389 0 -0.01532409778416584 0.0014018122578483745 0 -0.016172091773914179 0.0012353780100079856 0 -0.015806296679484036 0.0019311325898068172 0 -0.01532409778416584 0.0014018122578483745 0 -0.016172091773914179 0.0012353780100079856 0 -0.01532409778416584 0.0014018122578483745 0 -0.01594827348371658 0.00086024005482246175 0 -0.016885256544795689 0.00190950738807887 0 -0.016911406878871178 0.00094396539759593746 0 -0.016129733465302852 0.00074296950081825081 0 -0.016676580082598119 0.0016584567351277659 0 -0.016396142686410341 0.0011610155915476469 0 -0.016172091773914179 0.0012353780100079856 0 -0.01594827348371658 0.00086024005482246175 0 -0.016129733465302852 0.00074296950081825081 0 -0.014521108031281675 0.0011054534919962978 0 -0.014967054319223089 0.00097022181067461322 0 -0.014412861883572952 0.00088100057334138343 0 -0.01532409778416584 0.0014018122578483745 0 -0.01594827348371658 0.00086024005482246175 0 -0.015644317569995021 0.0015482856673088273 0 -0.01594827348371658 0.00086024005482246175 0 -0.016057722044022699 0.0011141179394627792 0 -0.016057722044022699 0.0011141179394627792 0 -0.016759986104018038 0.00086423789738552213 0 -0.015875489953690591 0.00068567988836373535 0 -0.01594827348371658 0.00086024005482246175 0 -0.016057722044022699 0.0011141179394627792 0 -0.016129733465302852 0.00074296950081825081 0 -0.016057722044022699 0.0011141179394627792 0 -0.017682000759864053 0.0013990937084590554 0 -0.016759986104018038 0.00086423789738552213 0 -0.016057722044022699 0.0011141179394627792 0 -0.016129733465302852 0.00074296950081825081 0 -0.016346657039552615 0.0004408378086434388 0 -0.016911406878871178 0.00094396539759593746 0 -0.016129733465302852 0.00074296950081825081 0 -0.016346657039552615 0.0004408378086434388 0 -0.017089008555683783 0.00095183887490512436 0 -0.017494135415284343 0.00086834726335252035 0 -0.01814312288249852 0.00053171504157898449 0 -0.017687061378129455 0.00085801167197437479 0 -0.016964161930030103 0.00039962589345547629 0 -0.017687061378129455 0.00085801167197437479 0 -0.016964161930030103 0.00039962589345547629 0 -0.016759986104018038 0.00086423789738552213 0 -0.017682000759864053 0.0013990937084590554 0 -0.017687061378129455 0.00085801167197437479 0 -0.016759986104018038 0.00086423789738552213 0 -0.01814312288249852 0.00053171504157898449 0 -0.016964161930030103 0.00039962589345547629 0 -0.017830066182425126 5.4080788490360275e-05 0 -0.016964161930030103 0.00039962589345547629 0 -0.016759986104018038 0.00086423789738552213 0 -0.015875489953690591 0.00068567988836373535 0 -0.016964161930030103 0.00039962589345547629 0 -0.015875489953690591 0.00068567988836373535 0 -0.015507123149831383 7.3106409590139381e-05 0 -0.015875489953690591 0.00068567988836373535 0 -0.015032157260885652 0.00045688154811604638 0 -0.015507123149831383 7.3106409590139381e-05 0 -0.014722476882857802 0.0008011155713862631 0 -0.015875489953690591 0.00068567988836373535 0 -0.015032157260885652 0.00045688154811604638 0 -0.013951318192013923 0.00053886486889456427 0 -0.014722476882857802 0.0008011155713862631 0 -0.015032157260885652 0.00045688154811604638 0 -0.0142608788734083 0.00012257218025560988 0 -0.015507123149831383 7.3106409590139381e-05 0 -0.014865303323879734 -0.00077399053365497504 0 -0.0142608788734083 0.00012257218025560988 0 -0.015032157260885652 0.00045688154811604638 0 -0.015507123149831383 7.3106409590139381e-05 0 -0.016964161930030103 0.00039962589345547629 0 -0.015507123149831383 7.3106409590139381e-05 0 -0.017214035050362782 -0.000501982038736518 0 -0.015507123149831383 7.3106409590139381e-05 0 -0.014865303323879734 -0.00077399053365497504 0 -0.017214035050362782 -0.000501982038736518 0 -0.014865303323879734 -0.00077399053365497504 0 -0.017214035050362782 -0.000501982038736518 0 -0.015786495293963226 -0.0016878412560625623 0 -0.017349401093671845 -0.0005105647284010641 0 -0.01721635958522074 -0.00078706780737362685 0 -0.018273381182491093 -0.00025139961977196885 0 -0.017214035050362782 -0.000501982038736518 0 -0.018366474997338705 -0.00047873142346832132 0 -0.01886738206353341 -0.00030008144942101549 0 -0.018273381182491093 -0.00025139961977196885 0 -0.018366474997338705 -0.00047873142346832132 0 -0.018492293997073882 0.00017863417323119151 0 -0.018273381182491093 -0.00025139961977196885 0 -0.017830066182425126 5.4080788490360275e-05 0 -0.018273381182491093 -0.00025139961977196885 0 -0.017830066182425126 5.4080788490360275e-05 0 -0.017214035050362782 -0.000501982038736518 0 -0.016964161930030103 0.00039962589345547629 0 -0.017830066182425126 5.4080788490360275e-05 0 -0.017214035050362782 -0.000501982038736518 0 -0.018366474997338705 -0.00047873142346832132 0 -0.018708159829673238 -0.00050907692968017032 0 -0.018868667470623466 -0.00046854052580575672 0 -0.019096967663941651 -0.00036636044199594422 0 -0.018366474997338705 -0.00047873142346832132 0 -0.018868667470623466 -0.00046854052580575672 0 -0.019096967663941651 -0.00036636044199594422 0 -0.01886738206353341 -0.00030008144942101549 0 -0.018366474997338705 -0.00047873142346832132 0 -0.017214035050362782 -0.000501982038736518 0 -0.018366474997338705 -0.00047873142346832132 0 -0.018442963121376506 -0.00053251864155386553 0 -0.014865303323879734 -0.00077399053365497504 0 -0.015786495293963226 -0.0016878412560625623 0 -0.014507916255281743 -0.0017002131982911531 0 -0.015786495293963226 -0.0016878412560625623 0 -0.014921944038795109 -0.0021465663770306297 0 -0.014507916255281743 -0.0017002131982911531 0 -0.01721635958522074 -0.00078706780737362685 0 -0.017052158510361029 -0.0010637842149532101 0 -0.018442963121376506 -0.00053251864155386553 0 -0.018708159829673238 -0.00050907692968017032 0 -0.018982031633263421 -0.00059427044775431847 0 -0.018366474997338705 -0.00047873142346832132 0 -0.018442963121376506 -0.00053251864155386553 0 -0.018708159829673238 -0.00050907692968017032 0 -0.018708159829673238 -0.00050907692968017032 0 -0.018846858634429767 -0.00046878347763240565 0 -0.018982031633263421 -0.00059427044775431847 0 -0.018708159829673238 -0.00050907692968017032 0 -0.018846858634429767 -0.00046878347763240565 0 -0.018880416611098953 -0.0005048152025941623 0 -0.018846858634429767 -0.00046878347763240565 0 -0.018982031633263421 -0.00059427044775431847 0 -0.018997509136385742 -0.00037688869638989803 0 -0.018982031633263421 -0.00059427044775431847 0 -0.018997509136385742 -0.00037688869638989803 0 -0.019365817978669778 -8.3522133079816363e-05 0 -0.018997509136385742 -0.00037688869638989803 0 -0.019125817073035536 -0.00024659264917918693 0 -0.019029197963983922 -0.00034752066557962335 0 -0.018997509136385742 -0.00037688869638989803 0 -0.019125817073035536 -0.00024659264917918693 0 -0.019365817978669778 -8.3522133079816363e-05 0 -0.018846858634429767 -0.00046878347763240565 0 -0.018923340067687533 -0.00044300871970278489 0 -0.018880416611098953 -0.0005048152025941623 0 -0.018846858634429767 -0.00046878347763240565 0 -0.018997509136385742 -0.00037688869638989803 0 -0.018923340067687533 -0.00044300871970278489 0 -0.018997509136385742 -0.00037688869638989803 0 -0.018923340067687533 -0.00044300871970278489 0 -0.019029197963983922 -0.00034752066557962335 0 -0.018923340067687533 -0.00044300871970278489 0 -0.018968366580382878 -0.00051503327974000549 0 -0.019029197963983922 -0.00034752066557962335 0 -0.018969762445827595 -0.00057349061676891043 0 -0.018880416611098953 -0.0005048152025941623 0 -0.018968366580382878 -0.00051503327974000549 0 -0.018923340067687533 -0.00044300871970278489 0 -0.018880416611098953 -0.0005048152025941623 0 -0.018968366580382878 -0.00051503327974000549 0 -0.018969762445827595 -0.00057349061676891043 0 -0.018880416611098953 -0.0005048152025941623 0 -0.019093694127104231 -0.00056777509609579296 0 -0.018880416611098953 -0.0005048152025941623 0 -0.018868667470623466 -0.00046854052580575672 0 -0.019093694127104231 -0.00056777509609579296 0 -0.018708159829673238 -0.00050907692968017032 0 -0.018880416611098953 -0.0005048152025941623 0 -0.018868667470623466 -0.00046854052580575672 0 -0.019423346859586597 -0.00047766518619915852 0 -0.018868667470623466 -0.00046854052580575672 0 -0.019093694127104231 -0.00056777509609579296 0 -0.019096967663941651 -0.00036636044199594422 0 -0.019423346859586597 -0.00047766518619915852 0 -0.018868667470623466 -0.00046854052580575672 0 -0.019631463469610089 -0.00082402119042231938 0 -0.019423346859586597 -0.00047766518619915852 0 -0.019093694127104231 -0.00056777509609579296 0 -0.019631463469610089 -0.00082402119042231938 0 -0.019093694127104231 -0.00056777509609579296 0 -0.018985874584041721 -0.00068870637805210511 0 -0.018969762445827595 -0.00057349061676891043 0 -0.019093694127104231 -0.00056777509609579296 0 -0.018985874584041721 -0.00068870637805210511 0 -0.019631463469610089 -0.00082402119042231938 0 -0.018985874584041721 -0.00068870637805210511 0 -0.01921929694931529 -0.0010171398739362287 0 -0.020880289963307944 -0.0010547436948692174 0 -0.021275103291677151 -0.00081211766151139265 0 -0.018985874584041721 -0.00068870637805210511 0 -0.018836680530578048 -0.000490898578498303 0 -0.018989896367130082 -0.00047600338547654876 0 -0.021048242710481013 -0.00066101369730358055 0 -0.021275103291677151 -0.00081211766151139265 0 -0.018985874584041721 -0.00068870637805210511 0 -0.018968366580382878 -0.00051503327974000549 0 -0.018989896367130082 -0.00047600338547654876 0 -0.018969762445827595 -0.00057349061676891043 0 -0.018985874584041721 -0.00068870637805210511 0 -0.018968366580382878 -0.00051503327974000549 0 -0.018968366580382878 -0.00051503327974000549 0 -0.018989896367130082 -0.00047600338547654876 0 -0.019041980997094709 -0.00037389580560773976 0 -0.018989896367130082 -0.00047600338547654876 0 -0.018987958144771219 -0.0002784044934175039 0 -0.019041980997094709 -0.00037389580560773976 0 -0.018987958144771219 -0.0002784044934175039 0 -0.019041980997094709 -0.00037389580560773976 0 -0.019089281325412499 -0.00026597825153273414 0 -0.023263988976434211 -0.00072220198201877815 0 -0.023253465655207275 -0.00071350681364327985 0 -0.023247747904016038 -0.00072340045714192731 0 -0.021275103291677151 -0.00081211766151139265 0 -0.021181974685623845 -0.0005302391277548777 0 -0.018836680530578048 -0.000490898578498303 0 -0.018989896367130082 -0.00047600338547654876 0 -0.018987958144771219 -0.0002784044934175039 0 -0.021969879305341472 -0.0012111656870053258 0 -0.021275103291677151 -0.00081211766151139265 0 -0.023263988976434211 -0.00072220198201877815 0 -0.023247747904016038 -0.00072340045714192731 0 -0.023259920774069055 -0.00073458270404432339 0 -0.023247747904016038 -0.00072340045714192731 0 -0.023259920774069055 -0.00073458270404432339 0 -0.023241998940776679 -0.00073193359042116578 0 -0.018987958144771219 -0.0002784044934175039 0 -0.019063759856867549 -0.00019189447674729555 0 -0.019089281325412499 -0.00026597825153273414 0 -0.021181974685623845 -0.0005302391277548777 0 -0.021142537520766148 -0.00022307875673521432 0 -0.023259920774069055 -0.00073458270404432339 0 -0.023241998940776679 -0.00073193359042116578 0 -0.023253672416271066 -0.00074140526178795394 0 -0.023241998940776679 -0.00073193359042116578 0 -0.023245927021613943 -0.00074343199803258324 0 -0.023253672416271066 -0.00074140526178795394 0 -0.023259920774069055 -0.00073458270404432339 0 -0.023253672416271066 -0.00074140526178795394 0 -0.023270504265933249 -0.00075192638656338155 0 -0.020477538380178011 0.00045128925555622501 0 -0.021277675849900236 0.00040025855806782488 0 -0.020363953504719305 0.0011786997088961365 0 -0.020115005018283224 0.0012147927827439137 0 -0.020199853862822938 0.0011672282723713704 0 -0.020363953504719305 0.0011786997088961365 0 -0.020115005018283224 0.0012147927827439137 0 -0.020349623971382336 0.0011832586202108256 0 -0.019063759856867549 -0.00019189447674729555 0 -0.01913399147660098 -0.00021480867307749547 0 -0.019119299275198221 -0.00012688094114096031 0 -0.021142537520766148 -0.00022307875673521432 0 -0.021277675849900236 0.00040025855806782488 0 -0.023241998940776679 -0.00073193359042116578 0 -0.023245927021613943 -0.00074343199803258324 0 -0.023236940923677393 -0.00073839673525672421 0 -0.019063759856867549 -0.00019189447674729555 0 -0.01913399147660098 -0.00021480867307749547 0 -0.019089281325412499 -0.00026597825153273414 0 -0.020477538380178011 0.00045128925555622501 0 -0.020099298146730359 0.00028485104790785279 0 -0.020115005018283224 0.0012147927827439137 0 -0.019605342960311384 0.0010169366532116581 0 -0.019953395962621249 0.0012512645682394049 0 -0.019135482165858989 -0.0002510163034766827 0 -0.019089281325412499 -0.00026597825153273414 0 -0.019100147951406396 -0.00028576691947621556 0 -0.01913399147660098 -0.00021480867307749547 0 -0.019135482165858989 -0.0002510163034766827 0 -0.019089281325412499 -0.00026597825153273414 0 -0.019041980997094709 -0.00037389580560773976 0 -0.019089281325412499 -0.00026597825153273414 0 -0.019100147951406396 -0.00028576691947621556 0 -0.019041980997094709 -0.00037389580560773976 0 -0.019100147951406396 -0.00028576691947621556 0 -0.019029197963983922 -0.00034752066557962335 0 -0.019100147951406396 -0.00028576691947621556 0 -0.019029197963983922 -0.00034752066557962335 0 -0.019147410719764182 -0.00022299791025508662 0 -0.018968366580382878 -0.00051503327974000549 0 -0.019041980997094709 -0.00037389580560773976 0 -0.019029197963983922 -0.00034752066557962335 0 -0.020099298146730359 0.00028485104790785279 0 -0.020002341418136949 0.00013176459221988569 0 -0.019135482165858989 -0.0002510163034766827 0 -0.019147410719764182 -0.00022299791025508662 0 -0.019365817978669778 -8.3522133079816363e-05 0 -0.019135482165858989 -0.0002510163034766827 0 -0.019100147951406396 -0.00028576691947621556 0 -0.019147410719764182 -0.00022299791025508662 0 -0.019125817073035536 -0.00024659264917918693 0 -0.019029197963983922 -0.00034752066557962335 0 -0.019147410719764182 -0.00022299791025508662 0 -0.019125817073035536 -0.00024659264917918693 0 -0.019147410719764182 -0.00022299791025508662 0 -0.019365817978669778 -8.3522133079816363e-05 0 -0.019746627124526957 0.00072394664313351535 0 -0.019365817978669778 -8.3522133079816363e-05 0 -0.019723400491161565 -8.0094035120855438e-05 0 -0.019605342960311384 0.0010169366532116581 0 -0.019746627124526957 0.00072394664313351535 0 -0.019365817978669778 -8.3522133079816363e-05 0 -0.019746627124526957 0.00072394664313351535 0 -0.020185138488771685 0.0013611572302059168 0 -0.019723400491161565 -8.0094035120855438e-05 0 -0.016866268574433973 -0.00094648564323625392 0 -0.016987129812747508 -0.0010493650819595279 0 -0.014071398955500225 -0.0024156427314428459 0 -0.014139455065149999 -0.0026046150346875092 0 -0.014380241122011916 -0.0024092991585756376 0 -0.019605342960311384 0.0010169366532116581 0 -0.019746627124526957 0.00072394664313351535 0 -0.019953395962621249 0.0012512645682394049 0 -0.019746627124526957 0.00072394664313351535 0 -0.020185138488771685 0.0013611572302059168 0 -0.019953395962621249 0.0012512645682394049 0 -0.019953395962621249 0.0012512645682394049 0 -0.0199973617387048 0.0012707997311040661 0 -0.020199853862822938 0.0011672282723713704 0 -0.020115005018283224 0.0012147927827439137 0 -0.019953395962621249 0.0012512645682394049 0 -0.020199853862822938 0.0011672282723713704 0 -0.020185138488771685 0.0013611572302059168 0 -0.019953395962621249 0.0012512645682394049 0 -0.0199973617387048 0.0012707997311040661 0 -0.020185138488771685 0.0013611572302059168 0 -0.019691630711160545 0.0012681574792908965 0 -0.0199973617387048 0.0012707997311040661 0 -0.020185138488771685 0.0013611572302059168 0 -0.019691630711160545 0.0012681574792908965 0 -0.018541467512461295 0.0012273734629719743 0 -0.019691630711160545 0.0012681574792908965 0 -0.0199973617387048 0.0012707997311040661 0 -0.020124106825257202 0.0009779457775022564 0 -0.019691630711160545 0.0012681574792908965 0 -0.020124106825257202 0.0009779457775022564 0 -0.018541467512461295 0.0012273734629719743 0 -0.020363953504719305 0.0011786997088961365 0 -0.020199853862822938 0.0011672282723713704 0 -0.020417306845967553 0.0011783817525802484 0 -0.020124106825257202 0.0009779457775022564 0 -0.020199853862822938 0.0011672282723713704 0 -0.020417306845967553 0.0011783817525802484 0 -0.0199973617387048 0.0012707997311040661 0 -0.020124106825257202 0.0009779457775022564 0 -0.020199853862822938 0.0011672282723713704 0 -0.014358219449938352 -0.0022593189632400703 0 -0.014380721226986056 -0.0021526327544307265 0 -0.015009775961785089 -0.002325639478580218 0 -0.014410277048265443 -0.0027310574450039953 0 -0.01591004355828339 -0.0022683254486775576 0 -0.015548858438517683 -0.0020335550959137655 0 -0.015009775961785089 -0.002325639478580218 0 -0.01591004355828339 -0.0022683254486775576 0 -0.015548858438517683 -0.0020335550959137655 0 -0.01591004355828339 -0.0022683254486775576 0 -0.015883469559516864 -0.0018843981891162225 0 -0.015009775961785089 -0.002325639478580218 0 -0.014305132273317017 -0.0026184828298036972 0 -0.016280793305074669 -0.0015497610223437791 0 -0.020124106825257202 0.0009779457775022564 0 -0.018541467512461295 0.0012273734629719743 0 -0.017157564486927856 -0.0013780571976354289 0 -0.015009775961785089 -0.002325639478580218 0 -0.014305132273317017 -0.0026184828298036972 0 -0.014410277048265443 -0.0027310574450039953 0 -0.014139455065149999 -0.0026046150346875092 0 -0.014305132273317017 -0.0026184828298036972 0 -0.014113867708506899 -0.0026227446365684319 0 -0.014305132273317017 -0.0026184828298036972 0 -0.014410277048265443 -0.0027310574450039953 0 -0.014113867708506899 -0.0026227446365684319 0 -0.016866268574433973 -0.00094648564323625392 0 -0.016509162355614709 -0.0012083382394041365 0 -0.014410277048265443 -0.0027310574450039953 0 -0.013837218658475876 -0.0026700966877825335 0 -0.013544964269435996 -0.0031189807463011861 0 -0.014410277048265443 -0.0027310574450039953 0 -0.013837218658475876 -0.0026700966877825335 0 -0.014113867708506899 -0.0026227446365684319 0 -0.013837218658475876 -0.0026700966877825335 0 -0.013684691018942222 -0.0024626507026457474 0 -0.013393431660481066 -0.0025500086393182766 0 -0.013837218658475876 -0.0026700966877825335 0 -0.013684691018942222 -0.0024626507026457474 0 -0.014113867708506899 -0.0026227446365684319 0 -0.013684691018942222 -0.0024626507026457474 0 -0.014113867708506899 -0.0026227446365684319 0 -0.0139378868444699 -0.0024654386761138194 0 -0.014139455065149999 -0.0026046150346875092 0 -0.014113867708506899 -0.0026227446365684319 0 -0.0139378868444699 -0.0024654386761138194 0 -0.014071398955500225 -0.0024156427314428459 0 -0.0139378868444699 -0.0024654386761138194 0 -0.013769768181702578 -0.0022579090983579761 0 -0.014071398955500225 -0.0024156427314428459 0 -0.014139455065149999 -0.0026046150346875092 0 -0.0139378868444699 -0.0024654386761138194 0 -0.013684691018942222 -0.0024626507026457474 0 -0.0139378868444699 -0.0024654386761138194 0 -0.013536906995256249 -0.0023033656824372026 0 -0.013684691018942222 -0.0024626507026457474 0 -0.013536906995256249 -0.0023033656824372026 0 -0.013250626935491457 -0.0023155531179094189 0 -0.0139378868444699 -0.0024654386761138194 0 -0.013536906995256249 -0.0023033656824372026 0 -0.013769768181702578 -0.0022579090983579761 0 -0.013536906995256249 -0.0023033656824372026 0 -0.013451945760392119 -0.0020986804762665712 0 -0.013769768181702578 -0.0022579090983579761 0 -0.013451945760392119 -0.0020986804762665712 0 -0.013811508761036951 -0.0020810019207014793 0 -0.013769768181702578 -0.0022579090983579761 0 -0.013451945760392119 -0.0020986804762665712 0 -0.013811508761036951 -0.0020810019207014793 0 -0.013664717704704964 -0.0017749177025105549 0 -0.013451945760392119 -0.0020986804762665712 0 -0.013664717704704964 -0.0017749177025105549 0 -0.013235813327962935 -0.0017596962657857695 0 -0.013811508761036951 -0.0020810019207014793 0 -0.014069440007345623 -0.0019496561728542512 0 -0.013664717704704964 -0.0017749177025105549 0 -0.013811508761036951 -0.0020810019207014793 0 -0.013769768181702578 -0.0022579090983579761 0 -0.014099376422348979 -0.0022665106358061402 0 -0.014071398955500225 -0.0024156427314428459 0 -0.013769768181702578 -0.0022579090983579761 0 -0.014099376422348979 -0.0022665106358061402 0 -0.014099376422348979 -0.0022665106358061402 0 -0.014380241122011916 -0.0024092991585756376 0 -0.014388856759906634 -0.0021527494833096148 0 -0.014071398955500225 -0.0024156427314428459 0 -0.014099376422348979 -0.0022665106358061402 0 -0.014380241122011916 -0.0024092991585756376 0 -0.017052158510361029 -0.0010637842149532101 0 -0.016987129812747508 -0.0010493650819595279 0 -0.018982031633263421 -0.00059427044775431847 0 -0.019365817978669778 -8.3522133079816363e-05 0 -0.019723400491161565 -8.0094035120855438e-05 0 -0.014921944038795109 -0.0021465663770306297 0 -0.014380241122011916 -0.0024092991585756376 0 -0.014388856759906634 -0.0021527494833096148 0 -0.014099376422348979 -0.0022665106358061402 0 -0.014388856759906634 -0.0021527494833096148 0 -0.014069440007345623 -0.0019496561728542512 0 -0.013811508761036951 -0.0020810019207014793 0 -0.014099376422348979 -0.0022665106358061402 0 -0.014069440007345623 -0.0019496561728542512 0 -0.014388856759906634 -0.0021527494833096148 0 -0.014069440007345623 -0.0019496561728542512 0 -0.014507916255281743 -0.0017002131982911531 0 -0.014069440007345623 -0.0019496561728542512 0 -0.014507916255281743 -0.0017002131982911531 0 -0.013910242414370839 -0.0015578591200928044 0 -0.014921944038795109 -0.0021465663770306297 0 -0.014388856759906634 -0.0021527494833096148 0 -0.014507916255281743 -0.0017002131982911531 0 -0.01388638670324898 -0.001026775942282536 0 -0.014507916255281743 -0.0017002131982911531 0 -0.013910242414370839 -0.0015578591200928044 0 -0.01388638670324898 -0.001026775942282536 0 -0.013910242414370839 -0.0015578591200928044 0 -0.013397475189700192 -0.0013135432046599007 0 -0.013397475189700192 -0.0013135432046599007 0 -0.013664717704704964 -0.0017749177025105549 0 -0.013235813327962935 -0.0017596962657857695 0 -0.013910242414370839 -0.0015578591200928044 0 -0.013397475189700192 -0.0013135432046599007 0 -0.013664717704704964 -0.0017749177025105549 0 -0.014069440007345623 -0.0019496561728542512 0 -0.013910242414370839 -0.0015578591200928044 0 -0.013664717704704964 -0.0017749177025105549 0 -0.012817557352801543 -0.0018750433323998458 0 -0.012930083413417448 -0.001422311835003767 0 -0.012569452405270496 -0.00155692665448737 0 -0.012817557352801543 -0.0018750433323998458 0 -0.013235813327962935 -0.0017596962657857695 0 -0.012930083413417448 -0.001422311835003767 0 -0.013397475189700192 -0.0013135432046599007 0 -0.013235813327962935 -0.0017596962657857695 0 -0.012930083413417448 -0.001422311835003767 0 -0.012943890281577374 -0.00091901145954116777 0 -0.013397475189700192 -0.0013135432046599007 0 -0.012930083413417448 -0.001422311835003767 0 -0.012541739902071403 -0.0007844771102295964 0 -0.012930083413417448 -0.001422311835003767 0 -0.012569452405270496 -0.00155692665448737 0 -0.011791507124228769 -0.0010188606704774152 0 -0.012569452405270496 -0.00155692665448737 0 -0.012150468423983299 -0.0017248072977931322 0 -0.011791507124228769 -0.0010188606704774152 0 -0.012541739902071403 -0.0007844771102295964 0 -0.012569452405270496 -0.00155692665448737 0 -0.011791507124228769 -0.0010188606704774152 0 -0.012150468423983299 -0.0017248072977931322 0 -0.01149860941442377 -0.0014251532117885032 0 -0.012150468423983299 -0.0017248072977931322 0 -0.012516980874372141 -0.0024078965079981276 0 -0.011829763429585756 -0.0020224762634776937 0 -0.012150468423983299 -0.0017248072977931322 0 -0.012579046387822538 -0.0020183901814639421 0 -0.012516980874372141 -0.0024078965079981276 0 -0.012150468423983299 -0.0017248072977931322 0 -0.011829763429585756 -0.0020224762634776937 0 -0.01149860941442377 -0.0014251532117885032 0 -0.012569452405270496 -0.00155692665448737 0 -0.012150468423983299 -0.0017248072977931322 0 -0.012579046387822538 -0.0020183901814639421 0 -0.012817557352801543 -0.0018750433323998458 0 -0.012569452405270496 -0.00155692665448737 0 -0.012579046387822538 -0.0020183901814639421 0 -0.012579046387822538 -0.0020183901814639421 0 -0.012766718503341826 -0.0022594056585577963 0 -0.012516980874372141 -0.0024078965079981276 0 -0.012817557352801543 -0.0018750433323998458 0 -0.012579046387822538 -0.0020183901814639421 0 -0.012766718503341826 -0.0022594056585577963 0 -0.012516980874372141 -0.0024078965079981276 0 -0.012766089547291885 -0.0026595626863402779 0 -0.01234311957721851 -0.0026157246821623477 0 -0.012516980874372141 -0.0024078965079981276 0 -0.012811785710333925 -0.0024275889605470378 0 -0.012766089547291885 -0.0026595626863402779 0 -0.012766718503341826 -0.0022594056585577963 0 -0.012516980874372141 -0.0024078965079981276 0 -0.012811785710333925 -0.0024275889605470378 0 -0.012766718503341826 -0.0022594056585577963 0 -0.012811785710333925 -0.0024275889605470378 0 -0.012917760493261635 -0.0022816082200164218 0 -0.012766718503341826 -0.0022594056585577963 0 -0.012917760493261635 -0.0022816082200164218 0 -0.013035350709194947 -0.0021034499952624934 0 -0.012917760493261635 -0.0022816082200164218 0 -0.013035350709194947 -0.0021034499952624934 0 -0.013166297193441723 -0.0022368873017164117 0 -0.012817557352801543 -0.0018750433323998458 0 -0.012766718503341826 -0.0022594056585577963 0 -0.013035350709194947 -0.0021034499952624934 0 -0.012817557352801543 -0.0018750433323998458 0 -0.013235813327962935 -0.0017596962657857695 0 -0.013035350709194947 -0.0021034499952624934 0 -0.013451945760392119 -0.0020986804762665712 0 -0.013235813327962935 -0.0017596962657857695 0 -0.013035350709194947 -0.0021034499952624934 0 -0.013451945760392119 -0.0020986804762665712 0 -0.013035350709194947 -0.0021034499952624934 0 -0.013166297193441723 -0.0022368873017164117 0 -0.013536906995256249 -0.0023033656824372026 0 -0.013451945760392119 -0.0020986804762665712 0 -0.013166297193441723 -0.0022368873017164117 0 -0.013166297193441723 -0.0022368873017164117 0 -0.013250626935491457 -0.0023155531179094189 0 -0.012991123115854401 -0.0022723944794835822 0 -0.013536906995256249 -0.0023033656824372026 0 -0.013166297193441723 -0.0022368873017164117 0 -0.013250626935491457 -0.0023155531179094189 0 -0.012991123115854401 -0.0022723944794835822 0 -0.012876036134603744 -0.0022511921062046392 0 -0.012900721084014044 -0.0022571840817213491 0 -0.012917760493261635 -0.0022816082200164218 0 -0.012991123115854401 -0.0022723944794835822 0 -0.012900721084014044 -0.0022571840817213491 0 -0.012917760493261635 -0.0022816082200164218 0 -0.013166297193441723 -0.0022368873017164117 0 -0.012991123115854401 -0.0022723944794835822 0 -0.013250626935491457 -0.0023155531179094189 0 -0.012991123115854401 -0.0022723944794835822 0 -0.012876036134603744 -0.0022511921062046392 0 -0.013684691018942222 -0.0024626507026457474 0 -0.013250626935491457 -0.0023155531179094189 0 -0.013393431660481066 -0.0025500086393182766 0 -0.013250626935491457 -0.0023155531179094189 0 -0.012876036134603744 -0.0022511921062046392 0 -0.013393431660481066 -0.0025500086393182766 0 -0.013837218658475876 -0.0026700966877825335 0 -0.013393431660481066 -0.0025500086393182766 0 -0.013544964269435996 -0.0031189807463011861 0 -0.013393431660481066 -0.0025500086393182766 0 -0.013020951457292533 -0.0028011266469384721 0 -0.013544964269435996 -0.0031189807463011861 0 -0.012876036134603744 -0.0022511921062046392 0 -0.013393431660481066 -0.0025500086393182766 0 -0.013020951457292533 -0.0028011266469384721 0 -0.012876036134603744 -0.0022511921062046392 0 -0.013020951457292533 -0.0028011266469384721 0 -0.012490424025869008 -0.0028391168247303353 0 -0.013377653298746978 -0.0020785226861097972 0 -0.013578436000261125 -0.0019217462692278115 0 -0.013020951457292533 -0.0028011266469384721 0 -0.012833426711170869 -0.0032653011086504367 0 -0.012490424025869008 -0.0028391168247303353 0 -0.014307012435456781 -0.0018231886664624225 0 -0.014380721226986056 -0.0021526327544307265 0 -0.013020951457292533 -0.0028011266469384721 0 -0.012833426711170869 -0.0032653011086504367 0 -0.013544964269435996 -0.0031189807463011861 0 -0.015846911826638041 -0.0019711124390659278 0 -0.01591004355828339 -0.0022683254486775576 0 -0.015852730588269599 -0.0019321452967253053 0 -0.01591004355828339 -0.0022683254486775576 0 -0.015883469559516864 -0.0018843981891162225 0 -0.015852730588269599 -0.0019321452967253053 0 -0.014549467405246376 -0.0010733007242044921 0 -0.014316227597173926 -0.00094460226645109427 0 -0.014227094862667898 -0.0003272436092461312 0 -0.013966907664067472 -0.00039588599974638627 0 -0.01417383464951903 -0.0010550083805418383 0 -0.013207277322417299 -0.00061910229289829281 0 -0.013317526109660008 -0.0013659025935735414 0 -0.01417383464951903 -0.0010550083805418383 0 -0.014503995413264074 -0.0010489078660016278 0 -0.014549467405246376 -0.0010733007242044921 0 -0.014307012435456781 -0.0018231886664624225 0 -0.014549467405246376 -0.0010733007242044921 0 -0.013207277322417299 -0.00061910229289829281 0 -0.012846718782461646 -0.0014194993714396833 0 -0.013317526109660008 -0.0013659025935735414 0 -0.014549467405246376 -0.0010733007242044921 0 -0.013578436000261125 -0.0019217462692278115 0 -0.012833426711170869 -0.0032653011086504367 0 -0.012107280673624342 -0.0033700824478143194 0 -0.012490424025869008 -0.0028391168247303353 0 -0.012876036134603744 -0.0022511921062046392 0 -0.012846718782461646 -0.0014194993714396833 0 -0.013055139213589667 -0.0019387610547100839 0 -0.012846718782461646 -0.0014194993714396833 0 -0.013317526109660008 -0.0013659025935735414 0 -0.013055139213589667 -0.0019387610547100839 0 -0.013317526109660008 -0.0013659025935735414 0 -0.013489737720070488 -0.0016696220859572287 0 -0.01417383464951903 -0.0010550083805418383 0 -0.013317526109660008 -0.0013659025935735414 0 -0.013489737720070488 -0.0016696220859572287 0 -0.013055139213589667 -0.0019387610547100839 0 -0.013489737720070488 -0.0016696220859572287 0 -0.013126858729796272 -0.0021933330112555265 0 -0.013789876148492862 -0.0017597827529582148 0 -0.013489737720070488 -0.0016696220859572287 0 -0.013055139213589667 -0.0019387610547100839 0 -0.013126858729796272 -0.0021933330112555265 0 -0.013055139213589667 -0.0019387610547100839 0 -0.012900721084014044 -0.0022571840817213491 0 -0.013126858729796272 -0.0021933330112555265 0 -0.012876036134603744 -0.0022511921062046392 0 -0.013055139213589667 -0.0019387610547100839 0 -0.012900721084014044 -0.0022571840817213491 0 -0.012811785710333925 -0.0024275889605470378 0 -0.012900721084014044 -0.0022571840817213491 0 -0.013126858729796272 -0.0021933330112555265 0 -0.012811785710333925 -0.0024275889605470378 0 -0.012917760493261635 -0.0022816082200164218 0 -0.012900721084014044 -0.0022571840817213491 0 -0.012811785710333925 -0.0024275889605470378 0 -0.013126858729796272 -0.0021933330112555265 0 -0.012766089547291885 -0.0026595626863402779 0 -0.013126858729796272 -0.0021933330112555265 0 -0.013666501537992185 -0.0022575718326790016 0 -0.013789876148492862 -0.0017597827529582148 0 -0.013126858729796272 -0.0021933330112555265 0 -0.013666501537992185 -0.0022575718326790016 0 -0.012766089547291885 -0.0026595626863402779 0 -0.013666501537992185 -0.0022575718326790016 0 -0.014596949184688507 -0.0014921615624084819 0 -0.015160138759252626 -0.0023179960643536805 0 -0.013666501537992185 -0.0022575718326790016 0 -0.015160138759252626 -0.0023179960643536805 0 -0.013875145235385616 -0.0027116524260291926 0 -0.014596949184688507 -0.0014921615624084819 0 -0.013789876148492862 -0.0017597827529582148 0 -0.01417383464951903 -0.0010550083805418383 0 -0.013666501537992185 -0.0022575718326790016 0 -0.014596949184688507 -0.0014921615624084819 0 -0.013789876148492862 -0.0017597827529582148 0 -0.013489737720070488 -0.0016696220859572287 0 -0.013789876148492862 -0.0017597827529582148 0 -0.01417383464951903 -0.0010550083805418383 0 -0.01417383464951903 -0.0010550083805418383 0 -0.01514582844003407 -0.00090961591379586624 0 -0.015076961016625437 -0.00052613855469149705 0 -0.014596949184688507 -0.0014921615624084819 0 -0.01514582844003407 -0.00090961591379586624 0 -0.015604104819401835 -0.0010105106367409734 0 -0.014596949184688507 -0.0014921615624084819 0 -0.01417383464951903 -0.0010550083805418383 0 -0.01514582844003407 -0.00090961591379586624 0 -0.015076961016625437 -0.00052613855469149705 0 -0.015946825041767011 -0.00054446082614086988 0 -0.015937109298838872 -0.00020438887998780889 0 -0.01514582844003407 -0.00090961591379586624 0 -0.015076961016625437 -0.00052613855469149705 0 -0.015946825041767011 -0.00054446082614086988 0 -0.015076961016625437 -0.00052613855469149705 0 -0.015937109298838872 -0.00020438887998780889 0 -0.015410904538580784 -5.3942549393992694e-05 0 -0.015076961016625437 -0.00052613855469149705 0 -0.014952131325808084 -0.00014928941929277762 0 -0.015410904538580784 -5.3942549393992694e-05 0 -0.01417383464951903 -0.0010550083805418383 0 -0.015076961016625437 -0.00052613855469149705 0 -0.014607459990247504 -0.00042186618871125275 0 -0.014227094862667898 -0.0003272436092461312 0 -0.01417383464951903 -0.0010550083805418383 0 -0.014607459990247504 -0.00042186618871125275 0 -0.015076961016625437 -0.00052613855469149705 0 -0.014607459990247504 -0.00042186618871125275 0 -0.014952131325808084 -0.00014928941929277762 0 -0.016756674714707428 -0.0002365206047178625 0 -0.015946825041767011 -0.00054446082614086988 0 -0.016349641084408579 -1.8924974557230113e-06 0 -0.016756674714707428 -0.0002365206047178625 0 -0.016349641084408579 -1.8924974557230113e-06 0 -0.017626289245111192 -5.0446541776018922e-07 0 -0.016756674714707428 -0.0002365206047178625 0 -0.015946825041767011 -0.00054446082614086988 0 -0.015937109298838872 -0.00020438887998780889 0 -0.015946825041767011 -0.00054446082614086988 0 -0.015604104819401835 -0.0010105106367409734 0 -0.016349641084408579 -1.8924974557230113e-06 0 -0.01514582844003407 -0.00090961591379586624 0 -0.015946825041767011 -0.00054446082614086988 0 -0.015604104819401835 -0.0010105106367409734 0 -0.016346139350524057 4.0684141353324202e-07 0 -0.014669104345549419 -8.6831690434871747e-05 0 -0.015191532546494881 -3.7615600975517125e-07 0 -0.016344943310293871 -7.0600240176223386e-07 0 -0.015233670927702909 -0.00059554055079458646 0 -0.015604104819401835 -0.0010105106367409734 0 -0.016349641084408579 -1.8924974557230113e-06 0 -0.016045431427815008 -0.0013411806139272729 0 -0.014669104345549419 -8.6831690434871747e-05 0 -0.015191532546494881 -3.7615600975517125e-07 0 -0.014038918999411532 3.2567495954801843e-07 0 -0.014596949184688507 -0.0014921615624084819 0 -0.015604104819401835 -0.0010105106367409734 0 -0.015160138759252626 -0.0023179960643536805 0 -0.015604104819401835 -0.0010105106367409734 0 -0.016045431427815008 -0.0013411806139272729 0 -0.015160138759252626 -0.0023179960643536805 0 -0.015233670927702909 -0.00059554055079458646 0 -0.014223985710385341 -0.00078421813485912088 0 -0.014669104345549419 -8.6831690434871747e-05 0 -0.014038918999411532 3.2567495954801843e-07 0 -0.014407260041840883 0.00025947065719673744 0 -0.014669104345549419 -8.6831690434871747e-05 0 -0.014672204558037336 0.00028417202976322337 0 -0.014407260041840883 0.00025947065719673744 0 -0.014033753866156434 -3.4714526934613635e-06 0 -0.013070915257721272 -0.00012078750753257456 0 -0.014038918999411532 3.2567495954801843e-07 0 -0.014407260041840883 0.00025947065719673744 0 -0.014170728434931366 0.00050323619756164988 0 -0.014672204558037336 0.00028417202976322337 0 -0.014407260041840883 0.00025947065719673744 0 -0.014494528012023722 0.00055607177146693807 0 -0.014170728434931366 0.00050323619756164988 0 -0.014494528012023722 0.00055607177146693807 0 -0.014208283329728549 0.00088855698519222097 0 -0.013070915257721272 -0.00012078750753257456 0 -0.012003339876831077 -0.00012287747057223737 0 -0.01287402442431562 -4.5906469542788256e-08 0 -0.011686559379316971 4.4922989450501446e-08 0 -0.011743672282650865 1.2243314740469793e-06 0 -0.014407260041840883 0.00025947065719673744 0 -0.014170728434931366 0.00050323619756164988 0 -0.014494528012023722 0.00055607177146693807 0 -0.014494528012023722 0.00055607177146693807 0 -0.014208283329728549 0.00088855698519222097 0 -0.014577751052158847 0.00083186729826414756 0 -0.0083799869960731552 -0.0030485256680670295 0 -0.0091236405562583004 -0.002416777725699021 0 -0.0084785886210950265 -0.0016918466899386374 0 -0.012003339876831077 -0.00012287747057223737 0 -0.010950302064964147 -0.00096673996479486855 0 -0.01168510406322155 3.0563589904849986e-07 0 -0.01163145223574087 8.7669251729363019e-06 0 -0.010161101414973932 2.8644986314162266e-05 0 -0.011688702589295812 -1.7719259556470641e-06 0 -0.012003339876831077 -0.00012287747057223737 0 -0.012003339876831077 -0.00012287747057223737 0 -0.01226487832054772 -0.00069225821722033152 0 -0.0083799869960731552 -0.0030485256680670295 0 -0.0091236405562583004 -0.002416777725699021 0 -0.0093939505293042253 -0.0032062371273418179 0 -0.010041172534871922 -0.0027814697996081505 0 -0.010548709328717888 -0.0023644848740975223 0 -0.0098432225013326061 -0.0021031287146439726 0 -0.0091236405562583004 -0.002416777725699021 0 -0.010041172534871922 -0.0027814697996081505 0 -0.0098432225013326061 -0.0021031287146439726 0 -0.0091236405562583004 -0.002416777725699021 0 -0.010041172534871922 -0.0027814697996081505 0 -0.0093939505293042253 -0.0032062371273418179 0 -0.01226487832054772 -0.00069225821722033152 0 -0.012703281417434112 -0.0011826065384384669 0 -0.010041172534871922 -0.0027814697996081505 0 -0.0093939505293042253 -0.0032062371273418179 0 -0.010622240499229536 -0.0033720106211929742 0 -0.014494528012023722 0.00055607177146693807 0 -0.014577751052158847 0.00083186729826414756 0 -0.014934437002879955 0.00077857257016577077 0 -0.014672204558037336 0.00028417202976322337 0 -0.014494528012023722 0.00055607177146693807 0 -0.014934437002879955 0.00077857257016577077 0 -0.014223985710385341 -0.00078421813485912088 0 -0.012703281417434112 -0.0011826065384384669 0 -0.013666501537992185 -0.0022575718326790016 0 -0.013875145235385616 -0.0027116524260291926 0 -0.012595947068420005 -0.0031073601330190354 0 -0.015160138759252626 -0.0023179960643536805 0 -0.013875145235385616 -0.0027116524260291926 0 -0.014215023411193959 -0.0035621040028222055 0 -0.013875145235385616 -0.0027116524260291926 0 -0.012595947068420005 -0.0031073601330190354 0 -0.014215023411193959 -0.0035621040028222055 0 -0.012673332594379501 -0.0013563214037370654 0 -0.012703281417434112 -0.0011826065384384669 0 -0.013666501537992185 -0.0022575718326790016 0 -0.012766089547291885 -0.0026595626863402779 0 -0.012595947068420005 -0.0031073601330190354 0 -0.012766089547291885 -0.0026595626863402779 0 -0.012595947068420005 -0.0031073601330190354 0 -0.01234311957721851 -0.0026157246821623477 0 -0.012595947068420005 -0.0031073601330190354 0 -0.01234311957721851 -0.0026157246821623477 0 -0.011805296746516666 -0.0023910498387708693 0 -0.01234311957721851 -0.0026157246821623477 0 -0.011805296746516666 -0.0023910498387708693 0 -0.011829763429585756 -0.0020224762634776937 0 -0.012516980874372141 -0.0024078965079981276 0 -0.01234311957721851 -0.0026157246821623477 0 -0.011829763429585756 -0.0020224762634776937 0 -0.010041172534871922 -0.0027814697996081505 0 -0.010960077867109239 -0.0027683462447790977 0 -0.010622240499229536 -0.0033720106211929742 0 -0.012602770795156395 -0.0013379153074618375 0 -0.012703281417434112 -0.0011826065384384669 0 -0.012595947068420005 -0.0031073601330190354 0 -0.010960077867109239 -0.0027683462447790977 0 -0.010629540010113797 -0.0034005847363505586 0 -0.012595947068420005 -0.0031073601330190354 0 -0.011805296746516666 -0.0023910498387708693 0 -0.010960077867109239 -0.0027683462447790977 0 -0.011805296746516666 -0.0023910498387708693 0 -0.010960077867109239 -0.0027683462447790977 0 -0.011099047813358152 -0.0023599319663721741 0 -0.010041172534871922 -0.0027814697996081505 0 -0.010960077867109239 -0.0027683462447790977 0 -0.010548709328717888 -0.0023644848740975223 0 -0.010960077867109239 -0.0027683462447790977 0 -0.011099047813358152 -0.0023599319663721741 0 -0.010548709328717888 -0.0023644848740975223 0 -0.010748518243976206 -0.0019204049389210821 0 -0.011829763429585756 -0.0020224762634776937 0 -0.010827872179197022 -0.0013912257092221795 0 -0.011099047813358152 -0.0023599319663721741 0 -0.010548709328717888 -0.0023644848740975223 0 -0.010748518243976206 -0.0019204049389210821 0 -0.010548709328717888 -0.0023644848740975223 0 -0.010748518243976206 -0.0019204049389210821 0 -0.0098432225013326061 -0.0021031287146439726 0 -0.011805296746516666 -0.0023910498387708693 0 -0.011099047813358152 -0.0023599319663721741 0 -0.010748518243976206 -0.0019204049389210821 0 -0.010748518243976206 -0.0019204049389210821 0 -0.010827872179197022 -0.0013912257092221795 0 -0.009983496989139971 -0.0012904755397432485 0 -0.011805296746516666 -0.0023910498387708693 0 -0.010748518243976206 -0.0019204049389210821 0 -0.011829763429585756 -0.0020224762634776937 0 -0.011829763429585756 -0.0020224762634776937 0 -0.01149860941442377 -0.0014251532117885032 0 -0.010827872179197022 -0.0013912257092221795 0 -0.010736130670344292 -0.0009031969878381716 0 -0.011791507124228769 -0.0010188606704774152 0 -0.01149860941442377 -0.0014251532117885032 0 -0.010736130670344292 -0.0009031969878381716 0 -0.01149860941442377 -0.0014251532117885032 0 -0.010827872179197022 -0.0013912257092221795 0 -0.010827872179197022 -0.0013912257092221795 0 -0.010077571445072766 -0.00095642902935223523 0 -0.009983496989139971 -0.0012904755397432485 0 -0.010736130670344292 -0.0009031969878381716 0 -0.010827872179197022 -0.0013912257092221795 0 -0.010077571445072766 -0.00095642902935223523 0 -0.010077571445072766 -0.00095642902935223523 0 -0.0093253606299537554 -0.00076108139662689521 0 -0.009983496989139971 -0.0012904755397432485 0 -0.0093253606299537554 -0.00076108139662689521 0 -0.009983496989139971 -0.0012904755397432485 0 -0.0091593397982889721 -0.0011092725081195149 0 -0.009983496989139971 -0.0012904755397432485 0 -0.0091593397982889721 -0.0011092725081195149 0 -0.0097108899882274655 -0.0015704044122179998 0 -0.0085953600187919435 -0.00025528771563108714 0 -0.0091593397982889721 -0.0011092725081195149 0 -0.0084785886210950265 -0.0016918466899386374 0 -0.010599963484838394 -0.00099079959437678748 0 -0.010950302064964147 -0.00096673996479486855 0 -0.0085953600187919435 -0.00025528771563108714 0 -0.0093253606299537554 -0.00076108139662689521 0 -0.0091593397982889721 -0.0011092725081195149 0 -0.0085953600187919435 -0.00025528771563108714 0 -0.0096169683551549645 -2.213793702598844e-07 0 -0.010161101414973932 2.8644986314162266e-05 0 -0.0091593397982889721 -0.0011092725081195149 0 -0.0084785886210950265 -0.0016918466899386374 0 -0.0092472648133820196 -0.0017587675467406151 0 -0.01168510406322155 3.0563589904849986e-07 0 -0.0096169683551549645 -2.213793702598844e-07 0 -0.010161101414973932 2.8644986314162266e-05 0 -0.0091236405562583004 -0.002416777725699021 0 -0.0084785886210950265 -0.0016918466899386374 0 -0.0092472648133820196 -0.0017587675467406151 0 -0.0091236405562583004 -0.002416777725699021 0 -0.0098432225013326061 -0.0021031287146439726 0 -0.0092472648133820196 -0.0017587675467406151 0 -0.010748518243976206 -0.0019204049389210821 0 -0.0098432225013326061 -0.0021031287146439726 0 -0.0097108899882274655 -0.0015704044122179998 0 -0.010748518243976206 -0.0019204049389210821 0 -0.009983496989139971 -0.0012904755397432485 0 -0.0097108899882274655 -0.0015704044122179998 0 -0.0091593397982889721 -0.0011092725081195149 0 -0.0097108899882274655 -0.0015704044122179998 0 -0.0092472648133820196 -0.0017587675467406151 0 -0.0098432225013326061 -0.0021031287146439726 0 -0.0097108899882274655 -0.0015704044122179998 0 -0.0092472648133820196 -0.0017587675467406151 0 -0.025330584925806792 -0.00014698127079277513 0 -0.025006577645485476 -0.00010223074584704751 0 -0.024080005832487154 -0.00010178295039798467 0 -0.025330584925806792 -0.00014698127079277513 0 -0.025095500528784905 -3.1861366187615977e-07 0 -0.024080005832487154 -0.00010178295039798467 0 -0.025095500528784905 -3.1861366187615977e-07 0 -0.026349027823793624 -0.00025403315210658175 0 -0.027157626654213549 -4.9134347821784313e-07 0 -0.025330584925806792 -0.00014698127079277513 0 -0.025095500528784905 -3.1861366187615977e-07 0 -0.026349027823793624 -0.00025403315210658175 0 -0.025330584925806792 -0.00014698127079277513 0 -0.026252914694392383 -0.0003118073191147606 0 -0.026349027823793624 -0.00025403315210658175 0 -0.026252914694392383 -0.0003118073191147606 0 -0.026216599052433051 -0.00044381478109702382 0 -0.026258059667083371 -0.00032040710563057057 0 -0.025330584925806792 -0.00014698127079277513 0 -0.026252914694392383 -0.0003118073191147606 0 -0.025006577645485476 -0.00010223074584704751 0 -0.026252914694392383 -0.0003118073191147606 0 -0.026216599052433051 -0.00044381478109702382 0 -0.02629525418781134 -0.00044020059259703386 0 -0.024968211334328333 -0.00077276494686132058 0 -0.024652087263167168 -0.00072799276666221842 0 -0.02629525418781134 -0.00044020059259703386 0 -0.026247482151218873 -0.00051276236863632594 0 -0.026305449110786638 -0.00055646418152689378 0 -0.026216599052433051 -0.00044381478109702382 0 -0.02629525418781134 -0.00044020059259703386 0 -0.026247482151218873 -0.00051276236863632594 0 -0.024652087263167168 -0.00072799276666221842 0 -0.023740390963291585 -0.00052255038966000423 0 -0.026216599052433051 -0.00044381478109702382 0 -0.026247482151218873 -0.00051276236863632594 0 -0.026174798830488292 -0.00055536480689495063 0 -0.026216599052433051 -0.00044381478109702382 0 -0.026174798830488292 -0.00055536480689495063 0 -0.02613494635386129 -0.00051647739601790835 0 -0.021172202852695034 -9.0538119150410424e-05 0 -0.020222929146043386 -0.00076399848397210371 0 -0.026247482151218873 -0.00051276236863632594 0 -0.026174798830488292 -0.00055536480689495063 0 -0.026218829500592167 -0.00061189963334727442 0 -0.026174798830488292 -0.00055536480689495063 0 -0.026218829500592167 -0.00061189963334727442 0 -0.026080104776433476 -0.00057167090930726797 0 -0.026247482151218873 -0.00051276236863632594 0 -0.026305449110786638 -0.00055646418152689378 0 -0.026218829500592167 -0.00061189963334727442 0 -0.023661172409772696 -6.1624258144053705e-05 0 -0.024080005832487154 -0.00010178295039798467 0 -0.022499157438176504 -2.8542221787663188e-05 0 -0.025006577645485476 -0.00010223074584704751 0 -0.023661172409772696 -6.1624258144053705e-05 0 -0.024080005832487154 -0.00010178295039798467 0 -0.025095500528784905 -3.1861366187615977e-07 0 -0.024080005832487154 -0.00010178295039798467 0 -0.023033537697308926 -5.3456991300090522e-07 0 -0.023033537697308926 -5.3456991300090522e-07 0 -0.022499157438176504 -2.8542221787663188e-05 0 -0.020969739013435865 1.2870055732291225e-06 0 -0.024080005832487154 -0.00010178295039798467 0 -0.023033537697308926 -5.3456991300090522e-07 0 -0.022499157438176504 -2.8542221787663188e-05 0 -0.022499157438176504 -2.8542221787663188e-05 0 -0.021699115227467432 0.0001330605725456317 0 -0.020969739013435865 1.2870055732291225e-06 0 -0.022499157438176504 -2.8542221787663188e-05 0 -0.021699115227467432 0.0001330605725456317 0 -0.022635884841811539 0.00041205344081275122 0 -0.021699115227467432 0.0001330605725456317 0 -0.020969739013435865 1.2870055732291225e-06 0 -0.020266822537325601 0.00018173549531792202 0 -0.023740390963291585 -0.00052255038966000423 0 -0.021987401884892264 0.00038544613322494926 0 -0.023661172409772696 -6.1624258144053705e-05 0 -0.022499157438176504 -2.8542221787663188e-05 0 -0.022635884841811539 0.00041205344081275122 0 -0.018585677387785386 0.0011388014164650361 0 -0.018858145487318338 -9.6856383252401287e-05 0 -0.020266822537325601 0.00018173549531792202 0 -0.017959720112271971 0.0014499134875543304 0 -0.017558800168507048 0.00055327259387908431 0 -0.016523045791246329 0.0010391324876009406 0 -0.017959720112271971 0.0014499134875543304 0 -0.017558800168507048 0.00055327259387908431 0 -0.018858145487318338 -9.6856383252401287e-05 0 -0.021987401884892264 0.00038544613322494926 0 -0.021681703786157254 0.00046630414244288313 0 -0.017558800168507048 0.00055327259387908431 0 -0.018858145487318338 -9.6856383252401287e-05 0 -0.018686069244914442 -0.00036435955340142194 0 -0.018858145487318338 -9.6856383252401287e-05 0 -0.020266822537325601 0.00018173549531792202 0 -0.018909895831063249 -9.4046429087990629e-07 0 -0.020969739013435865 1.2870055732291225e-06 0 -0.020266822537325601 0.00018173549531792202 0 -0.018909895831063249 -9.4046429087990629e-07 0 -0.021699115227467432 0.0001330605725456317 0 -0.022635884841811539 0.00041205344081275122 0 -0.020266822537325601 0.00018173549531792202 0 -0.021987401884892264 0.00038544613322494926 0 -0.021460804336059174 0.00051642235131394202 0 -0.018858145487318338 -9.6856383252401287e-05 0 -0.018909895831063249 -9.4046429087990629e-07 0 -0.018686069244914442 -0.00036435955340142194 0 -0.018905020181343386 2.0498042825175392e-06 0 -0.017015225841057465 0.00031552395527160862 0 -0.017586431677449211 -3.7294737497945816e-05 0 -0.018905020181343386 2.0498042825175392e-06 0 -0.016380656148263218 0.001098894810919578 0 -0.017015225841057465 0.00031552395527160862 0 -0.018905980800606695 3.2086230832281266e-07 0 -0.017731941313760966 0.00035941668772713169 0 -0.016380656148263218 0.001098894810919578 0 -0.01638616796632561 0.00067039823765133264 0 -0.017015225841057465 0.00031552395527160862 0 -0.016380656148263218 0.001098894810919578 0 -0.01638616796632561 0.00067039823765133264 0 -0.016021177413924052 0.00075401304399468733 0 -0.016243439750739299 0.00041905605062030651 0 -0.01638616796632561 0.00067039823765133264 0 -0.016021177413924052 0.00075401304399468733 0 -0.016243439750739299 0.00041905605062030651 0 -0.017015225841057465 0.00031552395527160862 0 -0.016576749022974978 2.6804827818602878e-05 0 -0.016243439750739299 0.00041905605062030651 0 -0.01638616796632561 0.00067039823765133264 0 -0.017015225841057465 0.00031552395527160862 0 -0.016756674714707428 -0.0002365206047178625 0 -0.016576749022974978 2.6804827818602878e-05 0 -0.015937109298838872 -0.00020438887998780889 0 -0.016243439750739299 0.00041905605062030651 0 -0.016576749022974978 2.6804827818602878e-05 0 -0.015833139815524346 0.00018358975297324125 0 -0.016576749022974978 2.6804827818602878e-05 0 -0.015937109298838872 -0.00020438887998780889 0 -0.015833139815524346 0.00018358975297324125 0 -0.018905020181343386 2.0498042825175392e-06 0 -0.017626289245111192 -5.0446541776018922e-07 0 -0.017586431677449211 -3.7294737497945816e-05 0 -0.016756674714707428 -0.0002365206047178625 0 -0.016576749022974978 2.6804827818602878e-05 0 -0.017586431677449211 -3.7294737497945816e-05 0 -0.016756674714707428 -0.0002365206047178625 0 -0.017626289245111192 -5.0446541776018922e-07 0 -0.017586431677449211 -3.7294737497945816e-05 0 -0.017015225841057465 0.00031552395527160862 0 -0.016576749022974978 2.6804827818602878e-05 0 -0.017586431677449211 -3.7294737497945816e-05 0 -0.015297553678937594 0.00030484227855656957 0 -0.014638181556400596 -7.3539673049332699e-05 0 -0.014439483578321742 0.00025435230195169727 0 -0.014227094862667898 -0.0003272436092461312 0 -0.014607459990247504 -0.00042186618871125275 0 -0.014638181556400596 -7.3539673049332699e-05 0 -0.014607459990247504 -0.00042186618871125275 0 -0.014638181556400596 -7.3539673049332699e-05 0 -0.014952131325808084 -0.00014928941929277762 0 -0.015297553678937594 0.00030484227855656957 0 -0.014638181556400596 -7.3539673049332699e-05 0 -0.014952131325808084 -0.00014928941929277762 0 -0.015297553678937594 0.00030484227855656957 0 -0.014952131325808084 -0.00014928941929277762 0 -0.015410904538580784 -5.3942549393992694e-05 0 -0.015937109298838872 -0.00020438887998780889 0 -0.015410904538580784 -5.3942549393992694e-05 0 -0.015833139815524346 0.00018358975297324125 0 -0.015297553678937594 0.00030484227855656957 0 -0.015410904538580784 -5.3942549393992694e-05 0 -0.015833139815524346 0.00018358975297324125 0 -0.015297553678937594 0.00030484227855656957 0 -0.015812538152746723 0.00054355765277059633 0 -0.015696022480279015 0.00064467176848496618 0 -0.015297553678937594 0.00030484227855656957 0 -0.015833139815524346 0.00018358975297324125 0 -0.015812538152746723 0.00054355765277059633 0 -0.016243439750739299 0.00041905605062030651 0 -0.015812538152746723 0.00054355765277059633 0 -0.016021177413924052 0.00075401304399468733 0 -0.016243439750739299 0.00041905605062030651 0 -0.015833139815524346 0.00018358975297324125 0 -0.015812538152746723 0.00054355765277059633 0 -0.015812538152746723 0.00054355765277059633 0 -0.016021177413924052 0.00075401304399468733 0 -0.015696022480279015 0.00064467176848496618 0 -0.016021177413924052 0.00075401304399468733 0 -0.015696022480279015 0.00064467176848496618 0 -0.015874360606852361 0.00061603888637084311 0 -0.015163580798524019 0.00014001450055735524 0 -0.015030467985793553 -0.00010221152602116302 0 -0.015297553678937594 0.00030484227855656957 0 -0.015435031848930253 0.00073156932098494842 0 -0.014439483578321742 0.00025435230195169727 0 -0.015297553678937594 0.00030484227855656957 0 -0.015696022480279015 0.00064467176848496618 0 -0.015435031848930253 0.00073156932098494842 0 -0.015435031848930253 0.00073156932098494842 0 -0.015560020325059574 0.00077463874108354232 0 -0.015581093165421051 0.00078352407564653435 0 -0.015696022480279015 0.00064467176848496618 0 -0.015435031848930253 0.00073156932098494842 0 -0.015874360606852361 0.00061603888637084311 0 -0.015435031848930253 0.00073156932098494842 0 -0.015560020325059574 0.00077463874108354232 0 -0.015874360606852361 0.00061603888637084311 0 -0.015560020325059574 0.00077463874108354232 0 -0.015874360606852361 0.00061603888637084311 0 -0.015806374091487524 0.00094435861600750462 0 -0.016380656148263218 0.001098894810919578 0 -0.016021177413924052 0.00075401304399468733 0 -0.015874360606852361 0.00061603888637084311 0 -0.017558800168507048 0.00055327259387908431 0 -0.018686069244914442 -0.00036435955340142194 0 -0.015874360606852361 0.00061603888637084311 0 -0.017731941313760966 0.00035941668772713169 0 -0.017108713013818524 0.00054574347202430117 0 -0.015874360606852361 0.00061603888637084311 0 -0.016523045791246329 0.0010391324876009406 0 -0.015806374091487524 0.00094435861600750462 0 -0.017558800168507048 0.00055327259387908431 0 -0.015874360606852361 0.00061603888637084311 0 -0.016523045791246329 0.0010391324876009406 0 -0.017959720112271971 0.0014499134875543304 0 -0.016523045791246329 0.0010391324876009406 0 -0.015721946296340432 0.0013216241265255702 0 -0.021987401884892264 0.00038544613322494926 0 -0.021172202852695034 -9.0538119150410424e-05 0 -0.026305449110786638 -0.00055646418152689378 0 -0.02631224301860079 -0.00064741514598091066 0 -0.026218829500592167 -0.00061189963334727442 0 -0.016523045791246329 0.0010391324876009406 0 -0.015806374091487524 0.00094435861600750462 0 -0.015721946296340432 0.0013216241265255702 0 -0.01560453314866192 0.00093174767890386219 0 -0.015721946296340432 0.0013216241265255702 0 -0.015576325979595358 0.00084075940249130315 0 -0.015560020325059574 0.00077463874108354232 0 -0.01560453314866192 0.00093174767890386219 0 -0.015569091423871865 0.00079362122237331052 0 -0.015560020325059574 0.00077463874108354232 0 -0.01560453314866192 0.00093174767890386219 0 -0.015806374091487524 0.00094435861600750462 0 -0.01560453314866192 0.00093174767890386219 0 -0.015806374091487524 0.00094435861600750462 0 -0.015721946296340432 0.0013216241265255702 0 -0.015576325979595358 0.00084075940249130315 0 -0.015569091423871865 0.00079362122237331052 0 -0.015638887609489855 0.00063539245677446366 0 -0.015569091423871865 0.00079362122237331052 0 -0.015638887609489855 0.00063539245677446366 0 -0.015669336733436422 0.00074246631522687585 0 -0.01560453314866192 0.00093174767890386219 0 -0.015576325979595358 0.00084075940249130315 0 -0.015569091423871865 0.00079362122237331052 0 -0.015638887609489855 0.00063539245677446366 0 -0.015837443533305441 0.00061568941107782238 0 -0.01599246191180926 7.5270289374139833e-05 0 -0.015638887609489855 0.00063539245677446366 0 -0.015837443533305441 0.00061568941107782238 0 -0.015669336733436422 0.00074246631522687585 0 -0.015837443533305441 0.00061568941107782238 0 -0.015795313134597633 0.00075074235599496646 0 -0.015669336733436422 0.00074246631522687585 0 -0.015795313134597633 0.00075074235599496646 0 -0.015669336733436422 0.00074246631522687585 0 -0.015713303730677457 0.00080222144866077172 0 -0.015669336733436422 0.00074246631522687585 0 -0.015713303730677457 0.00080222144866077172 0 -0.015581093165421051 0.00078352407564653435 0 -0.015795313134597633 0.00075074235599496646 0 -0.015713303730677457 0.00080222144866077172 0 -0.015829328875765696 0.00082531452779526177 0 -0.015569091423871865 0.00079362122237331052 0 -0.015669336733436422 0.00074246631522687585 0 -0.015581093165421051 0.00078352407564653435 0 -0.015560020325059574 0.00077463874108354232 0 -0.015569091423871865 0.00079362122237331052 0 -0.015581093165421051 0.00078352407564653435 0 -0.015581093165421051 0.00078352407564653435 0 -0.015694283343950247 0.00089308435296233898 0 -0.01554307887459125 0.00094233765145360841 0 -0.015435031848930253 0.00073156932098494842 0 -0.015581093165421051 0.00078352407564653435 0 -0.01554307887459125 0.00094233765145360841 0 -0.015694283343950247 0.00089308435296233898 0 -0.015838623563587156 0.00095023787810941975 0 -0.015829328875765696 0.00082531452779526177 0 -0.015713303730677457 0.00080222144866077172 0 -0.015581093165421051 0.00078352407564653435 0 -0.015694283343950247 0.00089308435296233898 0 -0.015713303730677457 0.00080222144866077172 0 -0.015694283343950247 0.00089308435296233898 0 -0.015829328875765696 0.00082531452779526177 0 -0.015650919176197098 0.0010913245239030135 0 -0.015665280029894719 0.0010199115322591726 0 -0.015838623563587156 0.00095023787810941975 0 -0.015694283343950247 0.00089308435296233898 0 -0.015665280029894719 0.0010199115322591726 0 -0.015838623563587156 0.00095023787810941975 0 -0.014549467405246376 -0.0010733007242044921 0 -0.015822432238447513 -0.00050532246968931934 0 -0.015846911826638041 -0.0019711124390659278 0 -0.015876361633699668 -0.0019567816624498271 0 -0.01576554001850549 -0.0019114890789014433 0 -0.014227094862667898 -0.0003272436092461312 0 -0.013744685834037462 -0.00045120015118950061 0 -0.014439483578321742 0.00025435230195169727 0 -0.015650919176197098 0.0010913245239030135 0 -0.015665280029894719 0.0010199115322591726 0 -0.01554307887459125 0.00094233765145360841 0 -0.014549467405246376 -0.0010733007242044921 0 -0.015030467985793553 -0.00010221152602116302 0 -0.015694283343950247 0.00089308435296233898 0 -0.015665280029894719 0.0010199115322591726 0 -0.01554307887459125 0.00094233765145360841 0 -0.014227094862667898 -0.0003272436092461312 0 -0.014638181556400596 -7.3539673049332699e-05 0 -0.014439483578321742 0.00025435230195169727 0 -0.015791317071597696 -0.0018663113773052901 0 -0.015852730588269599 -0.0019321452967253053 0 -0.01576554001850549 -0.0019114890789014433 0 -0.015791317071597696 -0.0018663113773052901 0 -0.015883469559516864 -0.0018843981891162225 0 -0.015929523426592474 -0.0017694622878984153 0 -0.015791317071597696 -0.0018663113773052901 0 -0.015883469559516864 -0.0018843981891162225 0 -0.015852730588269599 -0.0019321452967253053 0 -0.015846911826638041 -0.0019711124390659278 0 -0.015852730588269599 -0.0019321452967253053 0 -0.01576554001850549 -0.0019114890789014433 0 -0.015838623563587156 0.00095023787810941975 0 -0.015829328875765696 0.00082531452779526177 0 -0.01600726208250286 0.0008223571573995809 0 -0.015791317071597696 -0.0018663113773052901 0 -0.015526505436501048 -0.0024072098345218574 0 -0.016280793305074669 -0.0015497610223437791 0 -0.015822432238447513 -0.00050532246968931934 0 -0.016871968088004102 0.00018846353102208802 0 -0.015791317071597696 -0.0018663113773052901 0 -0.01576554001850549 -0.0019114890789014433 0 -0.015526505436501048 -0.0024072098345218574 0 -0.017167179650933836 0.0017995908854312613 0 -0.016383374673151489 0.0010735516044423285 0 -0.017175002626083888 0.00065359269785923691 0 -0.016871968088004102 0.00018846353102208802 0 -0.016622581334446423 0.00034467531416226756 0 -0.015829328875765696 0.00082531452779526177 0 -0.01600726208250286 0.0008223571573995809 0 -0.015902665713926081 0.00073654517091327335 0 -0.015795313134597633 0.00075074235599496646 0 -0.015829328875765696 0.00082531452779526177 0 -0.015902665713926081 0.00073654517091327335 0 -0.015837443533305441 0.00061568941107782238 0 -0.015795313134597633 0.00075074235599496646 0 -0.015902665713926081 0.00073654517091327335 0 -0.015837443533305441 0.00061568941107782238 0 -0.016459372292471759 0.00036466588056054442 0 -0.01599246191180926 7.5270289374139833e-05 0 -0.016478814185976062 0.0003348391279985154 0 -0.016622581334446423 0.00034467531416226756 0 -0.015837443533305441 0.00061568941107782238 0 -0.016383374673151489 0.0010735516044423285 0 -0.016459372292471759 0.00036466588056054442 0 -0.016459372292471759 0.00036466588056054442 0 -0.017175002626083888 0.00065359269785923691 0 -0.017148645353135122 -0.00040706555768801054 0 -0.016383374673151489 0.0010735516044423285 0 -0.016459372292471759 0.00036466588056054442 0 -0.017175002626083888 0.00065359269785923691 0 -0.016442784892170142 -0.0013357995329987314 0 -0.015573390318683697 -0.0025594341368966899 0 -0.01425155914569211 -0.0017004116820405874 0 -0.016442784892170142 -0.0013357995329987314 0 -0.015573390318683697 -0.0025594341368966899 0 -0.017762344221029774 -0.0030585297522634633 0 -0.015573390318683697 -0.0025594341368966899 0 -0.015958197225553535 -0.0038936537851445132 0 -0.017762344221029774 -0.0030585297522634633 0 -0.015573390318683697 -0.0025594341368966899 0 -0.015958197225553535 -0.0038936537851445132 0 -0.01401883260001 -0.0028762189906397454 0 -0.021167229855179874 -0.0016880608493211246 0 -0.020420485826888653 -0.0012563251932783668 0 -0.025690054580093047 -0.00052246054882691738 0 -0.025921884022567506 -0.00058273033149329966 0 -0.02595118930280409 -0.00046337224815216752 0 -0.017204282833365534 -0.0009110361626026521 0 -0.016838269214577803 -0.00098529042223128292 0 -0.015573390318683697 -0.0025594341368966899 0 -0.01401883260001 -0.0028762189906397454 0 -0.01425155914569211 -0.0017004116820405874 0 -0.016459372292471759 0.00036466588056054442 0 -0.017148645353135122 -0.00040706555768801054 0 -0.01599246191180926 7.5270289374139833e-05 0 -0.016838269214577803 -0.00098529042223128292 0 -0.020222929146043386 -0.00076399848397210371 0 -0.015638887609489855 0.00063539245677446366 0 -0.01599246191180926 7.5270289374139833e-05 0 -0.015555753320357035 0.00052123617406084756 0 -0.01401883260001 -0.0028762189906397454 0 -0.01425155914569211 -0.0017004116820405874 0 -0.012204016508277436 -0.0019768161248005667 0 -0.020420485826888653 -0.0012563251932783668 0 -0.020222929146043386 -0.00076399848397210371 0 -0.022122046683567924 -0.00057266402030539502 0 -0.020222929146043386 -0.00076399848397210371 0 -0.015721946296340432 0.0013216241265255702 0 -0.015576325979595358 0.00084075940249130315 0 -0.015555753320357035 0.00052123617406084756 0 -0.026174798830488292 -0.00055536480689495063 0 -0.026092861687958501 -0.0006008218452539213 0 -0.02613494635386129 -0.00051647739601790835 0 -0.015576325979595358 0.00084075940249130315 0 -0.015638887609489855 0.00063539245677446366 0 -0.015555753320357035 0.00052123617406084756 0 -0.026216599052433051 -0.00044381478109702382 0 -0.02613494635386129 -0.00051647739601790835 0 -0.026114475864759606 -0.00044718957243994009 0 -0.026092861687958501 -0.0006008218452539213 0 -0.02613494635386129 -0.00051647739601790835 0 -0.026052984629041605 -0.00052737769383765214 0 -0.02613494635386129 -0.00051647739601790835 0 -0.026052984629041605 -0.00052737769383765214 0 -0.026114475864759606 -0.00044718957243994009 0 -0.025921884022567506 -0.00058273033149329966 0 -0.026092861687958501 -0.0006008218452539213 0 -0.026052984629041605 -0.00052737769383765214 0 -0.025921884022567506 -0.00058273033149329966 0 -0.026052984629041605 -0.00052737769383765214 0 -0.02595118930280409 -0.00046337224815216752 0 -0.026052984629041605 -0.00052737769383765214 0 -0.02595118930280409 -0.00046337224815216752 0 -0.026114475864759606 -0.00044718957243994009 0 -0.02595118930280409 -0.00046337224815216752 0 -0.026114475864759606 -0.00044718957243994009 0 -0.026021360884224191 -0.00032656793167865631 0 -0.02595118930280409 -0.00046337224815216752 0 -0.026021360884224191 -0.00032656793167865631 0 -0.025852377463395391 -0.00037375065477367506 0 -0.026216599052433051 -0.00044381478109702382 0 -0.026114475864759606 -0.00044718957243994009 0 -0.026258059667083371 -0.00032040710563057057 0 -0.026114475864759606 -0.00044718957243994009 0 -0.026258059667083371 -0.00032040710563057057 0 -0.026021360884224191 -0.00032656793167865631 0 -0.026258059667083371 -0.00032040710563057057 0 -0.026021360884224191 -0.00032656793167865631 0 -0.025980778935637116 -7.1097713331581358e-05 0 -0.026021360884224191 -0.00032656793167865631 0 -0.025790786890711011 -0.00019420448797226436 0 -0.025980778935637116 -7.1097713331581358e-05 0 -0.025790786890711011 -0.00019420448797226436 0 -0.025650365333573111 -0.00033789223604011699 0 -0.025852377463395391 -0.00037375065477367506 0 -0.026021360884224191 -0.00032656793167865631 0 -0.025790786890711011 -0.00019420448797226436 0 -0.025852377463395391 -0.00037375065477367506 0 -0.025790786890711011 -0.00019420448797226436 0 -0.025650365333573111 -0.00033789223604011699 0 -0.025503678377739869 -0.00017942074247348348 0 -0.025690054580093047 -0.00052246054882691738 0 -0.025650365333573111 -0.00033789223604011699 0 -0.025852377463395391 -0.00037375065477367506 0 -0.025690054580093047 -0.00052246054882691738 0 -0.025650365333573111 -0.00033789223604011699 0 -0.025438862265315408 -0.0004229119174703229 0 -0.025690054580093047 -0.00052246054882691738 0 -0.02595118930280409 -0.00046337224815216752 0 -0.025852377463395391 -0.00037375065477367506 0 -0.022182417042955833 -0.0019306676240953273 0 -0.023523368098498438 -0.0018709273193625372 0 -0.019155103887119735 -0.0047582753052625897 0 -0.017994879383136778 -0.0049534864326066918 0 -0.020008415227508188 -0.0060618046830671814 0 -0.019155103887119735 -0.0047582753052625897 0 -0.019842168115025649 -0.0049060218865233608 0 -0.020008415227508188 -0.0060618046830671814 0 -0.019155103887119735 -0.0047582753052625897 0 -0.019842168115025649 -0.0049060218865233608 0 -0.019784056389594039 -0.0039960861435033024 0 -0.019155103887119735 -0.0047582753052625897 0 -0.017994879383136778 -0.0049534864326066918 0 -0.017762344221029774 -0.0030585297522634633 0 -0.021167229855179874 -0.0016880608493211246 0 -0.022182417042955833 -0.0019306676240953273 0 -0.025650365333573111 -0.00033789223604011699 0 -0.025438862265315408 -0.0004229119174703229 0 -0.025503678377739869 -0.00017942074247348348 0 -0.025438862265315408 -0.0004229119174703229 0 -0.025503678377739869 -0.00017942074247348348 0 -0.025355607522759612 -0.00030394705858021581 0 -0.025503678377739869 -0.00017942074247348348 0 -0.025339759046293944 -0.00019769323901847516 0 -0.025355607522759612 -0.00030394705858021581 0 -0.025438862265315408 -0.0004229119174703229 0 -0.025355607522759612 -0.00030394705858021581 0 -0.02519780737422242 -0.00030583801818669505 0 -0.025339759046293944 -0.00019769323901847516 0 -0.025355607522759612 -0.00030394705858021581 0 -0.025248766472346772 -0.00024052056313910635 0 -0.025355607522759612 -0.00030394705858021581 0 -0.025248766472346772 -0.00024052056313910635 0 -0.02519780737422242 -0.00030583801818669505 0 -0.025248766472346772 -0.00024052056313910635 0 -0.02519780737422242 -0.00030583801818669505 0 -0.025204354369593174 -0.00026917002608416976 0 -0.025339759046293944 -0.00019769323901847516 0 -0.025248766472346772 -0.00024052056313910635 0 -0.025251930932940023 -0.00016679890335612077 0 -0.025251930932940023 -0.00016679890335612077 0 -0.025208395632067636 -0.00019260209454684965 0 -0.025194592710573095 -0.00014523988545939414 0 -0.025248766472346772 -0.00024052056313910635 0 -0.025251930932940023 -0.00016679890335612077 0 -0.025208395632067636 -0.00019260209454684965 0 -0.020715820756555182 -0.005967407890301338 0 -0.020008415227508188 -0.0060618046830671814 0 -0.021619778537826116 -0.0063401789540415447 0 -0.025208395632067636 -0.00019260209454684965 0 -0.025190305585512909 -0.0002313622812269948 0 -0.025156970038489077 -0.00017930579577795229 0 -0.025208395632067636 -0.00019260209454684965 0 -0.025156970038489077 -0.00017930579577795229 0 -0.025194592710573095 -0.00014523988545939414 0 -0.023523368098498438 -0.0018709273193625372 0 -0.024727663681390157 -0.0020944699789549256 0 -0.025134438942297489 -0.00024761595055379157 0 -0.02519780737422242 -0.00030583801818669505 0 -0.02494769960614281 -0.00017738735580825917 0 -0.025134438942297489 -0.00024761595055379157 0 -0.02509939631283041 -0.00022266947640769904 0 -0.02494769960614281 -0.00017738735580825917 0 -0.023523368098498438 -0.0018709273193625372 0 -0.024083198574114981 -0.001607097442062241 0 -0.020008415227508188 -0.0060618046830671814 0 -0.022631175616385689 -0.0070637158486270219 0 -0.021619778537826116 -0.0063401789540415447 0 -0.025248766472346772 -0.00024052056313910635 0 -0.025190305585512909 -0.0002313622812269948 0 -0.025204354369593174 -0.00026917002608416976 0 -0.025248766472346772 -0.00024052056313910635 0 -0.025208395632067636 -0.00019260209454684965 0 -0.025190305585512909 -0.0002313622812269948 0 -0.025190305585512909 -0.0002313622812269948 0 -0.025204354369593174 -0.00026917002608416976 0 -0.025173304327302772 -0.00025506214719734802 0 -0.025190305585512909 -0.0002313622812269948 0 -0.025145947816416804 -0.00022029532382175551 0 -0.025173304327302772 -0.00025506214719734802 0 -0.025190305585512909 -0.0002313622812269948 0 -0.025145947816416804 -0.00022029532382175551 0 -0.025156970038489077 -0.00017930579577795229 0 -0.025134438942297489 -0.00024761595055379157 0 -0.025145947816416804 -0.00022029532382175551 0 -0.025173304327302772 -0.00025506214719734802 0 -0.025145947816416804 -0.00022029532382175551 0 -0.025156970038489077 -0.00017930579577795229 0 -0.025112042599936421 -0.00019515060368299463 0 -0.025112042599936421 -0.00019515060368299463 0 -0.025057753598083782 -0.00019252491440022347 0 -0.025100330109733761 -0.00016092772315055075 0 -0.025156970038489077 -0.00017930579577795229 0 -0.025112042599936421 -0.00019515060368299463 0 -0.025100330109733761 -0.00016092772315055075 0 -0.025112042599936421 -0.00019515060368299463 0 -0.025057753598083782 -0.00019252491440022347 0 -0.02509939631283041 -0.00022266947640769904 0 -0.025057753598083782 -0.00019252491440022347 0 -0.025043625784456756 -0.00015460624831944709 0 -0.025100330109733761 -0.00016092772315055075 0 -0.025145947816416804 -0.00022029532382175551 0 -0.025112042599936421 -0.00019515060368299463 0 -0.02509939631283041 -0.00022266947640769904 0 -0.025134438942297489 -0.00024761595055379157 0 -0.025145947816416804 -0.00022029532382175551 0 -0.02509939631283041 -0.00022266947640769904 0 -0.021127216494450846 -0.0060015747189337025 0 -0.020715820756555182 -0.005967407890301338 0 -0.021619778537826116 -0.0063401789540415447 0 -0.021344467814155534 -0.0060411281236710411 0 -0.021127216494450846 -0.0060015747189337025 0 -0.021619778537826116 -0.0063401789540415447 0 -0.021344467814155534 -0.0060411281236710411 0 -0.021612877854334432 -0.0058926093940126932 0 -0.021205598850272879 -0.0056972942783827824 0 -0.021127216494450846 -0.0060015747189337025 0 -0.020817451420768619 -0.005738100052247023 0 -0.021205598850272879 -0.0056972942783827824 0 -0.021344467814155534 -0.0060411281236710411 0 -0.021127216494450846 -0.0060015747189337025 0 -0.021205598850272879 -0.0056972942783827824 0 -0.021127216494450846 -0.0060015747189337025 0 -0.020715820756555182 -0.005967407890301338 0 -0.020817451420768619 -0.005738100052247023 0 -0.020715820756555182 -0.005967407890301338 0 -0.020465855306988006 -0.0058199777128992306 0 -0.020817451420768619 -0.005738100052247023 0 -0.020715820756555182 -0.005967407890301338 0 -0.020465855306988006 -0.0058199777128992306 0 -0.020008415227508188 -0.0060618046830671814 0 -0.020465855306988006 -0.0058199777128992306 0 -0.020008415227508188 -0.0060618046830671814 0 -0.020361644002014616 -0.0056275005611436078 0 -0.02519780737422242 -0.00030583801818669505 0 -0.025204354369593174 -0.00026917002608416976 0 -0.025173304327302772 -0.00025506214719734802 0 -0.025134438942297489 -0.00024761595055379157 0 -0.02519780737422242 -0.00030583801818669505 0 -0.025173304327302772 -0.00025506214719734802 0 -0.025111574595620897 -0.00028655396485720476 0 -0.02494769960614281 -0.00017738735580825917 0 -0.024927031616076994 -0.0002070040113184432 0 -0.022631175616385689 -0.0070637158486270219 0 -0.022807972301392417 -0.0066224348838124858 0 -0.023253898614884843 -0.0066720915752968178 0 -0.024918997038274011 -0.00016054704895822943 0 -0.024927031616076994 -0.0002070040113184432 0 -0.024872543031833078 -0.00013845828250080017 0 -0.024918997038274011 -0.00016054704895822943 0 -0.02494769960614281 -0.00017738735580825917 0 -0.024927031616076994 -0.0002070040113184432 0 -0.022631175616385689 -0.0070637158486270219 0 -0.022269095975578052 -0.0066379960293477544 0 -0.02251825552080473 -0.006593986271779719 0 -0.022631175616385689 -0.0070637158486270219 0 -0.02251825552080473 -0.006593986271779719 0 -0.022807972301392417 -0.0066224348838124858 0 -0.025057753598083782 -0.00019252491440022347 0 -0.02509939631283041 -0.00022266947640769904 0 -0.02494769960614281 -0.00017738735580825917 0 -0.025057753598083782 -0.00019252491440022347 0 -0.02494769960614281 -0.00017738735580825917 0 -0.025009309990945749 -0.00016235973366285803 0 -0.025057753598083782 -0.00019252491440022347 0 -0.025043625784456756 -0.00015460624831944709 0 -0.025009309990945749 -0.00016235973366285803 0 -0.022631175616385689 -0.0070637158486270219 0 -0.021619778537826116 -0.0063401789540415447 0 -0.022269095975578052 -0.0066379960293477544 0 -0.021619778537826116 -0.0063401789540415447 0 -0.021612877854334432 -0.0058926093940126932 0 -0.021965346742073916 -0.0060633040742771203 0 -0.021344467814155534 -0.0060411281236710411 0 -0.021619778537826116 -0.0063401789540415447 0 -0.021612877854334432 -0.0058926093940126932 0 -0.021965346742073916 -0.0060633040742771203 0 -0.022229055470845433 -0.0063125425768789135 0 -0.022387270178224186 -0.0059069161875383658 0 -0.021619778537826116 -0.0063401789540415447 0 -0.021965346742073916 -0.0060633040742771203 0 -0.022229055470845433 -0.0063125425768789135 0 -0.021619778537826116 -0.0063401789540415447 0 -0.022229055470845433 -0.0063125425768789135 0 -0.022269095975578052 -0.0066379960293477544 0 -0.022229055470845433 -0.0063125425768789135 0 -0.022269095975578052 -0.0066379960293477544 0 -0.02251825552080473 -0.006593986271779719 0 -0.02251825552080473 -0.006593986271779719 0 -0.022627860449996668 -0.0063311171567374683 0 -0.022807972301392417 -0.0066224348838124858 0 -0.022229055470845433 -0.0063125425768789135 0 -0.02251825552080473 -0.006593986271779719 0 -0.022627860449996668 -0.0063311171567374683 0 -0.022229055470845433 -0.0063125425768789135 0 -0.022627860449996668 -0.0063311171567374683 0 -0.022387270178224186 -0.0059069161875383658 0 -0.022627860449996668 -0.0063311171567374683 0 -0.022387270178224186 -0.0059069161875383658 0 -0.023007969105936867 -0.0058512124164771251 0 -0.022627860449996668 -0.0063311171567374683 0 -0.023038363483415921 -0.006338587164082453 0 -0.023007969105936867 -0.0058512124164771251 0 -0.023038363483415921 -0.006338587164082453 0 -0.022807972301392417 -0.0066224348838124858 0 -0.023253898614884843 -0.0066720915752968178 0 -0.022627860449996668 -0.0063311171567374683 0 -0.023038363483415921 -0.006338587164082453 0 -0.022807972301392417 -0.0066224348838124858 0 -0.023007969105936867 -0.0058512124164771251 0 -0.022563026287975005 -0.005436012631040218 0 -0.023147335742499733 -0.0050194685515554012 0 -0.022563026287975005 -0.005436012631040218 0 -0.022313522983884254 -0.0048593352691982056 0 -0.023147335742499733 -0.0050194685515554012 0 -0.022387270178224186 -0.0059069161875383658 0 -0.023007969105936867 -0.0058512124164771251 0 -0.022563026287975005 -0.005436012631040218 0 -0.022387270178224186 -0.0059069161875383658 0 -0.022563026287975005 -0.005436012631040218 0 -0.02203464680260319 -0.005576569687351169 0 -0.022563026287975005 -0.005436012631040218 0 -0.02203464680260319 -0.005576569687351169 0 -0.022313522983884254 -0.0048593352691982056 0 -0.02203464680260319 -0.005576569687351169 0 -0.02165776579734582 -0.0049041822386256453 0 -0.022313522983884254 -0.0048593352691982056 0 -0.021612877854334432 -0.0058926093940126932 0 -0.021965346742073916 -0.0060633040742771203 0 -0.02203464680260319 -0.005576569687351169 0 -0.021965346742073916 -0.0060633040742771203 0 -0.022387270178224186 -0.0059069161875383658 0 -0.02203464680260319 -0.005576569687351169 0 -0.021612877854334432 -0.0058926093940126932 0 -0.02203464680260319 -0.005576569687351169 0 -0.021547312829319348 -0.005498070452291887 0 -0.021612877854334432 -0.0058926093940126932 0 -0.021547312829319348 -0.005498070452291887 0 -0.021205598850272879 -0.0056972942783827824 0 -0.021547312829319348 -0.005498070452291887 0 -0.02165776579734582 -0.0049041822386256453 0 -0.021151000637432322 -0.0052326126460707856 0 -0.02203464680260319 -0.005576569687351169 0 -0.021547312829319348 -0.005498070452291887 0 -0.02165776579734582 -0.0049041822386256453 0 -0.02165776579734582 -0.0049041822386256453 0 -0.021315746671621286 -0.0043111854078667624 0 -0.021860322219424005 -0.0040966112253319961 0 -0.02165776579734582 -0.0049041822386256453 0 -0.022313522983884254 -0.0048593352691982056 0 -0.021860322219424005 -0.0040966112253319961 0 -0.022313522983884254 -0.0048593352691982056 0 -0.022644095934193694 -0.0043454279157627484 0 -0.023147335742499733 -0.0050194685515554012 0 -0.022313522983884254 -0.0048593352691982056 0 -0.022644095934193694 -0.0043454279157627484 0 -0.021860322219424005 -0.0040966112253319961 0 -0.019842168115025649 -0.0049060218865233608 0 -0.020008415227508188 -0.0060618046830671814 0 -0.020216850066921831 -0.0053508500435539555 0 -0.020644144578205119 -0.0051038692933561176 0 -0.020216850066921831 -0.0053508500435539555 0 -0.020561223247956142 -0.0054840694176887068 0 -0.02028548337894864 -0.0049822950148592339 0 -0.020644144578205119 -0.0051038692933561176 0 -0.020216850066921831 -0.0053508500435539555 0 -0.019842168115025649 -0.0049060218865233608 0 -0.02028548337894864 -0.0049822950148592339 0 -0.020216850066921831 -0.0053508500435539555 0 -0.020008415227508188 -0.0060618046830671814 0 -0.020216850066921831 -0.0053508500435539555 0 -0.020361644002014616 -0.0056275005611436078 0 -0.020216850066921831 -0.0053508500435539555 0 -0.020361644002014616 -0.0056275005611436078 0 -0.020561223247956142 -0.0054840694176887068 0 -0.020465855306988006 -0.0058199777128992306 0 -0.020361644002014616 -0.0056275005611436078 0 -0.020561223247956142 -0.0054840694176887068 0 -0.020465855306988006 -0.0058199777128992306 0 -0.020561223247956142 -0.0054840694176887068 0 -0.020817451420768619 -0.005738100052247023 0 -0.020817451420768619 -0.005738100052247023 0 -0.020865004464136829 -0.0054702076935656072 0 -0.021205598850272879 -0.0056972942783827824 0 -0.020561223247956142 -0.0054840694176887068 0 -0.020817451420768619 -0.005738100052247023 0 -0.020865004464136829 -0.0054702076935656072 0 -0.021547312829319348 -0.005498070452291887 0 -0.021205598850272879 -0.0056972942783827824 0 -0.021151000637432322 -0.0052326126460707856 0 -0.020865004464136829 -0.0054702076935656072 0 -0.021205598850272879 -0.0056972942783827824 0 -0.021151000637432322 -0.0052326126460707856 0 -0.020644144578205119 -0.0051038692933561176 0 -0.020865004464136829 -0.0054702076935656072 0 -0.021151000637432322 -0.0052326126460707856 0 -0.020644144578205119 -0.0051038692933561176 0 -0.021151000637432322 -0.0052326126460707856 0 -0.020992249331260395 -0.0047260085458215055 0 -0.020644144578205119 -0.0051038692933561176 0 -0.020561223247956142 -0.0054840694176887068 0 -0.020865004464136829 -0.0054702076935656072 0 -0.020644144578205119 -0.0051038692933561176 0 -0.020992249331260395 -0.0047260085458215055 0 -0.020369627638622465 -0.0045551626046707429 0 -0.02165776579734582 -0.0049041822386256453 0 -0.020992249331260395 -0.0047260085458215055 0 -0.021315746671621286 -0.0043111854078667624 0 -0.02165776579734582 -0.0049041822386256453 0 -0.021151000637432322 -0.0052326126460707856 0 -0.020992249331260395 -0.0047260085458215055 0 -0.020992249331260395 -0.0047260085458215055 0 -0.021315746671621286 -0.0043111854078667624 0 -0.020808941474359164 -0.0042453284107587452 0 -0.020992249331260395 -0.0047260085458215055 0 -0.020808941474359164 -0.0042453284107587452 0 -0.020369627638622465 -0.0045551626046707429 0 -0.020808941474359164 -0.0042453284107587452 0 -0.020369627638622465 -0.0045551626046707429 0 -0.020444122042242042 -0.003795671435493989 0 -0.019842168115025649 -0.0049060218865233608 0 -0.020369627638622465 -0.0045551626046707429 0 -0.019784056389594039 -0.0039960861435033024 0 -0.02028548337894864 -0.0049822950148592339 0 -0.020644144578205119 -0.0051038692933561176 0 -0.020369627638622465 -0.0045551626046707429 0 -0.019842168115025649 -0.0049060218865233608 0 -0.02028548337894864 -0.0049822950148592339 0 -0.020369627638622465 -0.0045551626046707429 0 -0.020444122042242042 -0.003795671435493989 0 -0.019933499554580736 -0.0030120267719112703 0 -0.019784056389594039 -0.0039960861435033024 0 -0.020369627638622465 -0.0045551626046707429 0 -0.020444122042242042 -0.003795671435493989 0 -0.019784056389594039 -0.0039960861435033024 0 -0.020808941474359164 -0.0042453284107587452 0 -0.020444122042242042 -0.003795671435493989 0 -0.021130811031504972 -0.003707673164578667 0 -0.021315746671621286 -0.0043111854078667624 0 -0.020808941474359164 -0.0042453284107587452 0 -0.021130811031504972 -0.003707673164578667 0 -0.020444122042242042 -0.003795671435493989 0 -0.021130811031504972 -0.003707673164578667 0 -0.020764396617376661 -0.0030015118058634937 0 -0.021130811031504972 -0.003707673164578667 0 -0.020764396617376661 -0.0030015118058634937 0 -0.021567063208015283 -0.0032258704752890889 0 -0.020764396617376661 -0.0030015118058634937 0 -0.021567063208015283 -0.0032258704752890889 0 -0.021192531476522666 -0.0022247611761763908 0 -0.020444122042242042 -0.003795671435493989 0 -0.020764396617376661 -0.0030015118058634937 0 -0.019933499554580736 -0.0030120267719112703 0 -0.020764396617376661 -0.0030015118058634937 0 -0.019933499554580736 -0.0030120267719112703 0 -0.020299718380723517 -0.0022904799615848627 0 -0.022644095934193694 -0.0043454279157627484 0 -0.022390668892687034 -0.0035826520638865909 0 -0.023532030440808892 -0.0040860880370889325 0 -0.022644095934193694 -0.0043454279157627484 0 -0.022390668892687034 -0.0035826520638865909 0 -0.021860322219424005 -0.0040966112253319961 0 -0.021130811031504972 -0.003707673164578667 0 -0.021860322219424005 -0.0040966112253319961 0 -0.021567063208015283 -0.0032258704752890889 0 -0.022390668892687034 -0.0035826520638865909 0 -0.021860322219424005 -0.0040966112253319961 0 -0.021567063208015283 -0.0032258704752890889 0 -0.021315746671621286 -0.0043111854078667624 0 -0.021130811031504972 -0.003707673164578667 0 -0.021860322219424005 -0.0040966112253319961 0 -0.022390668892687034 -0.0035826520638865909 0 -0.021567063208015283 -0.0032258704752890889 0 -0.022097840978463616 -0.0027664528568121811 0 -0.021567063208015283 -0.0032258704752890889 0 -0.022097840978463616 -0.0027664528568121811 0 -0.021192531476522666 -0.0022247611761763908 0 -0.022390668892687034 -0.0035826520638865909 0 -0.022097840978463616 -0.0027664528568121811 0 -0.023130358235794766 -0.0026771987531732434 0 -0.022080258194083633 -0.0019425888437667389 0 -0.022730108616122225 -0.0012526903607987378 0 -0.023130358235794766 -0.0026771987531732434 0 -0.022097840978463616 -0.0027664528568121811 0 -0.022080258194083633 -0.0019425888437667389 0 -0.023130358235794766 -0.0026771987531732434 0 -0.022080258194083633 -0.0019425888437667389 0 -0.021288705773268052 -0.0012317306789352959 0 -0.021192531476522666 -0.0022247611761763908 0 -0.022097840978463616 -0.0027664528568121811 0 -0.022080258194083633 -0.0019425888437667389 0 -0.021192531476522666 -0.0022247611761763908 0 -0.022080258194083633 -0.0019425888437667389 0 -0.021288705773268052 -0.0012317306789352959 0 -0.022730108616122225 -0.0012526903607987378 0 -0.020299718380723517 -0.0022904799615848627 0 -0.021192531476522666 -0.0022247611761763908 0 -0.020405082931637127 -0.0014321580038582369 0 -0.020299718380723517 -0.0022904799615848627 0 -0.020405082931637127 -0.0014321580038582369 0 -0.019515300470996068 -0.0019768094076499701 0 -0.020764396617376661 -0.0030015118058634937 0 -0.020299718380723517 -0.0022904799615848627 0 -0.021192531476522666 -0.0022247611761763908 0 -0.021288705773268052 -0.0012317306789352959 0 -0.020405082931637127 -0.0014321580038582369 0 -0.020248249044028645 -0.00038464612863056192 0 -0.021288705773268052 -0.0012317306789352959 0 -0.021192531476522666 -0.0022247611761763908 0 -0.020405082931637127 -0.0014321580038582369 0 -0.020405082931637127 -0.0014321580038582369 0 -0.01975776648684454 -0.00092351446259421202 0 -0.019515300470996068 -0.0019768094076499701 0 -0.01975776648684454 -0.00092351446259421202 0 -0.018920421833234502 -0.00087474181190305212 0 -0.019515300470996068 -0.0019768094076499701 0 -0.019515300470996068 -0.0019768094076499701 0 -0.01910681357074745 -0.0031289714781275561 0 -0.018359418072290832 -0.0020790159471605059 0 -0.018920421833234502 -0.00087474181190305212 0 -0.019515300470996068 -0.0019768094076499701 0 -0.018359418072290832 -0.0020790159471605059 0 -0.019933499554580736 -0.0030120267719112703 0 -0.020299718380723517 -0.0022904799615848627 0 -0.019515300470996068 -0.0019768094076499701 0 -0.019155103887119735 -0.0047582753052625897 0 -0.01910681357074745 -0.0031289714781275561 0 -0.017762344221029774 -0.0030585297522634633 0 -0.019933499554580736 -0.0030120267719112703 0 -0.019515300470996068 -0.0019768094076499701 0 -0.01910681357074745 -0.0031289714781275561 0 -0.019155103887119735 -0.0047582753052625897 0 -0.01910681357074745 -0.0031289714781275561 0 -0.019784056389594039 -0.0039960861435033024 0 -0.019933499554580736 -0.0030120267719112703 0 -0.01910681357074745 -0.0031289714781275561 0 -0.019784056389594039 -0.0039960861435033024 0 -0.015958197225553535 -0.0038936537851445132 0 -0.017994879383136778 -0.0049534864326066918 0 -0.017762344221029774 -0.0030585297522634633 0 -0.01910681357074745 -0.0031289714781275561 0 -0.017762344221029774 -0.0030585297522634633 0 -0.018359418072290832 -0.0020790159471605059 0 -0.016442784892170142 -0.0013357995329987314 0 -0.017762344221029774 -0.0030585297522634633 0 -0.018359418072290832 -0.0020790159471605059 0 -0.016442784892170142 -0.0013357995329987314 0 -0.018920421833234502 -0.00087474181190305212 0 -0.018359418072290832 -0.0020790159471605059 0 -0.017204282833365534 -0.0009110361626026521 0 -0.017891196468992315 -0.00084026036081454741 0 -0.017148645353135122 -0.00040706555768801054 0 -0.018920421833234502 -0.00087474181190305212 0 -0.018106325070091626 3.3878471910147952e-05 0 -0.017175002626083888 0.00065359269785923691 0 -0.017148645353135122 -0.00040706555768801054 0 -0.018106325070091626 3.3878471910147952e-05 0 -0.018106325070091626 3.3878471910147952e-05 0 -0.019508249308528618 -6.1878358930564454e-06 0 -0.018136332658112712 0.0011011564616771519 0 -0.017175002626083888 0.00065359269785923691 0 -0.018106325070091626 3.3878471910147952e-05 0 -0.018136332658112712 0.0011011564616771519 0 -0.01975776648684454 -0.00092351446259421202 0 -0.019508249308528618 -6.1878358930564454e-06 0 -0.020248249044028645 -0.00038464612863056192 0 -0.01975776648684454 -0.00092351446259421202 0 -0.018920421833234502 -0.00087474181190305212 0 -0.019508249308528618 -6.1878358930564454e-06 0 -0.018920421833234502 -0.00087474181190305212 0 -0.018106325070091626 3.3878471910147952e-05 0 -0.019508249308528618 -6.1878358930564454e-06 0 -0.018281717820562881 -0.00015470080732529905 0 -0.017860394759787981 9.0068285397499123e-06 0 -0.019508249308528618 -6.1878358930564454e-06 0 -0.020007692730969674 0.00030048398434157639 0 -0.019782575014769131 0.00060128346543832057 0 -0.019508249308528618 -6.1878358930564454e-06 0 -0.020007692730969674 0.00030048398434157639 0 -0.020248249044028645 -0.00038464612863056192 0 -0.020007692730969674 0.00030048398434157639 0 -0.019782575014769131 0.00060128346543832057 0 -0.02022075500326655 0.0006550461673972476 0 -0.019508249308528618 -6.1878358930564454e-06 0 -0.019782575014769131 0.00060128346543832057 0 -0.019441576215195381 0.00054630119314821391 0 -0.019782575014769131 0.00060128346543832057 0 -0.019441576215195381 0.00054630119314821391 0 -0.019755944346794393 0.0009366922650470244 0 -0.019782575014769131 0.00060128346543832057 0 -0.019755944346794393 0.0009366922650470244 0 -0.020222273065119926 0.00098979798818297549 0 -0.019782575014769131 0.00060128346543832057 0 -0.020222273065119926 0.00098979798818297549 0 -0.02022075500326655 0.0006550461673972476 0 -0.019071195006806239 0.00090335300263510131 0 -0.019441576215195381 0.00054630119314821391 0 -0.019755944346794393 0.0009366922650470244 0 -0.017167179650933836 0.0017995908854312613 0 -0.017175002626083888 0.00065359269785923691 0 -0.018136332658112712 0.0011011564616771519 0 -0.016871968088004102 0.00018846353102208802 0 -0.017860394759787981 9.0068285397499123e-06 0 -0.019071195006806239 0.00090335300263510131 0 -0.019755944346794393 0.0009366922650470244 0 -0.019937469746255924 0.0013570000122360571 0 -0.016871968088004102 0.00018846353102208802 0 -0.018166329493150488 0.0004160765950124424 0 -0.015526505436501048 -0.0024072098345218574 0 -0.017157564486927856 -0.0013780571976354289 0 -0.016280793305074669 -0.0015497610223437791 0 -0.019755944346794393 0.0009366922650470244 0 -0.020107583890883102 0.0011935891758006738 0 -0.019937469746255924 0.0013570000122360571 0 -0.019755944346794393 0.0009366922650470244 0 -0.020107583890883102 0.0011935891758006738 0 -0.020222273065119926 0.00098979798818297549 0 -0.01894792637089189 0.00079661701743033507 0 -0.018166329493150488 0.0004160765950124424 0 -0.020107583890883102 0.0011935891758006738 0 -0.019937469746255924 0.0013570000122360571 0 -0.020280994412513353 0.0012362068406031937 0 -0.018541467512461295 0.0012273734629719743 0 -0.017157564486927856 -0.0013780571976354289 0 -0.016280793305074669 -0.0015497610223437791 0 -0.016509162355614709 -0.0012083382394041365 0 -0.016291538625281429 -0.0015162534462369336 0 -0.015548858438517683 -0.0020335550959137655 0 -0.015009775961785089 -0.002325639478580218 0 -0.016280793305074669 -0.0015497610223437791 0 -0.015548858438517683 -0.0020335550959137655 0 -0.015929523426592474 -0.0017694622878984153 0 -0.016280793305074669 -0.0015497610223437791 0 -0.015548858438517683 -0.0020335550959137655 0 -0.015883469559516864 -0.0018843981891162225 0 -0.015929523426592474 -0.0017694622878984153 0 -0.015791317071597696 -0.0018663113773052901 0 -0.015929523426592474 -0.0017694622878984153 0 -0.016280793305074669 -0.0015497610223437791 0 -0.020363953504719305 0.0011786997088961365 0 -0.020417306845967553 0.0011783817525802484 0 -0.020776304902342856 0.0011826788772687387 0 -0.020417306845967553 0.0011783817525802484 0 -0.020280994412513353 0.0012362068406031937 0 -0.020691830466978704 0.0012364639050824907 0 -0.020417306845967553 0.0011783817525802484 0 -0.020691830466978704 0.0012364639050824907 0 -0.020776304902342856 0.0011826788772687387 0 -0.020124106825257202 0.0009779457775022564 0 -0.020417306845967553 0.0011783817525802484 0 -0.020280994412513353 0.0012362068406031937 0 -0.020124106825257202 0.0009779457775022564 0 -0.019937469746255924 0.0013570000122360571 0 -0.020280994412513353 0.0012362068406031937 0 -0.020280994412513353 0.0012362068406031937 0 -0.02031783291956973 0.0011972984831821168 0 -0.020656167247298532 0.0012609273531994593 0 -0.020280994412513353 0.0012362068406031937 0 -0.020656167247298532 0.0012609273531994593 0 -0.020691830466978704 0.0012364639050824907 0 -0.020107583890883102 0.0011935891758006738 0 -0.020280994412513353 0.0012362068406031937 0 -0.02031783291956973 0.0011972984831821168 0 -0.020107583890883102 0.0011935891758006738 0 -0.02031783291956973 0.0011972984831821168 0 -0.020222273065119926 0.00098979798818297549 0 -0.02031783291956973 0.0011972984831821168 0 -0.020222273065119926 0.00098979798818297549 0 -0.020656167247298532 0.0012609273531994593 0 -0.020222273065119926 0.00098979798818297549 0 -0.020656167247298532 0.0012609273531994593 0 -0.020664484603743479 0.00093747973016784824 0 -0.020656167247298532 0.0012609273531994593 0 -0.020691830466978704 0.0012364639050824907 0 -0.021379797339185411 0.0015177291878832456 0 -0.020656167247298532 0.0012609273531994593 0 -0.021379797339185411 0.0015177291878832456 0 -0.020664484603743479 0.00093747973016784824 0 -0.020691830466978704 0.0012364639050824907 0 -0.021379797339185411 0.0015177291878832456 0 -0.020776304902342856 0.0011826788772687387 0 -0.021379797339185411 0.0015177291878832456 0 -0.021181927292677993 0.00061265818109886168 0 -0.022837317953879707 0.00028778584885186601 0 -0.021379797339185411 0.0015177291878832456 0 -0.021181927292677993 0.00061265818109886168 0 -0.020664484603743479 0.00093747973016784824 0 -0.020222273065119926 0.00098979798818297549 0 -0.020664484603743479 0.00093747973016784824 0 -0.02022075500326655 0.0006550461673972476 0 -0.021181927292677993 0.00061265818109886168 0 -0.020664484603743479 0.00093747973016784824 0 -0.020530467904397269 0.00035155235168200154 0 -0.020007692730969674 0.00030048398434157639 0 -0.020530467904397269 0.00035155235168200154 0 -0.02022075500326655 0.0006550461673972476 0 -0.020664484603743479 0.00093747973016784824 0 -0.020530467904397269 0.00035155235168200154 0 -0.02022075500326655 0.0006550461673972476 0 -0.020007692730969674 0.00030048398434157639 0 -0.020530467904397269 0.00035155235168200154 0 -0.020248249044028645 -0.00038464612863056192 0 -0.020530467904397269 0.00035155235168200154 0 -0.020248249044028645 -0.00038464612863056192 0 -0.021337006636933564 -0.00032791413281965155 0 -0.021181927292677993 0.00061265818109886168 0 -0.020530467904397269 0.00035155235168200154 0 -0.021337006636933564 -0.00032791413281965155 0 -0.021288705773268052 -0.0012317306789352959 0 -0.020248249044028645 -0.00038464612863056192 0 -0.021337006636933564 -0.00032791413281965155 0 -0.020405082931637127 -0.0014321580038582369 0 -0.01975776648684454 -0.00092351446259421202 0 -0.020248249044028645 -0.00038464612863056192 0 -0.021337006636933564 -0.00032791413281965155 0 -0.022837317953879707 0.00028778584885186601 0 -0.022730108616122225 -0.0012526903607987378 0 -0.021181927292677993 0.00061265818109886168 0 -0.021337006636933564 -0.00032791413281965155 0 -0.022837317953879707 0.00028778584885186601 0 -0.021288705773268052 -0.0012317306789352959 0 -0.021337006636933564 -0.00032791413281965155 0 -0.022730108616122225 -0.0012526903607987378 0 -0.023954977411628636 -0.00070969516514574624 0 -0.022837317953879707 0.00028778584885186601 0 -0.022730108616122225 -0.0012526903607987378 0 -0.023954977411628636 -0.00070969516514574624 0 -0.025665448439008733 9.1398149455032302e-05 0 -0.022837317953879707 0.00028778584885186601 0 -0.023954977411628636 -0.00070969516514574624 0 -0.025665448439008733 9.1398149455032302e-05 0 -0.024683861823705435 -0.0019165444040908748 0 -0.025665448439008733 9.1398149455032302e-05 0 -0.022837317953879707 0.00028778584885186601 0 -0.024686652662839988 0.002753117365910304 0 -0.027222629311658041 9.1104241072208637e-05 0 -0.026918149149179556 0.0018963303855931016 0 -0.028294533299277093 0.0011747842434770631 0 -0.02518436906842169 -0.00051318389679722584 0 -0.023654088083875084 0.00036179417021461863 0 -0.021379797339185411 0.0015177291878832456 0 -0.022837317953879707 0.00028778584885186601 0 -0.024686652662839988 0.002753117365910304 0 -0.021379797339185411 0.0015177291878832456 0 -0.020776304902342856 0.0011826788772687387 0 -0.019983141128375022 0.0014251382012023647 0 -0.022581081233770225 0.00051534331241339954 0 -0.023654088083875084 0.00036179417021461863 0 -0.023654088083875084 0.00036179417021461863 0 -0.021277675849900236 0.00040025855806782488 0 -0.023242747043008112 -0.00074829723678794654 0 -0.023245927021613943 -0.00074343199803258324 0 -0.023236940923677393 -0.00073839673525672421 0 -0.020776304902342856 0.0011826788772687387 0 -0.019983141128375022 0.0014251382012023647 0 -0.020226442762867301 0.00049236746301763244 0 -0.021155987314447438 0.0005044674508673404 0 -0.021277675849900236 0.00040025855806782488 0 -0.020363953504719305 0.0011786997088961365 0 -0.020776304902342856 0.0011826788772687387 0 -0.020349623971382336 0.0011832586202108256 0 -0.023253672416271066 -0.00074140526178795394 0 -0.02325591201144761 -0.00074918880151100689 0 -0.023270504265933249 -0.00075192638656338155 0 -0.02559010948902907 -0.00012406965160619812 0 -0.026425792918461505 -0.0011872326888295655 0 -0.023245927021613943 -0.00074343199803258324 0 -0.023253672416271066 -0.00074140526178795394 0 -0.02325591201144761 -0.00074918880151100689 0 -0.026918149149179556 0.0018963303855931016 0 -0.028521791610588956 0.0022894864549693381 0 -0.028294533299277093 0.0011747842434770631 0 -0.023242747043008112 -0.00074829723678794654 0 -0.023245927021613943 -0.00074343199803258324 0 -0.02325591201144761 -0.00074918880151100689 0 -0.023654088083875084 0.00036179417021461863 0 -0.02559010948902907 -0.00012406965160619812 0 -0.028521791610588956 0.0022894864549693381 0 -0.029623177624338564 0.001271946290342037 0 -0.030033720098863324 0.0026083217618319832 0 -0.028521791610588956 0.0022894864549693381 0 -0.029623177624338564 0.001271946290342037 0 -0.028294533299277093 0.0011747842434770631 0 -0.029623177624338564 0.001271946290342037 0 -0.028294533299277093 0.0011747842434770631 0 -0.029175735712323327 0.0001626309114441918 0 -0.029623177624338564 0.001271946290342037 0 -0.029175735712323327 0.0001626309114441918 0 -0.030370913591204862 -0.00027272030871424325 0 -0.027222629311658041 9.1104241072208637e-05 0 -0.028294533299277093 0.0011747842434770631 0 -0.029175735712323327 0.0001626309114441918 0 -0.027222629311658041 9.1104241072208637e-05 0 -0.029175735712323327 0.0001626309114441918 0 -0.029749411860098492 -0.0012992430808843034 0 -0.029175735712323327 0.0001626309114441918 0 -0.029749411860098492 -0.0012992430808843034 0 -0.030370913591204862 -0.00027272030871424325 0 -0.029749411860098492 -0.0012992430808843034 0 -0.03059278848012963 -0.0012086447070411344 0 -0.030453967760615794 -0.0010366365705298251 0 -0.029749411860098492 -0.0012992430808843034 0 -0.030668059811768584 -0.0011673570826989999 0 -0.031171449682318251 -0.0011052528613871742 0 -0.029628631595326051 -0.0016626550616426121 0 -0.029423570755782481 -0.0020908462892304902 0 -0.029749411860098492 -0.0012992430808843034 0 -0.030668059811768584 -0.0011673570826989999 0 -0.03059278848012963 -0.0012086447070411344 0 -0.030668059811768584 -0.0011673570826989999 0 -0.031171449682318251 -0.0011052528613871742 0 -0.031031259953269504 -0.00095607932644883582 0 -0.030668059811768584 -0.0011673570826989999 0 -0.030868754020665884 -0.0010302003462270089 0 -0.03059278848012963 -0.0012086447070411344 0 -0.030668059811768584 -0.0011673570826989999 0 -0.030868754020665884 -0.0010302003462270089 0 -0.031031259953269504 -0.00095607932644883582 0 -0.029749411860098492 -0.0012992430808843034 0 -0.028361490999843652 -0.0039963266205670185 0 -0.02722811859102392 -0.0024161470939307252 0 -0.028361490999843652 -0.0039963266205670185 0 -0.02722811859102392 -0.0024161470939307252 0 -0.026515471280639323 -0.0040572765070938013 0 -0.02518436906842169 -0.00051318389679722584 0 -0.025835012488013759 -0.0015902983758134923 0 -0.027222629311658041 9.1104241072208637e-05 0 -0.029749411860098492 -0.0012992430808843034 0 -0.02722811859102392 -0.0024161470939307252 0 -0.02722811859102392 -0.0024161470939307252 0 -0.024683861823705435 -0.0019165444040908748 0 -0.025654321332063641 -0.003135086048302095 0 -0.025665448439008733 9.1398149455032302e-05 0 -0.02722811859102392 -0.0024161470939307252 0 -0.024683861823705435 -0.0019165444040908748 0 -0.024683861823705435 -0.0019165444040908748 0 -0.022730108616122225 -0.0012526903607987378 0 -0.023130358235794766 -0.0026771987531732434 0 -0.023954977411628636 -0.00070969516514574624 0 -0.024683861823705435 -0.0019165444040908748 0 -0.022730108616122225 -0.0012526903607987378 0 -0.023130358235794766 -0.0026771987531732434 0 -0.024554591212033437 -0.0033564999420054786 0 -0.023532030440808892 -0.0040860880370889325 0 -0.024683861823705435 -0.0019165444040908748 0 -0.023130358235794766 -0.0026771987531732434 0 -0.024554591212033437 -0.0033564999420054786 0 -0.024554591212033437 -0.0033564999420054786 0 -0.024410987563722984 -0.0042229227634627891 0 -0.023532030440808892 -0.0040860880370889325 0 -0.022390668892687034 -0.0035826520638865909 0 -0.023130358235794766 -0.0026771987531732434 0 -0.023532030440808892 -0.0040860880370889325 0 -0.02722811859102392 -0.0024161470939307252 0 -0.025654321332063641 -0.003135086048302095 0 -0.026515471280639323 -0.0040572765070938013 0 -0.024683861823705435 -0.0019165444040908748 0 -0.024554591212033437 -0.0033564999420054786 0 -0.025654321332063641 -0.003135086048302095 0 -0.024554591212033437 -0.0033564999420054786 0 -0.025654321332063641 -0.003135086048302095 0 -0.02521039031532326 -0.0044118795151071649 0 -0.024554591212033437 -0.0033564999420054786 0 -0.024410987563722984 -0.0042229227634627891 0 -0.02521039031532326 -0.0044118795151071649 0 -0.025654321332063641 -0.003135086048302095 0 -0.026515471280639323 -0.0040572765070938013 0 -0.02521039031532326 -0.0044118795151071649 0 -0.026515471280639323 -0.0040572765070938013 0 -0.025869264098651767 -0.0050557371527552505 0 -0.02521039031532326 -0.0044118795151071649 0 -0.026515471280639323 -0.0040572765070938013 0 -0.025869264098651767 -0.0050557371527552505 0 -0.026755638744492563 -0.005327748231861257 0 -0.02521039031532326 -0.0044118795151071649 0 -0.025086398039307567 -0.0053874566850373416 0 -0.024211206577116551 -0.0049547249112287476 0 -0.025869264098651767 -0.0050557371527552505 0 -0.02521039031532326 -0.0044118795151071649 0 -0.025086398039307567 -0.0053874566850373416 0 -0.025869264098651767 -0.0050557371527552505 0 -0.025086398039307567 -0.0053874566850373416 0 -0.025749598801039532 -0.0058278032858112812 0 -0.025086398039307567 -0.0053874566850373416 0 -0.024397704465979234 -0.0058715450859918566 0 -0.025072119538910025 -0.0061840350693427911 0 -0.025086398039307567 -0.0053874566850373416 0 -0.025749598801039532 -0.0058278032858112812 0 -0.025072119538910025 -0.0061840350693427911 0 -0.025869264098651767 -0.0050557371527552505 0 -0.025749598801039532 -0.0058278032858112812 0 -0.026755638744492563 -0.005327748231861257 0 -0.025749598801039532 -0.0058278032858112812 0 -0.026267389177000788 -0.0062815569220554188 0 -0.026755638744492563 -0.005327748231861257 0 -0.022644095934193694 -0.0043454279157627484 0 -0.023532030440808892 -0.0040860880370889325 0 -0.023147335742499733 -0.0050194685515554012 0 -0.023532030440808892 -0.0040860880370889325 0 -0.023147335742499733 -0.0050194685515554012 0 -0.024211206577116551 -0.0049547249112287476 0 -0.024410987563722984 -0.0042229227634627891 0 -0.02521039031532326 -0.0044118795151071649 0 -0.024211206577116551 -0.0049547249112287476 0 -0.024410987563722984 -0.0042229227634627891 0 -0.023532030440808892 -0.0040860880370889325 0 -0.024211206577116551 -0.0049547249112287476 0 -0.024211206577116551 -0.0049547249112287476 0 -0.024397704465979234 -0.0058715450859918566 0 -0.023706869950882743 -0.0057224935332650445 0 -0.025086398039307567 -0.0053874566850373416 0 -0.024211206577116551 -0.0049547249112287476 0 -0.024397704465979234 -0.0058715450859918566 0 -0.023147335742499733 -0.0050194685515554012 0 -0.024211206577116551 -0.0049547249112287476 0 -0.023706869950882743 -0.0057224935332650445 0 -0.023007969105936867 -0.0058512124164771251 0 -0.023147335742499733 -0.0050194685515554012 0 -0.023706869950882743 -0.0057224935332650445 0 -0.024727663681390157 -0.0020944699789549256 0 -0.027782906753680576 -0.0017058059257114855 0 -0.022631175616385689 -0.0070637158486270219 0 -0.024436639588802631 -0.0072399653935157739 0 -0.023794027625280489 -0.0069294296435075302 0 -0.024927031616076994 -0.0002070040113184432 0 -0.02466489869936677 -0.00013430183769554195 0 -0.024872543031833078 -0.00013845828250080017 0 -0.022631175616385689 -0.0070637158486270219 0 -0.024436639588802631 -0.0072399653935157739 0 -0.025469063535313908 -0.0079922486506352371 0 -0.023253898614884843 -0.0066720915752968178 0 -0.02345694286853978 -0.0062502862882499828 0 -0.023733809657595705 -0.0066014389470259909 0 -0.023038363483415921 -0.006338587164082453 0 -0.023253898614884843 -0.0066720915752968178 0 -0.02345694286853978 -0.0062502862882499828 0 -0.023038363483415921 -0.006338587164082453 0 -0.023007969105936867 -0.0058512124164771251 0 -0.02345694286853978 -0.0062502862882499828 0 -0.023007969105936867 -0.0058512124164771251 0 -0.023706869950882743 -0.0057224935332650445 0 -0.02345694286853978 -0.0062502862882499828 0 -0.023706869950882743 -0.0057224935332650445 0 -0.02345694286853978 -0.0062502862882499828 0 -0.02400293028616949 -0.0063209359856333247 0 -0.023253898614884843 -0.0066720915752968178 0 -0.023733809657595705 -0.0066014389470259909 0 -0.023794027625280489 -0.0069294296435075302 0 -0.02345694286853978 -0.0062502862882499828 0 -0.023733809657595705 -0.0066014389470259909 0 -0.02400293028616949 -0.0063209359856333247 0 -0.023733809657595705 -0.0066014389470259909 0 -0.024062434754824936 -0.0066866087037554742 0 -0.023794027625280489 -0.0069294296435075302 0 -0.024062434754824936 -0.0066866087037554742 0 -0.02400293028616949 -0.0063209359856333247 0 -0.02448039047179534 -0.0066531256079314042 0 -0.024062434754824936 -0.0066866087037554742 0 -0.02448039047179534 -0.0066531256079314042 0 -0.024302153278287265 -0.0069285072390015343 0 -0.023733809657595705 -0.0066014389470259909 0 -0.024062434754824936 -0.0066866087037554742 0 -0.02400293028616949 -0.0063209359856333247 0 -0.024397704465979234 -0.0058715450859918566 0 -0.023706869950882743 -0.0057224935332650445 0 -0.02400293028616949 -0.0063209359856333247 0 -0.024397704465979234 -0.0058715450859918566 0 -0.02400293028616949 -0.0063209359856333247 0 -0.02448039047179534 -0.0066531256079314042 0 -0.024397704465979234 -0.0058715450859918566 0 -0.02448039047179534 -0.0066531256079314042 0 -0.025072119538910025 -0.0061840350693427911 0 -0.024651554594139632 -0.006993468025192618 0 -0.024436639588802631 -0.0072399653935157739 0 -0.024919771190156089 -0.0071572986141236082 0 -0.02448039047179534 -0.0066531256079314042 0 -0.024651554594139632 -0.006993468025192618 0 -0.025100321369943827 -0.0068637876279084324 0 -0.02448039047179534 -0.0066531256079314042 0 -0.024651554594139632 -0.006993468025192618 0 -0.024302153278287265 -0.0069285072390015343 0 -0.024651554594139632 -0.006993468025192618 0 -0.024436639588802631 -0.0072399653935157739 0 -0.024302153278287265 -0.0069285072390015343 0 -0.024436639588802631 -0.0072399653935157739 0 -0.024302153278287265 -0.0069285072390015343 0 -0.023794027625280489 -0.0069294296435075302 0 -0.024062434754824936 -0.0066866087037554742 0 -0.024302153278287265 -0.0069285072390015343 0 -0.023794027625280489 -0.0069294296435075302 0 -0.022631175616385689 -0.0070637158486270219 0 -0.023253898614884843 -0.0066720915752968178 0 -0.023794027625280489 -0.0069294296435075302 0 -0.026190251798465285 -0.0069716414114005115 0 -0.027052979861557802 -0.0062095727336771095 0 -0.026238306505333191 -0.0081954335289940779 0 -0.026267389177000788 -0.0062815569220554188 0 -0.026190251798465285 -0.0069716414114005115 0 -0.027052979861557802 -0.0062095727336771095 0 -0.025622510099777902 -0.0065415260799604087 0 -0.025570539595718141 -0.007065104018921374 0 -0.026190251798465285 -0.0069716414114005115 0 -0.026267389177000788 -0.0062815569220554188 0 -0.025622510099777902 -0.0065415260799604087 0 -0.026190251798465285 -0.0069716414114005115 0 -0.025749598801039532 -0.0058278032858112812 0 -0.026267389177000788 -0.0062815569220554188 0 -0.025622510099777902 -0.0065415260799604087 0 -0.025749598801039532 -0.0058278032858112812 0 -0.025072119538910025 -0.0061840350693427911 0 -0.025622510099777902 -0.0065415260799604087 0 -0.02448039047179534 -0.0066531256079314042 0 -0.025072119538910025 -0.0061840350693427911 0 -0.025100321369943827 -0.0068637876279084324 0 -0.025072119538910025 -0.0061840350693427911 0 -0.025622510099777902 -0.0065415260799604087 0 -0.025100321369943827 -0.0068637876279084324 0 -0.025622510099777902 -0.0065415260799604087 0 -0.025570539595718141 -0.007065104018921374 0 -0.025100321369943827 -0.0068637876279084324 0 -0.025570539595718141 -0.007065104018921374 0 -0.025247520088054108 -0.0071797806582509973 0 -0.025100321369943827 -0.0068637876279084324 0 -0.024436639588802631 -0.0072399653935157739 0 -0.025178459522580868 -0.0074817510512112202 0 -0.025469063535313908 -0.0079922486506352371 0 -0.025570539595718141 -0.007065104018921374 0 -0.025247520088054108 -0.0071797806582509973 0 -0.025494159266120624 -0.0074131785553026497 0 -0.024651554594139632 -0.006993468025192618 0 -0.025100321369943827 -0.0068637876279084324 0 -0.024919771190156089 -0.0071572986141236082 0 -0.025247520088054108 -0.0071797806582509973 0 -0.025100321369943827 -0.0068637876279084324 0 -0.024919771190156089 -0.0071572986141236082 0 -0.024436639588802631 -0.0072399653935157739 0 -0.024919771190156089 -0.0071572986141236082 0 -0.025178459522580868 -0.0074817510512112202 0 -0.025247520088054108 -0.0071797806582509973 0 -0.024919771190156089 -0.0071572986141236082 0 -0.025178459522580868 -0.0074817510512112202 0 -0.025570539595718141 -0.007065104018921374 0 -0.025494159266120624 -0.0074131785553026497 0 -0.025791170661011508 -0.0075208430524335828 0 -0.025178459522580868 -0.0074817510512112202 0 -0.025494159266120624 -0.0074131785553026497 0 -0.025469063535313908 -0.0079922486506352371 0 -0.025494159266120624 -0.0074131785553026497 0 -0.025791170661011508 -0.0075208430524335828 0 -0.025469063535313908 -0.0079922486506352371 0 -0.025247520088054108 -0.0071797806582509973 0 -0.025178459522580868 -0.0074817510512112202 0 -0.025494159266120624 -0.0074131785553026497 0 -0.025791170661011508 -0.0075208430524335828 0 -0.026190251798465285 -0.0069716414114005115 0 -0.026238306505333191 -0.0081954335289940779 0 -0.025570539595718141 -0.007065104018921374 0 -0.025791170661011508 -0.0075208430524335828 0 -0.026190251798465285 -0.0069716414114005115 0 -0.029038738107768084 -0.0024743915474279383 0 -0.028445589431589053 -0.0018764831208282454 0 -0.031708404282198739 -0.00057106868156142296 0 -0.031696831232087254 -0.00042526357305184073 0 -0.03134540442581258 -0.00073748660051296746 0 -0.029038738107768084 -0.0024743915474279383 0 -0.030114174733073158 -0.0015726527826062395 0 -0.031708404282198739 -0.00057106868156142296 0 -0.031696831232087254 -0.00042526357305184073 0 -0.031838367455930716 -0.00024876553114194159 0 -0.03134540442581258 -0.00073748660051296746 0 -0.031546286712353287 -0.00024265564940410413 0 -0.031369674652224504 -0.00041741709282866674 0 -0.031696831232087254 -0.00042526357305184073 0 -0.03134540442581258 -0.00073748660051296746 0 -0.031906408598235347 -0.00022351704944593864 0 -0.03134540442581258 -0.00073748660051296746 0 -0.031369674652224504 -0.00041741709282866674 0 -0.031218617343555001 -0.00061689951713130421 0 -0.031891221618378658 -0.00043321795540776143 0 -0.03199796487805133 -0.00023400781740670786 0 -0.03134540442581258 -0.00073748660051296746 0 -0.031086371319269071 -0.00083502918901341564 0 -0.031218617343555001 -0.00061689951713130421 0 -0.030868754020665884 -0.0010302003462270089 0 -0.031086371319269071 -0.00083502918901341564 0 -0.031031259953269504 -0.00095607932644883582 0 -0.031171449682318251 -0.0011052528613871742 0 -0.03134540442581258 -0.00073748660051296746 0 -0.031031259953269504 -0.00095607932644883582 0 -0.03134540442581258 -0.00073748660051296746 0 -0.031086371319269071 -0.00083502918901341564 0 -0.031031259953269504 -0.00095607932644883582 0 -0.029423570755782481 -0.0020908462892304902 0 -0.029038738107768084 -0.0024743915474279383 0 -0.031171449682318251 -0.0011052528613871742 0 -0.031708404282198739 -0.00057106868156142296 0 -0.03134540442581258 -0.00073748660051296746 0 -0.028361490999843652 -0.0039963266205670185 0 -0.027156839231164812 -0.0063934738152316576 0 -0.026755638744492563 -0.005327748231861257 0 -0.028361490999843652 -0.0039963266205670185 0 -0.026515471280639323 -0.0040572765070938013 0 -0.026755638744492563 -0.005327748231861257 0 -0.026267389177000788 -0.0062815569220554188 0 -0.027052979861557802 -0.0062095727336771095 0 -0.026755638744492563 -0.005327748231861257 0 -0.029038738107768084 -0.0024743915474279383 0 -0.029037495870102906 -0.0027897977076248807 0 -0.030057574331584565 -0.0013957094726645041 0 -0.030018217369805957 -0.0014825428436336492 0 -0.029969017804265686 -0.0013466249467651097 0 -0.030057574331584565 -0.0013957094726645041 0 -0.030028102162429609 -0.0013372028835816503 0 -0.029969017804265686 -0.0013466249467651097 0 -0.030057574331584565 -0.0013957094726645041 0 -0.030018217369805957 -0.0014825428436336492 0 -0.030067127484251919 -0.0014484928514822317 0 -0.030057574331584565 -0.0013957094726645041 0 -0.030067127484251919 -0.0014484928514822317 0 -0.03010407205339926 -0.0014233879642089975 0 -0.030057574331584565 -0.0013957094726645041 0 -0.030111479271845119 -0.0013717692447031175 0 -0.030090028959712401 -0.0013367515176172832 0 -0.030057574331584565 -0.0013957094726645041 0 -0.030028102162429609 -0.0013372028835816503 0 -0.030090028959712401 -0.0013367515176172832 0 -0.030057574331584565 -0.0013957094726645041 0 -0.03010407205339926 -0.0014233879642089975 0 -0.030111479271845119 -0.0013717692447031175 0 -0.032044846254307938 -0.00016179519196551155 0 -0.031906408598235347 -0.00022351704944593864 0 -0.032483748147748633 6.566673495337445e-05 0 -0.030114174733073158 -0.0015726527826062395 0 -0.031627189512625414 -0.001018284741060502 0 -0.032044846254307938 -0.00016179519196551155 0 -0.032360290282868936 3.6693801922029001e-05 0 -0.032483748147748633 6.566673495337445e-05 0 -0.032044846254307938 -0.00016179519196551155 0 -0.032139591066064441 -0.00019717306071021702 0 -0.032360290282868936 3.6693801922029001e-05 0 -0.03199796487805133 -0.00023400781740670786 0 -0.032295775609345427 1.377028255496444e-05 0 -0.032044846254307938 -0.00016179519196551155 0 -0.031906408598235347 -0.00022351704944593864 0 -0.031838367455930716 -0.00024876553114194159 0 -0.030389060771787234 -0.001551809134206698 0 -0.030114174733073158 -0.0015726527826062395 0 -0.031546286712353287 -0.00024265564940410413 0 -0.031369674652224504 -0.00041741709282866674 0 -0.031460648098315606 -0.00023332934843681757 0 -0.031696831232087254 -0.00042526357305184073 0 -0.031906408598235347 -0.00022351704944593864 0 -0.031838367455930716 -0.00024876553114194159 0 -0.029423759761783956 -0.0019916308649835499 0 -0.029194190267535162 -0.0014000186706888103 0 -0.029612351502182947 -0.0015225004451845459 0 -0.030018217369805957 -0.0014825428436336492 0 -0.030067127484251919 -0.0014484928514822317 0 -0.030113317347736465 -0.0015106216299556273 0 -0.030114174733073158 -0.0015726527826062395 0 -0.028445589431589053 -0.0018764831208282454 0 -0.030067127484251919 -0.0014484928514822317 0 -0.030113317347736465 -0.0015106216299556273 0 -0.03010407205339926 -0.0014233879642089975 0 -0.030080783311273191 -0.0015696578945085394 0 -0.030140157976986257 -0.001586201704755093 0 -0.030168048690473466 -0.0013805380558688418 0 -0.027782906753680576 -0.0017058059257114855 0 -0.028977952920970794 -0.0011462215993493685 0 -0.028445589431589053 -0.0018764831208282454 0 -0.027782906753680576 -0.0017058059257114855 0 -0.025791170661011508 -0.0075208430524335828 0 -0.026238306505333191 -0.0081954335289940779 0 -0.025469063535313908 -0.0079922486506352371 0 -0.02466489869936677 -0.00013430183769554195 0 -0.024872543031833078 -0.00013845828250080017 0 -0.02480113361853151 -4.1829355651129331e-05 0 -0.02466489869936677 -0.00013430183769554195 0 -0.02480113361853151 -4.1829355651129331e-05 0 -0.024774217906430075 0.0001402098420887163 0 -0.024872543031833078 -0.00013845828250080017 0 -0.02480113361853151 -4.1829355651129331e-05 0 -0.024889701892660418 -2.4306151712187247e-05 0 -0.02480113361853151 -4.1829355651129331e-05 0 -0.024774217906430075 0.0001402098420887163 0 -0.024889701892660418 -2.4306151712187247e-05 0 -0.024774217906430075 0.0001402098420887163 0 -0.024991495211251796 6.666598303341453e-05 0 -0.024889701892660418 -2.4306151712187247e-05 0 -0.028445589431589053 -0.0018764831208282454 0 -0.028950144242019867 -0.0014151597042804977 0 -0.030113317347736465 -0.0015106216299556273 0 -0.03010407205339926 -0.0014233879642089975 0 -0.030168048690473466 -0.0013805380558688418 0 -0.030140157976986257 -0.001586201704755093 0 -0.03023155807111292 -0.001379447814506582 0 -0.030168048690473466 -0.0013805380558688418 0 -0.03023155807111292 -0.001379447814506582 0 -0.030168048690473466 -0.0013805380558688418 0 -0.030167236465122045 -0.0013230876012788977 0 -0.030168048690473466 -0.0013805380558688418 0 -0.030111479271845119 -0.0013717692447031175 0 -0.030167236465122045 -0.0013230876012788977 0 -0.03010407205339926 -0.0014233879642089975 0 -0.030168048690473466 -0.0013805380558688418 0 -0.030111479271845119 -0.0013717692447031175 0 -0.030111479271845119 -0.0013717692447031175 0 -0.030167236465122045 -0.0013230876012788977 0 -0.030090028959712401 -0.0013367515176172832 0 -0.030167236465122045 -0.0013230876012788977 0 -0.030301106711327526 -0.0012129780595972162 0 -0.030115899025489796 -0.0012563645646965942 0 -0.030167236465122045 -0.0013230876012788977 0 -0.030115899025489796 -0.0012563645646965942 0 -0.030090028959712401 -0.0013367515176172832 0 -0.03023155807111292 -0.001379447814506582 0 -0.030167236465122045 -0.0013230876012788977 0 -0.030301106711327526 -0.0012129780595972162 0 -0.024774217906430075 0.0001402098420887163 0 -0.024894614219282445 0.00041465416492002927 0 -0.024999406591131281 0.00026417184989364152 0 -0.028977952920970794 -0.0011462215993493685 0 -0.03127088430346503 -0.00064266623264536019 0 -0.03127088430346503 -0.00064266623264536019 0 -0.032346852336942705 -0.00073173585079835772 0 -0.034979681231264888 -4.7656930850233766e-06 0 -0.034980896505881633 -5.2319460600069783e-06 0 -0.034984784862040312 -3.2435277915898984e-06 0 -0.034980896505881633 -5.2319460600069783e-06 0 -0.034982475862918611 -4.2245833351251563e-06 0 -0.034984784862040312 -3.2435277915898984e-06 0 -0.034980896505881633 -5.2319460600069783e-06 0 -0.034982475862918611 -4.2245833351251563e-06 0 -0.034978486792323453 -6.5720465676795923e-06 0 -0.034982475862918611 -4.2245833351251563e-06 0 -0.034984044003351283 -3.4964879802067005e-06 0 -0.034985781134017513 -2.9395273321439143e-06 0 -0.030115899025489796 -0.0012563645646965942 0 -0.030028102162429609 -0.0013372028835816503 0 -0.029950305751092803 -0.0012953805632095847 0 -0.032346852336942705 -0.00073173585079835772 0 -0.032324428338745423 -0.0010836200007857341 0 -0.030115899025489796 -0.0012563645646965942 0 -0.030028102162429609 -0.0013372028835816503 0 -0.030090028959712401 -0.0013367515176172832 0 -0.032360290282868936 3.6693801922029001e-05 0 -0.032509258846348935 1.3466918398522172e-05 0 -0.032483748147748633 6.566673495337445e-05 0 -0.031627189512625414 -0.001018284741060502 0 -0.032324428338745423 -0.0010836200007857341 0 -0.030028102162429609 -0.0013372028835816503 0 -0.029969017804265686 -0.0013466249467651097 0 -0.029950305751092803 -0.0012953805632095847 0 -0.034981100621535109 -4.4488190787640606e-06 0 -0.034985517679633441 -5.3390922676021634e-08 0 -0.034980483148201763 -3.6785003612606358e-06 0 -0.034978486792323453 -6.5720465676795923e-06 0 -0.034981100621535109 -4.4488190787640606e-06 0 -0.034980483148201763 -3.6785003612606358e-06 0 -0.034982475862918611 -4.2245833351251563e-06 0 -0.034978486792323453 -6.5720465676795923e-06 0 -0.034981100621535109 -4.4488190787640606e-06 0 -0.032324428338745423 -0.0010836200007857341 0 -0.032960305325715325 -0.00053809998026704993 0 -0.034981100621535109 -4.4488190787640606e-06 0 -0.034984044003351283 -3.4964879802067005e-06 0 -0.034986219193087205 -2.766177021032243e-06 0 -0.034982475862918611 -4.2245833351251563e-06 0 -0.034981100621535109 -4.4488190787640606e-06 0 -0.034984044003351283 -3.4964879802067005e-06 0 -0.034989586510776785 -2.0124876662178257e-06 0 -0.034991191469633386 -1.0578892160587948e-06 0 -0.034981100621535109 -4.4488190787640606e-06 0 -0.034986219193087205 -2.766177021032243e-06 0 -0.034988652889408611 -2.0746241296782593e-06 0 -0.034984044003351283 -3.4964879802067005e-06 0 -0.034986219193087205 -2.766177021032243e-06 0 -0.034985781134017513 -2.9395273321439143e-06 0 -0.034986219193087205 -2.766177021032243e-06 0 -0.034985781134017513 -2.9395273321439143e-06 0 -0.034988859108097008 -2.0962020134227232e-06 0 -0.034986219193087205 -2.766177021032243e-06 0 -0.034988652889408611 -2.0746241296782593e-06 0 -0.034988859108097008 -2.0962020134227232e-06 0 -0.034985781134017513 -2.9395273321439143e-06 0 -0.034988423983435879 -2.1672105604086883e-06 0 -0.034984784862040312 -3.2435277915898984e-06 0 -0.034982475862918611 -4.2245833351251563e-06 0 -0.034985781134017513 -2.9395273321439143e-06 0 -0.034984784862040312 -3.2435277915898984e-06 0 -0.034985781134017513 -2.9395273321439143e-06 0 -0.034988423983435879 -2.1672105604086883e-06 0 -0.034988859108097008 -2.0962020134227232e-06 0 -0.034988423983435879 -2.1672105604086883e-06 0 -0.034991619319305028 -1.5354731509061651e-06 0 -0.034989904866525347 -1.6149321762151214e-06 0 -0.034988423983435879 -2.1672105604086883e-06 0 -0.034991619319305028 -1.5354731509061651e-06 0 -0.034988859108097008 -2.0962020134227232e-06 0 -0.034988652889408611 -2.0746241296782593e-06 0 -0.034992007707628663 -1.5147177443105238e-06 0 -0.034994951066257364 -1.0543873504588563e-06 0 -0.034988652889408611 -2.0746241296782593e-06 0 -0.034988859108097008 -2.0962020134227232e-06 0 -0.034992007707628663 -1.5147177443105238e-06 0 -0.034991619319305028 -1.5354731509061651e-06 0 -0.034988859108097008 -2.0962020134227232e-06 0 -0.034992007707628663 -1.5147177443105238e-06 0 -0.034991619319305028 -1.5354731509061651e-06 0 -0.034992007707628663 -1.5147177443105238e-06 0 -0.034996087314781883 -8.4314490590841242e-07 0 -0.034992007707628663 -1.5147177443105238e-06 0 -0.034996087314781883 -8.4314490590841242e-07 0 -0.034994951066257364 -1.0543873504588563e-06 0 -0.034991619319305028 -1.5354731509061651e-06 0 -0.034996087314781883 -8.4314490590841242e-07 0 -0.03499519663288822 -8.4425331526345569e-07 0 -0.034991619319305028 -1.5354731509061651e-06 0 -0.03499519663288822 -8.4425331526345569e-07 0 -0.034989904866525347 -1.6149321762151214e-06 0 -0.034999992435996746 -1.0428250939131355e-09 0 -0.034999994394728201 1.0238213338600024e-10 0 -0.03499519663288822 -8.4425331526345569e-07 0 -0.034996087314781883 -8.4314490590841242e-07 0 -0.034999992435996746 -1.0428250939131355e-09 0 -0.03499519663288822 -8.4425331526345569e-07 0 -0.034996087314781883 -8.4314490590841242e-07 0 -0.034999992435996746 -1.0428250939131355e-09 0 -0.034999995881254624 -5.7939348866284852e-10 0 -0.034999994394728201 1.0238213338600024e-10 0 -0.034992788700314886 -6.5033977912058025e-07 0 -0.034999985084724961 -3.7519146182498596e-09 0 -0.034999994394728201 1.0238213338600024e-10 0 -0.03499519663288822 -8.4425331526345569e-07 0 -0.034992788700314886 -6.5033977912058025e-07 0 -0.03499519663288822 -8.4425331526345569e-07 0 -0.034992788700314886 -6.5033977912058025e-07 0 -0.034989904866525347 -1.6149321762151214e-06 0 -0.034992788700314886 -6.5033977912058025e-07 0 -0.034986566354285945 -1.8131624145101515e-06 0 -0.034985914724697115 -4.7491935650419484e-07 0 -0.034992788700314886 -6.5033977912058025e-07 0 -0.034989904866525347 -1.6149321762151214e-06 0 -0.034986566354285945 -1.8131624145101515e-06 0 -0.034989904866525347 -1.6149321762151214e-06 0 -0.034984784862040312 -3.2435277915898984e-06 0 -0.034986566354285945 -1.8131624145101515e-06 0 -0.034988423983435879 -2.1672105604086883e-06 0 -0.034989904866525347 -1.6149321762151214e-06 0 -0.034984784862040312 -3.2435277915898984e-06 0 -0.034979681231264888 -4.7656930850233766e-06 0 -0.034984784862040312 -3.2435277915898984e-06 0 -0.034986566354285945 -1.8131624145101515e-06 0 -0.03491290241290558 -5.3839109922679883e-05 0 -0.034945128553116434 -1.5360268848205785e-05 0 -0.034956661975755893 -3.9313596160336437e-05 0 -0.034979681231264888 -4.7656930850233766e-06 0 -0.034986566354285945 -1.8131624145101515e-06 0 -0.034985914724697115 -4.7491935650419484e-07 0 -0.03127088430346503 -0.00064266623264536019 0 -0.033398861556708827 0.000309204457589781 0 -0.034945128553116434 -1.5360268848205785e-05 0 -0.034975999950836105 -1.0599692471339176e-05 0 -0.034956661975755893 -3.9313596160336437e-05 0 -0.033398861556708827 0.000309204457589781 0 -0.033879942146466113 0.000352374654796902 0 -0.034945128553116434 -1.5360268848205785e-05 0 -0.034986364221987733 1.2112406812703604e-07 0 -0.034975999950836105 -1.0599692471339176e-05 0 -0.034992788700314886 -6.5033977912058025e-07 0 -0.034985914724697115 -4.7491935650419484e-07 0 -0.034986364221987733 1.2112406812703604e-07 0 -0.034986364221987733 1.2112406812703604e-07 0 -0.034999985084724961 -3.7519146182498596e-09 0 -0.034999981754165972 1.1530244366309324e-09 0 -0.034992788700314886 -6.5033977912058025e-07 0 -0.034986364221987733 1.2112406812703604e-07 0 -0.034999985084724961 -3.7519146182498596e-09 0 -0.034999981754165972 1.1530244366309324e-09 0 -0.034990663197052317 -1.4306032043668602e-06 0 -0.034999989603971764 -1.2170513268578428e-09 0 -0.034986364221987733 1.2112406812703604e-07 0 -0.034999981754165972 1.1530244366309324e-09 0 -0.034990663197052317 -1.4306032043668602e-06 0 -0.034990663197052317 -1.4306032043668602e-06 0 -0.034987305978238889 -5.3127002691841323e-06 0 -0.034975999950836105 -1.0599692471339176e-05 0 -0.034986364221987733 1.2112406812703604e-07 0 -0.034990663197052317 -1.4306032043668602e-06 0 -0.034975999950836105 -1.0599692471339176e-05 0 -0.034990663197052317 -1.4306032043668602e-06 0 -0.034987305978238889 -5.3127002691841323e-06 0 -0.034999989603971764 -1.2170513268578428e-09 0 -0.034987305978238889 -5.3127002691841323e-06 0 -0.034976608208182845 -2.1958139944551938e-05 0 -0.034985674228793291 -8.7014026162792477e-06 0 -0.034987305978238889 -5.3127002691841323e-06 0 -0.034975999950836105 -1.0599692471339176e-05 0 -0.034976608208182845 -2.1958139944551938e-05 0 -0.034975999950836105 -1.0599692471339176e-05 0 -0.034976608208182845 -2.1958139944551938e-05 0 -0.034956661975755893 -3.9313596160336437e-05 0 -0.025430197560069968 0.00055787920613356416 0 -0.025372116480507845 0.00031649365854610501 0 -0.025599850382815689 0.00040307743580106841 0 -0.025527595349689756 0.00018698934606632247 0 -0.02568831840245734 7.8652244679433051e-05 0 -0.025372116480507845 0.00031649365854610501 0 -0.025381567991068124 0.00014135847929203885 0 -0.025689093834269962 0.0001266432047949754 0 -0.025372116480507845 0.00031649365854610501 0 -0.025162962133371963 0.00021689364958172038 0 -0.025381567991068124 0.00014135847929203885 0 -0.025372116480507845 0.00031649365854610501 0 -0.025170275805388817 0.00047785946325593559 0 -0.025162962133371963 0.00021689364958172038 0 -0.025430197560069968 0.00055787920613356416 0 -0.025372116480507845 0.00031649365854610501 0 -0.025170275805388817 0.00047785946325593559 0 -0.030235691489523507 0.00015161167665727661 0 -0.030339238682106508 -0.00017530855624799634 0 -0.03127088430346503 -0.00064266623264536019 0 -0.030339238682106508 -0.00017530855624799634 0 -0.024894614219282445 0.00041465416492002927 0 -0.025170275805388817 0.00047785946325593559 0 -0.024999406591131281 0.00026417184989364152 0 -0.025170275805388817 0.00047785946325593559 0 -0.024999406591131281 0.00026417184989364152 0 -0.025162962133371963 0.00021689364958172038 0 -0.025162962133371963 0.00021689364958172038 0 -0.025129101457441641 4.7149960762867991e-05 0 -0.025262850070382693 3.0217128883854685e-05 0 -0.025162962133371963 0.00021689364958172038 0 -0.025129101457441641 4.7149960762867991e-05 0 -0.024991495211251796 6.666598303341453e-05 0 -0.025129101457441641 4.7149960762867991e-05 0 -0.024991495211251796 6.666598303341453e-05 0 -0.02505998547005555 -6.6177450729481137e-05 0 -0.025129101457441641 4.7149960762867991e-05 0 -0.025162887380009168 -3.534814788091458e-05 0 -0.025262850070382693 3.0217128883854685e-05 0 -0.024999406591131281 0.00026417184989364152 0 -0.025162962133371963 0.00021689364958172038 0 -0.024991495211251796 6.666598303341453e-05 0 -0.024774217906430075 0.0001402098420887163 0 -0.024999406591131281 0.00026417184989364152 0 -0.024991495211251796 6.666598303341453e-05 0 -0.024991495211251796 6.666598303341453e-05 0 -0.024889701892660418 -2.4306151712187247e-05 0 -0.024970628825668688 -5.3706771448224539e-05 0 -0.024889701892660418 -2.4306151712187247e-05 0 -0.024970628825668688 -5.3706771448224539e-05 0 -0.024928984417413709 -0.00011548653264643894 0 -0.024991495211251796 6.666598303341453e-05 0 -0.024970628825668688 -5.3706771448224539e-05 0 -0.02505998547005555 -6.6177450729481137e-05 0 -0.024970628825668688 -5.3706771448224539e-05 0 -0.02498816522882006 -0.00012526931799848853 0 -0.02505998547005555 -6.6177450729481137e-05 0 -0.025043625784456756 -0.00015460624831944709 0 -0.02498816522882006 -0.00012526931799848853 0 -0.02505998547005555 -6.6177450729481137e-05 0 -0.025043625784456756 -0.00015460624831944709 0 -0.025009309990945749 -0.00016235973366285803 0 -0.02498816522882006 -0.00012526931799848853 0 -0.02494769960614281 -0.00017738735580825917 0 -0.025009309990945749 -0.00016235973366285803 0 -0.02498816522882006 -0.00012526931799848853 0 -0.024872543031833078 -0.00013845828250080017 0 -0.024889701892660418 -2.4306151712187247e-05 0 -0.024928984417413709 -0.00011548653264643894 0 -0.024970628825668688 -5.3706771448224539e-05 0 -0.02498816522882006 -0.00012526931799848853 0 -0.024928984417413709 -0.00011548653264643894 0 -0.02494769960614281 -0.00017738735580825917 0 -0.02498816522882006 -0.00012526931799848853 0 -0.024928984417413709 -0.00011548653264643894 0 -0.024918997038274011 -0.00016054704895822943 0 -0.02494769960614281 -0.00017738735580825917 0 -0.024928984417413709 -0.00011548653264643894 0 -0.024918997038274011 -0.00016054704895822943 0 -0.024872543031833078 -0.00013845828250080017 0 -0.024928984417413709 -0.00011548653264643894 0 -0.025162887380009168 -3.534814788091458e-05 0 -0.025135919709020273 -0.00011204962267536374 0 -0.025226939655714715 -7.6168419792403333e-05 0 -0.025129101457441641 4.7149960762867991e-05 0 -0.025162887380009168 -3.534814788091458e-05 0 -0.02505998547005555 -6.6177450729481137e-05 0 -0.025162887380009168 -3.534814788091458e-05 0 -0.02505998547005555 -6.6177450729481137e-05 0 -0.025135919709020273 -0.00011204962267536374 0 -0.025043625784456756 -0.00015460624831944709 0 -0.02505998547005555 -6.6177450729481137e-05 0 -0.025084049349482714 -0.0001219904801315162 0 -0.02505998547005555 -6.6177450729481137e-05 0 -0.025084049349482714 -0.0001219904801315162 0 -0.025135919709020273 -0.00011204962267536374 0 -0.025043625784456756 -0.00015460624831944709 0 -0.025084049349482714 -0.0001219904801315162 0 -0.025100330109733761 -0.00016092772315055075 0 -0.025084049349482714 -0.0001219904801315162 0 -0.025100330109733761 -0.00016092772315055075 0 -0.025135919709020273 -0.00011204962267536374 0 -0.025156970038489077 -0.00017930579577795229 0 -0.025135919709020273 -0.00011204962267536374 0 -0.025194592710573095 -0.00014523988545939414 0 -0.025135919709020273 -0.00011204962267536374 0 -0.025194592710573095 -0.00014523988545939414 0 -0.025226939655714715 -7.6168419792403333e-05 0 -0.025156970038489077 -0.00017930579577795229 0 -0.025100330109733761 -0.00016092772315055075 0 -0.025135919709020273 -0.00011204962267536374 0 -0.025340711952638234 -9.7965201110789834e-05 0 -0.025457856513742803 9.7585195822122706e-06 0 -0.025262850070382693 3.0217128883854685e-05 0 -0.025251930932940023 -0.00016679890335612077 0 -0.025194592710573095 -0.00014523988545939414 0 -0.025226939655714715 -7.6168419792403333e-05 0 -0.025251930932940023 -0.00016679890335612077 0 -0.025226939655714715 -7.6168419792403333e-05 0 -0.025340711952638234 -9.7965201110789834e-05 0 -0.025226939655714715 -7.6168419792403333e-05 0 -0.025340711952638234 -9.7965201110789834e-05 0 -0.025262850070382693 3.0217128883854685e-05 0 -0.025162887380009168 -3.534814788091458e-05 0 -0.025226939655714715 -7.6168419792403333e-05 0 -0.025262850070382693 3.0217128883854685e-05 0 -0.025339759046293944 -0.00019769323901847516 0 -0.025251930932940023 -0.00016679890335612077 0 -0.025340711952638234 -9.7965201110789834e-05 0 -0.025503678377739869 -0.00017942074247348348 0 -0.025340711952638234 -9.7965201110789834e-05 0 -0.025457856513742803 9.7585195822122706e-06 0 -0.025503678377739869 -0.00017942074247348348 0 -0.025457856513742803 9.7585195822122706e-06 0 -0.025689093834269962 0.0001266432047949754 0 -0.025503678377739869 -0.00017942074247348348 0 -0.025339759046293944 -0.00019769323901847516 0 -0.025340711952638234 -9.7965201110789834e-05 0 -0.025457856513742803 9.7585195822122706e-06 0 -0.025381567991068124 0.00014135847929203885 0 -0.025689093834269962 0.0001266432047949754 0 -0.025457856513742803 9.7585195822122706e-06 0 -0.025381567991068124 0.00014135847929203885 0 -0.025262850070382693 3.0217128883854685e-05 0 -0.025162962133371963 0.00021689364958172038 0 -0.025381567991068124 0.00014135847929203885 0 -0.025262850070382693 3.0217128883854685e-05 0 -0.02568831840245734 7.8652244679433051e-05 0 -0.025956177289362999 -0.00010267680284220165 0 -0.025616974896642251 9.3462364612410367e-05 0 -0.026003512742679667 -0.00020746485675020052 0 -0.025867635512289756 0.00028270918090656335 0 -0.025790786890711011 -0.00019420448797226436 0 -0.025503678377739869 -0.00017942074247348348 0 -0.025689093834269962 0.0001266432047949754 0 -0.025790786890711011 -0.00019420448797226436 0 -0.025689093834269962 0.0001266432047949754 0 -0.025980778935637116 -7.1097713331581358e-05 0 -0.026103949823489781 -0.00020131067749962894 0 -0.025956177289362999 -0.00010267680284220165 0 -0.026258059667083371 -0.00032040710563057057 0 -0.026003512742679667 -0.00020746485675020052 0 -0.026260397663125074 -0.00018333836171936243 0 -0.026260397663125074 -0.00018333836171936243 0 -0.026161867245149979 4.757694155319299e-05 0 -0.026393211592661784 -7.3441703280374221e-05 0 -0.026161867245149979 4.757694155319299e-05 0 -0.026332232572132769 0.00018430489532108915 0 -0.026393211592661784 -7.3441703280374221e-05 0 -0.026003512742679667 -0.00020746485675020052 0 -0.026260397663125074 -0.00018333836171936243 0 -0.026161867245149979 4.757694155319299e-05 0 -0.026003512742679667 -0.00020746485675020052 0 -0.026161867245149979 4.757694155319299e-05 0 -0.025867635512289756 0.00028270918090656335 0 -0.026161867245149979 4.757694155319299e-05 0 -0.026156999067101783 0.00039721320825444244 0 -0.025867635512289756 0.00028270918090656335 0 -0.026161867245149979 4.757694155319299e-05 0 -0.026332232572132769 0.00018430489532108915 0 -0.026156999067101783 0.00039721320825444244 0 -0.026332232572132769 0.00018430489532108915 0 -0.026156999067101783 0.00039721320825444244 0 -0.026477680539621802 0.00042099779856166633 0 -0.026156999067101783 0.00039721320825444244 0 -0.026407183906148622 0.00076442401631564598 0 -0.026477680539621802 0.00042099779856166633 0 -0.026156999067101783 0.00039721320825444244 0 -0.026407183906148622 0.00076442401631564598 0 -0.026108436305414998 0.00070797622826416769 0 -0.026156999067101783 0.00039721320825444244 0 -0.025948302444842565 0.00050990626050199798 0 -0.025867635512289756 0.00028270918090656335 0 -0.026156999067101783 0.00039721320825444244 0 -0.025948302444842565 0.00050990626050199798 0 -0.026108436305414998 0.00070797622826416769 0 -0.025948302444842565 0.00050990626050199798 0 -0.026108436305414998 0.00070797622826416769 0 -0.025886439461633458 0.00069120818756870028 0 -0.025798080829549597 0.00051653051621123821 0 -0.025599850382815689 0.00040307743580106841 0 -0.025724218167345238 0.00069343142205331428 0 -0.025798080829549597 0.00051653051621123821 0 -0.025867635512289756 0.00028270918090656335 0 -0.025599850382815689 0.00040307743580106841 0 -0.025948302444842565 0.00050990626050199798 0 -0.025798080829549597 0.00051653051621123821 0 -0.025886439461633458 0.00069120818756870028 0 -0.025948302444842565 0.00050990626050199798 0 -0.025798080829549597 0.00051653051621123821 0 -0.025867635512289756 0.00028270918090656335 0 -0.025372116480507845 0.00031649365854610501 0 -0.025616974896642251 9.3462364612410367e-05 0 -0.025599850382815689 0.00040307743580106841 0 -0.025616974896642251 9.3462364612410367e-05 0 -0.025867635512289756 0.00028270918090656335 0 -0.025599850382815689 0.00040307743580106841 0 -0.025430197560069968 0.00055787920613356416 0 -0.025599850382815689 0.00040307743580106841 0 -0.025724218167345238 0.00069343142205331428 0 -0.030235691489523507 0.00015161167665727661 0 -0.030139777178789743 0.00039580610432784954 0 -0.034976608208182845 -2.1958139944551938e-05 0 -0.034980462270445871 -1.0596534605232433e-05 0 -0.034985674228793291 -8.7014026162792477e-06 0 -0.034980462270445871 -1.0596534605232433e-05 0 -0.034985077168645205 -6.0083847484587726e-06 0 -0.034979064529669757 -4.2458171430141108e-06 0 -0.030139777178789743 0.00039580610432784954 0 -0.029187435437926706 0.00053956970880941345 0 -0.025798080829549597 0.00051653051621123821 0 -0.025724218167345238 0.00069343142205331428 0 -0.025886439461633458 0.00069120818756870028 0 -0.034980462270445871 -1.0596534605232433e-05 0 -0.034985077168645205 -6.0083847484587726e-06 0 -0.034985674228793291 -8.7014026162792477e-06 0 -0.034985077168645205 -6.0083847484587726e-06 0 -0.034985674228793291 -8.7014026162792477e-06 0 -0.03499205551091044 -3.6467425575579989e-06 0 -0.034987305978238889 -5.3127002691841323e-06 0 -0.034985674228793291 -8.7014026162792477e-06 0 -0.03499205551091044 -3.6467425575579989e-06 0 -0.034987305978238889 -5.3127002691841323e-06 0 -0.03499205551091044 -3.6467425575579989e-06 0 -0.034999989603971764 -1.2170513268578428e-09 0 -0.03499205551091044 -3.6467425575579989e-06 0 -0.034999993479095465 -1.6632294531300981e-09 0 -0.034989612136478589 -3.1155348253445451e-06 0 -0.034985077168645205 -6.0083847484587726e-06 0 -0.03499205551091044 -3.6467425575579989e-06 0 -0.034989612136478589 -3.1155348253445451e-06 0 -0.03499205551091044 -3.6467425575579989e-06 0 -0.034999993479095465 -1.6632294531300981e-09 0 -0.034999989603971764 -1.2170513268578428e-09 0 -0.034993276730957035 -1.8685524680866247e-06 0 -0.034999975193531679 -6.8177591297684439e-09 0 -0.034986795636458741 -2.196479368133576e-06 0 -0.034997034041696164 -1.1021110890991629e-06 0 -0.033669752461764478 -0.00011211553215574217 0 -0.034999993479095465 -1.6632294531300981e-09 0 -0.034993276730957035 -1.8685524680866247e-06 0 -0.034989612136478589 -3.1155348253445451e-06 0 -0.034999993479095465 -1.6632294531300981e-09 0 -0.034993276730957035 -1.8685524680866247e-06 0 -0.034999975193531679 -6.8177591297684439e-09 0 -0.034993276730957035 -1.8685524680866247e-06 0 -0.034986410864200707 -1.3138543389857918e-06 0 -0.034986795636458741 -2.196479368133576e-06 0 -0.034989612136478589 -3.1155348253445451e-06 0 -0.034986410864200707 -1.3138543389857918e-06 0 -0.034980811724477673 -7.0725092759002733e-07 0 -0.034993276730957035 -1.8685524680866247e-06 0 -0.034989612136478589 -3.1155348253445451e-06 0 -0.034986410864200707 -1.3138543389857918e-06 0 -0.030552072711742574 0.0005199826497995707 0 -0.029187435437926706 0.00053956970880941345 0 -0.034989612136478589 -3.1155348253445451e-06 0 -0.034980811724477673 -7.0725092759002733e-07 0 -0.034979064529669757 -4.2458171430141108e-06 0 -0.026444317844439225 0.0014453201287602448 0 -0.025962761574297954 0.0010997771441661486 0 -0.026449573443496445 0.0012025750960144496 0 -0.034985077168645205 -6.0083847484587726e-06 0 -0.034989612136478589 -3.1155348253445451e-06 0 -0.034979064529669757 -4.2458171430141108e-06 0 -0.025724218167345238 0.00069343142205331428 0 -0.02605163474920073 0.00082516641766018086 0 -0.025886439461633458 0.00069120818756870028 0 -0.026108436305414998 0.00070797622826416769 0 -0.026084244057808386 0.00098214280503492574 0 -0.025886439461633458 0.00069120818756870028 0 -0.029187435437926706 0.00053956970880941345 0 -0.028409651154028763 0.00024731507651368006 0 -0.026084244057808386 0.00098214280503492574 0 -0.026449573443496445 0.0012025750960144496 0 -0.026294286510038293 0.00093006471985261857 0 -0.029187435437926706 0.00053956970880941345 0 -0.028263609966128388 0.00048309585338345023 0 -0.026449573443496445 0.0012025750960144496 0 -0.026294286510038293 0.00093006471985261857 0 -0.026492094605403384 0.0010151162444884576 0 -0.026108436305414998 0.00070797622826416769 0 -0.026084244057808386 0.00098214280503492574 0 -0.026294286510038293 0.00093006471985261857 0 -0.026407183906148622 0.00076442401631564598 0 -0.026108436305414998 0.00070797622826416769 0 -0.026294286510038293 0.00093006471985261857 0 -0.026407183906148622 0.00076442401631564598 0 -0.026294286510038293 0.00093006471985261857 0 -0.026492094605403384 0.0010151162444884576 0 -0.026407183906148622 0.00076442401631564598 0 -0.026492094605403384 0.0010151162444884576 0 -0.026693905269295722 0.0010072189460186825 0 -0.026407183906148622 0.00076442401631564598 0 -0.026693905269295722 0.0010072189460186825 0 -0.026741580914985529 0.0007123645446867723 0 -0.026693905269295722 0.0010072189460186825 0 -0.026977077265379103 0.00098456623524592157 0 -0.026741580914985529 0.0007123645446867723 0 -0.026693905269295722 0.0010072189460186825 0 -0.026898124054205858 0.0013090664302466617 0 -0.026648805477941455 0.001251733910506045 0 -0.026693905269295722 0.0010072189460186825 0 -0.026898124054205858 0.0013090664302466617 0 -0.026977077265379103 0.00098456623524592157 0 -0.026492094605403384 0.0010151162444884576 0 -0.026693905269295722 0.0010072189460186825 0 -0.026648805477941455 0.001251733910506045 0 -0.026449573443496445 0.0012025750960144496 0 -0.026492094605403384 0.0010151162444884576 0 -0.026648805477941455 0.001251733910506045 0 -0.026898124054205858 0.0013090664302466617 0 -0.027420905408815588 0.0012181780134133714 0 -0.026977077265379103 0.00098456623524592157 0 -0.027420905408815588 0.0012181780134133714 0 -0.026977077265379103 0.00098456623524592157 0 -0.027188783270649223 0.00064981282416466646 0 -0.032019522580021227 0.00025660606992363762 0 -0.031992525195995387 0.00017350738482496876 0 -0.026898124054205858 0.0013090664302466617 0 -0.027420905408815588 0.0012181780134133714 0 -0.026883679738786619 0.0017518663681788146 0 -0.030353477947176445 -0.0010534561864790047 0 -0.030222303590020348 -0.0011414813845027083 0 -0.02969786665864875 -0.00083552794172465548 0 -0.02980449712701386 -0.00027522992321901338 0 -0.030353477947176445 -0.0010534561864790047 0 -0.02969786665864875 -0.00083552794172465548 0 -0.029779168110048812 0.00070902308310886498 0 -0.031624083857000287 0.00027491514397288974 0 -0.030552072711742574 0.0005199826497995707 0 -0.031624083857000287 0.00027491514397288974 0 -0.026444317844439225 0.0014453201287602448 0 -0.026730412120302787 0.001464071370150747 0 -0.026883679738786619 0.0017518663681788146 0 -0.034986410864200707 -1.3138543389857918e-06 0 -0.034980811724477673 -7.0725092759002733e-07 0 -0.034977477104742534 5.9563460974863772e-07 0 -0.026898124054205858 0.0013090664302466617 0 -0.026730412120302787 0.001464071370150747 0 -0.026883679738786619 0.0017518663681788146 0 -0.026444317844439225 0.0014453201287602448 0 -0.026648805477941455 0.001251733910506045 0 -0.026730412120302787 0.001464071370150747 0 -0.026444317844439225 0.0014453201287602448 0 -0.026449573443496445 0.0012025750960144496 0 -0.026648805477941455 0.001251733910506045 0 -0.026898124054205858 0.0013090664302466617 0 -0.026648805477941455 0.001251733910506045 0 -0.026730412120302787 0.001464071370150747 0 -0.034986410864200707 -1.3138543389857918e-06 0 -0.034977477104742534 5.9563460974863772e-07 0 -0.034986795636458741 -2.196479368133576e-06 0 -0.034993588695130036 4.0622961725315811e-06 0 -0.034989912812542566 6.6740498352492611e-06 0 -0.034996516669948567 2.5248839543579809e-06 0 -0.031624083857000287 0.00027491514397288974 0 -0.033669752461764478 -0.00011211553215574217 0 -0.034989044082588905 8.7103682360200756e-06 0 -0.034989912812542566 6.6740498352492611e-06 0 -0.034996516669948567 2.5248839543579809e-06 0 -0.032882612548701694 9.5954950156052704e-06 0 -0.03254915872960415 -0.00021366475812803712 0 -0.03239796066094279 0.00029649491509319866 0 -0.031624083857000287 0.00027491514397288974 0 -0.032019522580021227 0.00025660606992363762 0 -0.034989044082588905 8.7103682360200756e-06 0 -0.034989912812542566 6.6740498352492611e-06 0 -0.034986198368303072 7.9153867307695358e-06 0 -0.034989912812542566 6.6740498352492611e-06 0 -0.034989629569501406 7.1009296902267227e-06 0 -0.034991662548896463 5.1207515812020629e-06 0 -0.032060928531475505 0.00023848193939700313 0 -0.032019522580021227 0.00025660606992363762 0 -0.032019522580021227 0.00025660606992363762 0 -0.033223585403020103 0.00029977572743717691 0 -0.034989629569501406 7.1009296902267227e-06 0 -0.03498878674208885 5.073279532627344e-06 0 -0.034991662548896463 5.1207515812020629e-06 0 -0.034993588695130036 4.0622961725315811e-06 0 -0.034991662548896463 5.1207515812020629e-06 0 -0.034995625557882472 2.2955677444665699e-06 0 -0.03498878674208885 5.073279532627344e-06 0 -0.034991662548896463 5.1207515812020629e-06 0 -0.034995625557882472 2.2955677444665699e-06 0 -0.034993588695130036 4.0622961725315811e-06 0 -0.034989912812542566 6.6740498352492611e-06 0 -0.034991662548896463 5.1207515812020629e-06 0 -0.03498878674208885 5.073279532627344e-06 0 -0.034995625557882472 2.2955677444665699e-06 0 -0.034999973255163949 3.1868138406920319e-09 0 -0.033223585403020103 0.00029977572743717691 0 -0.034996180937796932 -3.2369372093501405e-07 0 -0.035000006801286149 -4.0165262046073034e-10 0 -0.034995625557882472 2.2955677444665699e-06 0 -0.034999973255163949 3.1868138406920319e-09 0 -0.035000006801286149 -4.0165262046073034e-10 0 -0.034995625557882472 2.2955677444665699e-06 0 -0.034996516669948567 2.5248839543579809e-06 0 -0.034993588695130036 4.0622961725315811e-06 0 -0.034995625557882472 2.2955677444665699e-06 0 -0.034996516669948567 2.5248839543579809e-06 0 -0.035000684783357307 1.8643734687089257e-07 0 -0.034997675784763281 -3.4585250701897728e-07 0 -0.034885950325671371 6.8578110342673446e-06 0 -0.034997675784763281 -3.4585250701897728e-07 0 -0.033446487306806626 -0.00014128617852923834 0 -0.031287297302261076 5.0704401003133626e-07 0 -0.034997675784763281 -3.4585250701897728e-07 0 -0.034885950325671371 6.8578110342673446e-06 0 -0.033446487306806626 -0.00014128617852923834 0 -0.034885950325671371 6.8578110342673446e-06 0 -0.03370886393200357 1.5181808838519235e-07 0 -0.033446487306806626 -0.00014128617852923834 0 -0.033801437380669937 0.00034581639557326889 0 -0.033654477576537924 0.00033801161868216565 0 -0.03497604911374981 7.0634416332248585e-05 0 -0.035000684783357307 1.8643734687089257e-07 0 -0.034931561913477779 3.9383508887458396e-05 0 -0.035000684783357307 1.8643734687089257e-07 0 -0.034885950325671371 6.8578110342673446e-06 0 -0.034931561913477779 3.9383508887458396e-05 0 -0.033223585403020103 0.00029977572743717691 0 -0.033654477576537924 0.00033801161868216565 0 -0.033223585403020103 0.00029977572743717691 0 -0.031992525195995387 0.00017350738482496876 0 -0.03370886393200357 1.5181808838519235e-07 0 -0.033502535488690172 -9.8319741981572718e-05 0 -0.033446487306806626 -0.00014128617852923834 0 -0.033476147421961297 -8.6809929972846088e-05 0 -0.033502535488690172 -9.8319741981572718e-05 0 -0.033410444164809996 -1.8613847735312405e-05 0 -0.033476147421961297 -8.6809929972846088e-05 0 -0.03370886393200357 1.5181808838519235e-07 0 -0.033502535488690172 -9.8319741981572718e-05 0 -0.033502535488690172 -9.8319741981572718e-05 0 -0.033446487306806626 -0.00014128617852923834 0 -0.033410444164809996 -1.8613847735312405e-05 0 -0.033446487306806626 -0.00014128617852923834 0 -0.032771738970292064 0.0001445263930331012 0 -0.031287297302261076 5.0704401003133626e-07 0 -0.033446487306806626 -0.00014128617852923834 0 -0.032771738970292064 0.0001445263930331012 0 -0.033410444164809996 -1.8613847735312405e-05 0 -0.031556922115992821 0.00015697244033310059 0 -0.031992525195995387 0.00017350738482496876 0 -0.031992525195995387 0.00017350738482496876 0 -0.031225354004075251 0.00039478906016238207 0 -0.02980449712701386 -0.00027522992321901338 0 -0.02969786665864875 -0.00083552794172465548 0 -0.029281629100073751 -9.0444112374204306e-05 0 -0.029876944153140943 0.0010295984975725386 0 -0.029065313497095242 0.001523308757178488 0 -0.029281629100073751 -9.0444112374204306e-05 0 -0.029876944153140943 0.0010295984975725386 0 -0.0312799931365213 1.8429209290115285e-06 0 -0.029281629100073751 -9.0444112374204306e-05 0 -0.031556922115992821 0.00015697244033310059 0 -0.031284090640797207 5.9556428498613884e-07 0 -0.028644987550453849 0.00011184352296485388 0 -0.029220612188426247 -4.5237472717908936e-07 0 -0.029281629100073751 -9.0444112374204306e-05 0 -0.0312799931365213 1.8429209290115285e-06 0 -0.029220612188426247 -4.5237472717908936e-07 0 -0.029281629100073751 -9.0444112374204306e-05 0 -0.028644987550453849 0.00011184352296485388 0 -0.029220612188426247 -4.5237472717908936e-07 0 -0.027625901635687771 -0.0001532918960363484 0 -0.028644987550453849 0.00011184352296485388 0 -0.027607716773960723 -7.1764088841203558e-05 0 -0.027625901635687771 -0.0001532918960363484 0 -0.028644987550453849 0.00011184352296485388 0 -0.027607716773960723 -7.1764088841203558e-05 0 -0.027326156722591359 0.00016528338131831531 0 -0.027420905408815588 0.0012181780134133714 0 -0.028644987550453849 0.00011184352296485388 0 -0.027188783270649223 0.00064981282416466646 0 -0.02980449712701386 -0.00027522992321901338 0 -0.028644987550453849 0.00011184352296485388 0 -0.029281629100073751 -9.0444112374204306e-05 0 -0.029779168110048812 0.00070902308310886498 0 -0.029483190319932073 0.00051628289973423185 0 -0.028644987550453849 0.00011184352296485388 0 -0.027188783270649223 0.00064981282416466646 0 -0.027326156722591359 0.00016528338131831531 0 -0.026977077265379103 0.00098456623524592157 0 -0.027188783270649223 0.00064981282416466646 0 -0.026741580914985529 0.0007123645446867723 0 -0.027188783270649223 0.00064981282416466646 0 -0.026741580914985529 0.0007123645446867723 0 -0.02682900193595468 0.00032093028480391876 0 -0.027188783270649223 0.00064981282416466646 0 -0.027326156722591359 0.00016528338131831531 0 -0.02682900193595468 0.00032093028480391876 0 -0.026407183906148622 0.00076442401631564598 0 -0.026741580914985529 0.0007123645446867723 0 -0.026477680539621802 0.00042099779856166633 0 -0.026741580914985529 0.0007123645446867723 0 -0.026477680539621802 0.00042099779856166633 0 -0.02682900193595468 0.00032093028480391876 0 -0.026332232572132769 0.00018430489532108915 0 -0.026477680539621802 0.00042099779856166633 0 -0.026562855688618183 0.00014376148677998932 0 -0.026477680539621802 0.00042099779856166633 0 -0.026562855688618183 0.00014376148677998932 0 -0.02682900193595468 0.00032093028480391876 0 -0.026562855688618183 0.00014376148677998932 0 -0.02682900193595468 0.00032093028480391876 0 -0.026848655126801364 -7.1169954249909623e-05 0 -0.026332232572132769 0.00018430489532108915 0 -0.026562855688618183 0.00014376148677998932 0 -0.026393211592661784 -7.3441703280374221e-05 0 -0.027607716773960723 -7.1764088841203558e-05 0 -0.027326156722591359 0.00016528338131831531 0 -0.026848655126801364 -7.1169954249909623e-05 0 -0.027326156722591359 0.00016528338131831531 0 -0.02682900193595468 0.00032093028480391876 0 -0.026848655126801364 -7.1169954249909623e-05 0 -0.027607716773960723 -7.1764088841203558e-05 0 -0.026848655126801364 -7.1169954249909623e-05 0 -0.026903992537464779 -0.00026323697266029386 0 -0.026848655126801364 -7.1169954249909623e-05 0 -0.026462057820073905 -0.00026218271647167812 0 -0.026903992537464779 -0.00026323697266029386 0 -0.026848655126801364 -7.1169954249909623e-05 0 -0.026393211592661784 -7.3441703280374221e-05 0 -0.026462057820073905 -0.00026218271647167812 0 -0.026260397663125074 -0.00018333836171936243 0 -0.026393211592661784 -7.3441703280374221e-05 0 -0.026462057820073905 -0.00026218271647167812 0 -0.026562855688618183 0.00014376148677998932 0 -0.026848655126801364 -7.1169954249909623e-05 0 -0.026393211592661784 -7.3441703280374221e-05 0 -0.026252914694392383 -0.0003118073191147606 0 -0.026258059667083371 -0.00032040710563057057 0 -0.026462057820073905 -0.00026218271647167812 0 -0.026258059667083371 -0.00032040710563057057 0 -0.026260397663125074 -0.00018333836171936243 0 -0.026462057820073905 -0.00026218271647167812 0 -0.026252914694392383 -0.0003118073191147606 0 -0.026462057820073905 -0.00026218271647167812 0 -0.026903992537464779 -0.00026323697266029386 0 -0.026252914694392383 -0.0003118073191147606 0 -0.026349027823793624 -0.00025403315210658175 0 -0.026903992537464779 -0.00026323697266029386 0 -0.026349027823793624 -0.00025403315210658175 0 -0.027157626654213549 -4.9134347821784313e-07 0 -0.027625901635687771 -0.0001532918960363484 0 -0.029220612188426247 -4.5237472717908936e-07 0 -0.027157626654213549 -4.9134347821784313e-07 0 -0.027625901635687771 -0.0001532918960363484 0 -0.027607716773960723 -7.1764088841203558e-05 0 -0.027625901635687771 -0.0001532918960363484 0 -0.026903992537464779 -0.00026323697266029386 0 -0.026349027823793624 -0.00025403315210658175 0 -0.027625901635687771 -0.0001532918960363484 0 -0.026903992537464779 -0.00026323697266029386 0 -0.032624694665858253 0.0007188900594042385 0 -0.032519351170895515 0.00022552192919523536 0 -0.033166566527302266 0.00093777212852441997 0 -0.030816778192141465 -0.0006314579579270777 0 -0.030532811753886856 -0.00053802296575492512 0 -0.032624694665858253 0.0007188900594042385 0 -0.033166566527302266 0.00093777212852441997 0 -0.03275108030126174 0.0012162597968186043 0 -0.032624694665858253 0.0007188900594042385 0 -0.032123539710295412 0.00094391387723330618 0 -0.032439417767558529 0.0011482121702049539 0 -0.032624694665858253 0.0007188900594042385 0 -0.032123539710295412 0.00094391387723330618 0 -0.032174585882607694 0.00051696191069709177 0 -0.032624694665858253 0.0007188900594042385 0 -0.032174585882607694 0.00051696191069709177 0 -0.032473205076062626 0.000320636789006429 0 -0.032001172884770938 0.00023344419408424723 0 -0.032174585882607694 0.00051696191069709177 0 -0.032473205076062626 0.000320636789006429 0 -0.027378033047133835 -0.0026020252516679413 0 -0.027417928893653805 -0.0026137644256699205 0 -0.027313619051957599 -0.0022869606235352284 0 -0.027378033047133835 -0.0026020252516679413 0 -0.027417928893653805 -0.0026137644256699205 0 -0.027464400202476882 -0.0026284359613084306 0 -0.031029005405239042 -0.00021599131812061566 0 -0.030816778192141465 -0.0006314579579270777 0 -0.027417928893653805 -0.0026137644256699205 0 -0.027478680362758658 -0.0025965455922588665 0 -0.027313619051957599 -0.0022869606235352284 0 -0.027417928893653805 -0.0026137644256699205 0 -0.027478680362758658 -0.0025965455922588665 0 -0.027465394914960965 -0.0026582627265517383 0 -0.027478680362758658 -0.0025965455922588665 0 -0.027543285675221088 -0.0026966255914161819 0 -0.027465394914960965 -0.0026582627265517383 0 -0.027627575930949264 -0.0025508465907831011 0 -0.027543285675221088 -0.0026966255914161819 0 -0.027797925966795988 -0.0026842415790479086 0 -0.027478680362758658 -0.0025965455922588665 0 -0.027627575930949264 -0.0025508465907831011 0 -0.027543285675221088 -0.0026966255914161819 0 -0.027746075043413209 -0.0023117216785896928 0 -0.027313619051957599 -0.0022869606235352284 0 -0.027932992481974693 -0.0019421436629886298 0 -0.027627575930949264 -0.0025508465907831011 0 -0.027746075043413209 -0.0023117216785896928 0 -0.027313619051957599 -0.0022869606235352284 0 -0.027627575930949264 -0.0025508465907831011 0 -0.027746075043413209 -0.0023117216785896928 0 -0.02803320229482268 -0.0024296474999763299 0 -0.027746075043413209 -0.0023117216785896928 0 -0.027932992481974693 -0.0019421436629886298 0 -0.02803320229482268 -0.0024296474999763299 0 -0.027478680362758658 -0.0025965455922588665 0 -0.027627575930949264 -0.0025508465907831011 0 -0.027313619051957599 -0.0022869606235352284 0 -0.033166566527302266 0.00093777212852441997 0 -0.033134912665094454 0.0014504319178121801 0 -0.033729814742886867 0.0016877110994464675 0 -0.030532811753886856 -0.00053802296575492512 0 -0.030854315373365165 8.9722047843882752e-05 0 -0.033166566527302266 0.00093777212852441997 0 -0.033134912665094454 0.0014504319178121801 0 -0.03275108030126174 0.0012162597968186043 0 -0.027313619051957599 -0.0022869606235352284 0 -0.027932992481974693 -0.0019421436629886298 0 -0.027721484632432226 -0.0013204546508342205 0 -0.033729814742886867 0.0016877110994464675 0 -0.033116505508900412 0.0018395119616545438 0 -0.033748292879176682 0.0019499805428693754 0 -0.033134912665094454 0.0014504319178121801 0 -0.033729814742886867 0.0016877110994464675 0 -0.033116505508900412 0.0018395119616545438 0 -0.033134912665094454 0.0014504319178121801 0 -0.033116505508900412 0.0018395119616545438 0 -0.0328105054382897 0.0014916745041019328 0 -0.034187808875493372 0.0019262095835122593 0 -0.033947994625019566 0.0018835787145291779 0 -0.034026628370903478 0.0018929323298086545 0 -0.033116505508900412 0.0018395119616545438 0 -0.0328105054382897 0.0014916745041019328 0 -0.032305233264945575 0.0014838180135779335 0 -0.034187808875493372 0.0019262095835122593 0 -0.033924382620589388 0.0017151020176673906 0 -0.033947994625019566 0.0018835787145291779 0 -0.03344986279772233 0.0017936246628638731 0 -0.033003888390103459 0.0016107240896610551 0 -0.033134912665094454 0.0014504319178121801 0 -0.0328105054382897 0.0014916745041019328 0 -0.03275108030126174 0.0012162597968186043 0 -0.0328105054382897 0.0014916745041019328 0 -0.032593980781643786 0.0013484604566187527 0 -0.032305233264945575 0.0014838180135779335 0 -0.032624694665858253 0.0007188900594042385 0 -0.03275108030126174 0.0012162597968186043 0 -0.032439417767558529 0.0011482121702049539 0 -0.0328105054382897 0.0014916745041019328 0 -0.032593980781643786 0.0013484604566187527 0 -0.03275108030126174 0.0012162597968186043 0 -0.032593980781643786 0.0013484604566187527 0 -0.03275108030126174 0.0012162597968186043 0 -0.032439417767558529 0.0011482121702049539 0 -0.032123539710295412 0.00094391387723330618 0 -0.032439417767558529 0.0011482121702049539 0 -0.032305233264945575 0.0014838180135779335 0 -0.033679574018817486 0.001948148770078231 0 -0.033924382620589388 0.0017151020176673906 0 -0.031757611083065664 0.0011853642928300512 0 -0.032593980781643786 0.0013484604566187527 0 -0.032439417767558529 0.0011482121702049539 0 -0.032305233264945575 0.0014838180135779335 0 -0.033679574018817486 0.001948148770078231 0 -0.033924382620589388 0.0017151020176673906 0 -0.033947994625019566 0.0018835787145291779 0 -0.033947994625019566 0.0018835787145291779 0 -0.033876620854836045 0.0019171865902030615 0 -0.034026628370903478 0.0018929323298086545 0 -0.033679574018817486 0.001948148770078231 0 -0.033947994625019566 0.0018835787145291779 0 -0.033806202992245654 0.0019210446020515083 0 -0.033947994625019566 0.0018835787145291779 0 -0.033806202992245654 0.0019210446020515083 0 -0.033876620854836045 0.0019171865902030615 0 -0.033679574018817486 0.001948148770078231 0 -0.033806202992245654 0.0019210446020515083 0 -0.033833425597145847 0.0019203940244080886 0 -0.033806202992245654 0.0019210446020515083 0 -0.033833425597145847 0.0019203940244080886 0 -0.033876620854836045 0.0019171865902030615 0 -0.033679574018817486 0.001948148770078231 0 -0.033833425597145847 0.0019203940244080886 0 -0.034003474160048307 0.0019473914494109628 0 -0.033679574018817486 0.001948148770078231 0 -0.031382401727755867 0.0023791287758932341 0 -0.031757611083065664 0.0011853642928300512 0 -0.033182064590111665 0.0019171133425521141 0 -0.032741650648176857 0.0019732844260541942 0 -0.031382401727755867 0.0023791287758932341 0 -0.031026049825851772 0.0015009598499239856 0 -0.030590160479805804 0.0018518421627069122 0 -0.031382401727755867 0.0023791287758932341 0 -0.031026049825851772 0.0015009598499239856 0 -0.031757611083065664 0.0011853642928300512 0 -0.031026049825851772 0.0015009598499239856 0 -0.031757611083065664 0.0011853642928300512 0 -0.030816708479104313 0.00064200475907305729 0 -0.033003888390103459 0.0016107240896610551 0 -0.0325513547450463 0.0014394331832459798 0 -0.032123539710295412 0.00094391387723330618 0 -0.032305233264945575 0.0014838180135779335 0 -0.031757611083065664 0.0011853642928300512 0 -0.030590160479805804 0.0018518421627069122 0 -0.030031016628784369 0.0016580366184532078 0 -0.030155686739865975 0.0024358044183344259 0 -0.030031016628784369 0.0016580366184532078 0 -0.030155686739865975 0.0024358044183344259 0 -0.029597167947948307 0.0019044186732744056 0 -0.030031016628784369 0.0016580366184532078 0 -0.029597167947948307 0.0019044186732744056 0 -0.02954803698917351 0.0014825825698092478 0 -0.031382401727755867 0.0023791287758932341 0 -0.030590160479805804 0.0018518421627069122 0 -0.030155686739865975 0.0024358044183344259 0 -0.032741650648176857 0.0019732844260541942 0 -0.032144730955517259 0.0019488225088277425 0 -0.031026049825851772 0.0015009598499239856 0 -0.03047288491252936 0.0013298374993787362 0 -0.030816708479104313 0.00064200475907305729 0 -0.031026049825851772 0.0015009598499239856 0 -0.030590160479805804 0.0018518421627069122 0 -0.03047288491252936 0.0013298374993787362 0 -0.030590160479805804 0.0018518421627069122 0 -0.03047288491252936 0.0013298374993787362 0 -0.030031016628784369 0.0016580366184532078 0 -0.030031016628784369 0.0016580366184532078 0 -0.029842819945367798 0.00083796609364418344 0 -0.02954803698917351 0.0014825825698092478 0 -0.03047288491252936 0.0013298374993787362 0 -0.030031016628784369 0.0016580366184532078 0 -0.029842819945367798 0.00083796609364418344 0 -0.029842819945367798 0.00083796609364418344 0 -0.030816708479104313 0.00064200475907305729 0 -0.029849199241762436 -0.00026226449282269526 0 -0.03047288491252936 0.0013298374993787362 0 -0.029842819945367798 0.00083796609364418344 0 -0.030816708479104313 0.00064200475907305729 0 -0.030816708479104313 0.00064200475907305729 0 -0.031696848367342038 0.00039062028036400615 0 -0.031033760583132182 -0.00040764679372290512 0 -0.032123539710295412 0.00094391387723330618 0 -0.032174585882607694 0.00051696191069709177 0 -0.031696848367342038 0.00039062028036400615 0 -0.032123539710295412 0.00094391387723330618 0 -0.031757611083065664 0.0011853642928300512 0 -0.031696848367342038 0.00039062028036400615 0 -0.031757611083065664 0.0011853642928300512 0 -0.030816708479104313 0.00064200475907305729 0 -0.031696848367342038 0.00039062028036400615 0 -0.032001172884770938 0.00023344419408424723 0 -0.032174585882607694 0.00051696191069709177 0 -0.031696848367342038 0.00039062028036400615 0 -0.032001172884770938 0.00023344419408424723 0 -0.031696848367342038 0.00039062028036400615 0 -0.031833997362757341 -8.7302989469361845e-05 0 -0.031696848367342038 0.00039062028036400615 0 -0.031833997362757341 -8.7302989469361845e-05 0 -0.031440607997949371 -3.1325649290739456e-05 0 -0.03101379296315946 0.00037271839137165803 0 -0.03063377559605495 0.00016256172068215437 0 -0.031440607997949371 -3.1325649290739456e-05 0 -0.031542164501695821 -0.00021560693106390804 0 -0.031345963164016798 -0.00025242389056709332 0 -0.031833997362757341 -8.7302989469361845e-05 0 -0.031440607997949371 -3.1325649290739456e-05 0 -0.031542164501695821 -0.00021560693106390804 0 -0.031833997362757341 -8.7302989469361845e-05 0 -0.031542164501695821 -0.00021560693106390804 0 -0.031730420004102346 -0.00021807019344360654 0 -0.030816708479104313 0.00064200475907305729 0 -0.031033760583132182 -0.00040764679372290512 0 -0.029849199241762436 -0.00026226449282269526 0 -0.03063377559605495 0.00016256172068215437 0 -0.029641888608988781 -3.0794626132408573e-05 0 -0.031033760583132182 -0.00040764679372290512 0 -0.029849199241762436 -0.00026226449282269526 0 -0.030424758335614661 -0.0012179360477982688 0 -0.029849199241762436 -0.00026226449282269526 0 -0.030424758335614661 -0.0012179360477982688 0 -0.029607812077849183 -0.0012191883321087727 0 -0.029641888608988781 -3.0794626132408573e-05 0 -0.027463366863007863 -0.00015451081282597326 0 -0.030424758335614661 -0.0012179360477982688 0 -0.029623797906691254 -0.0018974538557561694 0 -0.029607812077849183 -0.0012191883321087727 0 -0.031345963164016798 -0.00025242389056709332 0 -0.031361880380718167 -0.00034613195741850695 0 -0.03147805841915053 -0.0003322451953547872 0 -0.031361880380718167 -0.00034613195741850695 0 -0.03147805841915053 -0.0003322451953547872 0 -0.031435708038161439 -0.00038840362219711024 0 -0.031345963164016798 -0.00025242389056709332 0 -0.031361880380718167 -0.00034613195741850695 0 -0.031279293148047872 -0.00037166029933472617 0 -0.030424758335614661 -0.0012179360477982688 0 -0.029810906243816188 -0.0021276481126635671 0 -0.029623797906691254 -0.0018974538557561694 0 -0.027463366863007863 -0.00015451081282597326 0 -0.027632833085864533 -0.00034133801790730645 0 -0.031730420004102346 -0.00021807019344360654 0 -0.031603397547874841 -0.0003097323896529854 0 -0.031668431990154504 -0.00033333496701762024 0 -0.031542164501695821 -0.00021560693106390804 0 -0.031730420004102346 -0.00021807019344360654 0 -0.031603397547874841 -0.0003097323896529854 0 -0.031542164501695821 -0.00021560693106390804 0 -0.031345963164016798 -0.00025242389056709332 0 -0.03147805841915053 -0.0003322451953547872 0 -0.031542164501695821 -0.00021560693106390804 0 -0.031603397547874841 -0.0003097323896529854 0 -0.03147805841915053 -0.0003322451953547872 0 -0.03147805841915053 -0.0003322451953547872 0 -0.03149739148563007 -0.00038496840099974482 0 -0.031549353747902055 -0.00036738043331221721 0 -0.03147805841915053 -0.0003322451953547872 0 -0.031435708038161439 -0.00038840362219711024 0 -0.03149739148563007 -0.00038496840099974482 0 -0.03149739148563007 -0.00038496840099974482 0 -0.031533892943519402 -0.00038872641519768303 0 -0.031549353747902055 -0.00036738043331221721 0 -0.031603397547874841 -0.0003097323896529854 0 -0.03147805841915053 -0.0003322451953547872 0 -0.031549353747902055 -0.00036738043331221721 0 -0.031603397547874841 -0.0003097323896529854 0 -0.031549353747902055 -0.00036738043331221721 0 -0.031595713705283961 -0.00036139697469557132 0 -0.031603397547874841 -0.0003097323896529854 0 -0.031595713705283961 -0.00036139697469557132 0 -0.031668431990154504 -0.00033333496701762024 0 -0.031549353747902055 -0.00036738043331221721 0 -0.031595713705283961 -0.00036139697469557132 0 -0.031549199156955608 -0.00041010067303490314 0 -0.031533892943519402 -0.00038872641519768303 0 -0.031549353747902055 -0.00036738043331221721 0 -0.031549199156955608 -0.00041010067303490314 0 -0.031524248098488722 -0.00036480930146341918 0 -0.031533892943519402 -0.00038872641519768303 0 -0.031549199156955608 -0.00041010067303490314 0 -0.031451211255638246 -0.00036377901506303611 0 -0.031549199156955608 -0.00041010067303490314 0 -0.031377019008633524 -0.00044338004741012877 0 -0.029550118158867482 -0.00048199893038130398 0 -0.029376740163475048 -0.00047859708889641414 0 -0.031595713705283961 -0.00036139697469557132 0 -0.031549199156955608 -0.00041010067303490314 0 -0.031630959085362426 -0.00041401068051600176 0 -0.029376740163475048 -0.00047859708889641414 0 -0.028372145688191262 -0.00050451032090055689 0 -0.03134221305350586 -0.00036248423528570481 0 -0.031377019008633524 -0.00044338004741012877 0 -0.031211789303953078 -0.00043465542286725141 0 -0.028820709460624257 -0.0013468810705808928 0 -0.029619876936900231 -0.0013764369427815412 0 -0.02905624704776975 -0.00017586527254383788 0 -0.027589444624684791 -0.0023675948286741794 0 -0.0276237848571282 -0.0024406987925182011 0 -0.027537875852404012 -0.0024314022753419797 0 -0.028372145688191262 -0.00050451032090055689 0 -0.029431938317031146 -0.0009177904393567344 0 -0.031595713705283961 -0.00036139697469557132 0 -0.031630959085362426 -0.00041401068051600176 0 -0.031668431990154504 -0.00033333496701762024 0 -0.029376740163475048 -0.00047859708889641414 0 -0.029431938317031146 -0.0009177904393567344 0 -0.027589444624684791 -0.0023675948286741794 0 -0.027537875852404012 -0.0024314022753419797 0 -0.02747563253155889 -0.002355882538976018 0 -0.028372145688191262 -0.00050451032090055689 0 -0.026232805178072114 -0.00034835109088362143 0 -0.027537875852404012 -0.0024314022753419797 0 -0.027508097838445638 -0.0025050362237385932 0 -0.027481038822110383 -0.0024272914529042894 0 -0.027537875852404012 -0.0024314022753419797 0 -0.027545425401315386 -0.0025125928366175219 0 -0.027508097838445638 -0.0025050362237385932 0 -0.0276237848571282 -0.0024406987925182011 0 -0.027537875852404012 -0.0024314022753419797 0 -0.027545425401315386 -0.0025125928366175219 0 -0.027545425401315386 -0.0025125928366175219 0 -0.027508097838445638 -0.0025050362237385932 0 -0.027505042115655631 -0.0025805746794017549 0 -0.031730420004102346 -0.00021807019344360654 0 -0.031818836054032247 -0.00042134995157638909 0 -0.0318915666586689 -0.00012325792068656072 0 -0.0276237848571282 -0.0024406987925182011 0 -0.027545425401315386 -0.0025125928366175219 0 -0.027538158154902459 -0.0026066925549125676 0 -0.029815322409348942 -0.00092001367790184177 0 -0.029431938317031146 -0.0009177904393567344 0 -0.029431938317031146 -0.0009177904393567344 0 -0.029963375391045877 -0.001186918626362428 0 -0.031833997362757341 -8.7302989469361845e-05 0 -0.031730420004102346 -0.00021807019344360654 0 -0.0318915666586689 -0.00012325792068656072 0 -0.027545425401315386 -0.0025125928366175219 0 -0.027538158154902459 -0.0026066925549125676 0 -0.027505042115655631 -0.0025805746794017549 0 -0.027508097838445638 -0.0025050362237385932 0 -0.027505042115655631 -0.0025805746794017549 0 -0.027477129126514208 -0.002608393910294088 0 -0.027505042115655631 -0.0025805746794017549 0 -0.027464400202476882 -0.0026284359613084306 0 -0.027477129126514208 -0.002608393910294088 0 -0.027538158154902459 -0.0026066925549125676 0 -0.027505042115655631 -0.0025805746794017549 0 -0.027464400202476882 -0.0026284359613084306 0 -0.027378033047133835 -0.0026020252516679413 0 -0.027538158154902459 -0.0026066925549125676 0 -0.027464400202476882 -0.0026284359613084306 0 -0.030816778192141465 -0.0006314579579270777 0 -0.029963375391045877 -0.001186918626362428 0 -0.031906610632941264 -3.0440504777128079e-06 0 -0.031833997362757341 -8.7302989469361845e-05 0 -0.0318915666586689 -0.00012325792068656072 0 -0.030816778192141465 -0.0006314579579270777 0 -0.031474516746931226 -5.2608688808842153e-05 0 -0.032001172884770938 0.00023344419408424723 0 -0.032473205076062626 0.000320636789006429 0 -0.031833997362757341 -8.7302989469361845e-05 0 -0.027465719203576561 -0.0026682965516111445 0 -0.027543285675221088 -0.0026966255914161819 0 -0.027407631418938962 -0.0026911816169209752 0 -0.027543285675221088 -0.0026966255914161819 0 -0.027407631418938962 -0.0026911816169209752 0 -0.027478758421271062 -0.0027452267206571376 0 -0.027465719203576561 -0.0026682965516111445 0 -0.027543285675221088 -0.0026966255914161819 0 -0.027465394914960965 -0.0026582627265517383 0 -0.027464400202476882 -0.0026284359613084306 0 -0.027465394914960965 -0.0026582627265517383 0 -0.027477129126514208 -0.002608393910294088 0 -0.027465719203576561 -0.0026682965516111445 0 -0.027465394914960965 -0.0026582627265517383 0 -0.027477129126514208 -0.002608393910294088 0 -0.027417928893653805 -0.0026137644256699205 0 -0.027464400202476882 -0.0026284359613084306 0 -0.027465394914960965 -0.0026582627265517383 0 -0.027465719203576561 -0.0026682965516111445 0 -0.027477129126514208 -0.002608393910294088 0 -0.027430906427634016 -0.0026095975397234703 0 -0.027477129126514208 -0.002608393910294088 0 -0.027430906427634016 -0.0026095975397234703 0 -0.027447073051429838 -0.0025029286917992956 0 -0.027465719203576561 -0.0026682965516111445 0 -0.027430906427634016 -0.0026095975397234703 0 -0.027407631418938962 -0.0026911816169209752 0 -0.027430906427634016 -0.0026095975397234703 0 -0.027407631418938962 -0.0026911816169209752 0 -0.027337348153272843 -0.0025537296462822675 0 -0.027337348153272843 -0.0025537296462822675 0 -0.027329748675628956 -0.0024170779292573092 0 -0.027447073051429838 -0.0025029286917992956 0 -0.027430906427634016 -0.0026095975397234703 0 -0.027337348153272843 -0.0025537296462822675 0 -0.027447073051429838 -0.0025029286917992956 0 -0.027329748675628956 -0.0024170779292573092 0 -0.027447073051429838 -0.0025029286917992956 0 -0.027419115752353972 -0.0023655204785363862 0 -0.027508097838445638 -0.0025050362237385932 0 -0.027447073051429838 -0.0025029286917992956 0 -0.027481038822110383 -0.0024272914529042894 0 -0.027508097838445638 -0.0025050362237385932 0 -0.027477129126514208 -0.002608393910294088 0 -0.027447073051429838 -0.0025029286917992956 0 -0.027447073051429838 -0.0025029286917992956 0 -0.027481038822110383 -0.0024272914529042894 0 -0.027419115752353972 -0.0023655204785363862 0 -0.026232805178072114 -0.00034835109088362143 0 -0.025664881735753649 -0.00047970381886547879 0 -0.027615329533517724 -0.0021832713443775691 0 -0.027419115752353972 -0.0023655204785363862 0 -0.027349529663133108 -0.0021724972499126507 0 -0.027537875852404012 -0.0024314022753419797 0 -0.027481038822110383 -0.0024272914529042894 0 -0.02747563253155889 -0.002355882538976018 0 -0.027481038822110383 -0.0024272914529042894 0 -0.02747563253155889 -0.002355882538976018 0 -0.027419115752353972 -0.0023655204785363862 0 -0.026232805178072114 -0.00034835109088362143 0 -0.026281535498143261 -0.00062191516024777188 0 -0.025664881735753649 -0.00047970381886547879 0 -0.025076378479140467 -0.00065374340491542143 0 -0.027260335339968977 -0.0022845328716125696 0 -0.027349529663133108 -0.0021724972499126507 0 -0.027127772319368949 -0.0021483610696090404 0 -0.027329748675628956 -0.0024170779292573092 0 -0.027260335339968977 -0.0022845328716125696 0 -0.027419115752353972 -0.0023655204785363862 0 -0.027260335339968977 -0.0022845328716125696 0 -0.027419115752353972 -0.0023655204785363862 0 -0.027349529663133108 -0.0021724972499126507 0 -0.027329748675628956 -0.0024170779292573092 0 -0.027260335339968977 -0.0022845328716125696 0 -0.027042273972438947 -0.0023203795277659703 0 -0.027260335339968977 -0.0022845328716125696 0 -0.027127772319368949 -0.0021483610696090404 0 -0.027042273972438947 -0.0023203795277659703 0 -0.025076378479140467 -0.00065374340491542143 0 -0.025285387066001253 -0.0017366437751978304 0 -0.025539234949758152 -0.0026073621736019724 0 -0.025906156092825178 -0.0026615514575565394 0 -0.025614587097910105 -0.0026478179450202493 0 -0.025446423382747475 -0.0025893352263293523 0 -0.025539234949758152 -0.0026073621736019724 0 -0.025614587097910105 -0.0026478179450202493 0 -0.025109434783415374 -0.00069312447198963242 0 -0.025076378479140467 -0.00065374340491542143 0 -0.025285387066001253 -0.0017366437751978304 0 -0.025371412655310673 -0.0020484794116508573 0 -0.027042273972438947 -0.0023203795277659703 0 -0.027194510948888886 -0.0026480134678366703 0 -0.026776698105030607 -0.0026164894982718847 0 -0.027337348153272843 -0.0025537296462822675 0 -0.027329748675628956 -0.0024170779292573092 0 -0.027042273972438947 -0.0023203795277659703 0 -0.027337348153272843 -0.0025537296462822675 0 -0.027042273972438947 -0.0023203795277659703 0 -0.027194510948888886 -0.0026480134678366703 0 -0.025906156092825178 -0.0026615514575565394 0 -0.026248339169511796 -0.0026429281245342233 0 -0.025716720827600528 -0.0026847824859867328 0 -0.025906156092825178 -0.0026615514575565394 0 -0.026248339169511796 -0.0026429281245342233 0 -0.026776698105030607 -0.0026164894982718847 0 -0.025906156092825178 -0.0026615514575565394 0 -0.025716720827600528 -0.0026847824859867328 0 -0.025614587097910105 -0.0026478179450202493 0 -0.025382211622406604 -0.0026386984202006691 0 -0.025446423382747475 -0.0025893352263293523 0 -0.025614587097910105 -0.0026478179450202493 0 -0.025154767698788744 -0.0027099773092630203 0 -0.025382211622406604 -0.0026386984202006691 0 -0.025716720827600528 -0.0026847824859867328 0 -0.025382211622406604 -0.0026386984202006691 0 -0.025716720827600528 -0.0026847824859867328 0 -0.025614587097910105 -0.0026478179450202493 0 -0.025154767698788744 -0.0027099773092630203 0 -0.025180405407007993 -0.002913109229770716 0 -0.025797264720394366 -0.0027413919015707531 0 -0.025154767698788744 -0.0027099773092630203 0 -0.025716720827600528 -0.0026847824859867328 0 -0.025797264720394366 -0.0027413919015707531 0 -0.024613989880566605 -0.0033033934349062859 0 -0.025180405407007993 -0.002913109229770716 0 -0.025742166993266324 -0.0027584768326180068 0 -0.025180405407007993 -0.002913109229770716 0 -0.025742166993266324 -0.0027584768326180068 0 -0.025797264720394366 -0.0027413919015707531 0 -0.026197539022543636 -0.00265467449044954 0 -0.025797264720394366 -0.0027413919015707531 0 -0.026468090550088166 -0.0026381991870328162 0 -0.025742166993266324 -0.0027584768326180068 0 -0.026197539022543636 -0.00265467449044954 0 -0.025797264720394366 -0.0027413919015707531 0 -0.026248339169511796 -0.0026429281245342233 0 -0.025716720827600528 -0.0026847824859867328 0 -0.025797264720394366 -0.0027413919015707531 0 -0.026248339169511796 -0.0026429281245342233 0 -0.025797264720394366 -0.0027413919015707531 0 -0.026468090550088166 -0.0026381991870328162 0 -0.026248339169511796 -0.0026429281245342233 0 -0.026468090550088166 -0.0026381991870328162 0 -0.026838920571796706 -0.0026722185015284556 0 -0.026468090550088166 -0.0026381991870328162 0 -0.02684701388578405 -0.0026314886194816799 0 -0.026838920571796706 -0.0026722185015284556 0 -0.02684701388578405 -0.0026314886194816799 0 -0.026838920571796706 -0.0026722185015284556 0 -0.027177808487984876 -0.0026877526003490026 0 -0.026468090550088166 -0.0026381991870328162 0 -0.026629464308114536 -0.0025552699233195534 0 -0.02693121441241262 -0.0025563657724092196 0 -0.026197539022543636 -0.00265467449044954 0 -0.026468090550088166 -0.0026381991870328162 0 -0.026629464308114536 -0.0025552699233195534 0 -0.026468090550088166 -0.0026381991870328162 0 -0.02684701388578405 -0.0026314886194816799 0 -0.02693121441241262 -0.0025563657724092196 0 -0.026629464308114536 -0.0025552699233195534 0 -0.02693121441241262 -0.0025563657724092196 0 -0.02709247761221166 -0.0024600324331308324 0 -0.02693121441241262 -0.0025563657724092196 0 -0.02734479415907452 -0.0024165804924157997 0 -0.02709247761221166 -0.0024600324331308324 0 -0.02693121441241262 -0.0025563657724092196 0 -0.027293022373110157 -0.0024777411952716473 0 -0.027177808487984876 -0.0026877526003490026 0 -0.02693121441241262 -0.0025563657724092196 0 -0.027293022373110157 -0.0024777411952716473 0 -0.02734479415907452 -0.0024165804924157997 0 -0.027177808487984876 -0.0026877526003490026 0 -0.027322127511785983 -0.0027277660465708183 0 -0.028959169290702854 -0.0020140144270324946 0 -0.026838920571796706 -0.0026722185015284556 0 -0.027177808487984876 -0.0026877526003490026 0 -0.027322127511785983 -0.0027277660465708183 0 -0.02684701388578405 -0.0026314886194816799 0 -0.02693121441241262 -0.0025563657724092196 0 -0.027177808487984876 -0.0026877526003490026 0 -0.026838920571796706 -0.0026722185015284556 0 -0.027322127511785983 -0.0027277660465708183 0 -0.027179597566381625 -0.0027200502804412535 0 -0.027322127511785983 -0.0027277660465708183 0 -0.02758112660679422 -0.0027456127780153918 0 -0.027179597566381625 -0.0027200502804412535 0 -0.027322127511785983 -0.0027277660465708183 0 -0.02758112660679422 -0.0027456127780153918 0 -0.02800196123908567 -0.0026822357678569736 0 -0.02758112660679422 -0.0027456127780153918 0 -0.027478758421271062 -0.0027452267206571376 0 -0.027797925966795988 -0.0026842415790479086 0 -0.027543285675221088 -0.0026966255914161819 0 -0.027478758421271062 -0.0027452267206571376 0 -0.027797925966795988 -0.0026842415790479086 0 -0.02758112660679422 -0.0027456127780153918 0 -0.027478758421271062 -0.0027452267206571376 0 -0.027179597566381625 -0.0027200502804412535 0 -0.027407631418938962 -0.0026911816169209752 0 -0.027478758421271062 -0.0027452267206571376 0 -0.027194510948888886 -0.0026480134678366703 0 -0.027478758421271062 -0.0027452267206571376 0 -0.027194510948888886 -0.0026480134678366703 0 -0.027179597566381625 -0.0027200502804412535 0 -0.027407631418938962 -0.0026911816169209752 0 -0.027337348153272843 -0.0025537296462822675 0 -0.027194510948888886 -0.0026480134678366703 0 -0.027194510948888886 -0.0026480134678366703 0 -0.026776698105030607 -0.0026164894982718847 0 -0.027179597566381625 -0.0027200502804412535 0 -0.026248339169511796 -0.0026429281245342233 0 -0.026838920571796706 -0.0026722185015284556 0 -0.026776698105030607 -0.0026164894982718847 0 -0.026838920571796706 -0.0026722185015284556 0 -0.026776698105030607 -0.0026164894982718847 0 -0.027179597566381625 -0.0027200502804412535 0 -0.029623177624338564 0.001271946290342037 0 -0.030033720098863324 0.0026083217618319832 0 -0.030892524653470841 0.00090910872855788204 0 -0.027678869450646629 -0.0026812884497912815 0 -0.027590326210755009 -0.0026421677973176316 0 -0.02760150834153691 -0.002534397677258199 0 -0.026425792918461505 -0.0011872326888295655 0 -0.028008729228059828 -0.0012736730277600992 0 -0.023273573593006181 -0.00074272707946149662 0 -0.023270504265933249 -0.00075192638656338155 0 -0.023288221497242724 -0.0007523362566945463 0 -0.027678869450646629 -0.0026812884497912815 0 -0.027526156830791352 -0.002728625931403929 0 -0.027590326210755009 -0.0026421677973176316 0 -0.026425792918461505 -0.0011872326888295655 0 -0.025024029727739774 -0.0021694445881148385 0 -0.025024029727739774 -0.0021694445881148385 0 -0.024494680832632641 -0.0024543352492433957 0 -0.025024029727739774 -0.0021694445881148385 0 -0.02606906231563625 -0.0025921872616270526 0 -0.027526156830791352 -0.002728625931403929 0 -0.027590326210755009 -0.0026421677973176316 0 -0.027467289512597279 -0.0025771251427533538 0 -0.027590326210755009 -0.0026421677973176316 0 -0.027467289512597279 -0.0025771251427533538 0 -0.02760150834153691 -0.002534397677258199 0 -0.026724770099747653 -0.0029472372515672212 0 -0.026630028723232068 -0.0024928124689704741 0 -0.026230911628396802 -0.0026660838467440131 0 -0.026630028723232068 -0.0024928124689704741 0 -0.026230911628396802 -0.0026660838467440131 0 -0.026398003773415106 -0.002572137032372932 0 -0.024613989880566605 -0.0033033934349062859 0 -0.026230911628396802 -0.0026660838467440131 0 -0.026658308947283365 -0.0033210932177748262 0 -0.026724770099747653 -0.0029472372515672212 0 -0.026230911628396802 -0.0026660838467440131 0 -0.026500400590035372 -0.0030098495127663795 0 -0.024953619722786858 -0.0027939132686385739 0 -0.024494680832632641 -0.0024543352492433957 0 -0.024613989880566605 -0.0033033934349062859 0 -0.025742166993266324 -0.0027584768326180068 0 -0.026230911628396802 -0.0026660838467440131 0 -0.025742166993266324 -0.0027584768326180068 0 -0.026230911628396802 -0.0026660838467440131 0 -0.026398003773415106 -0.002572137032372932 0 -0.026197539022543636 -0.00265467449044954 0 -0.026629464308114536 -0.0025552699233195534 0 -0.026398003773415106 -0.002572137032372932 0 -0.025742166993266324 -0.0027584768326180068 0 -0.026197539022543636 -0.00265467449044954 0 -0.026398003773415106 -0.002572137032372932 0 -0.026629464308114536 -0.0025552699233195534 0 -0.026398003773415106 -0.002572137032372932 0 -0.026828236365392149 -0.0024946952930490346 0 -0.026629464308114536 -0.0025552699233195534 0 -0.026828236365392149 -0.0024946952930490346 0 -0.02709247761221166 -0.0024600324331308324 0 -0.02734479415907452 -0.0024165804924157997 0 -0.02709247761221166 -0.0024600324331308324 0 -0.027524429114564992 -0.0023107040133717787 0 -0.02709247761221166 -0.0024600324331308324 0 -0.027524429114564992 -0.0023107040133717787 0 -0.027372472433887105 -0.0023843600598729984 0 -0.026828236365392149 -0.0024946952930490346 0 -0.02709247761221166 -0.0024600324331308324 0 -0.027372472433887105 -0.0023843600598729984 0 -0.02606906231563625 -0.0025921872616270526 0 -0.026332672627587695 -0.0025402362582596068 0 -0.027467289512597279 -0.0025771251427533538 0 -0.027372472433887105 -0.0023843600598729984 0 -0.027523623587926805 -0.002354498009489107 0 -0.026630028723232068 -0.0024928124689704741 0 -0.026398003773415106 -0.002572137032372932 0 -0.026828236365392149 -0.0024946952930490346 0 -0.026630028723232068 -0.0024928124689704741 0 -0.026828236365392149 -0.0024946952930490346 0 -0.027372472433887105 -0.0023843600598729984 0 -0.028714150209925616 -0.0013750459765713677 0 -0.028008729228059828 -0.0012736730277600992 0 -0.027467289512597279 -0.0025771251427533538 0 -0.027523623587926805 -0.002354498009489107 0 -0.02760150834153691 -0.002534397677258199 0 -0.03122374852402646 -0.00060941701933591341 0 -0.030370913591204862 -0.00027272030871424325 0 -0.030892524653470841 0.00090910872855788204 0 -0.03122374852402646 -0.00060941701933591341 0 -0.030370913591204862 -0.00027272030871424325 0 -0.030774149438883583 -0.00091691209344683987 0 -0.029623177624338564 0.001271946290342037 0 -0.030370913591204862 -0.00027272030871424325 0 -0.030892524653470841 0.00090910872855788204 0 -0.030868754020665884 -0.0010302003462270089 0 -0.030864749395525734 -0.001066917289181487 0 -0.03059278848012963 -0.0012086447070411344 0 -0.030864749395525734 -0.001066917289181487 0 -0.030766678329206317 -0.0011526164361609808 0 -0.03059278848012963 -0.0012086447070411344 0 -0.030766678329206317 -0.0011526164361609808 0 -0.03059278848012963 -0.0012086447070411344 0 -0.030453967760615794 -0.0010366365705298251 0 -0.029749411860098492 -0.0012992430808843034 0 -0.030370913591204862 -0.00027272030871424325 0 -0.030453967760615794 -0.0010366365705298251 0 -0.030370913591204862 -0.00027272030871424325 0 -0.030453967760615794 -0.0010366365705298251 0 -0.030774149438883583 -0.00091691209344683987 0 -0.030766678329206317 -0.0011526164361609808 0 -0.030453967760615794 -0.0010366365705298251 0 -0.030774149438883583 -0.00091691209344683987 0 -0.030766678329206317 -0.0011526164361609808 0 -0.030774149438883583 -0.00091691209344683987 0 -0.030884400539379912 -0.0011172984204470403 0 -0.03122374852402646 -0.00060941701933591341 0 -0.030774149438883583 -0.00091691209344683987 0 -0.030884400539379912 -0.0011172984204470403 0 -0.030766678329206317 -0.0011526164361609808 0 -0.030884400539379912 -0.0011172984204470403 0 -0.030842346689879639 -0.0011390169752119636 0 -0.030864749395525734 -0.001066917289181487 0 -0.030766678329206317 -0.0011526164361609808 0 -0.030842346689879639 -0.0011390169752119636 0 -0.030884400539379912 -0.0011172984204470403 0 -0.030842346689879639 -0.0011390169752119636 0 -0.030723004932663653 -0.0013627813893635076 0 -0.030842346689879639 -0.0011390169752119636 0 -0.030723004932663653 -0.0013627813893635076 0 -0.030655242885273565 -0.00096106784173958311 0 -0.030723004932663653 -0.0013627813893635076 0 -0.029479301752624778 -0.0011449661070989797 0 -0.030655242885273565 -0.00096106784173958311 0 -0.03122374852402646 -0.00060941701933591341 0 -0.030884400539379912 -0.0011172984204470403 0 -0.030723004932663653 -0.0013627813893635076 0 -0.027524429114564992 -0.0023107040133717787 0 -0.027372472433887105 -0.0023843600598729984 0 -0.028049032480989583 -0.0021016594852706909 0 -0.027372472433887105 -0.0023843600598729984 0 -0.027523623587926805 -0.002354498009489107 0 -0.028049032480989583 -0.0021016594852706909 0 -0.028714150209925616 -0.0013750459765713677 0 -0.028915028435405755 -0.0012539624217403639 0 -0.028049032480989583 -0.0021016594852706909 0 -0.027764921624951918 -0.0022242447994704341 0 -0.028319370375952242 -0.0019086669901111917 0 -0.027524429114564992 -0.0023107040133717787 0 -0.028049032480989583 -0.0021016594852706909 0 -0.027764921624951918 -0.0022242447994704341 0 -0.02734479415907452 -0.0024165804924157997 0 -0.027524429114564992 -0.0023107040133717787 0 -0.027764921624951918 -0.0022242447994704341 0 -0.028049032480989583 -0.0021016594852706909 0 -0.028319370375952242 -0.0019086669901111917 0 -0.029479301752624778 -0.0011449661070989797 0 -0.028915028435405755 -0.0012539624217403639 0 -0.028900561629338472 -0.0010506957587550388 0 -0.028319370375952242 -0.0019086669901111917 0 -0.029479301752624778 -0.0011449661070989797 0 -0.028869475270010138 -0.0008664519926153087 0 -0.029479301752624778 -0.0011449661070989797 0 -0.03032502307520267 -0.00070228244996483713 0 -0.030655242885273565 -0.00096106784173958311 0 -0.029479301752624778 -0.0011449661070989797 0 -0.030070501984245313 -0.00054833678626545462 0 -0.03032502307520267 -0.00070228244996483713 0 -0.029479301752624778 -0.0011449661070989797 0 -0.030070501984245313 -0.00054833678626545462 0 -0.028869475270010138 -0.0008664519926153087 0 -0.030070501984245313 -0.00054833678626545462 0 -0.028869475270010138 -0.0008664519926153087 0 -0.030768884923218082 5.3749962184084703e-05 0 -0.030070501984245313 -0.00054833678626545462 0 -0.030742677460044065 -0.0003811899725480114 0 -0.030768884923218082 5.3749962184084703e-05 0 -0.030070501984245313 -0.00054833678626545462 0 -0.030742677460044065 -0.0003811899725480114 0 -0.03032502307520267 -0.00070228244996483713 0 -0.030742677460044065 -0.0003811899725480114 0 -0.03086783575215301 -0.00064367710127620666 0 -0.03032502307520267 -0.00070228244996483713 0 -0.030742677460044065 -0.0003811899725480114 0 -0.03086783575215301 -0.00064367710127620666 0 -0.031176269277749181 -0.00035526157667439378 0 -0.03086783575215301 -0.00064367710127620666 0 -0.03032502307520267 -0.00070228244996483713 0 -0.030655242885273565 -0.00096106784173958311 0 -0.030864749395525734 -0.001066917289181487 0 -0.030842346689879639 -0.0011390169752119636 0 -0.03097703921616388 -0.00080823029684015386 0 -0.03086783575215301 -0.00064367710127620666 0 -0.030655242885273565 -0.00096106784173958311 0 -0.03097703921616388 -0.00080823029684015386 0 -0.030842346689879639 -0.0011390169752119636 0 -0.030655242885273565 -0.00096106784173958311 0 -0.03097703921616388 -0.00080823029684015386 0 -0.03086783575215301 -0.00064367710127620666 0 -0.03097703921616388 -0.00080823029684015386 0 -0.031176269277749181 -0.00035526157667439378 0 -0.03097703921616388 -0.00080823029684015386 0 -0.031176269277749181 -0.00035526157667439378 0 -0.031190458548361638 -0.00054491819703617842 0 -0.031176269277749181 -0.00035526157667439378 0 -0.031190458548361638 -0.00054491819703617842 0 -0.031346034221579132 -0.00032866018700108268 0 -0.031190458548361638 -0.00054491819703617842 0 -0.031369674652224504 -0.00041741709282866674 0 -0.031346034221579132 -0.00032866018700108268 0 -0.031190458548361638 -0.00054491819703617842 0 -0.031369674652224504 -0.00041741709282866674 0 -0.031218617343555001 -0.00061689951713130421 0 -0.031190458548361638 -0.00054491819703617842 0 -0.031218617343555001 -0.00061689951713130421 0 -0.03103660777319266 -0.0008256681493935714 0 -0.031086371319269071 -0.00083502918901341564 0 -0.031218617343555001 -0.00061689951713130421 0 -0.03103660777319266 -0.0008256681493935714 0 -0.03097703921616388 -0.00080823029684015386 0 -0.031190458548361638 -0.00054491819703617842 0 -0.03103660777319266 -0.0008256681493935714 0 -0.030864749395525734 -0.001066917289181487 0 -0.03097703921616388 -0.00080823029684015386 0 -0.03103660777319266 -0.0008256681493935714 0 -0.030868754020665884 -0.0010302003462270089 0 -0.030864749395525734 -0.001066917289181487 0 -0.03103660777319266 -0.0008256681493935714 0 -0.030868754020665884 -0.0010302003462270089 0 -0.031086371319269071 -0.00083502918901341564 0 -0.03103660777319266 -0.0008256681493935714 0 -0.028390464379302358 -0.0024759132220372793 0 -0.02800196123908567 -0.0026822357678569736 0 -0.028849710476441283 -0.0025450972059194521 0 -0.028390464379302358 -0.0024759132220372793 0 -0.028849710476441283 -0.0025450972059194521 0 -0.029045900933169159 -0.0020040309299315128 0 -0.028390464379302358 -0.0024759132220372793 0 -0.029045900933169159 -0.0020040309299315128 0 -0.028439059250156634 -0.0020716976392093247 0 -0.028390464379302358 -0.0024759132220372793 0 -0.02803320229482268 -0.0024296474999763299 0 -0.028439059250156634 -0.0020716976392093247 0 -0.027932992481974693 -0.0019421436629886298 0 -0.02803320229482268 -0.0024296474999763299 0 -0.028439059250156634 -0.0020716976392093247 0 -0.028390464379302358 -0.0024759132220372793 0 -0.02803320229482268 -0.0024296474999763299 0 -0.027797925966795988 -0.0026842415790479086 0 -0.027627575930949264 -0.0025508465907831011 0 -0.02803320229482268 -0.0024296474999763299 0 -0.027797925966795988 -0.0026842415790479086 0 -0.02758112660679422 -0.0027456127780153918 0 -0.027797925966795988 -0.0026842415790479086 0 -0.02800196123908567 -0.0026822357678569736 0 -0.027322127511785983 -0.0027277660465708183 0 -0.02800196123908567 -0.0026822357678569736 0 -0.028849710476441283 -0.0025450972059194521 0 -0.028390464379302358 -0.0024759132220372793 0 -0.027797925966795988 -0.0026842415790479086 0 -0.02800196123908567 -0.0026822357678569736 0 -0.028754339319690167 -0.002333837409546893 0 -0.029178380119225661 -0.0018752565612640008 0 -0.027322127511785983 -0.0027277660465708183 0 -0.028959169290702854 -0.0020140144270324946 0 -0.02842521611558475 -0.0017692829711629661 0 -0.028231035319387275 -0.0021641010525452922 0 -0.028570608343823616 -0.0017955148152011319 0 -0.027293022373110157 -0.0024777411952716473 0 -0.027177808487984876 -0.0026877526003490026 0 -0.027445669389076048 -0.0020975193754898922 0 -0.027293022373110157 -0.0024777411952716473 0 -0.027586061564395751 -0.0022853470321931081 0 -0.027445669389076048 -0.0020975193754898922 0 -0.028319370375952242 -0.0019086669901111917 0 -0.027586061564395751 -0.0022853470321931081 0 -0.027445669389076048 -0.0020975193754898922 0 -0.027293022373110157 -0.0024777411952716473 0 -0.02734479415907452 -0.0024165804924157997 0 -0.027586061564395751 -0.0022853470321931081 0 -0.02734479415907452 -0.0024165804924157997 0 -0.027764921624951918 -0.0022242447994704341 0 -0.027586061564395751 -0.0022853470321931081 0 -0.027764921624951918 -0.0022242447994704341 0 -0.028319370375952242 -0.0019086669901111917 0 -0.027586061564395751 -0.0022853470321931081 0 -0.028959169290702854 -0.0020140144270324946 0 -0.029292786101671697 -0.0012576038733710401 0 -0.030222678201584443 -0.00072406071495604175 0 -0.028319370375952242 -0.0019086669901111917 0 -0.027445669389076048 -0.0020975193754898922 0 -0.028869475270010138 -0.0008664519926153087 0 -0.028570608343823616 -0.0017955148152011319 0 -0.029229463026216387 -0.0010191088270133594 0 -0.028959169290702854 -0.0020140144270324946 0 -0.02842521611558475 -0.0017692829711629661 0 -0.029292786101671697 -0.0012576038733710401 0 -0.02842521611558475 -0.0017692829711629661 0 -0.029292786101671697 -0.0012576038733710401 0 -0.029513558085836389 -0.00048536554719528005 0 -0.029292786101671697 -0.0012576038733710401 0 -0.030222678201584443 -0.00072406071495604175 0 -0.029513558085836389 -0.00048536554719528005 0 -0.029178380119225661 -0.0018752565612640008 0 -0.030069906446935867 -0.00083402861338533678 0 -0.030222678201584443 -0.00072406071495604175 0 -0.030305609572643718 -0.00020457498983203091 0 -0.030768884923218082 5.3749962184084703e-05 0 -0.029229463026216387 -0.0010191088270133594 0 -0.029612507503109124 -0.00054270081128437574 0 -0.030222678201584443 -0.00072406071495604175 0 -0.030305609572643718 -0.00020457498983203091 0 -0.029513558085836389 -0.00048536554719528005 0 -0.03036326087815238 -0.001328165052699279 0 -0.028955646981841051 -0.0011450059069668577 0 -0.030204033238485688 -0.00036886016352512176 0 -0.03036326087815238 -0.001328165052699279 0 -0.029045900933169159 -0.0020040309299315128 0 -0.028955646981841051 -0.0011450059069668577 0 -0.029045900933169159 -0.0020040309299315128 0 -0.028439059250156634 -0.0020716976392093247 0 -0.028955646981841051 -0.0011450059069668577 0 -0.028849710476441283 -0.0025450972059194521 0 -0.03036326087815238 -0.001328165052699279 0 -0.029045900933169159 -0.0020040309299315128 0 -0.027932992481974693 -0.0019421436629886298 0 -0.028439059250156634 -0.0020716976392093247 0 -0.028955646981841051 -0.0011450059069668577 0 -0.027932992481974693 -0.0019421436629886298 0 -0.027721484632432226 -0.0013204546508342205 0 -0.028955646981841051 -0.0011450059069668577 0 -0.027721484632432226 -0.0013204546508342205 0 -0.028955646981841051 -0.0011450059069668577 0 -0.029230931659607613 0.00025011389710751094 0 -0.030854315373365165 8.9722047843882752e-05 0 -0.031274934655736372 0.0006642954943107827 0 -0.033729814742886867 0.0016877110994464675 0 -0.033545919453055947 0.0020662390534013598 0 -0.033748292879176682 0.0019499805428693754 0 -0.033545919453055947 0.0020662390534013598 0 -0.033755393094062482 0.001742831322750882 0 -0.033748292879176682 0.0019499805428693754 0 -0.033545919453055947 0.0020662390534013598 0 -0.033755393094062482 0.001742831322750882 0 -0.033418521937625963 0.0014427922703805281 0 -0.033755393094062482 0.001742831322750882 0 -0.033418521937625963 0.0014427922703805281 0 -0.033844605961967304 0.0013874626285525146 0 -0.031274934655736372 0.0006642954943107827 0 -0.031504746268730455 0.00087897148670502316 0 -0.033545919453055947 0.0020662390534013598 0 -0.033418521937625963 0.0014427922703805281 0 -0.03223925716864369 0.0013148021788652383 0 -0.029230931659607613 0.00025011389710751094 0 -0.031956416016244854 0.00079390190352048723 0 -0.03223925716864369 0.0013148021788652383 0 -0.028955646981841051 -0.0011450059069668577 0 -0.029230931659607613 0.00025011389710751094 0 -0.030204033238485688 -0.00036886016352512176 0 -0.029230931659607613 0.00025011389710751094 0 -0.030204033238485688 -0.00036886016352512176 0 -0.031956416016244854 0.00079390190352048723 0 -0.030069906446935867 -0.00083402861338533678 0 -0.031042016652046599 0.00015447756211080788 0 -0.03036326087815238 -0.001328165052699279 0 -0.030204033238485688 -0.00036886016352512176 0 -0.031956416016244854 0.00079390190352048723 0 -0.030305609572643718 -0.00020457498983203091 0 -0.029513558085836389 -0.00048536554719528005 0 -0.030702228720853451 0.00014290104068233895 0 -0.030305609572643718 -0.00020457498983203091 0 -0.030702228720853451 0.00014290104068233895 0 -0.030768884923218082 5.3749962184084703e-05 0 -0.03143326857443382 0.00025195185495516118 0 -0.030702228720853451 0.00014290104068233895 0 -0.030768884923218082 5.3749962184084703e-05 0 -0.031956416016244854 0.00079390190352048723 0 -0.032688883715775351 0.0011986128542471723 0 -0.03223925716864369 0.0013148021788652383 0 -0.03143326857443382 0.00025195185495516118 0 -0.030702228720853451 0.00014290104068233895 0 -0.031889176001040617 0.00035195792478606627 0 -0.032688883715775351 0.0011986128542471723 0 -0.03223925716864369 0.0013148021788652383 0 -0.032982415894901938 0.0010965618184207175 0 -0.031042016652046599 0.00015447756211080788 0 -0.031790404949661649 0.00048807004212590488 0 -0.03143326857443382 0.00025195185495516118 0 -0.031889176001040617 0.00035195792478606627 0 -0.032272944997326351 0.00036170934853999015 0 -0.03143326857443382 0.00025195185495516118 0 -0.032272944997326351 0.00036170934853999015 0 -0.032047284723007108 0.00032685175322077798 0 -0.031889176001040617 0.00035195792478606627 0 -0.032272944997326351 0.00036170934853999015 0 -0.033320429214653786 0.00032542109161922653 0 -0.032272944997326351 0.00036170934853999015 0 -0.032047284723007108 0.00032685175322077798 0 -0.032680328402057236 0.00034512153540604647 0 -0.031790404949661649 0.00048807004212590488 0 -0.032115251080939149 0.00042443054167962845 0 -0.032688883715775351 0.0011986128542471723 0 -0.03329789880448554 0.0007010131765353946 0 -0.033404885034028199 0.0008417580633135552 0 -0.032688883715775351 0.0011986128542471723 0 -0.03329789880448554 0.0007010131765353946 0 -0.033320429214653786 0.00032542109161922653 0 -0.03329789880448554 0.0007010131765353946 0 -0.033404885034028199 0.0008417580633135552 0 -0.033799088385769546 0.00053242379906605255 0 -0.033404885034028199 0.0008417580633135552 0 -0.034014510554490736 0.00073577831960752792 0 -0.033615040204432463 0.0010480398650778659 0 -0.033404885034028199 0.0008417580633135552 0 -0.034014510554490736 0.00073577831960752792 0 -0.033799088385769546 0.00053242379906605255 0 -0.034014510554490736 0.00073577831960752792 0 -0.033615040204432463 0.0010480398650778659 0 -0.033993245346178848 0.0010681748057409948 0 -0.033615040204432463 0.0010480398650778659 0 -0.033993245346178848 0.0010681748057409948 0 -0.033844605961967304 0.0013874626285525146 0 -0.033418521937625963 0.0014427922703805281 0 -0.033615040204432463 0.0010480398650778659 0 -0.033844605961967304 0.0013874626285525146 0 -0.033418521937625963 0.0014427922703805281 0 -0.033615040204432463 0.0010480398650778659 0 -0.032982415894901938 0.0010965618184207175 0 -0.032688883715775351 0.0011986128542471723 0 -0.033404885034028199 0.0008417580633135552 0 -0.032982415894901938 0.0010965618184207175 0 -0.033418521937625963 0.0014427922703805281 0 -0.03223925716864369 0.0013148021788652383 0 -0.032982415894901938 0.0010965618184207175 0 -0.033404885034028199 0.0008417580633135552 0 -0.033615040204432463 0.0010480398650778659 0 -0.032982415894901938 0.0010965618184207175 0 -0.031581633887210171 -4.0335392420496095e-05 0 -0.031697877770969538 0.00015638020444462211 0 -0.031799652394794813 0.00019736373006366692 0 -0.031546286712353287 -0.00024265564940410413 0 -0.031581633887210171 -4.0335392420496095e-05 0 -0.031799652394794813 0.00019736373006366692 0 -0.031546286712353287 -0.00024265564940410413 0 -0.031581633887210171 -4.0335392420496095e-05 0 -0.031460648098315606 -0.00023332934843681757 0 -0.031369674652224504 -0.00041741709282866674 0 -0.031460648098315606 -0.00023332934843681757 0 -0.031346034221579132 -0.00032866018700108268 0 -0.031176269277749181 -0.00035526157667439378 0 -0.031346034221579132 -0.00032866018700108268 0 -0.031458073120530575 -0.00015403147145374296 0 -0.031460648098315606 -0.00023332934843681757 0 -0.031346034221579132 -0.00032866018700108268 0 -0.031458073120530575 -0.00015403147145374296 0 -0.031581633887210171 -4.0335392420496095e-05 0 -0.031460648098315606 -0.00023332934843681757 0 -0.031458073120530575 -0.00015403147145374296 0 -0.031581633887210171 -4.0335392420496095e-05 0 -0.031458073120530575 -0.00015403147145374296 0 -0.031438354967516846 -5.5124488507446784e-05 0 -0.031176269277749181 -0.00035526157667439378 0 -0.031458073120530575 -0.00015403147145374296 0 -0.031438354967516846 -5.5124488507446784e-05 0 -0.031176269277749181 -0.00035526157667439378 0 -0.031438354967516846 -5.5124488507446784e-05 0 -0.031153144105379088 -8.4338809756384305e-05 0 -0.031438354967516846 -5.5124488507446784e-05 0 -0.031511620307487671 0.00010140220989402022 0 -0.031153144105379088 -8.4338809756384305e-05 0 -0.031438354967516846 -5.5124488507446784e-05 0 -0.031511620307487671 0.00010140220989402022 0 -0.031697877770969538 0.00015638020444462211 0 -0.031581633887210171 -4.0335392420496095e-05 0 -0.031438354967516846 -5.5124488507446784e-05 0 -0.031697877770969538 0.00015638020444462211 0 -0.031511620307487671 0.00010140220989402022 0 -0.031697877770969538 0.00015638020444462211 0 -0.031817485729124899 0.0002530193371029939 0 -0.031369712491858881 0.00013001117392482007 0 -0.031543787485505792 0.00023623477773025481 0 -0.031817485729124899 0.0002530193371029939 0 -0.031511620307487671 0.00010140220989402022 0 -0.031369712491858881 0.00013001117392482007 0 -0.031817485729124899 0.0002530193371029939 0 -0.031511620307487671 0.00010140220989402022 0 -0.031369712491858881 0.00013001117392482007 0 -0.031153144105379088 -8.4338809756384305e-05 0 -0.030742677460044065 -0.0003811899725480114 0 -0.031176269277749181 -0.00035526157667439378 0 -0.031153144105379088 -8.4338809756384305e-05 0 -0.030742677460044065 -0.0003811899725480114 0 -0.031153144105379088 -8.4338809756384305e-05 0 -0.030768884923218082 5.3749962184084703e-05 0 -0.031369712491858881 0.00013001117392482007 0 -0.031153144105379088 -8.4338809756384305e-05 0 -0.030768884923218082 5.3749962184084703e-05 0 -0.031369712491858881 0.00013001117392482007 0 -0.030768884923218082 5.3749962184084703e-05 0 -0.031543787485505792 0.00023623477773025481 0 -0.03143326857443382 0.00025195185495516118 0 -0.030768884923218082 5.3749962184084703e-05 0 -0.031543787485505792 0.00023623477773025481 0 -0.031543787485505792 0.00023623477773025481 0 -0.032047284723007108 0.00032685175322077798 0 -0.032186905596021109 0.00033315688965646767 0 -0.03143326857443382 0.00025195185495516118 0 -0.031543787485505792 0.00023623477773025481 0 -0.032047284723007108 0.00032685175322077798 0 -0.032047284723007108 0.00032685175322077798 0 -0.032186905596021109 0.00033315688965646767 0 -0.032680328402057236 0.00034512153540604647 0 -0.032186905596021109 0.00033315688965646767 0 -0.03272998110347039 0.00030605874163007273 0 -0.032680328402057236 0.00034512153540604647 0 -0.032186905596021109 0.00033315688965646767 0 -0.032288276371085327 0.0003288813186125446 0 -0.03272998110347039 0.00030605874163007273 0 -0.032186905596021109 0.00033315688965646767 0 -0.031817485729124899 0.0002530193371029939 0 -0.032288276371085327 0.0003288813186125446 0 -0.031543787485505792 0.00023623477773025481 0 -0.032186905596021109 0.00033315688965646767 0 -0.031817485729124899 0.0002530193371029939 0 -0.031817485729124899 0.0002530193371029939 0 -0.03196695462242706 0.0002735819241307608 0 -0.032288276371085327 0.0003288813186125446 0 -0.031697877770969538 0.00015638020444462211 0 -0.031817485729124899 0.0002530193371029939 0 -0.03196695462242706 0.0002735819241307608 0 -0.032288276371085327 0.0003288813186125446 0 -0.032218296418245626 0.00031326873130568144 0 -0.032703624012707051 0.00026884341512247708 0 -0.03196695462242706 0.0002735819241307608 0 -0.032288276371085327 0.0003288813186125446 0 -0.032218296418245626 0.00031326873130568144 0 -0.033186711543651513 -6.5076295539590723e-05 0 -0.032847788628794568 -6.0064074758921065e-05 0 -0.032483748147748633 6.566673495337445e-05 0 -0.032748539378309523 6.1795563908057525e-05 0 -0.032295775609345427 1.377028255496444e-05 0 -0.03196695462242706 0.0002735819241307608 0 -0.032218296418245626 0.00031326873130568144 0 -0.031799652394794813 0.00019736373006366692 0 -0.032509258846348935 1.3466918398522172e-05 0 -0.032847788628794568 -6.0064074758921065e-05 0 -0.032483748147748633 6.566673495337445e-05 0 -0.031697877770969538 0.00015638020444462211 0 -0.03196695462242706 0.0002735819241307608 0 -0.031799652394794813 0.00019736373006366692 0 -0.034985517679633441 -5.3390922676021634e-08 0 -0.034986348532844103 3.5176459014871151e-07 0 -0.034991945163063906 2.1338305646222158e-07 0 -0.034991191469633386 -1.0578892160587948e-06 0 -0.034995043639586922 -1.1449628974807264e-07 0 -0.03376522789904992 -0.00016201842819338206 0 -0.034391249530441557 -1.7088763154455768e-06 0 -0.034985517679633441 -5.3390922676021634e-08 0 -0.034980483148201763 -3.6785003612606358e-06 0 -0.034986348532844103 3.5176459014871151e-07 0 -0.033186711543651513 -6.5076295539590723e-05 0 -0.032847788628794568 -6.0064074758921065e-05 0 -0.033457822830616171 -0.00018264136246494964 0 -0.032960305325715325 -0.00053809998026704993 0 -0.03376522789904992 -0.00016201842819338206 0 -0.032748539378309523 6.1795563908057525e-05 0 -0.033245170240683089 -1.3806427376023651e-05 0 -0.032218296418245626 0.00031326873130568144 0 -0.032703624012707051 0.00026884341512247708 0 -0.033039404557444044 0.00010364133888905612 0 -0.033186711543651513 -6.5076295539590723e-05 0 -0.033457822830616171 -0.00018264136246494964 0 -0.033890722883229508 -0.00018930054083398295 0 -0.032703624012707051 0.00026884341512247708 0 -0.033039404557444044 0.00010364133888905612 0 -0.033230127947036538 0.00019470778813313522 0 -0.033457822830616171 -0.00018264136246494964 0 -0.033890722883229508 -0.00018930054083398295 0 -0.034113467931858064 -0.00019526090371877659 0 -0.033039404557444044 0.00010364133888905612 0 -0.033230127947036538 0.00019470778813313522 0 -0.033823315279483762 3.4983293721200032e-05 0 -0.033230127947036538 0.00019470778813313522 0 -0.033763672234277516 9.6003537339547283e-05 0 -0.033823315279483762 3.4983293721200032e-05 0 -0.032703624012707051 0.00026884341512247708 0 -0.033230127947036538 0.00019470778813313522 0 -0.03272998110347039 0.00030605874163007273 0 -0.032288276371085327 0.0003288813186125446 0 -0.032703624012707051 0.00026884341512247708 0 -0.03272998110347039 0.00030605874163007273 0 -0.033230127947036538 0.00019470778813313522 0 -0.03272998110347039 0.00030605874163007273 0 -0.033141255164072583 0.00026163135559552971 0 -0.03272998110347039 0.00030605874163007273 0 -0.032680328402057236 0.00034512153540604647 0 -0.033141255164072583 0.00026163135559552971 0 -0.033230127947036538 0.00019470778813313522 0 -0.033141255164072583 0.00026163135559552971 0 -0.033763672234277516 9.6003537339547283e-05 0 -0.033141255164072583 0.00026163135559552971 0 -0.033763672234277516 9.6003537339547283e-05 0 -0.033320429214653786 0.00032542109161922653 0 -0.033763672234277516 9.6003537339547283e-05 0 -0.034343398656799605 -3.5140361604947151e-06 0 -0.034261443447593846 3.7573530598600648e-05 0 -0.033763672234277516 9.6003537339547283e-05 0 -0.034343398656799605 -3.5140361604947151e-06 0 -0.033823315279483762 3.4983293721200032e-05 0 -0.034343398656799605 -3.5140361604947151e-06 0 -0.034999046093942013 -4.2022210094763166e-08 0 -0.034261443447593846 3.7573530598600648e-05 0 -0.034343398656799605 -3.5140361604947151e-06 0 -0.034999046093942013 -4.2022210094763166e-08 0 -0.034578452653333418 -8.05008386870556e-05 0 -0.034999046093942013 -4.2022210094763166e-08 0 -0.034578452653333418 -8.05008386870556e-05 0 -0.034998168231449231 -1.3840956560244426e-07 0 -0.034343398656799605 -3.5140361604947151e-06 0 -0.034578452653333418 -8.05008386870556e-05 0 -0.033823315279483762 3.4983293721200032e-05 0 -0.033039404557444044 0.00010364133888905612 0 -0.034578452653333418 -8.05008386870556e-05 0 -0.033823315279483762 3.4983293721200032e-05 0 -0.033245170240683089 -1.3806427376023651e-05 0 -0.033528966503691415 -8.0881687164681738e-05 0 -0.033890722883229508 -0.00018930054083398295 0 -0.034578452653333418 -8.05008386870556e-05 0 -0.034113467931858064 -0.00019526090371877659 0 -0.034994251682853889 2.4286297240743584e-07 0 -0.035000001721315781 9.2006830006435153e-10 0 -0.034999989147188305 -1.7642943826780262e-09 0 -0.034578452653333418 -8.05008386870556e-05 0 -0.034113467931858064 -0.00019526090371877659 0 -0.034998168231449231 -1.3840956560244426e-07 0 -0.034391249530441557 -1.7088763154455768e-06 0 -0.034998810294222374 -4.1169767359206846e-08 0 -0.034999989893655839 -6.7107251800241434e-10 0 -0.034995043639586922 -1.1449628974807264e-07 0 -0.034996087314781883 -8.4314490590841242e-07 0 -0.034999995881254624 -5.7939348866284852e-10 0 -0.034994951066257364 -1.0543873504588563e-06 0 -0.034994251682853889 2.4286297240743584e-07 0 -0.034999989147188305 -1.7642943826780262e-09 0 -0.034991945163063906 2.1338305646222158e-07 0 -0.034986348532844103 3.5176459014871151e-07 0 -0.034994251682853889 2.4286297240743584e-07 0 -0.034991945163063906 2.1338305646222158e-07 0 -0.034182030052920899 0.00022628131804420628 0 -0.033320429214653786 0.00032542109161922653 0 -0.034418198699530035 4.0414710160589646e-05 0 -0.034182030052920899 0.00022628131804420628 0 -0.034645160724764895 7.0786911359211469e-05 0 -0.034321640188565337 0.00038661670947394612 0 -0.034182030052920899 0.00022628131804420628 0 -0.033799088385769546 0.00053242379906605255 0 -0.034321640188565337 0.00038661670947394612 0 -0.034014510554490736 0.00073577831960752792 0 -0.033799088385769546 0.00053242379906605255 0 -0.034321640188565337 0.00038661670947394612 0 -0.034182030052920899 0.00022628131804420628 0 -0.033799088385769546 0.00053242379906605255 0 -0.033320429214653786 0.00032542109161922653 0 -0.03329789880448554 0.0007010131765353946 0 -0.033799088385769546 0.00053242379906605255 0 -0.033320429214653786 0.00032542109161922653 0 -0.032272944997326351 0.00036170934853999015 0 -0.032680328402057236 0.00034512153540604647 0 -0.033320429214653786 0.00032542109161922653 0 -0.032680328402057236 0.00034512153540604647 0 -0.033141255164072583 0.00026163135559552971 0 -0.033320429214653786 0.00032542109161922653 0 -0.033763672234277516 9.6003537339547283e-05 0 -0.033320429214653786 0.00032542109161922653 0 -0.034261443447593846 3.7573530598600648e-05 0 -0.033320429214653786 0.00032542109161922653 0 -0.034261443447593846 3.7573530598600648e-05 0 -0.034418198699530035 4.0414710160589646e-05 0 -0.034999046093942013 -4.2022210094763166e-08 0 -0.034261443447593846 3.7573530598600648e-05 0 -0.034999121952979634 -1.4535000250255625e-08 0 -0.034261443447593846 3.7573530598600648e-05 0 -0.034999121952979634 -1.4535000250255625e-08 0 -0.034418198699530035 4.0414710160589646e-05 0 -0.034999121952979634 -1.4535000250255625e-08 0 -0.034418198699530035 4.0414710160589646e-05 0 -0.0349994264793125 -5.0731811231441664e-08 0 -0.034182030052920899 0.00022628131804420628 0 -0.034418198699530035 4.0414710160589646e-05 0 -0.034645160724764895 7.0786911359211469e-05 0 -0.0349994264793125 -5.0731811231441664e-08 0 -0.034999706152102274 9.8535203580104619e-09 0 -0.034645160724764895 7.0786911359211469e-05 0 -0.034418198699530035 4.0414710160589646e-05 0 -0.0349994264793125 -5.0731811231441664e-08 0 -0.034645160724764895 7.0786911359211469e-05 0 -0.034999706152102274 9.8535203580104619e-09 0 -0.034872249133446949 5.6672362172061881e-05 0 -0.034645160724764895 7.0786911359211469e-05 0 -0.034999706152102274 9.8535203580104619e-09 0 -0.034872249133446949 5.6672362172061881e-05 0 -0.034999888889036088 1.3648792334271789e-08 0 -0.034872249133446949 5.6672362172061881e-05 0 -0.034874955247240706 0.0001635575777780026 0 -0.034669202934287748 0.00023868142497990188 0 -0.034872249133446949 5.6672362172061881e-05 0 -0.034645160724764895 7.0786911359211469e-05 0 -0.034669202934287748 0.00023868142497990188 0 -0.034999888889036088 1.3648792334271789e-08 0 -0.034978489879972062 4.9624459042864868e-05 0 -0.035000031529262975 2.9030836350413379e-08 0 -0.034872249133446949 5.6672362172061881e-05 0 -0.034999888889036088 1.3648792334271789e-08 0 -0.034978489879972062 4.9624459042864868e-05 0 -0.034872249133446949 5.6672362172061881e-05 0 -0.034978489879972062 4.9624459042864868e-05 0 -0.034874955247240706 0.0001635575777780026 0 -0.034978489879972062 4.9624459042864868e-05 0 -0.035016541057201353 0.00016927796964120111 0 -0.034874955247240706 0.0001635575777780026 0 -0.034864044123352464 0.00022945012233777445 0 -0.034843972071582269 0.00027283873345830626 0 -0.035016541057201353 0.00016927796964120111 0 -0.034874955247240706 0.0001635575777780026 0 -0.034840208121479858 0.00038326467955535542 0 -0.034874955247240706 0.0001635575777780026 0 -0.034840208121479858 0.00038326467955535542 0 -0.034669202934287748 0.00023868142497990188 0 -0.034840208121479858 0.00038326467955535542 0 -0.034669202934287748 0.00023868142497990188 0 -0.034802927865814376 0.00040988275979938842 0 -0.034840208121479858 0.00038326467955535542 0 -0.034802927865814376 0.00040988275979938842 0 -0.034787529042404362 0.00038954153503977071 0 -0.034840208121479858 0.00038326467955535542 0 -0.034787529042404362 0.00038954153503977071 0 -0.034728715708580445 0.00043347892836801685 0 -0.034697059943196842 0.00040570886426332222 0 -0.034840208121479858 0.00038326467955535542 0 -0.034728715708580445 0.00043347892836801685 0 -0.034645160724764895 7.0786911359211469e-05 0 -0.034669202934287748 0.00023868142497990188 0 -0.034321640188565337 0.00038661670947394612 0 -0.034513679247256422 0.0004938835714637333 0 -0.034538311933479428 0.00069441433800964162 0 -0.034669202934287748 0.00023868142497990188 0 -0.034391322732699438 0.00063256911387870023 0 -0.034527995256240035 0.00074460545137112382 0 -0.034669202934287748 0.00023868142497990188 0 -0.034527995256240035 0.00074460545137112382 0 -0.034711643610543734 0.0006872518724372977 0 -0.034014510554490736 0.00073577831960752792 0 -0.034321640188565337 0.00038661670947394612 0 -0.034391322732699438 0.00063256911387870023 0 -0.034669202934287748 0.00023868142497990188 0 -0.034321640188565337 0.00038661670947394612 0 -0.034391322732699438 0.00063256911387870023 0 -0.034014510554490736 0.00073577831960752792 0 -0.034391322732699438 0.00063256911387870023 0 -0.034269746079535111 0.00091664216554877701 0 -0.034014510554490736 0.00073577831960752792 0 -0.034269746079535111 0.00091664216554877701 0 -0.033993245346178848 0.0010681748057409948 0 -0.034269746079535111 0.00091664216554877701 0 -0.033993245346178848 0.0010681748057409948 0 -0.034179243346049056 0.0012538149919397417 0 -0.033993245346178848 0.0010681748057409948 0 -0.034179243346049056 0.0012538149919397417 0 -0.033844605961967304 0.0013874626285525146 0 -0.034179243346049056 0.0012538149919397417 0 -0.034456810017702268 0.0010900457146071456 0 -0.034327416536904687 0.0014927906144105438 0 -0.034456810017702268 0.0010900457146071456 0 -0.034656422368384697 0.0012427595127988463 0 -0.034327416536904687 0.0014927906144105438 0 -0.034269746079535111 0.00091664216554877701 0 -0.034179243346049056 0.0012538149919397417 0 -0.034456810017702268 0.0010900457146071456 0 -0.034456810017702268 0.0010900457146071456 0 -0.034527995256240035 0.00074460545137112382 0 -0.034678853612863283 0.00099589213009575162 0 -0.034269746079535111 0.00091664216554877701 0 -0.034456810017702268 0.0010900457146071456 0 -0.034527995256240035 0.00074460545137112382 0 -0.034391322732699438 0.00063256911387870023 0 -0.034269746079535111 0.00091664216554877701 0 -0.034527995256240035 0.00074460545137112382 0 -0.034711643610543734 0.0006872518724372977 0 -0.034678853612863283 0.00099589213009575162 0 -0.035061402732373841 0.0012159361938654345 0 -0.034538311933479428 0.00069441433800964162 0 -0.034451498967391636 0.0011326689951884953 0 -0.034527995256240035 0.00074460545137112382 0 -0.034711643610543734 0.0006872518724372977 0 -0.034678853612863283 0.00099589213009575162 0 -0.034787529042404362 0.00038954153503977071 0 -0.034784766491428205 0.0003420083084170478 0 -0.034723487658268326 0.0003832452372094546 0 -0.034802927865814376 0.00040988275979938842 0 -0.034787529042404362 0.00038954153503977071 0 -0.034784766491428205 0.0003420083084170478 0 -0.034678853612863283 0.00099589213009575162 0 -0.035061402732373841 0.0012159361938654345 0 -0.034656422368384697 0.0012427595127988463 0 -0.035061402732373841 0.0012159361938654345 0 -0.034656422368384697 0.0012427595127988463 0 -0.034751128159598417 0.0015305928647987885 0 -0.034456810017702268 0.0010900457146071456 0 -0.034678853612863283 0.00099589213009575162 0 -0.034656422368384697 0.0012427595127988463 0 -0.034656422368384697 0.0012427595127988463 0 -0.034751128159598417 0.0015305928647987885 0 -0.034327416536904687 0.0014927906144105438 0 -0.034751128159598417 0.0015305928647987885 0 -0.034231793200102424 0.0018501577144577905 0 -0.034327416536904687 0.0014927906144105438 0 -0.034334113343073326 0.0013858655725536545 0 -0.034290428125998772 0.0014710358874160255 0 -0.033965196474410708 0.0018758726026807001 0 -0.033964020483922892 0.0018465914117438047 0 -0.0339855625192328 0.0017571774386185078 0 -0.034451498967391636 0.0011326689951884953 0 -0.034417847354484422 0.0012563341940835778 0 -0.034451498967391636 0.0011326689951884953 0 -0.034334113343073326 0.0013858655725536545 0 -0.033965196474410708 0.0018758726026807001 0 -0.034014860685071459 0.0019035582450225104 0 -0.033964020483922892 0.0018465914117438047 0 -0.034014860685071459 0.0019035582450225104 0 -0.033964020483922892 0.0018465914117438047 0 -0.033961235741676248 0.0018907658376377081 0 -0.033964020483922892 0.0018465914117438047 0 -0.033905539937452357 0.0019057511644234879 0 -0.0339855625192328 0.0017571774386185078 0 -0.033964020483922892 0.0018465914117438047 0 -0.033961235741676248 0.0018907658376377081 0 -0.033905539937452357 0.0019057511644234879 0 -0.033961235741676248 0.0018907658376377081 0 -0.033876620854836045 0.0019171865902030615 0 -0.034026628370903478 0.0018929323298086545 0 -0.033833425597145847 0.0019203940244080886 0 -0.033876620854836045 0.0019171865902030615 0 -0.033905539937452357 0.0019057511644234879 0 -0.033961235741676248 0.0018907658376377081 0 -0.033876620854836045 0.0019171865902030615 0 -0.033905539937452357 0.0019057511644234879 0 -0.034014860685071459 0.0019035582450225104 0 -0.034095162619751956 0.0018715421550308175 0 -0.034231793200102424 0.0018501577144577905 0 -0.034014860685071459 0.0019035582450225104 0 -0.033961235741676248 0.0018907658376377081 0 -0.034095162619751956 0.0018715421550308175 0 -0.034187808875493372 0.0019262095835122593 0 -0.034095162619751956 0.0018715421550308175 0 -0.034231793200102424 0.0018501577144577905 0 -0.033961235741676248 0.0018907658376377081 0 -0.034095162619751956 0.0018715421550308175 0 -0.034026628370903478 0.0018929323298086545 0 -0.034187808875493372 0.0019262095835122593 0 -0.034095162619751956 0.0018715421550308175 0 -0.034026628370903478 0.0018929323298086545 0 -0.03344986279772233 0.0017936246628638731 0 -0.033580977111473197 0.0018518557238156878 0 -0.034187808875493372 0.0019262095835122593 0 -0.034231793200102424 0.0018501577144577905 0 -0.034053635738068661 0.0017913468593420826 0 -0.034187808875493372 0.0019262095835122593 0 -0.034053635738068661 0.0017913468593420826 0 -0.033748292879176682 0.0019499805428693754 0 -0.033755393094062482 0.001742831322750882 0 -0.034053635738068661 0.0017913468593420826 0 -0.033748292879176682 0.0019499805428693754 0 -0.033755393094062482 0.001742831322750882 0 -0.034053635738068661 0.0017913468593420826 0 -0.034034952482423803 0.0015633576066969932 0 -0.033755393094062482 0.001742831322750882 0 -0.033844605961967304 0.0013874626285525146 0 -0.034034952482423803 0.0015633576066969932 0 -0.034179243346049056 0.0012538149919397417 0 -0.033844605961967304 0.0013874626285525146 0 -0.034034952482423803 0.0015633576066969932 0 -0.034179243346049056 0.0012538149919397417 0 -0.034034952482423803 0.0015633576066969932 0 -0.034327416536904687 0.0014927906144105438 0 -0.034231793200102424 0.0018501577144577905 0 -0.034053635738068661 0.0017913468593420826 0 -0.034327416536904687 0.0014927906144105438 0 -0.034053635738068661 0.0017913468593420826 0 -0.034034952482423803 0.0015633576066969932 0 -0.034327416536904687 0.0014927906144105438 0 -0.034768039410026125 0.0017432856611166165 0 -0.034817611408802858 0.0014713969430778641 0 -0.035032454964575958 0.0016295558853813418 0 -0.034768039410026125 0.0017432856611166165 0 -0.034817611408802858 0.0014713969430778641 0 -0.034619273631365348 0.0016038587155714852 0 -0.034817611408802858 0.0014713969430778641 0 -0.034619273631365348 0.0016038587155714852 0 -0.034571881501728366 0.0014120656199541328 0 -0.034817611408802858 0.0014713969430778641 0 -0.035032454964575958 0.0016295558853813418 0 -0.035042498382342718 0.0013722687180105697 0 -0.035224234547018084 0.0015068613463230154 0 -0.035032454964575958 0.0016295558853813418 0 -0.035042498382342718 0.0013722687180105697 0 -0.035224234547018084 0.0015068613463230154 0 -0.035235920719702121 0.0012938965152848934 0 -0.035400464171568002 0.0014199735146074365 0 -0.035224234547018084 0.0015068613463230154 0 -0.035235920719702121 0.0012938965152848934 0 -0.035042498382342718 0.0013722687180105697 0 -0.035224234547018084 0.0015068613463230154 0 -0.035234003075255038 0.0017208239077366062 0 -0.035384915146886603 0.0016059311374901871 0 -0.035224234547018084 0.0015068613463230154 0 -0.035032454964575958 0.0016295558853813418 0 -0.035234003075255038 0.0017208239077366062 0 -0.032144730955517259 0.0019488225088277425 0 -0.032174861397756223 0.001819283236961711 0 -0.03505516404436787 0.0019920191055204876 0 -0.035234003075255038 0.0017208239077366062 0 -0.035453079881848322 0.0018295091941507864 0 -0.035032454964575958 0.0016295558853813418 0 -0.03505516404436787 0.0019920191055204876 0 -0.035234003075255038 0.0017208239077366062 0 -0.034768039410026125 0.0017432856611166165 0 -0.03505516404436787 0.0019920191055204876 0 -0.034513186788393178 0.0020170768939610467 0 -0.032144730955517259 0.0019488225088277425 0 -0.033721220165137927 0.0020148721462961879 0 -0.034003474160048307 0.0019473914494109628 0 -0.034059619202642354 0.0019166249663921679 0 -0.034012977802947937 0.0019173523544907332 0 -0.034768039410026125 0.0017432856611166165 0 -0.035032454964575958 0.0016295558853813418 0 -0.03505516404436787 0.0019920191055204876 0 -0.034003474160048307 0.0019473914494109628 0 -0.034012977802947937 0.0019173523544907332 0 -0.033905539937452357 0.0019057511644234879 0 -0.034768039410026125 0.0017432856611166165 0 -0.034513186788393178 0.0020170768939610467 0 -0.034530622720355897 0.0017728987684981826 0 -0.034513186788393178 0.0020170768939610467 0 -0.034311069267943708 0.0018493694963469167 0 -0.034530622720355897 0.0017728987684981826 0 -0.034311069267943708 0.0018493694963469167 0 -0.033905539937452357 0.0019057511644234879 0 -0.034147260472983089 0.0018033863412691854 0 -0.033833425597145847 0.0019203940244080886 0 -0.034003474160048307 0.0019473914494109628 0 -0.033905539937452357 0.0019057511644234879 0 -0.034513186788393178 0.0020170768939610467 0 -0.034311069267943708 0.0018493694963469167 0 -0.033905539937452357 0.0019057511644234879 0 -0.033721220165137927 0.0020148721462961879 0 -0.03389914772683978 0.0020077642078769279 0 -0.033905539937452357 0.0019057511644234879 0 -0.0339855625192328 0.0017571774386185078 0 -0.034147260472983089 0.0018033863412691854 0 -0.033685981506176063 0.0013040106496115798 0 -0.0339855625192328 0.0017571774386185078 0 -0.034218795537045807 0.0013737007037333822 0 -0.0339855625192328 0.0017571774386185078 0 -0.034147260472983089 0.0018033863412691854 0 -0.034356304877058118 0.0016617564362720768 0 -0.0339855625192328 0.0017571774386185078 0 -0.034356304877058118 0.0016617564362720768 0 -0.034218795537045807 0.0013737007037333822 0 -0.034530622720355897 0.0017728987684981826 0 -0.034619273631365348 0.0016038587155714852 0 -0.034356304877058118 0.0016617564362720768 0 -0.034768039410026125 0.0017432856611166165 0 -0.034530622720355897 0.0017728987684981826 0 -0.034619273631365348 0.0016038587155714852 0 -0.034311069267943708 0.0018493694963469167 0 -0.034530622720355897 0.0017728987684981826 0 -0.034356304877058118 0.0016617564362720768 0 -0.034311069267943708 0.0018493694963469167 0 -0.034147260472983089 0.0018033863412691854 0 -0.034356304877058118 0.0016617564362720768 0 -0.034356304877058118 0.0016617564362720768 0 -0.034571881501728366 0.0014120656199541328 0 -0.034218795537045807 0.0013737007037333822 0 -0.034619273631365348 0.0016038587155714852 0 -0.034356304877058118 0.0016617564362720768 0 -0.034571881501728366 0.0014120656199541328 0 -0.034571881501728366 0.0014120656199541328 0 -0.034477414030530638 0.0011687530166526454 0 -0.034849764206364195 0.0011884994896488967 0 -0.034477414030530638 0.0011687530166526454 0 -0.034710290940580202 0.00090727643514670984 0 -0.034849764206364195 0.0011884994896488967 0 -0.034571881501728366 0.0014120656199541328 0 -0.034477414030530638 0.0011687530166526454 0 -0.034218795537045807 0.0013737007037333822 0 -0.033685981506176063 0.0013040106496115798 0 -0.034218795537045807 0.0013737007037333822 0 -0.03413701854982068 0.00090149503251007036 0 -0.034477414030530638 0.0011687530166526454 0 -0.034218795537045807 0.0013737007037333822 0 -0.03413701854982068 0.00090149503251007036 0 -0.034451498967391636 0.0011326689951884953 0 -0.034542742404589336 0.0008707538502928815 0 -0.034787529042404362 0.00038954153503977071 0 -0.034723487658268326 0.0003832452372094546 0 -0.034728715708580445 0.00043347892836801685 0 -0.034477414030530638 0.0011687530166526454 0 -0.03413701854982068 0.00090149503251007036 0 -0.034710290940580202 0.00090727643514670984 0 -0.03413701854982068 0.00090149503251007036 0 -0.034710290940580202 0.00090727643514670984 0 -0.034665456933003297 0.00052244729417779562 0 -0.034542742404589336 0.0008707538502928815 0 -0.034604920191342751 0.00076581018981925766 0 -0.034710290940580202 0.00090727643514670984 0 -0.034884046010409946 0.00073984780292697108 0 -0.034665456933003297 0.00052244729417779562 0 -0.034710290940580202 0.00090727643514670984 0 -0.034849764206364195 0.0011884994896488967 0 -0.035040767180218771 0.00094958858079663671 0 -0.034884046010409946 0.00073984780292697108 0 -0.035040767180218771 0.00094958858079663671 0 -0.035013421778799216 0.00059073148666438093 0 -0.034710290940580202 0.00090727643514670984 0 -0.034884046010409946 0.00073984780292697108 0 -0.035040767180218771 0.00094958858079663671 0 -0.034849764206364195 0.0011884994896488967 0 -0.035090895762230068 0.0011699844981793983 0 -0.035040767180218771 0.00094958858079663671 0 -0.034849764206364195 0.0011884994896488967 0 -0.035042498382342718 0.0013722687180105697 0 -0.035090895762230068 0.0011699844981793983 0 -0.034817611408802858 0.0014713969430778641 0 -0.034849764206364195 0.0011884994896488967 0 -0.035042498382342718 0.0013722687180105697 0 -0.034817611408802858 0.0014713969430778641 0 -0.034571881501728366 0.0014120656199541328 0 -0.034849764206364195 0.0011884994896488967 0 -0.035235920719702121 0.0012938965152848934 0 -0.035042498382342718 0.0013722687180105697 0 -0.035090895762230068 0.0011699844981793983 0 -0.035090895762230068 0.0011699844981793983 0 -0.035271376347643227 0.0010523357374928712 0 -0.035040767180218771 0.00094958858079663671 0 -0.035235920719702121 0.0012938965152848934 0 -0.035090895762230068 0.0011699844981793983 0 -0.035271376347643227 0.0010523357374928712 0 -0.035271376347643227 0.0010523357374928712 0 -0.035040767180218771 0.00094958858079663671 0 -0.035312279910166257 0.00074818340923908189 0 -0.035040767180218771 0.00094958858079663671 0 -0.035013421778799216 0.00059073148666438093 0 -0.035312279910166257 0.00074818340923908189 0 -0.035196465639697694 0.00052016317024226671 0 -0.035013421778799216 0.00059073148666438093 0 -0.035312279910166257 0.00074818340923908189 0 -0.035196465639697694 0.00052016317024226671 0 -0.035013421778799216 0.00059073148666438093 0 -0.034982105252664188 0.00040755012955058544 0 -0.034884046010409946 0.00073984780292697108 0 -0.034840469819475126 0.00047194668689199911 0 -0.035013421778799216 0.00059073148666438093 0 -0.034884046010409946 0.00073984780292697108 0 -0.034840469819475126 0.00047194668689199911 0 -0.034665456933003297 0.00052244729417779562 0 -0.034840469819475126 0.00047194668689199911 0 -0.035013421778799216 0.00059073148666438093 0 -0.034982105252664188 0.00040755012955058544 0 -0.034840469819475126 0.00047194668689199911 0 -0.034982105252664188 0.00040755012955058544 0 -0.034895934681428722 0.00033000134109060505 0 -0.034982105252664188 0.00040755012955058544 0 -0.034895934681428722 0.00033000134109060505 0 -0.0350177712102831 0.00025524329657422606 0 -0.034982105252664188 0.00040755012955058544 0 -0.035133331600635358 0.00036295833660900502 0 -0.0350177712102831 0.00025524329657422606 0 -0.035133331600635358 0.00036295833660900502 0 -0.03512477693884395 0.00023851193158545855 0 -0.03539576393900061 0.00044663508143428593 0 -0.035133331600635358 0.00036295833660900502 0 -0.03512477693884395 0.00023851193158545855 0 -0.0350177712102831 0.00025524329657422606 0 -0.035196465639697694 0.00052016317024226671 0 -0.035133331600635358 0.00036295833660900502 0 -0.03539576393900061 0.00044663508143428593 0 -0.035196465639697694 0.00052016317024226671 0 -0.034982105252664188 0.00040755012955058544 0 -0.035133331600635358 0.00036295833660900502 0 -0.034723487658268326 0.0003832452372094546 0 -0.034728715708580445 0.00043347892836801685 0 -0.034665456933003297 0.00052244729417779562 0 -0.034728715708580445 0.00043347892836801685 0 -0.034665456933003297 0.00052244729417779562 0 -0.034736892548647869 0.00039872662985478873 0 -0.034840469819475126 0.00047194668689199911 0 -0.034665456933003297 0.00052244729417779562 0 -0.034736892548647869 0.00039872662985478873 0 -0.034840469819475126 0.00047194668689199911 0 -0.034895934681428722 0.00033000134109060505 0 -0.034736892548647869 0.00039872662985478873 0 -0.034895934681428722 0.00033000134109060505 0 -0.034736892548647869 0.00039872662985478873 0 -0.03485188642816768 0.00023107476690414276 0 -0.034697059943196842 0.00040570886426332222 0 -0.034728715708580445 0.00043347892836801685 0 -0.034736892548647869 0.00039872662985478873 0 -0.034978489879972062 4.9624459042864868e-05 0 -0.035016541057201353 0.00016927796964120111 0 -0.035032307853579636 4.3706647663563132e-05 0 -0.034697059943196842 0.00040570886426332222 0 -0.034736892548647869 0.00039872662985478873 0 -0.034736647960847113 0.00020193513213558742 0 -0.034864044123352464 0.00022945012233777445 0 -0.034913319357992308 0.00013200065950663874 0 -0.034736892548647869 0.00039872662985478873 0 -0.034736647960847113 0.00020193513213558742 0 -0.03485188642816768 0.00023107476690414276 0 -0.034913319357992308 0.00013200065950663874 0 -0.034999899326726279 1.7467644341353714e-07 0 -0.035032307853579636 4.3706647663563132e-05 0 -0.0350000476084407 6.3587110450697188e-09 0 -0.035000031529262975 2.9030836350413379e-08 0 -0.034736647960847113 0.00020193513213558742 0 -0.03485188642816768 0.00023107476690414276 0 -0.034999471377399449 -6.877063434990221e-10 0 -0.034978489879972062 4.9624459042864868e-05 0 -0.035032307853579636 4.3706647663563132e-05 0 -0.035000031529262975 2.9030836350413379e-08 0 -0.035179486198052022 0.00011727001965871639 0 -0.03512477693884395 0.00023851193158545855 0 -0.03539576393900061 0.00044663508143428593 0 -0.035037637742856335 0.00014781545070149639 0 -0.03511820474985463 0.00013439738608396083 0 -0.03512477693884395 0.00023851193158545855 0 -0.03511820474985463 0.00013439738608396083 0 -0.035149663329496747 0.00012518808767731217 0 -0.035021045950615629 6.709603582341701e-05 0 -0.035037637742856335 0.00014781545070149639 0 -0.03511820474985463 0.00013439738608396083 0 -0.035021045950615629 6.709603582341701e-05 0 -0.03511820474985463 0.00013439738608396083 0 -0.035179486198052022 0.00011727001965871639 0 -0.03512477693884395 0.00023851193158545855 0 -0.035060037782086766 7.8185973773278481e-05 0 -0.035058064057432087 7.809395202429406e-05 0 -0.035037637742856335 0.00014781545070149639 0 -0.03512477693884395 0.00023851193158545855 0 -0.0350177712102831 0.00025524329657422606 0 -0.034895934681428722 0.00033000134109060505 0 -0.0350177712102831 0.00025524329657422606 0 -0.034968696299800643 0.00015646082079834227 0 -0.034895934681428722 0.00033000134109060505 0 -0.03485188642816768 0.00023107476690414276 0 -0.034968696299800643 0.00015646082079834227 0 -0.035037637742856335 0.00014781545070149639 0 -0.0350177712102831 0.00025524329657422606 0 -0.034968696299800643 0.00015646082079834227 0 -0.035037637742856335 0.00014781545070149639 0 -0.034968696299800643 0.00015646082079834227 0 -0.035021045950615629 6.709603582341701e-05 0 -0.034999471377399449 -6.877063434990221e-10 0 -0.035000459268411555 7.022110641520011e-08 0 -0.035021045950615629 6.709603582341701e-05 0 -0.03485188642816768 0.00023107476690414276 0 -0.034999471377399449 -6.877063434990221e-10 0 -0.034968696299800643 0.00015646082079834227 0 -0.034999471377399449 -6.877063434990221e-10 0 -0.034968696299800643 0.00015646082079834227 0 -0.035021045950615629 6.709603582341701e-05 0 -0.035149663329496747 0.00012518808767731217 0 -0.035000459268411555 7.022110641520011e-08 0 -0.035021045950615629 6.709603582341701e-05 0 -0.035058064057432087 7.809395202429406e-05 0 -0.035000114550809494 1.0639000467319118e-07 0 -0.035000106743249486 1.2662826940980683e-07 0 -0.034999999994697273 7.0704849111395314e-11 0 -0.03500000047063228 7.2413380597155977e-11 0 -0.035000106743249486 1.2662826940980683e-07 0 -0.03500000047063228 7.2413380597155977e-11 0 -0.035000052072498865 4.2195521848994727e-08 0 -0.035058064057432087 7.809395202429406e-05 0 -0.035024557106359981 3.7912422505444949e-05 0 -0.035027367598289595 -1.2942214449735191e-07 0 -0.035026326988084285 -9.7086912018991399e-07 0 -0.035026413110866669 3.2418987780436811e-09 0 -0.035027367598289595 -1.2942214449735191e-07 0 -0.035026326988084285 -9.7086912018991399e-07 0 -0.035026926709215638 3.3909460952098862e-07 0 -0.035026326988084285 -9.7086912018991399e-07 0 -0.035026926709215638 3.3909460952098862e-07 0 -0.035024652631313519 -2.6696179027801065e-06 0 -0.03500000047063228 7.2413380597155977e-11 0 -0.035000052072498865 4.2195521848994727e-08 0 -0.034999998910768701 -1.4399198708024362e-12 0 -0.035026926709215638 3.3909460952098862e-07 0 -0.035018120874264036 3.0757218952732934e-06 0 -0.035019514428222966 -1.6742357790458447e-06 0 -0.035024557106359981 3.7912422505444949e-05 0 -0.035013817321632425 2.0481982664187061e-05 0 -0.035000052072498865 4.2195521848994727e-08 0 -0.034999998910768701 -1.4399198708024362e-12 0 -0.034999885141189603 -1.5403564410089284e-08 0 -0.034999998910768701 -1.4399198708024362e-12 0 -0.034999885141189603 -1.5403564410089284e-08 0 -0.035000002977883291 2.2528078237033739e-10 0 -0.035018120874264036 3.0757218952732934e-06 0 -0.035011908522032932 -1.7130036789295525e-06 0 -0.035019514428222966 -1.6742357790458447e-06 0 -0.035019514428222966 -1.6742357790458447e-06 0 -0.035013855336821276 -8.0437107597715178e-06 0 -0.035024652631313519 -2.6696179027801065e-06 0 -0.035322134698908492 0.00010608943147538321 0 -0.0351778515334892 7.5970169136198014e-05 0 -0.035011908522032932 -1.7130036789295525e-06 0 -0.035019514428222966 -1.6742357790458447e-06 0 -0.035013855336821276 -8.0437107597715178e-06 0 -0.035026926709215638 3.3909460952098862e-07 0 -0.035019514428222966 -1.6742357790458447e-06 0 -0.035024652631313519 -2.6696179027801065e-06 0 -0.035026326988084285 -9.7086912018991399e-07 0 -0.035024652631313519 -2.6696179027801065e-06 0 -0.035026285253261943 1.5114378177941967e-07 0 -0.035028662279220669 -2.0457692403377558e-06 0 -0.035024652631313519 -2.6696179027801065e-06 0 -0.035026285253261943 1.5114378177941967e-07 0 -0.035322134698908492 0.00010608943147538321 0 -0.035390785956547342 0.00030701925137496534 0 -0.036278734523194807 0.00041641376854660139 0 -0.036207168624037951 0.00086368064352483306 0 -0.035971151908191078 0.00071446929126607465 0 -0.036207168624037951 0.00086368064352483306 0 -0.035971151908191078 0.00071446929126607465 0 -0.036022368272692444 0.0010934808445928559 0 -0.035026326988084285 -9.7086912018991399e-07 0 -0.035026285253261943 1.5114378177941967e-07 0 -0.035026413110866669 3.2418987780436811e-09 0 -0.035390785956547342 0.00030701925137496534 0 -0.035244120290047282 0.00059491870124547819 0 -0.035026285253261943 1.5114378177941967e-07 0 -0.035026413110866669 3.2418987780436811e-09 0 -0.035026707783801701 2.1231784578226638e-06 0 -0.035160083122146295 0.00029123303323150057 0 -0.035244120290047282 0.00059491870124547819 0 -0.035196465639697694 0.00052016317024226671 0 -0.035312279910166257 0.00074818340923908189 0 -0.03539576393900061 0.00044663508143428593 0 -0.035312279910166257 0.00074818340923908189 0 -0.03539576393900061 0.00044663508143428593 0 -0.035635976281426784 0.0009291736884763992 0 -0.035058064057432087 7.809395202429406e-05 0 -0.035160083122146295 0.00029123303323150057 0 -0.034977060681394688 4.8078859945256661e-06 0 -0.034967357362040763 8.8184593737940454e-06 0 -0.034984508323548262 1.9037455127935511e-06 0 -0.034967357362040763 8.8184593737940454e-06 0 -0.034984508323548262 1.9037455127935511e-06 0 -0.034983629206034463 6.5243402930739137e-06 0 -0.034984508323548262 1.9037455127935511e-06 0 -0.03499189678576068 2.111629614478565e-06 0 -0.034983629206034463 6.5243402930739137e-06 0 -0.034999985840292284 3.8574895671661525e-09 0 -0.03499189678576068 2.111629614478565e-06 0 -0.034999991196523049 -4.9568351848824642e-09 0 -0.034984508323548262 1.9037455127935511e-06 0 -0.03499189678576068 2.111629614478565e-06 0 -0.034999991196523049 -4.9568351848824642e-09 0 -0.034999985840292284 3.8574895671661525e-09 0 -0.03499189678576068 2.111629614478565e-06 0 -0.034994460850410157 3.9366773164068878e-06 0 -0.03499189678576068 2.111629614478565e-06 0 -0.034994460850410157 3.9366773164068878e-06 0 -0.034983629206034463 6.5243402930739137e-06 0 -0.034999985840292284 3.8574895671661525e-09 0 -0.034994460850410157 3.9366773164068878e-06 0 -0.034999979093038987 8.4868595065235401e-09 0 -0.034993554935792801 4.4629178133314798e-06 0 -0.03499639050514633 -1.0822773793566799e-06 0 -0.034983396879542716 -1.3445427796724631e-06 0 -0.034994460850410157 3.9366773164068878e-06 0 -0.034983629206034463 6.5243402930739137e-06 0 -0.034993554935792801 4.4629178133314798e-06 0 -0.034967357362040763 8.8184593737940454e-06 0 -0.034983629206034463 6.5243402930739137e-06 0 -0.034983396879542716 -1.3445427796724631e-06 0 -0.034983629206034463 6.5243402930739137e-06 0 -0.034993554935792801 4.4629178133314798e-06 0 -0.034983396879542716 -1.3445427796724631e-06 0 -0.034994460850410157 3.9366773164068878e-06 0 -0.034993554935792801 4.4629178133314798e-06 0 -0.034995021823247804 4.4498032923259593e-06 0 -0.034993554935792801 4.4629178133314798e-06 0 -0.034995021823247804 4.4498032923259593e-06 0 -0.034994274312085717 3.8420331052051877e-06 0 -0.035100882614226621 0.000262015397818 0 -0.035093196832838618 0.00029934613415855777 0 -0.035000001203279278 4.0188507933973102e-09 0 -0.035000490211007547 4.0180150940106378e-07 0 -0.035000002977883291 2.2528078237033739e-10 0 -0.034994460850410157 3.9366773164068878e-06 0 -0.034999979093038987 8.4868595065235401e-09 0 -0.034995021823247804 4.4498032923259593e-06 0 -0.035000219779024351 1.7537456412544775e-07 0 -0.035116811393124545 6.2647207698865673e-05 0 -0.035000001203279278 4.0188507933973102e-09 0 -0.035000490211007547 4.0180150940106378e-07 0 -0.03500348109128168 -2.2137603246344005e-06 0 -0.035013817321632425 2.0481982664187061e-05 0 -0.035009503536810607 1.5783840115193234e-05 0 -0.035011908522032932 -1.7130036789295525e-06 0 -0.035000490211007547 4.0180150940106378e-07 0 -0.03500348109128168 -2.2137603246344005e-06 0 -0.035018120874264036 3.0757218952732934e-06 0 -0.035011908522032932 -1.7130036789295525e-06 0 -0.035000490211007547 4.0180150940106378e-07 0 -0.034999885141189603 -1.5403564410089284e-08 0 -0.035000490211007547 4.0180150940106378e-07 0 -0.035000002977883291 2.2528078237033739e-10 0 -0.035322134698908492 0.00010608943147538321 0 -0.035116811393124545 6.2647207698865673e-05 0 -0.034996689579352133 3.9535405800872492e-06 0 -0.034995021823247804 4.4498032923259593e-06 0 -0.034994274312085717 3.8420331052051877e-06 0 -0.035011908522032932 -1.7130036789295525e-06 0 -0.035013855336821276 -8.0437107597715178e-06 0 -0.03500348109128168 -2.2137603246344005e-06 0 -0.035322134698908492 0.00010608943147538321 0 -0.035093196832838618 0.00029934613415855777 0 -0.036278734523194807 0.00041641376854660139 0 -0.036476408892676226 0.00082099947130974881 0 -0.036652805124559935 0.00046810696725412194 0 -0.036278734523194807 0.00041641376854660139 0 -0.036207168624037951 0.00086368064352483306 0 -0.036476408892676226 0.00082099947130974881 0 -0.034293868110652971 0.00027715377542593525 0 -0.034436820157743207 -1.9169928264880353e-05 0 -0.034527890476086606 0.00020490520117276848 0 -0.034293868110652971 0.00027715377542593525 0 -0.034527890476086606 0.00020490520117276848 0 -0.034585150771611367 0.00043672704617075622 0 -0.034869186120633562 0.00037908914987930655 0 -0.035093196832838618 0.00029934613415855777 0 -0.034436820157743207 -1.9169928264880353e-05 0 -0.034651686184272855 -1.8855720694549103e-06 0 -0.034527890476086606 0.00020490520117276848 0 -0.035093196832838618 0.00029934613415855777 0 -0.034937048487645811 0.00021085330135199739 0 -0.034651686184272855 -1.8855720694549103e-06 0 -0.034527890476086606 0.00020490520117276848 0 -0.034727408295411606 0.00028719955760126152 0 -0.034527890476086606 0.00020490520117276848 0 -0.034727408295411606 0.00028719955760126152 0 -0.034585150771611367 0.00043672704617075622 0 -0.034727408295411606 0.00028719955760126152 0 -0.034827617243879103 0.00019075461383198297 0 -0.034825171630210532 0.00024914958755282356 0 -0.034727408295411606 0.00028719955760126152 0 -0.034787377330083864 0.00042060231142769072 0 -0.034824256057545536 0.00030713916668249149 0 -0.034727408295411606 0.00028719955760126152 0 -0.034825171630210532 0.00024914958755282356 0 -0.034824256057545536 0.00030713916668249149 0 -0.034727408295411606 0.00028719955760126152 0 -0.03493049357112471 2.2046028153475684e-05 0 -0.034991800571563321 1.8678498882398167e-05 0 -0.034937048487645811 0.00021085330135199739 0 -0.034920776932185461 0.00018810018298411364 0 -0.034651686184272855 -1.8855720694549103e-06 0 -0.034727408295411606 0.00028719955760126152 0 -0.03493049357112471 2.2046028153475684e-05 0 -0.034840590890156148 0.00018239481620425642 0 -0.034892509600759271 0.0001220336414150644 0 -0.034967357362040763 8.8184593737940454e-06 0 -0.034983396879542716 -1.3445427796724631e-06 0 -0.03493049357112471 2.2046028153475684e-05 0 -0.034977060681394688 4.8078859945256661e-06 0 -0.03493049357112471 2.2046028153475684e-05 0 -0.034991800571563321 1.8678498882398167e-05 0 -0.034977060681394688 4.8078859945256661e-06 0 -0.034967357362040763 8.8184593737940454e-06 0 -0.03493049357112471 2.2046028153475684e-05 0 -0.034727408295411606 0.00028719955760126152 0 -0.034787377330083864 0.00042060231142769072 0 -0.034585150771611367 0.00043672704617075622 0 -0.034770828729033358 0.00058284996425599176 0 -0.034787377330083864 0.00042060231142769072 0 -0.034585150771611367 0.00043672704617075622 0 -0.031407963946093007 0.00076833498479113695 0 -0.031070435721668718 0.0011056140381263753 0 -0.034770828729033358 0.00058284996425599176 0 -0.034585150771611367 0.00043672704617075622 0 -0.034537341985989546 0.00067602722571605863 0 -0.034585150771611367 0.00043672704617075622 0 -0.034368477755569622 0.00053966203177351578 0 -0.034537341985989546 0.00067602722571605863 0 -0.034368477755569622 0.00053966203177351578 0 -0.03426961379533474 0.00076152352221475165 0 -0.034537341985989546 0.00067602722571605863 0 -0.034293868110652971 0.00027715377542593525 0 -0.034585150771611367 0.00043672704617075622 0 -0.034368477755569622 0.00053966203177351578 0 -0.034869186120633562 0.00037908914987930655 0 -0.034169761653793908 0.00059800177842988817 0 -0.036207168624037951 0.00086368064352483306 0 -0.036476408892676226 0.00082099947130974881 0 -0.036304361393697408 0.0011863204594564772 0 -0.034293868110652971 0.00027715377542593525 0 -0.034368477755569622 0.00053966203177351578 0 -0.03414608984706561 0.00054782815802633105 0 -0.034368477755569622 0.00053966203177351578 0 -0.03426961379533474 0.00076152352221475165 0 -0.03414608984706561 0.00054782815802633105 0 -0.027298010341009583 0.0020466673781695749 0 -0.027699994909198281 0.0019665220823934207 0 -0.027454445488643935 0.0016885723613537689 0 -0.027298010341009583 0.0020466673781695749 0 -0.027016468768803214 0.001720255342666063 0 -0.027454445488643935 0.0016885723613537689 0 -0.027298010341009583 0.0020466673781695749 0 -0.027016468768803214 0.001720255342666063 0 -0.026808211401445538 0.0017612397100245107 0 -0.03124334439075923 0.0013299334723948109 0 -0.031070435721668718 0.0011056140381263753 0 -0.026808211401445538 0.0017612397100245107 0 -0.026839135436931446 0.0017354268650925642 0 -0.026940122963446174 0.001500285032261016 0 -0.027016468768803214 0.001720255342666063 0 -0.026808211401445538 0.0017612397100245107 0 -0.026839135436931446 0.0017354268650925642 0 -0.027016468768803214 0.001720255342666063 0 -0.026839135436931446 0.0017354268650925642 0 -0.026863703901828618 0.0017205754078235094 0 -0.026839135436931446 0.0017354268650925642 0 -0.026863703901828618 0.0017205754078235094 0 -0.026850025313676508 0.0018601704263656507 0 -0.026839135436931446 0.0017354268650925642 0 -0.026850025313676508 0.0018601704263656507 0 -0.027139525113996123 0.0019529999189987174 0 -0.026839135436931446 0.0017354268650925642 0 -0.026940122963446174 0.001500285032261016 0 -0.027139525113996123 0.0019529999189987174 0 -0.026996331576475859 0.0008143329917917418 0 -0.026940122963446174 0.001500285032261016 0 -0.027949401345981541 0.0010280286129197593 0 -0.026996331576475859 0.0008143329917917418 0 -0.026808211401445538 0.0017612397100245107 0 -0.026940122963446174 0.001500285032261016 0 -0.035705144676580015 0.0011394877000938594 0 -0.035808214805579171 0.0012489666844609198 0 -0.035641502717800581 0.0012552218476432906 0 -0.035705144676580015 0.0011394877000938594 0 -0.035641502717800581 0.0012552218476432906 0 -0.035588690892648628 0.0011411828000515974 0 -0.035705144676580015 0.0011394877000938594 0 -0.035588690892648628 0.0011411828000515974 0 -0.035566540552968255 0.0010108226526539109 0 -0.035705144676580015 0.0011394877000938594 0 -0.035808214805579171 0.0012489666844609198 0 -0.035831916948541091 0.0010405995756188728 0 -0.035808214805579171 0.0012489666844609198 0 -0.035665276925255326 0.0014048846678023925 0 -0.035816229692141904 0.0014852924698874307 0 -0.035808214805579171 0.0012489666844609198 0 -0.035641502717800581 0.0012552218476432906 0 -0.035665276925255326 0.0014048846678023925 0 -0.035641502717800581 0.0012552218476432906 0 -0.035536092448615726 0.001353148568277669 0 -0.035665276925255326 0.0014048846678023925 0 -0.035536092448615726 0.001353148568277669 0 -0.035405364944188597 0.0012433152467052938 0 -0.035524244414356303 0.0012201297298284788 0 -0.035641502717800581 0.0012552218476432906 0 -0.035536092448615726 0.001353148568277669 0 -0.035524244414356303 0.0012201297298284788 0 -0.035235920719702121 0.0012938965152848934 0 -0.035405364944188597 0.0012433152467052938 0 -0.035400464171568002 0.0014199735146074365 0 -0.035536092448615726 0.001353148568277669 0 -0.035405364944188597 0.0012433152467052938 0 -0.035400464171568002 0.0014199735146074365 0 -0.035235920719702121 0.0012938965152848934 0 -0.035271376347643227 0.0010523357374928712 0 -0.035405364944188597 0.0012433152467052938 0 -0.035271376347643227 0.0010523357374928712 0 -0.035405364944188597 0.0012433152467052938 0 -0.035453128700461529 0.0010912163640448681 0 -0.035641502717800581 0.0012552218476432906 0 -0.035524244414356303 0.0012201297298284788 0 -0.035588690892648628 0.0011411828000515974 0 -0.035405364944188597 0.0012433152467052938 0 -0.035524244414356303 0.0012201297298284788 0 -0.035453128700461529 0.0010912163640448681 0 -0.035524244414356303 0.0012201297298284788 0 -0.035453128700461529 0.0010912163640448681 0 -0.035588690892648628 0.0011411828000515974 0 -0.035566540552968255 0.0010108226526539109 0 -0.035436687477068414 0.00094832990158909638 0 -0.035635976281426784 0.0009291736884763992 0 -0.035312279910166257 0.00074818340923908189 0 -0.035436687477068414 0.00094832990158909638 0 -0.035635976281426784 0.0009291736884763992 0 -0.035453128700461529 0.0010912163640448681 0 -0.035588690892648628 0.0011411828000515974 0 -0.035566540552968255 0.0010108226526539109 0 -0.035271376347643227 0.0010523357374928712 0 -0.035312279910166257 0.00074818340923908189 0 -0.035436687477068414 0.00094832990158909638 0 -0.035453128700461529 0.0010912163640448681 0 -0.035566540552968255 0.0010108226526539109 0 -0.035436687477068414 0.00094832990158909638 0 -0.035271376347643227 0.0010523357374928712 0 -0.035453128700461529 0.0010912163640448681 0 -0.035436687477068414 0.00094832990158909638 0 -0.035971151908191078 0.00071446929126607465 0 -0.035656514465747809 0.0010145804982696802 0 -0.035831916948541091 0.0010405995756188728 0 -0.035705144676580015 0.0011394877000938594 0 -0.035656514465747809 0.0010145804982696802 0 -0.035831916948541091 0.0010405995756188728 0 -0.035705144676580015 0.0011394877000938594 0 -0.035566540552968255 0.0010108226526539109 0 -0.035643341009870468 0.00093600687968324776 0 -0.035281850783936884 0.00066808053174353488 0 -0.035244120290047282 0.00059491870124547819 0 -0.035246984615470899 0.00060003775962306246 0 -0.035244120290047282 0.00059491870124547819 0 -0.035971151908191078 0.00071446929126607465 0 -0.035831916948541091 0.0010405995756188728 0 -0.036022368272692444 0.0010934808445928559 0 -0.035808214805579171 0.0012489666844609198 0 -0.035831916948541091 0.0010405995756188728 0 -0.036022368272692444 0.0010934808445928559 0 -0.036207168624037951 0.00086368064352483306 0 -0.036022368272692444 0.0010934808445928559 0 -0.036304361393697408 0.0011863204594564772 0 -0.036304361393697408 0.0011863204594564772 0 -0.036099727891439448 0.0013022078822475917 0 -0.036123962170955662 0.001581527924294626 0 -0.036022368272692444 0.0010934808445928559 0 -0.036304361393697408 0.0011863204594564772 0 -0.036099727891439448 0.0013022078822475917 0 -0.035808214805579171 0.0012489666844609198 0 -0.036022368272692444 0.0010934808445928559 0 -0.035948819152421527 0.0013499036570483319 0 -0.036022368272692444 0.0010934808445928559 0 -0.036099727891439448 0.0013022078822475917 0 -0.035948819152421527 0.0013499036570483319 0 -0.035808214805579171 0.0012489666844609198 0 -0.035948819152421527 0.0013499036570483319 0 -0.035816229692141904 0.0014852924698874307 0 -0.036099727891439448 0.0013022078822475917 0 -0.035948819152421527 0.0013499036570483319 0 -0.036123962170955662 0.001581527924294626 0 -0.035948819152421527 0.0013499036570483319 0 -0.036123962170955662 0.001581527924294626 0 -0.035816229692141904 0.0014852924698874307 0 -0.032403034974585923 0.0013346874341427426 0 -0.032188530772781838 0.0016487397606742382 0 -0.036123962170955662 0.001581527924294626 0 -0.03580314735967971 0.0016900037190498889 0 -0.035816229692141904 0.0014852924698874307 0 -0.027298010341009583 0.0020466673781695749 0 -0.027913806731801195 0.0021640678790996615 0 -0.027699994909198281 0.0019665220823934207 0 -0.034169761653793908 0.00059800177842988817 0 -0.032403034974585923 0.0013346874341427426 0 -0.03124334439075923 0.0013299334723948109 0 -0.032403034974585923 0.0013346874341427426 0 -0.03426961379533474 0.00076152352221475165 0 -0.03414608984706561 0.00054782815802633105 0 -0.033990232019969494 0.00083606406764705351 0 -0.032403034974585923 0.0013346874341427426 0 -0.032308596779766309 0.0014254787078635468 0 -0.027699994909198281 0.0019665220823934207 0 -0.027894258460790515 0.0018573339377202674 0 -0.027454445488643935 0.0016885723613537689 0 -0.027699994909198281 0.0019665220823934207 0 -0.027894258460790515 0.0018573339377202674 0 -0.027993371640353849 0.0020840693965728987 0 -0.027913806731801195 0.0021640678790996615 0 -0.027699994909198281 0.0019665220823934207 0 -0.027993371640353849 0.0020840693965728987 0 -0.027931759380962932 0.0021978851955795969 0 -0.027993371640353849 0.0020840693965728987 0 -0.028450956232772634 0.0021334920703464308 0 -0.028227806247877005 0.0020023501821299348 0 -0.027993371640353849 0.0020840693965728987 0 -0.028450956232772634 0.0021334920703464308 0 -0.027894258460790515 0.0018573339377202674 0 -0.028227806247877005 0.0020023501821299348 0 -0.027993371640353849 0.0020840693965728987 0 -0.027894258460790515 0.0018573339377202674 0 -0.028227806247877005 0.0020023501821299348 0 -0.028165156669773692 0.0018229852033007491 0 -0.032188530772781838 0.0016487397606742382 0 -0.032174861397756223 0.001819283236961711 0 -0.028227806247877005 0.0020023501821299348 0 -0.028802920987079299 0.0018231047623448726 0 -0.028165156669773692 0.0018229852033007491 0 -0.028227806247877005 0.0020023501821299348 0 -0.028450956232772634 0.0021334920703464308 0 -0.028802920987079299 0.0018231047623448726 0 -0.028450956232772634 0.0021334920703464308 0 -0.028802920987079299 0.0018231047623448726 0 -0.028979585701364684 0.0020292037848120251 0 -0.03580314735967971 0.0016900037190498889 0 -0.035570053113526116 0.0015695902075559094 0 -0.035453079881848322 0.0018295091941507864 0 -0.03580314735967971 0.0016900037190498889 0 -0.035816229692141904 0.0014852924698874307 0 -0.035570053113526116 0.0015695902075559094 0 -0.035665276925255326 0.0014048846678023925 0 -0.035816229692141904 0.0014852924698874307 0 -0.035570053113526116 0.0015695902075559094 0 -0.035536092448615726 0.001353148568277669 0 -0.035665276925255326 0.0014048846678023925 0 -0.035570053113526116 0.0015695902075559094 0 -0.035224234547018084 0.0015068613463230154 0 -0.035400464171568002 0.0014199735146074365 0 -0.035384915146886603 0.0016059311374901871 0 -0.035536092448615726 0.001353148568277669 0 -0.035400464171568002 0.0014199735146074365 0 -0.035570053113526116 0.0015695902075559094 0 -0.035400464171568002 0.0014199735146074365 0 -0.035570053113526116 0.0015695902075559094 0 -0.035384915146886603 0.0016059311374901871 0 -0.035570053113526116 0.0015695902075559094 0 -0.035384915146886603 0.0016059311374901871 0 -0.035453079881848322 0.0018295091941507864 0 -0.035234003075255038 0.0017208239077366062 0 -0.035384915146886603 0.0016059311374901871 0 -0.035453079881848322 0.0018295091941507864 0 -0.032144730955517259 0.0019488225088277425 0 -0.029564132562486661 0.0018644795552108285 0 -0.029574800263911703 0.0018824682907649401 0 -0.028802920987079299 0.0018231047623448726 0 -0.028979585701364684 0.0020292037848120251 0 -0.029129367568250828 0.0021930022683158 0 -0.029597167947948307 0.0019044186732744056 0 -0.029144012209090887 0.0015559135579021387 0 -0.030155686739865975 0.0024358044183344259 0 -0.029129367568250828 0.0021930022683158 0 -0.029597167947948307 0.0019044186732744056 0 -0.029597167947948307 0.0019044186732744056 0 -0.02954803698917351 0.0014825825698092478 0 -0.029144012209090887 0.0015559135579021387 0 -0.029564132562486661 0.0018644795552108285 0 -0.028883115026239012 0.0018321073894557141 0 -0.029129367568250828 0.0021930022683158 0 -0.028672668302405533 0.0016752193105732394 0 -0.029144012209090887 0.0015559135579021387 0 -0.029129367568250828 0.0021930022683158 0 -0.028672668302405533 0.0016752193105732394 0 -0.028165156669773692 0.0018229852033007491 0 -0.028678312520672735 0.0011665335850706794 0 -0.029144012209090887 0.0015559135579021387 0 -0.02924805104685092 0.0010681919904073813 0 -0.028672668302405533 0.0016752193105732394 0 -0.028678312520672735 0.0011665335850706794 0 -0.029144012209090887 0.0015559135579021387 0 -0.028672668302405533 0.0016752193105732394 0 -0.028678312520672735 0.0011665335850706794 0 -0.028257689511897263 0.0015038232348713726 0 -0.029842819945367798 0.00083796609364418344 0 -0.02954803698917351 0.0014825825698092478 0 -0.02924805104685092 0.0010681919904073813 0 -0.02954803698917351 0.0014825825698092478 0 -0.029144012209090887 0.0015559135579021387 0 -0.02924805104685092 0.0010681919904073813 0 -0.029842819945367798 0.00083796609364418344 0 -0.02924805104685092 0.0010681919904073813 0 -0.028969675888999017 0.00046245230419527452 0 -0.029842819945367798 0.00083796609364418344 0 -0.029849199241762436 -0.00026226449282269526 0 -0.028969675888999017 0.00046245230419527452 0 -0.028678312520672735 0.0011665335850706794 0 -0.02924805104685092 0.0010681919904073813 0 -0.028969675888999017 0.00046245230419527452 0 -0.028678312520672735 0.0011665335850706794 0 -0.028969675888999017 0.00046245230419527452 0 -0.028172025136877422 0.00077717620491580609 0 -0.027762800930198287 0.00090378152710598341 0 -0.026488879484422124 0.0019204604041549783 0 -0.026753097253572423 0.00078899188172199669 0 -0.027850881136364775 0.00058275091492907861 0 -0.027208048362412706 0.0011116757185704958 0 -0.028199425642429349 0.0001301838625159063 0 -0.028172025136877422 0.00077717620491580609 0 -0.027598166564920267 0.00064174632451858768 0 -0.028969675888999017 0.00046245230419527452 0 -0.028199425642429349 0.0001301838625159063 0 -0.028172025136877422 0.00077717620491580609 0 -0.028172025136877422 0.00077717620491580609 0 -0.027665043609208927 0.0010300276891390822 0 -0.028004685311014261 0.0012232896698773023 0 -0.028172025136877422 0.00077717620491580609 0 -0.027665043609208927 0.0010300276891390822 0 -0.027598166564920267 0.00064174632451858768 0 -0.028004685311014261 0.0012232896698773023 0 -0.027841126348540031 0.0015824050711996335 0 -0.027523874947827275 0.001359646252647669 0 -0.027665043609208927 0.0010300276891390822 0 -0.028004685311014261 0.0012232896698773023 0 -0.027523874947827275 0.001359646252647669 0 -0.028004685311014261 0.0012232896698773023 0 -0.028257689511897263 0.0015038232348713726 0 -0.027841126348540031 0.0015824050711996335 0 -0.028678312520672735 0.0011665335850706794 0 -0.028172025136877422 0.00077717620491580609 0 -0.028004685311014261 0.0012232896698773023 0 -0.028678312520672735 0.0011665335850706794 0 -0.028004685311014261 0.0012232896698773023 0 -0.028257689511897263 0.0015038232348713726 0 -0.028672668302405533 0.0016752193105732394 0 -0.028257689511897263 0.0015038232348713726 0 -0.028165156669773692 0.0018229852033007491 0 -0.028257689511897263 0.0015038232348713726 0 -0.028165156669773692 0.0018229852033007491 0 -0.027841126348540031 0.0015824050711996335 0 -0.027894258460790515 0.0018573339377202674 0 -0.027841126348540031 0.0015824050711996335 0 -0.027454445488643935 0.0016885723613537689 0 -0.027894258460790515 0.0018573339377202674 0 -0.028165156669773692 0.0018229852033007491 0 -0.027841126348540031 0.0015824050711996335 0 -0.027841126348540031 0.0015824050711996335 0 -0.027454445488643935 0.0016885723613537689 0 -0.027523874947827275 0.001359646252647669 0 -0.027454445488643935 0.0016885723613537689 0 -0.027166913987776972 0.0014927560617805154 0 -0.027523874947827275 0.001359646252647669 0 -0.027016468768803214 0.001720255342666063 0 -0.027454445488643935 0.0016885723613537689 0 -0.027166913987776972 0.0014927560617805154 0 -0.027016468768803214 0.001720255342666063 0 -0.027166913987776972 0.0014927560617805154 0 -0.026847182877565826 0.0015332939026692115 0 -0.026762635868724471 0.0014758975972176752 0 -0.026609706651616858 0.0016494073605862263 0 -0.027166913987776972 0.0014927560617805154 0 -0.0271291035280561 0.0011284624261446868 0 -0.026847182877565826 0.0015332939026692115 0 -0.027665043609208927 0.0010300276891390822 0 -0.0271291035280561 0.0011284624261446868 0 -0.027523874947827275 0.001359646252647669 0 -0.027166913987776972 0.0014927560617805154 0 -0.0271291035280561 0.0011284624261446868 0 -0.027523874947827275 0.001359646252647669 0 -0.026850025313676508 0.0018601704263656507 0 -0.026567995200891013 0.0018114853731086031 0 -0.026182883117289717 0.0017793080617047785 0 -0.026863703901828618 0.0017205754078235094 0 -0.026850025313676508 0.0018601704263656507 0 -0.026847182877565826 0.0015332939026692115 0 -0.026614992471801886 0.0016996977198581328 0 -0.026609706651616858 0.0016494073605862263 0 -0.027016468768803214 0.001720255342666063 0 -0.026863703901828618 0.0017205754078235094 0 -0.026847182877565826 0.0015332939026692115 0 -0.025857574991327549 0.0020135818471395074 0 -0.026182883117289717 0.0017793080617047785 0 -0.026022769361562129 0.0019857764827585474 0 -0.026182883117289717 0.0017793080617047785 0 -0.026261035026352662 0.0019080968614015709 0 -0.026022769361562129 0.0019857764827585474 0 -0.026505696064950544 0.0028928819565337029 0 -0.026335629784399128 0.0030070329251370869 0 -0.026567995200891013 0.0018114853731086031 0 -0.026261035026352662 0.0019080968614015709 0 -0.026277323403320962 0.0020152690501192222 0 -0.026567995200891013 0.0018114853731086031 0 -0.026182883117289717 0.0017793080617047785 0 -0.026261035026352662 0.0019080968614015709 0 -0.026261035026352662 0.0019080968614015709 0 -0.026277323403320962 0.0020152690501192222 0 -0.026022769361562129 0.0019857764827585474 0 -0.026277323403320962 0.0020152690501192222 0 -0.026022769361562129 0.0019857764827585474 0 -0.025959310602603303 0.0021025996381585808 0 -0.026022769361562129 0.0019857764827585474 0 -0.025959310602603303 0.0021025996381585808 0 -0.025765144999952586 0.0018432988644975236 0 -0.026277323403320962 0.0020152690501192222 0 -0.025959310602603303 0.0021025996381585808 0 -0.026165916697874599 0.0022712097922007687 0 -0.026335629784399128 0.0030070329251370869 0 -0.026205062367806242 0.0029511043960386688 0 -0.025857574991327549 0.0020135818471395074 0 -0.026488879484422124 0.0019204604041549783 0 -0.025765144999952586 0.0018432988644975236 0 -0.026762635868724471 0.0014758975972176752 0 -0.027208048362412706 0.0011116757185704958 0 -0.027665043609208927 0.0010300276891390822 0 -0.0271291035280561 0.0011284624261446868 0 -0.027598166564920267 0.00064174632451858768 0 -0.025857574991327549 0.0020135818471395074 0 -0.026022769361562129 0.0019857764827585474 0 -0.025765144999952586 0.0018432988644975236 0 -0.025959310602603303 0.0021025996381585808 0 -0.025765144999952586 0.0018432988644975236 0 -0.025753983159390325 0.0021842783066938374 0 -0.025681226237961294 0.0015623514218819439 0 -0.025689382394812357 0.0014432068287474893 0 -0.025765144999952586 0.0018432988644975236 0 -0.025450137891347903 0.0023738629013301607 0 -0.025753983159390325 0.0021842783066938374 0 -0.026488879484422124 0.0019204604041549783 0 -0.025765144999952586 0.0018432988644975236 0 -0.026753097253572423 0.00078899188172199669 0 -0.025765144999952586 0.0018432988644975236 0 -0.025896335296149899 0.0003146398501350803 0 -0.026753097253572423 0.00078899188172199669 0 -0.025896335296149899 0.0003146398501350803 0 -0.026753097253572423 0.00078899188172199669 0 -0.02678112637674326 -0.0003121575244955347 0 -0.025753983159390325 0.0021842783066938374 0 -0.025655891830160475 0.0025108582033722729 0 -0.025859314880475218 0.0023676808734468487 0 -0.025450137891347903 0.0023738629013301607 0 -0.025753983159390325 0.0021842783066938374 0 -0.025655891830160475 0.0025108582033722729 0 -0.025655891830160475 0.0025108582033722729 0 -0.025467573120950302 0.0025901010328789218 0 -0.025594476762929537 0.0027118465526088675 0 -0.025450137891347903 0.0023738629013301607 0 -0.025655891830160475 0.0025108582033722729 0 -0.025467573120950302 0.0025901010328789218 0 -0.025896335296149899 0.0003146398501350803 0 -0.026233574526794475 -0.0010556314749282855 0 -0.02678112637674326 -0.0003121575244955347 0 -0.025689382394812357 0.0014432068287474893 0 -0.02564756222812381 0.0015575936263510055 0 -0.025450137891347903 0.0023738629013301607 0 -0.025467573120950302 0.0025901010328789218 0 -0.025342957786567952 0.0026967596636002338 0 -0.025467573120950302 0.0025901010328789218 0 -0.02528461670336488 0.0026797831332399892 0 -0.02542766373048656 0.0027038072552946937 0 -0.025546697821914335 0.0016921707190860249 0 -0.02564756222812381 0.0015575936263510055 0 -0.026233574526794475 -0.0010556314749282855 0 -0.027094474887134779 -0.0010791720718909366 0 -0.02678112637674326 -0.0003121575244955347 0 -0.025959310602603303 0.0021025996381585808 0 -0.026165916697874599 0.0022712097922007687 0 -0.025859314880475218 0.0023676808734468487 0 -0.026165916697874599 0.0022712097922007687 0 -0.025859314880475218 0.0023676808734468487 0 -0.02580658397056777 0.0026559230217321084 0 -0.025959310602603303 0.0021025996381585808 0 -0.025753983159390325 0.0021842783066938374 0 -0.025859314880475218 0.0023676808734468487 0 -0.02580658397056777 0.0026559230217321084 0 -0.025913434237975347 0.002869555086517742 0 -0.025776008344156141 0.0027728671874839867 0 -0.025655891830160475 0.0025108582033722729 0 -0.02580658397056777 0.0026559230217321084 0 -0.025594476762929537 0.0027118465526088675 0 -0.025655891830160475 0.0025108582033722729 0 -0.025859314880475218 0.0023676808734468487 0 -0.02580658397056777 0.0026559230217321084 0 -0.026205062367806242 0.0029511043960386688 0 -0.026150678727506729 0.002907457739706801 0 -0.026165916697874599 0.0022712097922007687 0 -0.02580658397056777 0.0026559230217321084 0 -0.025913434237975347 0.002869555086517742 0 -0.025991634092247966 0.0035429046777225373 0 -0.025913434237975347 0.002869555086517742 0 -0.025534888688969543 0.0031423437193119344 0 -0.025913434237975347 0.002869555086517742 0 -0.025850046259622401 0.0026787407581853081 0 -0.025534888688969543 0.0031423437193119344 0 -0.025913434237975347 0.002869555086517742 0 -0.025850046259622401 0.0026787407581853081 0 -0.025776008344156141 0.0027728671874839867 0 -0.025850046259622401 0.0026787407581853081 0 -0.025776008344156141 0.0027728671874839867 0 -0.025770274872068965 0.0028239805881786146 0 -0.02580658397056777 0.0026559230217321084 0 -0.025776008344156141 0.0027728671874839867 0 -0.025594476762929537 0.0027118465526088675 0 -0.025776008344156141 0.0027728671874839867 0 -0.025594476762929537 0.0027118465526088675 0 -0.0255477771229221 0.0028444064475333687 0 -0.025623211712217486 0.0028795467833405836 0 -0.025770274872068965 0.0028239805881786146 0 -0.025868395236594888 0.0030777238647737878 0 -0.025776008344156141 0.0027728671874839867 0 -0.025623211712217486 0.0028795467833405836 0 -0.0255477771229221 0.0028444064475333687 0 -0.025623211712217486 0.0028795467833405836 0 -0.025464895100391259 0.0029483279925244478 0 -0.025540755177745875 0.003107972424498734 0 -0.025623211712217486 0.0028795467833405836 0 -0.0255477771229221 0.0028444064475333687 0 -0.025464895100391259 0.0029483279925244478 0 -0.025776008344156141 0.0027728671874839867 0 -0.025623211712217486 0.0028795467833405836 0 -0.025770274872068965 0.0028239805881786146 0 -0.025850046259622401 0.0026787407581853081 0 -0.025301675413044015 0.0022802142993621649 0 -0.026142705344681518 0.0014630386921766793 0 -0.024928050397907405 0.0027023138028322339 0 -0.024575164071393457 0.0031430421296604993 0 -0.025850046259622401 0.0026787407581853081 0 -0.025770274872068965 0.0028239805881786146 0 -0.025868395236594888 0.0030777238647737878 0 -0.024974247253984203 0.0023220541710011178 0 -0.024866197670642992 0.002801021071367218 0 -0.024585516875528509 0.0026862788988565381 0 -0.02564756222812381 0.0015575936263510055 0 -0.025223495266274487 0.0026733273247917981 0 -0.025355036830277112 0.0028401858681296583 0 -0.02528461670336488 0.0026797831332399892 0 -0.025118910302152127 0.0030000238414881275 0 -0.025355036830277112 0.0028401858681296583 0 -0.02528461670336488 0.0026797831332399892 0 -0.02542766373048656 0.0027038072552946937 0 -0.025355036830277112 0.0028401858681296583 0 -0.02542766373048656 0.0027038072552946937 0 -0.025594476762929537 0.0027118465526088675 0 -0.025355036830277112 0.0028401858681296583 0 -0.025594476762929537 0.0027118465526088675 0 -0.025325865543817116 0.0031029710744690611 0 -0.025467573120950302 0.0025901010328789218 0 -0.02542766373048656 0.0027038072552946937 0 -0.025594476762929537 0.0027118465526088675 0 -0.025594476762929537 0.0027118465526088675 0 -0.0255477771229221 0.0028444064475333687 0 -0.025229562383052611 0.0029383483007154221 0 -0.025322283762503915 0.0028974043497166022 0 -0.02519261081259961 0.0030877113658459403 0 -0.0255477771229221 0.0028444064475333687 0 -0.025464895100391259 0.0029483279925244478 0 -0.025229562383052611 0.0029383483007154221 0 -0.025464895100391259 0.0029483279925244478 0 -0.025229562383052611 0.0029383483007154221 0 -0.025364005720626408 0.0030517944155681897 0 -0.025355036830277112 0.0028401858681296583 0 -0.025325865543817116 0.0031029710744690611 0 -0.025118910302152127 0.0030000238414881275 0 -0.024866197670642992 0.002801021071367218 0 -0.024585516875528509 0.0026862788988565381 0 -0.024574760655717568 0.0030074298492951627 0 -0.024585516875528509 0.0026862788988565381 0 -0.024574760655717568 0.0030074298492951627 0 -0.024222507352367122 0.0030432730439087846 0 -0.026233574526794475 -0.0010556314749282855 0 -0.02726786301642976 -0.0018653767073287893 0 -0.027094474887134779 -0.0010791720718909366 0 -0.02564756222812381 0.0015575936263510055 0 -0.026125145220457155 0.00094144699170995978 0 -0.02726786301642976 -0.0018653767073287893 0 -0.027094474887134779 -0.0010791720718909366 0 -0.02774250800643072 -0.0013582056004691277 0 -0.027094474887134779 -0.0010791720718909366 0 -0.02774250800643072 -0.0013582056004691277 0 -0.027405779391913441 -0.0007369464109353638 0 -0.02726786301642976 -0.0018653767073287893 0 -0.02774250800643072 -0.0013582056004691277 0 -0.028099848863527149 -0.0018324177912884142 0 -0.02774250800643072 -0.0013582056004691277 0 -0.028533483918522975 -0.0014127330711751931 0 -0.028243166162881368 -0.0008155271362459038 0 -0.02774250800643072 -0.0013582056004691277 0 -0.028099848863527149 -0.0018324177912884142 0 -0.028533483918522975 -0.0014127330711751931 0 -0.02774250800643072 -0.0013582056004691277 0 -0.027405779391913441 -0.0007369464109353638 0 -0.028243166162881368 -0.0008155271362459038 0 -0.028099848863527149 -0.0018324177912884142 0 -0.028768603890246748 -0.0019744106504608625 0 -0.028138985832000307 -0.0025320101278651455 0 -0.026125145220457155 0.00094144699170995978 0 -0.026448183393961454 0.00081145477253788574 0 -0.02726786301642976 -0.0018653767073287893 0 -0.028099848863527149 -0.0018324177912884142 0 -0.028138985832000307 -0.0025320101278651455 0 -0.028768603890246748 -0.0019744106504608625 0 -0.028138985832000307 -0.0025320101278651455 0 -0.028786667058491328 -0.0024665501003601049 0 -0.028768603890246748 -0.0019744106504608625 0 -0.029306824220085657 -0.0021390642283503642 0 -0.028786667058491328 -0.0024665501003601049 0 -0.028099848863527149 -0.0018324177912884142 0 -0.028768603890246748 -0.0019744106504608625 0 -0.028533483918522975 -0.0014127330711751931 0 -0.029549641396082408 -0.0021578863763080623 0 -0.029306824220085657 -0.0021390642283503642 0 -0.029443082283219048 -0.0025963510824958823 0 -0.029549641396082408 -0.0021578863763080623 0 -0.029306824220085657 -0.0021390642283503642 0 -0.029623797906691254 -0.0018974538557561694 0 -0.029791700713767886 -0.0021449777275807497 0 -0.029549641396082408 -0.0021578863763080623 0 -0.029623797906691254 -0.0018974538557561694 0 -0.028768603890246748 -0.0019744106504608625 0 -0.029306824220085657 -0.0021390642283503642 0 -0.029297677712088941 -0.0017278253627952859 0 -0.028768603890246748 -0.0019744106504608625 0 -0.029297677712088941 -0.0017278253627952859 0 -0.029134030501446039 -0.0014362725765250711 0 -0.029306824220085657 -0.0021390642283503642 0 -0.029297677712088941 -0.0017278253627952859 0 -0.029623797906691254 -0.0018974538557561694 0 -0.029297677712088941 -0.0017278253627952859 0 -0.029623797906691254 -0.0018974538557561694 0 -0.029607812077849183 -0.0012191883321087727 0 -0.029297677712088941 -0.0017278253627952859 0 -0.029134030501446039 -0.0014362725765250711 0 -0.029607812077849183 -0.0012191883321087727 0 -0.029134030501446039 -0.0014362725765250711 0 -0.029607812077849183 -0.0012191883321087727 0 -0.029115523024326958 -0.00087964736462890032 0 -0.028533483918522975 -0.0014127330711751931 0 -0.029115523024326958 -0.00087964736462890032 0 -0.028243166162881368 -0.0008155271362459038 0 -0.028768603890246748 -0.0019744106504608625 0 -0.029134030501446039 -0.0014362725765250711 0 -0.028533483918522975 -0.0014127330711751931 0 -0.029134030501446039 -0.0014362725765250711 0 -0.028533483918522975 -0.0014127330711751931 0 -0.029115523024326958 -0.00087964736462890032 0 -0.029115523024326958 -0.00087964736462890032 0 -0.028806323187979904 -0.00032383951396024207 0 -0.028243166162881368 -0.0008155271362459038 0 -0.029849199241762436 -0.00026226449282269526 0 -0.029115523024326958 -0.00087964736462890032 0 -0.028806323187979904 -0.00032383951396024207 0 -0.029849199241762436 -0.00026226449282269526 0 -0.029607812077849183 -0.0012191883321087727 0 -0.029115523024326958 -0.00087964736462890032 0 -0.029849199241762436 -0.00026226449282269526 0 -0.028969675888999017 0.00046245230419527452 0 -0.028806323187979904 -0.00032383951396024207 0 -0.028969675888999017 0.00046245230419527452 0 -0.028199425642429349 0.0001301838625159063 0 -0.028806323187979904 -0.00032383951396024207 0 -0.027762800930198287 0.00090378152710598341 0 -0.028806323187979904 -0.00032383951396024207 0 -0.027637875153868806 -0.00011271608624416439 0 -0.027850881136364775 0.00058275091492907861 0 -0.028244829127826113 0.00024798836589396902 0 -0.027762800930198287 0.00090378152710598341 0 -0.027637875153868806 -0.00011271608624416439 0 -0.026753097253572423 0.00078899188172199669 0 -0.027637875153868806 -0.00011271608624416439 0 -0.026753097253572423 0.00078899188172199669 0 -0.02678112637674326 -0.0003121575244955347 0 -0.027637875153868806 -0.00011271608624416439 0 -0.02678112637674326 -0.0003121575244955347 0 -0.027405779391913441 -0.0007369464109353638 0 -0.027094474887134779 -0.0010791720718909366 0 -0.02678112637674326 -0.0003121575244955347 0 -0.027405779391913441 -0.0007369464109353638 0 -0.027637875153868806 -0.00011271608624416439 0 -0.027405779391913441 -0.0007369464109353638 0 -0.028243166162881368 -0.0008155271362459038 0 -0.028806323187979904 -0.00032383951396024207 0 -0.027637875153868806 -0.00011271608624416439 0 -0.028243166162881368 -0.0008155271362459038 0 -0.022353688236274889 0.0036045092435041818 0 -0.022104411484095674 0.0036806109537367983 0 -0.022138181027505175 0.0034382037713623654 0 -0.022353688236274889 0.0036045092435041818 0 -0.022138181027505175 0.0034382037713623654 0 -0.022338620052551984 0.003424126113093803 0 -0.022353688236274889 0.0036045092435041818 0 -0.022338620052551984 0.003424126113093803 0 -0.022466568424485814 0.0034888542546732903 0 -0.02504555393742296 0.0033601965792009118 0 -0.02493689476530947 0.0035586471609421414 0 -0.025244786569557431 0.0035288230496567036 0 -0.023737161377871414 0.0034874651977488979 0 -0.023462359869800251 0.0035582416969692321 0 -0.02493689476530947 0.0035586471609421414 0 -0.02466932122022842 0.0035078669007639041 0 -0.024790429671381117 0.0037006982586377615 0 -0.02504555393742296 0.0033601965792009118 0 -0.02493689476530947 0.0035586471609421414 0 -0.02466932122022842 0.0035078669007639041 0 -0.021589631798677619 0.0043199541098051719 0 -0.021404658602524464 0.0044585663440723676 0 -0.021379467452164402 0.004341994821867594 0 -0.022104411484095674 0.0036806109537367983 0 -0.022012071144624792 0.0036059079508731274 0 -0.021891375070122742 0.0037499204841724815 0 -0.023462359869800251 0.0035582416969692321 0 -0.023576281159700271 0.0034817461804863364 0 -0.022425226818527724 0.0039931928035523319 0 -0.023576281159700271 0.0034817461804863364 0 -0.021589631798677619 0.0043199541098051719 0 -0.021379467452164402 0.004341994821867594 0 -0.021335268205602793 0.0041983410844713851 0 -0.021589631798677619 0.0043199541098051719 0 -0.021564255861683267 0.0040901718223356779 0 -0.021335268205602793 0.0041983410844713851 0 -0.022104411484095674 0.0036806109537367983 0 -0.022012071144624792 0.0036059079508731274 0 -0.022138181027505175 0.0034382037713623654 0 -0.021589631798677619 0.0043199541098051719 0 -0.021564255861683267 0.0040901718223356779 0 -0.021852335875159831 0.0040707222292745582 0 -0.022425226818527724 0.0039931928035523319 0 -0.022223640913581845 0.0038335242476165185 0 -0.02161617788435757 0.0039054646492408763 0 -0.021564255861683267 0.0040901718223356779 0 -0.021852335875159831 0.0040707222292745582 0 -0.02161617788435757 0.0039054646492408763 0 -0.021798184165289943 0.0037568760776072923 0 -0.021852335875159831 0.0040707222292745582 0 -0.021564255861683267 0.0040901718223356779 0 -0.021335268205602793 0.0041983410844713851 0 -0.021355050090699077 0.0039249960706566672 0 -0.02161617788435757 0.0039054646492408763 0 -0.021564255861683267 0.0040901718223356779 0 -0.021355050090699077 0.0039249960706566672 0 -0.02161617788435757 0.0039054646492408763 0 -0.021511673062684377 0.0036843305188672937 0 -0.021355050090699077 0.0039249960706566672 0 -0.021511673062684377 0.0036843305188672937 0 -0.021798184165289943 0.0037568760776072923 0 -0.021728755609805431 0.0035895402804178834 0 -0.02161617788435757 0.0039054646492408763 0 -0.021511673062684377 0.0036843305188672937 0 -0.021798184165289943 0.0037568760776072923 0 -0.021798184165289943 0.0037568760776072923 0 -0.021852335875159831 0.0040707222292745582 0 -0.022091376761599051 0.0037557043351478954 0 -0.021798184165289943 0.0037568760776072923 0 -0.022091376761599051 0.0037557043351478954 0 -0.02194876810364187 0.0034946193124115931 0 -0.022223640913581845 0.0038335242476165185 0 -0.022273192554881326 0.003581457845385755 0 -0.022138181027505175 0.0034382037713623654 0 -0.022338620052551984 0.003424126113093803 0 -0.022317237526696617 0.0032046253652525791 0 -0.022338620052551984 0.003424126113093803 0 -0.022317237526696617 0.0032046253652525791 0 -0.022535054074521894 0.0032380041039270502 0 -0.022317237526696617 0.0032046253652525791 0 -0.022535054074521894 0.0032380041039270502 0 -0.022531946165217899 0.0030584429015733795 0 -0.022535054074521894 0.0032380041039270502 0 -0.022753316981403083 0.0030958510280765239 0 -0.022531946165217899 0.0030584429015733795 0 -0.022535054074521894 0.0032380041039270502 0 -0.022753316981403083 0.0030958510280765239 0 -0.022832712846114048 0.0031938061806827444 0 -0.022753316981403083 0.0030958510280765239 0 -0.022832712846114048 0.0031938061806827444 0 -0.023092633640030412 0.0031164241742589849 0 -0.022832712846114048 0.0031938061806827444 0 -0.022466568424485814 0.0034888542546732903 0 -0.02257873063332571 0.0036847557384186757 0 -0.022832712846114048 0.0031938061806827444 0 -0.023770846249317853 0.0032674406110523436 0 -0.02257873063332571 0.0036847557384186757 0 -0.022535054074521894 0.0032380041039270502 0 -0.022832712846114048 0.0031938061806827444 0 -0.022466568424485814 0.0034888542546732903 0 -0.022338620052551984 0.003424126113093803 0 -0.022535054074521894 0.0032380041039270502 0 -0.022466568424485814 0.0034888542546732903 0 -0.022768456695326698 0.0030726505268600483 0 -0.022534751019564724 0.0031841123726529703 0 -0.022766752494267132 0.0031511098349451634 0 -0.024196108641211189 0.0031287032186760218 0 -0.024575164071393457 0.0031430421296604993 0 -0.022753316981403083 0.0030958510280765239 0 -0.023092633640030412 0.0031164241742589849 0 -0.022766752494267132 0.0031511098349451634 0 -0.022768456695326698 0.0030726505268600483 0 -0.023092633640030412 0.0031164241742589849 0 -0.022766752494267132 0.0031511098349451634 0 -0.022832712846114048 0.0031938061806827444 0 -0.023092633640030412 0.0031164241742589849 0 -0.023770846249317853 0.0032674406110523436 0 -0.024633590862074999 0.0032067603655036169 0 -0.024171180221104028 0.0033624603018505552 0 -0.025301675413044015 0.0022802142993621649 0 -0.023770846249317853 0.0032674406110523436 0 -0.02506584857269185 0.0030704682973457628 0 -0.023770846249317853 0.0032674406110523436 0 -0.02506584857269185 0.0030704682973457628 0 -0.02257873063332571 0.0036847557384186757 0 -0.022768456695326698 0.0030726505268600483 0 -0.023092633640030412 0.0031164241742589849 0 -0.023770846249317853 0.0032674406110523436 0 -0.024196108641211189 0.0031287032186760218 0 -0.023939260593802247 0.003302143141302069 0 -0.025850046259622401 0.0026787407581853081 0 -0.02506584857269185 0.0030704682973457628 0 -0.025534888688969543 0.0031423437193119344 0 -0.025850046259622401 0.0026787407581853081 0 -0.025301675413044015 0.0022802142993621649 0 -0.02506584857269185 0.0030704682973457628 0 -0.02506584857269185 0.0030704682973457628 0 -0.025534888688969543 0.0031423437193119344 0 -0.025312218484194883 0.0032079727586975396 0 -0.025534888688969543 0.0031423437193119344 0 -0.025312218484194883 0.0032079727586975396 0 -0.025549842136952758 0.0033534636890636483 0 -0.025312218484194883 0.0032079727586975396 0 -0.025549842136952758 0.0033534636890636483 0 -0.02537884232383256 0.0033337340807095927 0 -0.02506584857269185 0.0030704682973457628 0 -0.025312218484194883 0.0032079727586975396 0 -0.025358160053429675 0.0032709113258734619 0 -0.025563082336163456 0.0035000410197636492 0 -0.025549842136952758 0.0033534636890636483 0 -0.02537884232383256 0.0033337340807095927 0 -0.025563082336163456 0.0035000410197636492 0 -0.02537884232383256 0.0033337340807095927 0 -0.025433006037011652 0.0035622557765997327 0 -0.025563082336163456 0.0035000410197636492 0 -0.025549842136952758 0.0033534636890636483 0 -0.025891519470776041 0.0036756407360633756 0 -0.025991634092247966 0.0035429046777225373 0 -0.025534888688969543 0.0031423437193119344 0 -0.025549842136952758 0.0033534636890636483 0 -0.025991634092247966 0.0035429046777225373 0 -0.025549842136952758 0.0033534636890636483 0 -0.025891519470776041 0.0036756407360633756 0 -0.022353688236274889 0.0036045092435041818 0 -0.022466568424485814 0.0034888542546732903 0 -0.02257873063332571 0.0036847557384186757 0 -0.023737161377871414 0.0034874651977488979 0 -0.024171180221104028 0.0033624603018505552 0 -0.02504555393742296 0.0033601965792009118 0 -0.025358160053429675 0.0032709113258734619 0 -0.02528592410934451 0.0033772591057657942 0 -0.025312218484194883 0.0032079727586975396 0 -0.025358160053429675 0.0032709113258734619 0 -0.02537884232383256 0.0033337340807095927 0 -0.025358160053429675 0.0032709113258734619 0 -0.02537884232383256 0.0033337340807095927 0 -0.02528592410934451 0.0033772591057657942 0 -0.02537884232383256 0.0033337340807095927 0 -0.025238002744270363 0.0035340121704127742 0 -0.025433006037011652 0.0035622557765997327 0 -0.02537884232383256 0.0033337340807095927 0 -0.025244786569557431 0.0035288230496567036 0 -0.02528592410934451 0.0033772591057657942 0 -0.02527663029875922 0.0035031787824451499 0 -0.025184468940266727 0.0035797104374351847 0 -0.02504555393742296 0.0033601965792009118 0 -0.025244786569557431 0.0035288230496567036 0 -0.02528592410934451 0.0033772591057657942 0 -0.025238002744270363 0.0035340121704127742 0 -0.025423500311569792 0.0038452455303103154 0 -0.025081063768796031 0.0040093230620558079 0 -0.025184468940266727 0.0035797104374351847 0 -0.024987242495640459 0.0037357369339197748 0 -0.025433006037011652 0.0035622557765997327 0 -0.025423500311569792 0.0038452455303103154 0 -0.025628907012847188 0.0037133314807237141 0 -0.025238002744270363 0.0035340121704127742 0 -0.025433006037011652 0.0035622557765997327 0 -0.025423500311569792 0.0038452455303103154 0 -0.025423500311569792 0.0038452455303103154 0 -0.025846977877956472 0.0040626975629589916 0 -0.025324981499436992 0.0042238529501691571 0 -0.025423500311569792 0.0038452455303103154 0 -0.025324981499436992 0.0042238529501691571 0 -0.025081063768796031 0.0040093230620558079 0 -0.026305199893724207 0.0039551578341029507 0 -0.025991634092247966 0.0035429046777225373 0 -0.025891519470776041 0.0036756407360633756 0 -0.025563082336163456 0.0035000410197636492 0 -0.025891519470776041 0.0036756407360633756 0 -0.025628907012847188 0.0037133314807237141 0 -0.025563082336163456 0.0035000410197636492 0 -0.025433006037011652 0.0035622557765997327 0 -0.025628907012847188 0.0037133314807237141 0 -0.025423500311569792 0.0038452455303103154 0 -0.025628907012847188 0.0037133314807237141 0 -0.025846977877956472 0.0040626975629589916 0 -0.025891519470776041 0.0036756407360633756 0 -0.025628907012847188 0.0037133314807237141 0 -0.025846977877956472 0.0040626975629589916 0 -0.026305199893724207 0.0039551578341029507 0 -0.025891519470776041 0.0036756407360633756 0 -0.025846977877956472 0.0040626975629589916 0 -0.026516940504143945 0.0047075019373164374 0 -0.026305199893724207 0.0039551578341029507 0 -0.026346757998401478 0.0043780309848190117 0 -0.026305199893724207 0.0039551578341029507 0 -0.025846977877956472 0.0040626975629589916 0 -0.026346757998401478 0.0043780309848190117 0 -0.025846977877956472 0.0040626975629589916 0 -0.026346757998401478 0.0043780309848190117 0 -0.025699423894998748 0.0046398753857997818 0 -0.026346757998401478 0.0043780309848190117 0 -0.026851844486892287 0.0044607963595576401 0 -0.025699423894998748 0.0046398753857997818 0 -0.027585421926469608 0.0042812127219501814 0 -0.028164921923744521 0.0041762561259066772 0 -0.026851844486892287 0.0044607963595576401 0 -0.030676679587815441 0.0043997919256298047 0 -0.028747682249983687 0.0031791081360732949 0 -0.026851844486892287 0.0044607963595576401 0 -0.027310802184221265 0.0031790787941408799 0 -0.028747682249983687 0.0031791081360732949 0 -0.026516940504143945 0.0047075019373164374 0 -0.026851844486892287 0.0044607963595576401 0 -0.027310802184221265 0.0031790787941408799 0 -0.026516940504143945 0.0047075019373164374 0 -0.026346757998401478 0.0043780309848190117 0 -0.026851844486892287 0.0044607963595576401 0 -0.025324981499436992 0.0042238529501691571 0 -0.025147462665393496 0.0045331961118211294 0 -0.024953258361345817 0.0042625053628274579 0 -0.025324981499436992 0.0042238529501691571 0 -0.024953258361345817 0.0042625053628274579 0 -0.025081063768796031 0.0040093230620558079 0 -0.025846977877956472 0.0040626975629589916 0 -0.025324981499436992 0.0042238529501691571 0 -0.025699423894998748 0.0046398753857997818 0 -0.028164921923744521 0.0041762561259066772 0 -0.028999722503636121 0.0038670845880333219 0 -0.025324981499436992 0.0042238529501691571 0 -0.025699423894998748 0.0046398753857997818 0 -0.025147462665393496 0.0045331961118211294 0 -0.030676679587815441 0.0043997919256298047 0 -0.033392535556972913 0.0037071107526248414 0 -0.032967232064541052 0.0027778514380812289 0 -0.033392535556972913 0.0037071107526248414 0 -0.03477104510089795 0.0030287420110684171 0 -0.034388827282439804 0.0027428830936487448 0 -0.028999722503636121 0.0038670845880333219 0 -0.029556573879509718 0.0033901704574317197 0 -0.025147462665393496 0.0045331961118211294 0 -0.024763249192658966 0.0044620661266248007 0 -0.024953258361345817 0.0042625053628274579 0 -0.024763249192658966 0.0044620661266248007 0 -0.024712718995164151 0.0042375897485229979 0 -0.024953258361345817 0.0042625053628274579 0 -0.024712718995164151 0.0042375897485229979 0 -0.024953258361345817 0.0042625053628274579 0 -0.024719572828023142 0.0039663513771536589 0 -0.024953258361345817 0.0042625053628274579 0 -0.025081063768796031 0.0040093230620558079 0 -0.024719572828023142 0.0039663513771536589 0 -0.025081063768796031 0.0040093230620558079 0 -0.024719572828023142 0.0039663513771536589 0 -0.024972184063614535 0.0037581028990460513 0 -0.024781132809955256 0.0038930039131609786 0 -0.024987242495640459 0.0037357369339197748 0 -0.024772408389689027 0.0039249304806346147 0 -0.024790429671381117 0.0037006982586377615 0 -0.025018030051290024 0.0037277296014604591 0 -0.02493689476530947 0.0035586471609421414 0 -0.024790429671381117 0.0037006982586377615 0 -0.025018030051290024 0.0037277296014604591 0 -0.025238002744270363 0.0035340121704127742 0 -0.025081063768796031 0.0040093230620558079 0 -0.024972184063614535 0.0037581028990460513 0 -0.02493689476530947 0.0035586471609421414 0 -0.025244786569557431 0.0035288230496567036 0 -0.025018030051290024 0.0037277296014604591 0 -0.024549411960341848 0.0037856275002751856 0 -0.024340174596619732 0.0039281269478248287 0 -0.024291562772907248 0.0036648898840204833 0 -0.02466932122022842 0.0035078669007639041 0 -0.024549411960341848 0.0037856275002751856 0 -0.024291562772907248 0.0036648898840204833 0 -0.02466932122022842 0.0035078669007639041 0 -0.024790429671381117 0.0037006982586377615 0 -0.024549411960341848 0.0037856275002751856 0 -0.024772408389689027 0.0039249304806346147 0 -0.024790429671381117 0.0037006982586377615 0 -0.024549411960341848 0.0037856275002751856 0 -0.024772408389689027 0.0039249304806346147 0 -0.024549411960341848 0.0037856275002751856 0 -0.024510228404383102 0.0041201797626156259 0 -0.024781132809955256 0.0038930039131609786 0 -0.024671736584176093 0.0039737820702124716 0 -0.024549411960341848 0.0037856275002751856 0 -0.024340174596619732 0.0039281269478248287 0 -0.024510228404383102 0.0041201797626156259 0 -0.024340174596619732 0.0039281269478248287 0 -0.024510228404383102 0.0041201797626156259 0 -0.024261348362539979 0.0041489920547742917 0 -0.024510228404383102 0.0041201797626156259 0 -0.024408247878803767 0.0042708592005087998 0 -0.024261348362539979 0.0041489920547742917 0 -0.024510228404383102 0.0041201797626156259 0 -0.024570839624038734 0.0043119571463491584 0 -0.024408247878803767 0.0042708592005087998 0 -0.024712718995164151 0.0042375897485229979 0 -0.024510228404383102 0.0041201797626156259 0 -0.024570839624038734 0.0043119571463491584 0 -0.024712718995164151 0.0042375897485229979 0 -0.024719572828023142 0.0039663513771536589 0 -0.024510228404383102 0.0041201797626156259 0 -0.024763249192658966 0.0044620661266248007 0 -0.024712718995164151 0.0042375897485229979 0 -0.024570839624038734 0.0043119571463491584 0 -0.03477104510089795 0.0030287420110684171 0 -0.035324190774298936 0.0028353003356865461 0 -0.034979725165873735 0.002895836522015327 0 -0.029556573879509718 0.0033901704574317197 0 -0.029872898442544076 0.0026446861057046966 0 -0.024763249192658966 0.0044620661266248007 0 -0.024570839624038734 0.0043119571463491584 0 -0.024433502816059129 0.0044405509823559819 0 -0.024408247878803767 0.0042708592005087998 0 -0.024433502816059129 0.0044405509823559819 0 -0.024264383823499991 0.004322208647203704 0 -0.024570839624038734 0.0043119571463491584 0 -0.024408247878803767 0.0042708592005087998 0 -0.024433502816059129 0.0044405509823559819 0 -0.035324190774298936 0.0028353003356865461 0 -0.035235153616158373 0.0025541179543648504 0 -0.035449954434022837 0.0026451018932623785 0 -0.035427303042195595 0.0020754399099408051 0 -0.035634916520621757 0.0014061822382245952 0 -0.03529859754938762 0.0015565929448216639 0 -0.034937137687549309 0.0020442473520071989 0 -0.034936261091708991 0.0015681766471793643 0 -0.035235153616158373 0.0025541179543648504 0 -0.035449954434022837 0.0026451018932623785 0 -0.035439957340013005 0.0025187389582836794 0 -0.035235153616158373 0.0025541179543648504 0 -0.035409699557320255 0.0023288351853605204 0 -0.035439957340013005 0.0025187389582836794 0 -0.035004336229718852 0.0016399558299773252 0 -0.035001446550240532 0.0020828753751634377 0 -0.03472923701561003 0.0016770508595202232 0 -0.035004336229718852 0.0016399558299773252 0 -0.035001446550240532 0.0020828753751634377 0 -0.03529859754938762 0.0015565929448216639 0 -0.035427303042195595 0.0020754399099408051 0 -0.035001446550240532 0.0020828753751634377 0 -0.03529859754938762 0.0015565929448216639 0 -0.035324190774298936 0.0028353003356865461 0 -0.035235153616158373 0.0025541179543648504 0 -0.034979725165873735 0.002895836522015327 0 -0.035001446550240532 0.0020828753751634377 0 -0.034979725165873735 0.002895836522015327 0 -0.034772288026082433 0.0026094212827149849 0 -0.034937137687549309 0.0020442473520071989 0 -0.034864840779998393 0.0022907266140118334 0 -0.035427303042195595 0.0020754399099408051 0 -0.035001446550240532 0.0020828753751634377 0 -0.034979725165873735 0.002895836522015327 0 -0.03477104510089795 0.0030287420110684171 0 -0.034979725165873735 0.002895836522015327 0 -0.034772288026082433 0.0026094212827149849 0 -0.03477104510089795 0.0030287420110684171 0 -0.034388827282439804 0.0027428830936487448 0 -0.034772288026082433 0.0026094212827149849 0 -0.034388827282439804 0.0027428830936487448 0 -0.034039185516839293 0.0022641967732198193 0 -0.034671905424537561 0.00224135720998487 0 -0.034388827282439804 0.0027428830936487448 0 -0.034772288026082433 0.0026094212827149849 0 -0.034671905424537561 0.00224135720998487 0 -0.035001446550240532 0.0020828753751634377 0 -0.034772288026082433 0.0026094212827149849 0 -0.034671905424537561 0.00224135720998487 0 -0.033392535556972913 0.0037071107526248414 0 -0.034388827282439804 0.0027428830936487448 0 -0.034039185516839293 0.0022641967732198193 0 -0.034039185516839293 0.0022641967732198193 0 -0.033827870842320779 0.0015854730601503578 0 -0.033358021298670527 0.0020255228861435241 0 -0.034039185516839293 0.0022641967732198193 0 -0.034251291384911897 0.0016489597224359366 0 -0.034431350287045262 0.0019503474502709829 0 -0.034039185516839293 0.0022641967732198193 0 -0.034251291384911897 0.0016489597224359366 0 -0.033827870842320779 0.0015854730601503578 0 -0.034039185516839293 0.0022641967732198193 0 -0.034671905424537561 0.00224135720998487 0 -0.034431350287045262 0.0019503474502709829 0 -0.034671905424537561 0.00224135720998487 0 -0.034431350287045262 0.0019503474502709829 0 -0.03472923701561003 0.0016770508595202232 0 -0.035001446550240532 0.0020828753751634377 0 -0.034671905424537561 0.00224135720998487 0 -0.03472923701561003 0.0016770508595202232 0 -0.034251291384911897 0.0016489597224359366 0 -0.034431350287045262 0.0019503474502709829 0 -0.03472923701561003 0.0016770508595202232 0 -0.03472923701561003 0.0016770508595202232 0 -0.034554584567145857 0.0012017050269490159 0 -0.034985574297639245 0.0012723811484875521 0 -0.034251291384911897 0.0016489597224359366 0 -0.03472923701561003 0.0016770508595202232 0 -0.034554584567145857 0.0012017050269490159 0 -0.034554584567145857 0.0012017050269490159 0 -0.034804106573206699 0.0010449846337408889 0 -0.034985574297639245 0.0012723811484875521 0 -0.033827870842320779 0.0015854730601503578 0 -0.034197912189211997 0.0012357852719392408 0 -0.033775093705089632 0.001186894941602431 0 -0.034251291384911897 0.0016489597224359366 0 -0.034554584567145857 0.0012017050269490159 0 -0.034197912189211997 0.0012357852719392408 0 -0.034251291384911897 0.0016489597224359366 0 -0.033827870842320779 0.0015854730601503578 0 -0.034197912189211997 0.0012357852719392408 0 -0.034554584567145857 0.0012017050269490159 0 -0.034197912189211997 0.0012357852719392408 0 -0.034262973719719508 0.00086550953900494418 0 -0.034197912189211997 0.0012357852719392408 0 -0.034043066275755346 0.0010284994618596356 0 -0.034262973719719508 0.00086550953900494418 0 -0.034043066275755346 0.0010284994618596356 0 -0.033775093705089632 0.001186894941602431 0 -0.033937534691247773 0.00085652635798917935 0 -0.034197912189211997 0.0012357852719392408 0 -0.034043066275755346 0.0010284994618596356 0 -0.033775093705089632 0.001186894941602431 0 -0.034262973719719508 0.00086550953900494418 0 -0.034127169468905323 0.00058413784457460609 0 -0.034584856691507564 0.00052836449936051358 0 -0.034043066275755346 0.0010284994618596356 0 -0.034262973719719508 0.00086550953900494418 0 -0.033937534691247773 0.00085652635798917935 0 -0.034262973719719508 0.00086550953900494418 0 -0.033937534691247773 0.00085652635798917935 0 -0.034127169468905323 0.00058413784457460609 0 -0.034262973719719508 0.00086550953900494418 0 -0.034673988785517772 0.000844633961988341 0 -0.034584856691507564 0.00052836449936051358 0 -0.034554584567145857 0.0012017050269490159 0 -0.034804106573206699 0.0010449846337408889 0 -0.034673988785517772 0.000844633961988341 0 -0.034804106573206699 0.0010449846337408889 0 -0.034673988785517772 0.000844633961988341 0 -0.034993515582489691 0.00088266965143312249 0 -0.034554584567145857 0.0012017050269490159 0 -0.034262973719719508 0.00086550953900494418 0 -0.034673988785517772 0.000844633961988341 0 -0.034673988785517772 0.000844633961988341 0 -0.034993515582489691 0.00088266965143312249 0 -0.034834007770855248 0.00063376536311432962 0 -0.034804106573206699 0.0010449846337408889 0 -0.034993515582489691 0.00088266965143312249 0 -0.034985574297639245 0.0012723811484875521 0 -0.034993515582489691 0.00088266965143312249 0 -0.035302099629217709 0.00079589068523888771 0 -0.035284756858636031 0.001121792331868196 0 -0.034993515582489691 0.00088266965143312249 0 -0.035284756858636031 0.001121792331868196 0 -0.034985574297639245 0.0012723811484875521 0 -0.034993515582489691 0.00088266965143312249 0 -0.035302099629217709 0.00079589068523888771 0 -0.035078728019493452 0.00057251167641160072 0 -0.035302099629217709 0.00079589068523888771 0 -0.035517382690842904 0.00099689680516479849 0 -0.035525816345086267 0.00075033330472178519 0 -0.035302099629217709 0.00079589068523888771 0 -0.035517382690842904 0.00099689680516479849 0 -0.035284756858636031 0.001121792331868196 0 -0.035517382690842904 0.00099689680516479849 0 -0.035284756858636031 0.001121792331868196 0 -0.035634916520621757 0.0014061822382245952 0 -0.035284756858636031 0.001121792331868196 0 -0.035634916520621757 0.0014061822382245952 0 -0.03529859754938762 0.0015565929448216639 0 -0.035004336229718852 0.0016399558299773252 0 -0.03529859754938762 0.0015565929448216639 0 -0.034985574297639245 0.0012723811484875521 0 -0.035004336229718852 0.0016399558299773252 0 -0.03472923701561003 0.0016770508595202232 0 -0.034985574297639245 0.0012723811484875521 0 -0.035284756858636031 0.001121792331868196 0 -0.03529859754938762 0.0015565929448216639 0 -0.034985574297639245 0.0012723811484875521 0 -0.026940122963446174 0.001500285032261016 0 -0.027949401345981541 0.0010280286129197593 0 -0.027139525113996123 0.0019529999189987174 0 -0.027949401345981541 0.0010280286129197593 0 -0.027139525113996123 0.0019529999189987174 0 -0.02845561060249565 0.0020060790112784374 0 -0.027139525113996123 0.0019529999189987174 0 -0.027310802184221265 0.0031790787941408799 0 -0.02845561060249565 0.0020060790112784374 0 -0.026850025313676508 0.0018601704263656507 0 -0.026567995200891013 0.0018114853731086031 0 -0.027139525113996123 0.0019529999189987174 0 -0.026516940504143945 0.0047075019373164374 0 -0.027139525113996123 0.0019529999189987174 0 -0.027310802184221265 0.0031790787941408799 0 -0.026505696064950544 0.0028928819565337029 0 -0.026634513982355699 0.0025165873749612559 0 -0.027310802184221265 0.0031790787941408799 0 -0.02845561060249565 0.0020060790112784374 0 -0.028747682249983687 0.0031791081360732949 0 -0.030676679587815441 0.0043997919256298047 0 -0.028747682249983687 0.0031791081360732949 0 -0.030034261778616497 0.0025964625469873733 0 -0.02845561060249565 0.0020060790112784374 0 -0.028747682249983687 0.0031791081360732949 0 -0.030034261778616497 0.0025964625469873733 0 -0.027949401345981541 0.0010280286129197593 0 -0.029668610841085314 0.0013147467107347487 0 -0.028837478500490166 -0.00047824064569807081 0 -0.027949401345981541 0.0010280286129197593 0 -0.02845561060249565 0.0020060790112784374 0 -0.029668610841085314 0.0013147467107347487 0 -0.02845561060249565 0.0020060790112784374 0 -0.030034261778616497 0.0025964625469873733 0 -0.029668610841085314 0.0013147467107347487 0 -0.029668610841085314 0.0013147467107347487 0 -0.032011420548154937 0.0021254732482233504 0 -0.031639906415853965 0.00039566830809600716 0 -0.03274216867692184 0.0012921149125182253 0 -0.032792695169903331 0.00091427087170460456 0 -0.030034261778616497 0.0025964625469873733 0 -0.029668610841085314 0.0013147467107347487 0 -0.032011420548154937 0.0021254732482233504 0 -0.032011420548154937 0.0021254732482233504 0 -0.033214321939247435 0.0015339709351016352 0 -0.032716780012154688 0.0014465810000852779 0 -0.030676679587815441 0.0043997919256298047 0 -0.030034261778616497 0.0025964625469873733 0 -0.032011420548154937 0.0021254732482233504 0 -0.030676679587815441 0.0043997919256298047 0 -0.032011420548154937 0.0021254732482233504 0 -0.032967232064541052 0.0027778514380812289 0 -0.032011420548154937 0.0021254732482233504 0 -0.032967232064541052 0.0027778514380812289 0 -0.033358021298670527 0.0020255228861435241 0 -0.034039185516839293 0.0022641967732198193 0 -0.032967232064541052 0.0027778514380812289 0 -0.033358021298670527 0.0020255228861435241 0 -0.033392535556972913 0.0037071107526248414 0 -0.034039185516839293 0.0022641967732198193 0 -0.032967232064541052 0.0027778514380812289 0 -0.032011420548154937 0.0021254732482233504 0 -0.033358021298670527 0.0020255228861435241 0 -0.033214321939247435 0.0015339709351016352 0 -0.033827870842320779 0.0015854730601503578 0 -0.033358021298670527 0.0020255228861435241 0 -0.033214321939247435 0.0015339709351016352 0 -0.033827870842320779 0.0015854730601503578 0 -0.033214321939247435 0.0015339709351016352 0 -0.033775093705089632 0.001186894941602431 0 -0.033214321939247435 0.0015339709351016352 0 -0.03334181778187801 0.0011613731658932692 0 -0.033775093705089632 0.001186894941602431 0 -0.033214321939247435 0.0015339709351016352 0 -0.03334181778187801 0.0011613731658932692 0 -0.032716780012154688 0.0014465810000852779 0 -0.03334181778187801 0.0011613731658932692 0 -0.033608363712309672 0.00077574024800604736 0 -0.033052392606067293 0.00083168155403798782 0 -0.03334181778187801 0.0011613731658932692 0 -0.033669085754676864 0.00094951983235954935 0 -0.033608363712309672 0.00077574024800604736 0 -0.03334181778187801 0.0011613731658932692 0 -0.033669085754676864 0.00094951983235954935 0 -0.033775093705089632 0.001186894941602431 0 -0.033669085754676864 0.00094951983235954935 0 -0.033775093705089632 0.001186894941602431 0 -0.033937534691247773 0.00085652635798917935 0 -0.033872073230161184 0.00068576148290567303 0 -0.033608363712309672 0.00077574024800604736 0 -0.034009468968380398 0.00043826597439036355 0 -0.033669085754676864 0.00094951983235954935 0 -0.033937534691247773 0.00085652635798917935 0 -0.033872073230161184 0.00068576148290567303 0 -0.033937534691247773 0.00085652635798917935 0 -0.033872073230161184 0.00068576148290567303 0 -0.034127169468905323 0.00058413784457460609 0 -0.033669085754676864 0.00094951983235954935 0 -0.033872073230161184 0.00068576148290567303 0 -0.033608363712309672 0.00077574024800604736 0 -0.033608363712309672 0.00077574024800604736 0 -0.03358177857181055 0.0007779040369785456 0 -0.034009468968380398 0.00043826597439036355 0 -0.035089431023542186 0.00045199301488913049 0 -0.034992943956072615 0.00038494280332223462 0 -0.035073306592111386 0.00027968648421870812 0 -0.032961574467580718 0.00029009107380317985 0 -0.033937778131311602 0.0004223854755925933 0 -0.033003252419243817 0.00029772908141821456 0 -0.032961574467580718 0.00029009107380317985 0 -0.031497607042613979 -0.0013010306666381322 0 -0.031639906415853965 0.00039566830809600716 0 -0.028837478500490166 -0.00047824064569807081 0 -0.03334181778187801 0.0011613731658932692 0 -0.033052392606067293 0.00083168155403798782 0 -0.032716780012154688 0.0014465810000852779 0 -0.032961574467580718 0.00029009107380317985 0 -0.032792695169903331 0.00091427087170460456 0 -0.032961574467580718 0.00029009107380317985 0 -0.032165103923981211 0.0004258575863635523 0 -0.029668610841085314 0.0013147467107347487 0 -0.031639906415853965 0.00039566830809600716 0 -0.028837478500490166 -0.00047824064569807081 0 -0.03494073511245846 0.00050256562229336805 0 -0.034992943956072615 0.00038494280332223462 0 -0.034892870634492534 0.00035386486709036545 0 -0.035089431023542186 0.00045199301488913049 0 -0.03494073511245846 0.00050256562229336805 0 -0.034992943956072615 0.00038494280332223462 0 -0.034787377330083864 0.00042060231142769072 0 -0.03494073511245846 0.00050256562229336805 0 -0.034892870634492534 0.00035386486709036545 0 -0.034787377330083864 0.00042060231142769072 0 -0.034824256057545536 0.00030713916668249149 0 -0.034892870634492534 0.00035386486709036545 0 -0.034770828729033358 0.00058284996425599176 0 -0.034787377330083864 0.00042060231142769072 0 -0.03494073511245846 0.00050256562229336805 0 -0.026996331576475859 0.0008143329917917418 0 -0.027949401345981541 0.0010280286129197593 0 -0.028837478500490166 -0.00047824064569807081 0 -0.031407963946093007 0.00076833498479113695 0 -0.032165103923981211 0.0004258575863635523 0 -0.034827617243879103 0.00019075461383198297 0 -0.034895467478647732 0.00018391103777908193 0 -0.034860462856819166 0.00021452743808892172 0 -0.034895467478647732 0.00018391103777908193 0 -0.034860462856819166 0.00021452743808892172 0 -0.034883490632333508 0.00025042986599350573 0 -0.034895467478647732 0.00018391103777908193 0 -0.034883490632333508 0.00025042986599350573 0 -0.03495777133101792 0.00019739721065302986 0 -0.034827617243879103 0.00019075461383198297 0 -0.034860462856819166 0.00021452743808892172 0 -0.034825171630210532 0.00024914958755282356 0 -0.034860462856819166 0.00021452743808892172 0 -0.034825171630210532 0.00024914958755282356 0 -0.034883490632333508 0.00025042986599350573 0 -0.034825171630210532 0.00024914958755282356 0 -0.034824256057545536 0.00030713916668249149 0 -0.034883490632333508 0.00025042986599350573 0 -0.034824256057545536 0.00030713916668249149 0 -0.034892870634492534 0.00035386486709036545 0 -0.034883490632333508 0.00025042986599350573 0 -0.034892870634492534 0.00035386486709036545 0 -0.034883490632333508 0.00025042986599350573 0 -0.034960135468094247 0.00029261548010610106 0 -0.034992943956072615 0.00038494280332223462 0 -0.034960135468094247 0.00029261548010610106 0 -0.035073306592111386 0.00027968648421870812 0 -0.034960135468094247 0.00029261548010610106 0 -0.03495777133101792 0.00019739721065302986 0 -0.035073306592111386 0.00027968648421870812 0 -0.034992943956072615 0.00038494280332223462 0 -0.034892870634492534 0.00035386486709036545 0 -0.034960135468094247 0.00029261548010610106 0 -0.034883490632333508 0.00025042986599350573 0 -0.034960135468094247 0.00029261548010610106 0 -0.03495777133101792 0.00019739721065302986 0 -0.03495777133101792 0.00019739721065302986 0 -0.035073306592111386 0.00027968648421870812 0 -0.035044151044913596 0.00011699672576102389 0 -0.034009468968380398 0.00043826597439036355 0 -0.03451987615280469 0.00018048589860711272 0 -0.03450515068852239 0.0001187598248369224 0 -0.033937778131311602 0.0004223854755925933 0 -0.034540701716680472 0.00025485901217115934 0 -0.033872073230161184 0.00068576148290567303 0 -0.034009468968380398 0.00043826597439036355 0 -0.034127169468905323 0.00058413784457460609 0 -0.034009468968380398 0.00043826597439036355 0 -0.034127169468905323 0.00058413784457460609 0 -0.034459433839874348 0.00033582049391446832 0 -0.034009468968380398 0.00043826597439036355 0 -0.03451987615280469 0.00018048589860711272 0 -0.034459433839874348 0.00033582049391446832 0 -0.03451987615280469 0.00018048589860711272 0 -0.034755667589113914 5.4302920510610806e-05 0 -0.03450515068852239 0.0001187598248369224 0 -0.03451987615280469 0.00018048589860711272 0 -0.034755667589113914 5.4302920510610806e-05 0 -0.03479816248961215 8.0581658721424066e-05 0 -0.034755667589113914 5.4302920510610806e-05 0 -0.034999387760715248 1.0576891911559698e-08 0 -0.034999661390844754 2.7808011641579028e-08 0 -0.035000204991818606 4.8752901540414033e-08 0 -0.035044151044913596 0.00011699672576102389 0 -0.034999804051566392 -4.2785181887303683e-08 0 -0.034755667589113914 5.4302920510610806e-05 0 -0.034999387760715248 1.0576891911559698e-08 0 -0.03450515068852239 0.0001187598248369224 0 -0.034999139916257103 3.686223724653904e-07 0 -0.034540701716680472 0.00025485901217115934 0 -0.03495777133101792 0.00019739721065302986 0 -0.035044151044913596 0.00011699672576102389 0 -0.034922322333902585 8.4518630817326346e-05 0 -0.034895467478647732 0.00018391103777908193 0 -0.03495777133101792 0.00019739721065302986 0 -0.034922322333902585 8.4518630817326346e-05 0 -0.034999947464673116 5.1373273431306553e-08 0 -0.034951988113587081 5.3733222587708521e-05 0 -0.03500000343832025 2.6103104604692892e-09 0 -0.034999991196523049 -4.9568351848824642e-09 0 -0.034997540283038614 6.0749934204679248e-07 0 -0.035044151044913596 0.00011699672576102389 0 -0.034999804051566392 -4.2785181887303683e-08 0 -0.034922322333902585 8.4518630817326346e-05 0 -0.034984508323548262 1.9037455127935511e-06 0 -0.034999991196523049 -4.9568351848824642e-09 0 -0.034997540283038614 6.0749934204679248e-07 0 -0.034892509600759271 0.0001220336414150644 0 -0.034951988113587081 5.3733222587708521e-05 0 -0.034827617243879103 0.00019075461383198297 0 -0.034895467478647732 0.00018391103777908193 0 -0.034922322333902585 8.4518630817326346e-05 0 -0.034977060681394688 4.8078859945256661e-06 0 -0.034984508323548262 1.9037455127935511e-06 0 -0.034997540283038614 6.0749934204679248e-07 0 -0.034977060681394688 4.8078859945256661e-06 0 -0.034991800571563321 1.8678498882398167e-05 0 -0.034997540283038614 6.0749934204679248e-07 0 -0.035078143681595682 0.00030365937000803529 0 -0.034893680875241251 0.00043373506394109925 0 -0.034798918941934633 0.00026272945905048817 0 -0.035078143681595682 0.00030365937000803529 0 -0.034798918941934633 0.00026272945905048817 0 -0.034998271661561789 8.3547457646904657e-05 0 -0.035078143681595682 0.00030365937000803529 0 -0.035317851412746112 0.00050638979569462888 0 -0.035300599783135884 0.00013679739842537003 0 -0.035078143681595682 0.00030365937000803529 0 -0.035317851412746112 0.00050638979569462888 0 -0.035078728019493452 0.00057251167641160072 0 -0.035302099629217709 0.00079589068523888771 0 -0.035317851412746112 0.00050638979569462888 0 -0.035525816345086267 0.00075033330472178519 0 -0.035302099629217709 0.00079589068523888771 0 -0.035317851412746112 0.00050638979569462888 0 -0.035078728019493452 0.00057251167641160072 0 -0.035078143681595682 0.00030365937000803529 0 -0.035078728019493452 0.00057251167641160072 0 -0.034893680875241251 0.00043373506394109925 0 -0.035078728019493452 0.00057251167641160072 0 -0.034893680875241251 0.00043373506394109925 0 -0.034834007770855248 0.00063376536311432962 0 -0.034993515582489691 0.00088266965143312249 0 -0.035078728019493452 0.00057251167641160072 0 -0.034834007770855248 0.00063376536311432962 0 -0.034893680875241251 0.00043373506394109925 0 -0.034584856691507564 0.00052836449936051358 0 -0.034798918941934633 0.00026272945905048817 0 -0.034673988785517772 0.000844633961988341 0 -0.034834007770855248 0.00063376536311432962 0 -0.034584856691507564 0.00052836449936051358 0 -0.034893680875241251 0.00043373506394109925 0 -0.034834007770855248 0.00063376536311432962 0 -0.034584856691507564 0.00052836449936051358 0 -0.034127169468905323 0.00058413784457460609 0 -0.034584856691507564 0.00052836449936051358 0 -0.034459433839874348 0.00033582049391446832 0 -0.03451987615280469 0.00018048589860711272 0 -0.034459433839874348 0.00033582049391446832 0 -0.03479816248961215 8.0581658721424066e-05 0 -0.034584856691507564 0.00052836449936051358 0 -0.034459433839874348 0.00033582049391446832 0 -0.034798918941934633 0.00026272945905048817 0 -0.034459433839874348 0.00033582049391446832 0 -0.034798918941934633 0.00026272945905048817 0 -0.03479816248961215 8.0581658721424066e-05 0 -0.034798918941934633 0.00026272945905048817 0 -0.03479816248961215 8.0581658721424066e-05 0 -0.034998271661561789 8.3547457646904657e-05 0 -0.034755667589113914 5.4302920510610806e-05 0 -0.03479816248961215 8.0581658721424066e-05 0 -0.034999661390844754 2.7808011641579028e-08 0 -0.03479816248961215 8.0581658721424066e-05 0 -0.034999661390844754 2.7808011641579028e-08 0 -0.034999851283147761 2.5880587289750654e-08 0 -0.03479816248961215 8.0581658721424066e-05 0 -0.034999851283147761 2.5880587289750654e-08 0 -0.034998271661561789 8.3547457646904657e-05 0 -0.034999851283147761 2.5880587289750654e-08 0 -0.034998271661561789 8.3547457646904657e-05 0 -0.035000535701589654 -7.9253728541203452e-08 0 -0.035078143681595682 0.00030365937000803529 0 -0.034998271661561789 8.3547457646904657e-05 0 -0.035300599783135884 0.00013679739842537003 0 -0.034998271661561789 8.3547457646904657e-05 0 -0.035000535701589654 -7.9253728541203452e-08 0 -0.035300599783135884 0.00013679739842537003 0 -0.034999986627204466 -4.899386925203691e-09 0 -0.034998602455771598 4.2253319710490882e-06 0 -0.034999996235001024 7.0656837024074607e-09 0 -0.034999986627204466 -4.899386925203691e-09 0 -0.034998602455771598 4.2253319710490882e-06 0 -0.0349935146393563 1.7775735220030905e-05 0 -0.03499992662678611 2.4469935035737107e-07 0 -0.034958380901267447 0.00021579132233776185 0 -0.034998602455771598 4.2253319710490882e-06 0 -0.034994486189992693 4.0331453685352162e-06 0 -0.034993819601199565 5.1237487009044082e-06 0 -0.034998602455771598 4.2253319710490882e-06 0 -0.034999996235001024 7.0656837024074607e-09 0 -0.034994486189992693 4.0331453685352162e-06 0 -0.034999996235001024 7.0656837024074607e-09 0 -0.034994486189992693 4.0331453685352162e-06 0 -0.034996790662867247 1.8808802510357231e-06 0 -0.034994486189992693 4.0331453685352162e-06 0 -0.034992050287941966 4.7521438214909541e-06 0 -0.034996790662867247 1.8808802510357231e-06 0 -0.034994486189992693 4.0331453685352162e-06 0 -0.03499190598644529 5.7745912660019592e-06 0 -0.034993819601199565 5.1237487009044082e-06 0 -0.034994486189992693 4.0331453685352162e-06 0 -0.03499190598644529 5.7745912660019592e-06 0 -0.03499041271758864 6.2705988433593163e-06 0 -0.03499190598644529 5.7745912660019592e-06 0 -0.03499041271758864 6.2705988433593163e-06 0 -0.034988746565312964 7.6595896440364279e-06 0 -0.034994486189992693 4.0331453685352162e-06 0 -0.03499041271758864 6.2705988433593163e-06 0 -0.034992050287941966 4.7521438214909541e-06 0 -0.034871516072675197 8.7277854489202226e-05 0 -0.03485121666428341 0.00015782331635007854 0 -0.034998602455771598 4.2253319710490882e-06 0 -0.0349935146393563 1.7775735220030905e-05 0 -0.034995964372991774 2.2434133863900121e-05 0 -0.034998602455771598 4.2253319710490882e-06 0 -0.034993819601199565 5.1237487009044082e-06 0 -0.034990367429314294 6.5921905103942759e-06 0 -0.03499190598644529 5.7745912660019592e-06 0 -0.034993819601199565 5.1237487009044082e-06 0 -0.034990367429314294 6.5921905103942759e-06 0 -0.03499190598644529 5.7745912660019592e-06 0 -0.034990367429314294 6.5921905103942759e-06 0 -0.034988746565312964 7.6595896440364279e-06 0 -0.034990367429314294 6.5921905103942759e-06 0 -0.034988746565312964 7.6595896440364279e-06 0 -0.034987360298361657 8.7428536806283344e-06 0 -0.035317851412746112 0.00050638979569462888 0 -0.035300599783135884 0.00013679739842537003 0 -0.035632516065564883 0.00053493304555393272 0 -0.034958380901267447 0.00021579132233776185 0 -0.034794169952467563 0.00049916674989340063 0 -0.03485121666428341 0.00015782331635007854 0 -0.034794169952467563 0.00049916674989340063 0 -0.0349935146393563 1.7775735220030905e-05 0 -0.034995964372991774 2.2434133863900121e-05 0 -0.0349928627668641 4.9788228420621893e-05 0 -0.03499041271758864 6.2705988433593163e-06 0 -0.034982784428663788 8.9089858464590108e-06 0 -0.034992050287941966 4.7521438214909541e-06 0 -0.03499041271758864 6.2705988433593163e-06 0 -0.034988746565312964 7.6595896440364279e-06 0 -0.034982784428663788 8.9089858464590108e-06 0 -0.034988746565312964 7.6595896440364279e-06 0 -0.034987360298361657 8.7428536806283344e-06 0 -0.034982784428663788 8.9089858464590108e-06 0 -0.034947017921476226 0.00030677749553739372 0 -0.034626845394356787 0.00082657226074976859 0 -0.034982784428663788 8.9089858464590108e-06 0 -0.034957566532336649 2.2790381858363577e-05 0 -0.034973223725891879 1.9078722012088649e-05 0 -0.034987360298361657 8.7428536806283344e-06 0 -0.034982784428663788 8.9089858464590108e-06 0 -0.034986095139393811 7.9497151009651115e-06 0 -0.034794169952467563 0.00049916674989340063 0 -0.034661292044478341 0.0010004866934095438 0 -0.035317851412746112 0.00050638979569462888 0 -0.035632516065564883 0.00053493304555393272 0 -0.035525816345086267 0.00075033330472178519 0 -0.035632516065564883 0.00053493304555393272 0 -0.035795479747370455 0.00093926507654413084 0 -0.035525816345086267 0.00075033330472178519 0 -0.034794169952467563 0.00049916674989340063 0 -0.034626845394356787 0.00082657226074976859 0 -0.034985697530797541 1.2661350494279577e-05 0 -0.034986768507849889 1.5436487327471731e-05 0 -0.034981941967577 2.0730149830193188e-05 0 -0.034985697530797541 1.2661350494279577e-05 0 -0.034979694349798737 1.6932277246965806e-05 0 -0.034981941967577 2.0730149830193188e-05 0 -0.034979694349798737 1.6932277246965806e-05 0 -0.034982784428663788 8.9089858464590108e-06 0 -0.034973223725891879 1.9078722012088649e-05 0 -0.034985697530797541 1.2661350494279577e-05 0 -0.034979694349798737 1.6932277246965806e-05 0 -0.034982784428663788 8.9089858464590108e-06 0 -0.034982784428663788 8.9089858464590108e-06 0 -0.034991155830567409 6.0526855876003956e-06 0 -0.034992050287941966 4.7521438214909541e-06 0 -0.034985697530797541 1.2661350494279577e-05 0 -0.034982784428663788 8.9089858464590108e-06 0 -0.034991155830567409 6.0526855876003956e-06 0 -0.03498606558102467 1.4916325668870381e-06 0 -0.034982295214864102 -4.3955452881286793e-07 0 -0.034985697530797541 1.2661350494279577e-05 0 -0.034991155830567409 6.0526855876003956e-06 0 -0.034988844688698617 1.0814275920800978e-05 0 -0.034991155830567409 6.0526855876003956e-06 0 -0.034997112966602253 1.6712415637807341e-06 0 -0.034997562256717372 2.3857563004254447e-06 0 -0.034991155830567409 6.0526855876003956e-06 0 -0.034997112966602253 1.6712415637807341e-06 0 -0.034992050287941966 4.7521438214909541e-06 0 -0.034997112966602253 1.6712415637807341e-06 0 -0.034992050287941966 4.7521438214909541e-06 0 -0.034996790662867247 1.8808802510357231e-06 0 -0.034997112966602253 1.6712415637807341e-06 0 -0.034999994200805525 -1.0443141700381564e-09 0 -0.034996790662867247 1.8808802510357231e-06 0 -0.034999996235001024 7.0656837024074607e-09 0 -0.034999994200805525 -1.0443141700381564e-09 0 -0.034996790662867247 1.8808802510357231e-06 0 -0.034997112966602253 1.6712415637807341e-06 0 -0.034999994200805525 -1.0443141700381564e-09 0 -0.034999994868813687 5.0044412473558855e-09 0 -0.034997112966602253 1.6712415637807341e-06 0 -0.034999994868813687 5.0044412473558855e-09 0 -0.034998190039234107 1.5006177822692982e-06 0 -0.034999996327974368 8.7636969157121149e-10 0 -0.034997583051165002 5.7432682754468492e-08 0 -0.034999994868813687 5.0044412473558855e-09 0 -0.034998190039234107 1.5006177822692982e-06 0 -0.034996544482897823 2.9446625273446684e-06 0 -0.034999999261764995 4.6263507576049626e-10 0 -0.035000002002384296 -1.1397721570996965e-09 0 -0.035000089179386511 -2.548010490736471e-07 0 -0.034998190039234107 1.5006177822692982e-06 0 -0.034996544482897823 2.9446625273446684e-06 0 -0.034996768660074777 1.6210532692908133e-06 0 -0.034998190039234107 1.5006177822692982e-06 0 -0.034996768660074777 1.6210532692908133e-06 0 -0.034997632899853796 1.6160455291940289e-06 0 -0.034996768660074777 1.6210532692908133e-06 0 -0.034995950147464018 3.4223701549623488e-07 0 -0.034997632899853796 1.6160455291940289e-06 0 -0.034997112966602253 1.6712415637807341e-06 0 -0.034998190039234107 1.5006177822692982e-06 0 -0.034997632899853796 1.6160455291940289e-06 0 -0.034997112966602253 1.6712415637807341e-06 0 -0.034997632899853796 1.6160455291940289e-06 0 -0.034997562256717372 2.3857563004254447e-06 0 -0.034999993795985777 2.0634333605237173e-09 0 -0.034994560541250434 -8.7007527295481876e-07 0 -0.034999565345757384 -1.397744279565505e-06 0 -0.035000002002384296 -1.1397721570996965e-09 0 -0.035000089179386511 -2.548010490736471e-07 0 -0.034999565345757384 -1.397744279565505e-06 0 -0.034996544482897823 2.9446625273446684e-06 0 -0.034996768660074777 1.6210532692908133e-06 0 -0.034991565519656848 2.2386485225272036e-06 0 -0.035000002002384296 -1.1397721570996965e-09 0 -0.034999993795985777 2.0634333605237173e-09 0 -0.034999565345757384 -1.397744279565505e-06 0 -0.034997583051165002 5.7432682754468492e-08 0 -0.034995264643941079 -1.7200980543400525e-07 0 -0.034996768660074777 1.6210532692908133e-06 0 -0.034995950147464018 3.4223701549623488e-07 0 -0.034991565519656848 2.2386485225272036e-06 0 -0.034995950147464018 3.4223701549623488e-07 0 -0.034991565519656848 2.2386485225272036e-06 0 -0.034991796670418733 -1.9474482119765293e-06 0 -0.034995264643941079 -1.7200980543400525e-07 0 -0.034993072497086358 -7.192978149139252e-07 0 -0.034991565519656848 2.2386485225272036e-06 0 -0.034987843875078251 -1.5218034675837084e-06 0 -0.03498620388630954 -1.3776312020778528e-06 0 -0.034994560541250434 -8.7007527295481876e-07 0 -0.034999565345757384 -1.397744279565505e-06 0 -0.03498620388630954 -1.3776312020778528e-06 0 -0.034991565519656848 2.2386485225272036e-06 0 -0.034987843875078251 -1.5218034675837084e-06 0 -0.034991796670418733 -1.9474482119765293e-06 0 -0.034988276022348906 -3.9953184265535786e-06 0 -0.034991796670418733 -1.9474482119765293e-06 0 -0.034990799693560268 -5.7170647841611802e-06 0 -0.034988276022348906 -3.9953184265535786e-06 0 -0.034987843875078251 -1.5218034675837084e-06 0 -0.034991796670418733 -1.9474482119765293e-06 0 -0.034995950147464018 3.4223701549623488e-07 0 -0.034991796670418733 -1.9474482119765293e-06 0 -0.034995394114947745 -2.5533793946766065e-06 0 -0.034995698645305724 1.7323013018903132e-05 0 -0.035000115705633057 1.5685116863601695e-05 0 -0.03499364088788786 1.3404573292731303e-05 0 -0.034858472457589787 -5.0591923074862868e-05 0 -0.034958514013904846 -1.0871746705356125e-05 0 -0.034991796670418733 -1.9474482119765293e-06 0 -0.034990799693560268 -5.7170647841611802e-06 0 -0.034995394114947745 -2.5533793946766065e-06 0 -0.034889126043331081 3.6801983116918334e-05 0 -0.03490406021480167 5.4568732920108749e-05 0 -0.0349408442086468 4.4056529887225928e-05 0 -0.03494475504631412 1.3019365812694389e-05 0 -0.03492097811014825 3.460386943630446e-05 0 -0.034954651787802049 2.785050829871722e-05 0 -0.034858472457589787 -5.0591923074862868e-05 0 -0.0348897102664446 -3.2204070551103898e-05 0 -0.03492097811014825 3.460386943630446e-05 0 -0.0349408442086468 4.4056529887225928e-05 0 -0.034954651787802049 2.785050829871722e-05 0 -0.03489130010652184 -4.2176992296212088e-05 0 -0.034858472457589787 -5.0591923074862868e-05 0 -0.034995950147464018 3.4223701549623488e-07 0 -0.034997562256717372 2.3857563004254447e-06 0 -0.034995394114947745 -2.5533793946766065e-06 0 -0.034982295214864102 -4.3955452881286793e-07 0 -0.034958514013904846 -1.0871746705356125e-05 0 -0.034995950147464018 3.4223701549623488e-07 0 -0.034997632899853796 1.6160455291940289e-06 0 -0.034997562256717372 2.3857563004254447e-06 0 -0.034995698645305724 1.7323013018903132e-05 0 -0.03499364088788786 1.3404573292731303e-05 0 -0.034991838608699671 1.8642924728432874e-05 0 -0.03499364088788786 1.3404573292731303e-05 0 -0.034989579300092243 1.5132792207262345e-05 0 -0.034991838608699671 1.8642924728432874e-05 0 -0.034988844688698617 1.0814275920800978e-05 0 -0.03499364088788786 1.3404573292731303e-05 0 -0.034989579300092243 1.5132792207262345e-05 0 -0.034988844688698617 1.0814275920800978e-05 0 -0.034989579300092243 1.5132792207262345e-05 0 -0.034986768507849889 1.5436487327471731e-05 0 -0.034989579300092243 1.5132792207262345e-05 0 -0.034986768507849889 1.5436487327471731e-05 0 -0.03498686632755444 2.0865004474969516e-05 0 -0.034985697530797541 1.2661350494279577e-05 0 -0.034988844688698617 1.0814275920800978e-05 0 -0.034986768507849889 1.5436487327471731e-05 0 -0.034986768507849889 1.5436487327471731e-05 0 -0.03498686632755444 2.0865004474969516e-05 0 -0.034981941967577 2.0730149830193188e-05 0 -0.03498686632755444 2.0865004474969516e-05 0 -0.034982596760598048 2.6661201524180526e-05 0 -0.034985556265363212 2.7323040891955724e-05 0 -0.03498686632755444 2.0865004474969516e-05 0 -0.034982596760598048 2.6661201524180526e-05 0 -0.034981941967577 2.0730149830193188e-05 0 -0.03498686632755444 2.0865004474969516e-05 0 -0.034988869167510275 2.5424753755674798e-05 0 -0.034985556265363212 2.7323040891955724e-05 0 -0.034989579300092243 1.5132792207262345e-05 0 -0.03498686632755444 2.0865004474969516e-05 0 -0.034991838608699671 1.8642924728432874e-05 0 -0.034991838608699671 1.8642924728432874e-05 0 -0.034988869167510275 2.5424753755674798e-05 0 -0.034995133400749501 2.2654449971907872e-05 0 -0.034995698645305724 1.7323013018903132e-05 0 -0.034991838608699671 1.8642924728432874e-05 0 -0.034995133400749501 2.2654449971907872e-05 0 -0.03498686632755444 2.0865004474969516e-05 0 -0.034991838608699671 1.8642924728432874e-05 0 -0.034988869167510275 2.5424753755674798e-05 0 -0.034948410381441961 2.6245621828449721e-05 0 -0.034886680656140763 7.1521074623388722e-05 0 -0.034900941346605714 3.8770001059808393e-05 0 -0.034988869167510275 2.5424753755674798e-05 0 -0.034987678569672012 3.2580324538053349e-05 0 -0.034995133400749501 2.2654449971907872e-05 0 -0.033917326763686279 -0.00013772932207918039 0 -0.034574448540935332 -0.00014407022678174873 0 -0.034988869167510275 2.5424753755674798e-05 0 -0.034987678569672012 3.2580324538053349e-05 0 -0.034985603568182103 3.2115681707761401e-05 0 -0.033917326763686279 -0.00013772932207918039 0 -0.033954605830383511 -0.00012577479695577673 0 -0.034987765100861226 3.3108650746396434e-05 0 -0.034985603568182103 3.2115681707761401e-05 0 -0.034982623576575521 3.4021916148631403e-05 0 -0.034985603568182103 3.2115681707761401e-05 0 -0.034983197768974565 3.0459633464175044e-05 0 -0.034985556265363212 2.7323040891955724e-05 0 -0.034985603568182103 3.2115681707761401e-05 0 -0.034983197768974565 3.0459633464175044e-05 0 -0.034982623576575521 3.4021916148631403e-05 0 -0.034983197768974565 3.0459633464175044e-05 0 -0.034982596760598048 2.6661201524180526e-05 0 -0.034979620214273428 3.2478360508104309e-05 0 -0.034983197768974565 3.0459633464175044e-05 0 -0.034982623576575521 3.4021916148631403e-05 0 -0.034979620214273428 3.2478360508104309e-05 0 -0.034983197768974565 3.0459633464175044e-05 0 -0.034982596760598048 2.6661201524180526e-05 0 -0.034985556265363212 2.7323040891955724e-05 0 -0.034988869167510275 2.5424753755674798e-05 0 -0.034985603568182103 3.2115681707761401e-05 0 -0.034985556265363212 2.7323040891955724e-05 0 -0.034889126043331081 3.6801983116918334e-05 0 -0.03490406021480167 5.4568732920108749e-05 0 -0.034887027064314458 6.3782645463214907e-05 0 -0.034907395890135973 7.1440159881159195e-05 0 -0.03490406021480167 5.4568732920108749e-05 0 -0.0349408442086468 4.4056529887225928e-05 0 -0.034907395890135973 7.1440159881159195e-05 0 -0.03490406021480167 5.4568732920108749e-05 0 -0.034887027064314458 6.3782645463214907e-05 0 -0.034858472457589787 -5.0591923074862868e-05 0 -0.034574448540935332 -0.00014407022678174873 0 -0.034995698645305724 1.7323013018903132e-05 0 -0.035000115705633057 1.5685116863601695e-05 0 -0.034995133400749501 2.2654449971907872e-05 0 -0.034889126043331081 3.6801983116918334e-05 0 -0.034887027064314458 6.3782645463214907e-05 0 -0.034886680656140763 7.1521074623388722e-05 0 -0.034887027064314458 6.3782645463214907e-05 0 -0.034886680656140763 7.1521074623388722e-05 0 -0.034859253536651646 5.5235432399808676e-05 0 -0.034886680656140763 7.1521074623388722e-05 0 -0.034900941346605714 3.8770001059808393e-05 0 -0.034859253536651646 5.5235432399808676e-05 0 -0.034900941346605714 3.8770001059808393e-05 0 -0.034859253536651646 5.5235432399808676e-05 0 -0.034903940417115066 -8.0906242617597783e-06 0 -0.034907395890135973 7.1440159881159195e-05 0 -0.034887027064314458 6.3782645463214907e-05 0 -0.034859253536651646 5.5235432399808676e-05 0 -0.034715346644052417 0.00020379863840142267 0 -0.034859253536651646 5.5235432399808676e-05 0 -0.034713368289850881 2.8979305654203013e-05 0 -0.03476905452498457 9.6471377105720611e-05 0 -0.034797920860853038 7.6924855426405543e-05 0 -0.034701310965827202 -7.6100158816318596e-05 0 -0.034807161170884983 -9.3068948036945426e-05 0 -0.034595781014325103 -0.00018018194247810079 0 -0.034859253536651646 5.5235432399808676e-05 0 -0.034713368289850881 2.8979305654203013e-05 0 -0.034805242978365659 -7.8778362800682844e-05 0 -0.034713368289850881 2.8979305654203013e-05 0 -0.034701310965827202 -7.6100158816318596e-05 0 -0.034805242978365659 -7.8778362800682844e-05 0 -0.033542471250798615 -0.00044627240141366901 0 -0.033320493617471567 -0.00043548547565572428 0 -0.033422519440049508 -0.0003376763355072076 0 -0.0333176747084762 -0.00037577115801005947 0 -0.033258170959182917 -0.00030688716978648082 0 -0.033320493617471567 -0.00043548547565572428 0 -0.032579336705142431 -0.00036559588091572239 0 -0.033320493617471567 -0.00043548547565572428 0 -0.033784385923435752 -0.00023401533937585301 0 -0.034859253536651646 5.5235432399808676e-05 0 -0.034805242978365659 -7.8778362800682844e-05 0 -0.034903940417115066 -8.0906242617597783e-06 0 -0.031505795102650627 -0.001385050082515887 0 -0.031254190451373627 -0.0013835431034934878 0 -0.031382684574240385 -0.0012245497489674748 0 -0.033320493617471567 -0.00043548547565572428 0 -0.03316612875671994 -0.00065159739651124904 0 -0.031505795102650627 -0.001385050082515887 0 -0.03168924672194158 -0.0012608073529297187 0 -0.031611727127462554 -0.001156477171396647 0 -0.031505795102650627 -0.001385050082515887 0 -0.031611727127462554 -0.001156477171396647 0 -0.031382684574240385 -0.0012245497489674748 0 -0.034987765100861226 3.3108650746396434e-05 0 -0.034982623576575521 3.4021916148631403e-05 0 -0.03497789809520209 3.9224572136767714e-05 0 -0.03321242166522359 -0.00041526904865263591 0 -0.033258170959182917 -0.00030688716978648082 0 -0.03309192763985324 -0.00027687564532073418 0 -0.033917326763686279 -0.00013772932207918039 0 -0.032665799630412683 -0.00013298283249490111 0 -0.034987765100861226 3.3108650746396434e-05 0 -0.034975395629960326 4.732255401517259e-05 0 -0.03497789809520209 3.9224572136767714e-05 0 -0.034982623576575521 3.4021916148631403e-05 0 -0.03497789809520209 3.9224572136767714e-05 0 -0.034979620214273428 3.2478360508104309e-05 0 -0.03321242166522359 -0.00041526904865263591 0 -0.0333176747084762 -0.00037577115801005947 0 -0.033258170959182917 -0.00030688716978648082 0 -0.033917326763686279 -0.00013772932207918039 0 -0.033784385923435752 -0.00023401533937585301 0 -0.034948410381441961 2.6245621828449721e-05 0 -0.034900941346605714 3.8770001059808393e-05 0 -0.034903940417115066 -8.0906242617597783e-06 0 -0.031254190451373627 -0.0013835431034934878 0 -0.031154831831925911 -0.0011953638990962238 0 -0.031382684574240385 -0.0012245497489674748 0 -0.031254190451373627 -0.0013835431034934878 0 -0.03098913695871439 -0.0013539096091448792 0 -0.031154831831925911 -0.0011953638990962238 0 -0.032579336705142431 -0.00036559588091572239 0 -0.032665799630412683 -0.00013298283249490111 0 -0.031892512442888848 3.1806318078316385e-05 0 -0.031437463729047321 0.00011115730617662094 0 -0.03156665969613652 0.00040555804517996939 0 -0.032665799630412683 -0.00013298283249490111 0 -0.03265470670380291 0.00036050193744425449 0 -0.032665799630412683 -0.00013298283249490111 0 -0.031376683795395474 -4.1989148398211776e-05 0 -0.034975395629960326 4.732255401517259e-05 0 -0.034967051399582033 4.1959479359767174e-05 0 -0.034964442195154682 5.0503724441750472e-05 0 -0.03497789809520209 3.9224572136767714e-05 0 -0.034973944237087176 3.530097752579189e-05 0 -0.034967051399582033 4.1959479359767174e-05 0 -0.034975395629960326 4.732255401517259e-05 0 -0.03497789809520209 3.9224572136767714e-05 0 -0.034967051399582033 4.1959479359767174e-05 0 -0.03497789809520209 3.9224572136767714e-05 0 -0.034973944237087176 3.530097752579189e-05 0 -0.034979620214273428 3.2478360508104309e-05 0 -0.034967051399582033 4.1959479359767174e-05 0 -0.034955618002801142 3.7961874220509702e-05 0 -0.034969017834516003 3.2650165721335398e-05 0 -0.034973944237087176 3.530097752579189e-05 0 -0.034967051399582033 4.1959479359767174e-05 0 -0.034969017834516003 3.2650165721335398e-05 0 -0.03265470670380291 0.00036050193744425449 0 -0.031944484619086208 0.0010226794068288823 0 -0.034967051399582033 4.1959479359767174e-05 0 -0.034964442195154682 5.0503724441750472e-05 0 -0.034951842513369788 5.333955704730848e-05 0 -0.031437463729047321 0.00011115730617662094 0 -0.031192949024514239 0.00022831727483592945 0 -0.030987505510864731 0.00019186453378873227 0 -0.031361845221812477 0.00029823014591405831 0 -0.031437463729047321 0.00011115730617662094 0 -0.03156665969613652 0.00040555804517996939 0 -0.031361845221812477 0.00029823014591405831 0 -0.031437463729047321 0.00011115730617662094 0 -0.031192949024514239 0.00022831727483592945 0 -0.031192949024514239 0.00022831727483592945 0 -0.030987505510864731 0.00019186453378873227 0 -0.030999203439866403 0.00024447922435511991 0 -0.030440118114643616 0.0018554298448229803 0 -0.031018680345980838 0.0018128562964508117 0 -0.030360679528105394 0.0014976060062239912 0 -0.031192949024514239 0.00022831727483592945 0 -0.030997653199386573 0.00024282249023505531 0 -0.031023972141708323 0.00036232005800200951 0 -0.035730565529523736 0.0027295426479271648 0 -0.035627564583398566 0.0026314469250428864 0 -0.035672024141618269 0.0025222194358074769 0 -0.031944484619086208 0.0010226794068288823 0 -0.033427858540381342 0.0016635298103095711 0 -0.031446314502349693 0.00088667751921538954 0 -0.031473225559036228 0.00090045649508259406 0 -0.031473225559036228 0.00090045649508259406 0 -0.030789704660911445 0.00084126953780861401 0 -0.035730565529523736 0.0027295426479271648 0 -0.035734783067943414 0.0027522431192780845 0 -0.035648168893506832 0.0027593653114408008 0 -0.031944484619086208 0.0010226794068288823 0 -0.031473225559036228 0.00090045649508259406 0 -0.035730565529523736 0.0027295426479271648 0 -0.035633231184718041 0.0027418639203940685 0 -0.03560604557847806 0.0026926387622431967 0 -0.035730565529523736 0.0027295426479271648 0 -0.035648168893506832 0.0027593653114408008 0 -0.035633231184718041 0.0027418639203940685 0 -0.031473225559036228 0.00090045649508259406 0 -0.030581890851451323 0.0011695349864553584 0 -0.030581890851451323 0.0011695349864553584 0 -0.030605887176774385 0.0011901534195662194 0 -0.035730565529523736 0.0027295426479271648 0 -0.035627564583398566 0.0026314469250428864 0 -0.03560604557847806 0.0026926387622431967 0 -0.035324190774298936 0.0028353003356865461 0 -0.035648595127704949 0.0027576957010131942 0 -0.035539946486916225 0.0027210695065796541 0 -0.029872898442544076 0.0026446861057046966 0 -0.030581890851451323 0.0011695349864553584 0 -0.035324190774298936 0.0028353003356865461 0 -0.035539946486916225 0.0027210695065796541 0 -0.035449954434022837 0.0026451018932623785 0 -0.035633231184718041 0.0027418639203940685 0 -0.035539946486916225 0.0027210695065796541 0 -0.03560604557847806 0.0026926387622431967 0 -0.035648595127704949 0.0027576957010131942 0 -0.035633231184718041 0.0027418639203940685 0 -0.035539946486916225 0.0027210695065796541 0 -0.035539946486916225 0.0027210695065796541 0 -0.035571838153423477 0.0026515680781177896 0 -0.03560604557847806 0.0026926387622431967 0 -0.035627564583398566 0.0026314469250428864 0 -0.035571838153423477 0.0026515680781177896 0 -0.03560604557847806 0.0026926387622431967 0 -0.035627564583398566 0.0026314469250428864 0 -0.035584143783350251 0.0026097316713483386 0 -0.035601629114753508 0.002566020660570858 0 -0.035627564583398566 0.0026314469250428864 0 -0.035571838153423477 0.0026515680781177896 0 -0.035584143783350251 0.0026097316713483386 0 -0.035571838153423477 0.0026515680781177896 0 -0.035584143783350251 0.0026097316713483386 0 -0.035535100731933875 0.00258982082064481 0 -0.035571838153423477 0.0026515680781177896 0 -0.035449954434022837 0.0026451018932623785 0 -0.035535100731933875 0.00258982082064481 0 -0.035539946486916225 0.0027210695065796541 0 -0.035571838153423477 0.0026515680781177896 0 -0.035449954434022837 0.0026451018932623785 0 -0.035570590268871875 0.00243152425939015 0 -0.03562150957700564 0.002511657646840484 0 -0.035602730733612038 0.002295047925690262 0 -0.034543270770929377 0.0020270232523634402 0 -0.0344014355195904 0.0017788199891975286 0 -0.035449954434022837 0.0026451018932623785 0 -0.035439957340013005 0.0025187389582836794 0 -0.035535100731933875 0.00258982082064481 0 -0.035439957340013005 0.0025187389582836794 0 -0.035548138445628381 0.0025122063649157924 0 -0.035535100731933875 0.00258982082064481 0 -0.035548138445628381 0.0025122063649157924 0 -0.035535100731933875 0.00258982082064481 0 -0.035601629114753508 0.002566020660570858 0 -0.035584143783350251 0.0026097316713483386 0 -0.035535100731933875 0.00258982082064481 0 -0.035601629114753508 0.002566020660570858 0 -0.035548138445628381 0.0025122063649157924 0 -0.035601629114753508 0.002566020660570858 0 -0.03562150957700564 0.002511657646840484 0 -0.035548138445628381 0.0025122063649157924 0 -0.035570590268871875 0.00243152425939015 0 -0.03562150957700564 0.002511657646840484 0 -0.035570590268871875 0.00243152425939015 0 -0.035507967498184821 0.0024386346778405817 0 -0.035532984608741013 0.0023409973149972809 0 -0.035548138445628381 0.0025122063649157924 0 -0.035570590268871875 0.00243152425939015 0 -0.035507967498184821 0.0024386346778405817 0 -0.035439957340013005 0.0025187389582836794 0 -0.035548138445628381 0.0025122063649157924 0 -0.035507967498184821 0.0024386346778405817 0 -0.035409699557320255 0.0023288351853605204 0 -0.035439957340013005 0.0025187389582836794 0 -0.035507967498184821 0.0024386346778405817 0 -0.033512437291597322 0.0011966202918332479 0 -0.033509495183559938 0.0011065150913717645 0 -0.033579358860098385 0.0012821175563829791 0 -0.033429959282375125 0.00093191106694038195 0 -0.033512437291597322 0.0011966202918332479 0 -0.033509495183559938 0.0011065150913717645 0 -0.03562150957700564 0.002511657646840484 0 -0.035672024141618269 0.0025222194358074769 0 -0.035593234299716871 0.0022706161796193784 0 -0.031944484619086208 0.0010226794068288823 0 -0.033498333926496066 0.00081333677026808793 0 -0.033427858540381342 0.0016635298103095711 0 -0.0344014355195904 0.0017788199891975286 0 -0.034967051399582033 4.1959479359767174e-05 0 -0.034951842513369788 5.333955704730848e-05 0 -0.034955618002801142 3.7961874220509702e-05 0 -0.035627564583398566 0.0026314469250428864 0 -0.035601629114753508 0.002566020660570858 0 -0.035672024141618269 0.0025222194358074769 0 -0.035601629114753508 0.002566020660570858 0 -0.03562150957700564 0.002511657646840484 0 -0.035672024141618269 0.0025222194358074769 0 -0.033512437291597322 0.0011966202918332479 0 -0.033579358860098385 0.0012821175563829791 0 -0.033587842463766934 0.0014608048656593012 0 -0.033498333926496066 0.00081333677026808793 0 -0.034626845394356787 0.00082657226074976859 0 -0.034955618002801142 3.7961874220509702e-05 0 -0.034966465999825086 2.756973702824516e-05 0 -0.034969017834516003 3.2650165721335398e-05 0 -0.034955618002801142 3.7961874220509702e-05 0 -0.034966465999825086 2.756973702824516e-05 0 -0.034957566532336649 2.2790381858363577e-05 0 -0.035409699557320255 0.0023288351853605204 0 -0.035573844316513767 0.0022095569242283099 0 -0.035578694033524642 0.0020955527848703684 0 -0.034936261091708991 0.0015681766471793643 0 -0.034661292044478341 0.0010004866934095438 0 -0.035409699557320255 0.0023288351853605204 0 -0.035507967498184821 0.0024386346778405817 0 -0.035532984608741013 0.0023409973149972809 0 -0.035409699557320255 0.0023288351853605204 0 -0.035532984608741013 0.0023409973149972809 0 -0.035573844316513767 0.0022095569242283099 0 -0.035570590268871875 0.00243152425939015 0 -0.035532984608741013 0.0023409973149972809 0 -0.035602730733612038 0.002295047925690262 0 -0.035600297615702423 0.0022930795088431347 0 -0.035573844316513767 0.0022095569242283099 0 -0.035578694033524642 0.0020955527848703684 0 -0.035532984608741013 0.0023409973149972809 0 -0.035602730733612038 0.002295047925690262 0 -0.035573844316513767 0.0022095569242283099 0 -0.0344014355195904 0.0017788199891975286 0 -0.034661292044478341 0.0010004866934095438 0 -0.0344014355195904 0.0017788199891975286 0 -0.034434864238010642 0.0018257821800478861 0 -0.035517382690842904 0.00099689680516479849 0 -0.035634916520621757 0.0014061822382245952 0 -0.035795479747370455 0.00093926507654413084 0 -0.034758844630983249 0.00059541705365904942 0 -0.034779772200428459 0.00080444994455867698 0 -0.034798523087285135 0.00077960643100844396 0 -0.033579358860098385 0.0012821175563829791 0 -0.033604566238387756 0.0014372922195104738 0 -0.033587842463766934 0.0014608048656593012 0 -0.034661292044478341 0.0010004866934095438 0 -0.034626845394356787 0.00082657226074976859 0 -0.035517382690842904 0.00099689680516479849 0 -0.035795479747370455 0.00093926507654413084 0 -0.035525816345086267 0.00075033330472178519 0 -0.034966465999825086 2.756973702824516e-05 0 -0.034957566532336649 2.2790381858363577e-05 0 -0.034973223725891879 1.9078722012088649e-05 0 -0.034966465999825086 2.756973702824516e-05 0 -0.034973223725891879 1.9078722012088649e-05 0 -0.034975050458848543 2.4534079134212569e-05 0 -0.034979694349798737 1.6932277246965806e-05 0 -0.034973223725891879 1.9078722012088649e-05 0 -0.034975050458848543 2.4534079134212569e-05 0 -0.034979694349798737 1.6932277246965806e-05 0 -0.034975050458848543 2.4534079134212569e-05 0 -0.034981941967577 2.0730149830193188e-05 0 -0.034982596760598048 2.6661201524180526e-05 0 -0.034981941967577 2.0730149830193188e-05 0 -0.034977166939983248 2.8546829673782118e-05 0 -0.034975050458848543 2.4534079134212569e-05 0 -0.034981941967577 2.0730149830193188e-05 0 -0.034977166939983248 2.8546829673782118e-05 0 -0.034982596760598048 2.6661201524180526e-05 0 -0.034977166939983248 2.8546829673782118e-05 0 -0.034979620214273428 3.2478360508104309e-05 0 -0.034973944237087176 3.530097752579189e-05 0 -0.034977166939983248 2.8546829673782118e-05 0 -0.034979620214273428 3.2478360508104309e-05 0 -0.034973944237087176 3.530097752579189e-05 0 -0.034977166939983248 2.8546829673782118e-05 0 -0.034969017834516003 3.2650165721335398e-05 0 -0.034966465999825086 2.756973702824516e-05 0 -0.034975050458848543 2.4534079134212569e-05 0 -0.034969017834516003 3.2650165721335398e-05 0 -0.034975050458848543 2.4534079134212569e-05 0 -0.034977166939983248 2.8546829673782118e-05 0 -0.034969017834516003 3.2650165721335398e-05 0 -0.034998041747737761 1.4696091462964275e-06 0 -0.033920034435323591 0.0002406192327360823 0 -0.031400354707624159 3.5946653542031695e-05 0 -0.034998041747737761 1.4696091462964275e-06 0 -0.029230518053947028 -1.3503486438884073e-06 0 -0.031400354707624159 3.5946653542031695e-05 0 -0.033920034435323591 0.0002406192327360823 0 -0.033000769940978426 0.00021097401181226037 0 -0.031400354707624159 3.5946653542031695e-05 0 -0.031462895000553284 0.00074666467751267863 0 -0.030578313773261648 0.00051143545018610516 0 -0.034998041747737761 1.4696091462964275e-06 0 -0.033920034435323591 0.0002406192327360823 0 -0.034995440522693655 -8.7529704018554814e-07 0 -0.033920034435323591 0.0002406192327360823 0 -0.033877080236912487 0.00030047260293351841 0 -0.033170292730223226 0.00072001177460377988 0 -0.033920034435323591 0.0002406192327360823 0 -0.034995440522693655 -8.7529704018554814e-07 0 -0.033877080236912487 0.00030047260293351841 0 -0.034998813565369873 4.6851508714696443e-07 0 -0.034293359695430202 0.00042361523651042563 0 -0.034995440522693655 -8.7529704018554814e-07 0 -0.033877080236912487 0.00030047260293351841 0 -0.032975806166529488 0.00031839238151707983 0 -0.033877080236912487 0.00030047260293351841 0 -0.033170292730223226 0.00072001177460377988 0 -0.032975806166529488 0.00031839238151707983 0 -0.033170292730223226 0.00072001177460377988 0 -0.032385750585903934 0.00093530791607597714 0 -0.03258701608014794 0.0008628766668789653 0 -0.031792370335249676 0.00080457642200363613 0 -0.031462895000553284 0.00074666467751267863 0 -0.033920034435323591 0.0002406192327360823 0 -0.033170292730223226 0.00072001177460377988 0 -0.033000769940978426 0.00021097401181226037 0 -0.031387588002413862 0.0011578056971915955 0 -0.032385750585903934 0.00093530791607597714 0 -0.031141031249025085 0.00059135939715089503 0 -0.033170292730223226 0.00072001177460377988 0 -0.031387588002413862 0.0011578056971915955 0 -0.032385750585903934 0.00093530791607597714 0 -0.032385750585903934 0.00093530791607597714 0 -0.03216491188768443 0.0010641944651635304 0 -0.03258701608014794 0.0008628766668789653 0 -0.032385750585903934 0.00093530791607597714 0 -0.03216491188768443 0.0010641944651635304 0 -0.032222396845065802 0.00051791928557310795 0 -0.03216491188768443 0.0010641944651635304 0 -0.032155789361930399 0.00090927930166799281 0 -0.03258701608014794 0.0008628766668789653 0 -0.034024230529611774 0.00055614316980547431 0 -0.034233016247117845 0.00041890047027304234 0 -0.03216491188768443 0.0010641944651635304 0 -0.032155789361930399 0.00090927930166799281 0 -0.032223223764820459 0.0010207771661294052 0 -0.034997912420707697 2.4861727906979715e-05 0 -0.03499294194433647 1.5060548890738025e-05 0 -0.035002062606301058 5.257641879083466e-06 0 -0.034997912420707697 2.4861727906979715e-05 0 -0.03499294194433647 1.5060548890738025e-05 0 -0.03496714084294518 3.3576370311213787e-05 0 -0.033170292730223226 0.00072001177460377988 0 -0.03258701608014794 0.0008628766668789653 0 -0.032975806166529488 0.00031839238151707983 0 -0.032155789361930399 0.00090927930166799281 0 -0.03258701608014794 0.0008628766668789653 0 -0.032975806166529488 0.00031839238151707983 0 -0.034024230529611774 0.00055614316980547431 0 -0.034293359695430202 0.00042361523651042563 0 -0.03500000305233307 3.5057869805640219e-10 0 -0.035002062606301058 5.257641879083466e-06 0 -0.035000001396735723 2.4980772334962608e-09 0 -0.035000001396735723 2.4980772334962608e-09 0 -0.034996820099103314 4.4324320809703631e-06 0 -0.034999984082690838 1.1562114306622363e-09 0 -0.035002062606301058 5.257641879083466e-06 0 -0.035000001396735723 2.4980772334962608e-09 0 -0.034996820099103314 4.4324320809703631e-06 0 -0.03499294194433647 1.5060548890738025e-05 0 -0.035002062606301058 5.257641879083466e-06 0 -0.034996820099103314 4.4324320809703631e-06 0 -0.03499294194433647 1.5060548890738025e-05 0 -0.034996820099103314 4.4324320809703631e-06 0 -0.034990789112384096 8.2603067420704719e-06 0 -0.03499154802447025 -3.5670086465125101e-06 0 -0.034990424989520999 -1.926986260054485e-06 0 -0.034984106787250828 3.8690393546081365e-07 0 -0.03499154802447025 -3.5670086465125101e-06 0 -0.03499998320650801 -3.4330059092858901e-09 0 -0.034994796800167219 -1.3558957995912361e-06 0 -0.034996820099103314 4.4324320809703631e-06 0 -0.034990789112384096 8.2603067420704719e-06 0 -0.034999984082690838 1.1562114306622363e-09 0 -0.034848365137063478 3.1875332438821706e-05 0 -0.034999697264592962 3.4770537907311831e-08 0 -0.034999993795985777 2.0634333605237173e-09 0 -0.03499998320650801 -3.4330059092858901e-09 0 -0.034994796800167219 -1.3558957995912361e-06 0 -0.034999993795985777 2.0634333605237173e-09 0 -0.034994560541250434 -8.7007527295481876e-07 0 -0.034994796800167219 -1.3558957995912361e-06 0 -0.034994560541250434 -8.7007527295481876e-07 0 -0.034990424989520999 -1.926986260054485e-06 0 -0.03498620388630954 -1.3776312020778528e-06 0 -0.034994560541250434 -8.7007527295481876e-07 0 -0.034994796800167219 -1.3558957995912361e-06 0 -0.034990424989520999 -1.926986260054485e-06 0 -0.03499154802447025 -3.5670086465125101e-06 0 -0.034994796800167219 -1.3558957995912361e-06 0 -0.034990424989520999 -1.926986260054485e-06 0 -0.034990424989520999 -1.926986260054485e-06 0 -0.03498620388630954 -1.3776312020778528e-06 0 -0.034984106787250828 3.8690393546081365e-07 0 -0.034982073994680694 -1.70059937959724e-06 0 -0.03498620388630954 -1.3776312020778528e-06 0 -0.034984106787250828 3.8690393546081365e-07 0 -0.034987843875078251 -1.5218034675837084e-06 0 -0.034982073994680694 -1.70059937959724e-06 0 -0.03498620388630954 -1.3776312020778528e-06 0 -0.034988276022348906 -3.9953184265535786e-06 0 -0.034987843875078251 -1.5218034675837084e-06 0 -0.034982073994680694 -1.70059937959724e-06 0 -0.03489130010652184 -4.2176992296212088e-05 0 -0.034902189744113216 -3.9973129343100837e-05 0 -0.03494475504631412 1.3019365812694389e-05 0 -0.03497270517576085 1.4071316650325997e-05 0 -0.034954651787802049 2.785050829871722e-05 0 -0.03494475504631412 1.3019365812694389e-05 0 -0.034982073994680694 -1.70059937959724e-06 0 -0.03497270517576085 1.4071316650325997e-05 0 -0.034982073994680694 -1.70059937959724e-06 0 -0.03497270517576085 1.4071316650325997e-05 0 -0.034984106787250828 3.8690393546081365e-07 0 -0.03499294194433647 1.5060548890738025e-05 0 -0.034990789112384096 8.2603067420704719e-06 0 -0.034987992236485389 1.9584725535188217e-05 0 -0.034848365137063478 3.1875332438821706e-05 0 -0.034630976785847561 0.00011433324226202612 0 -0.03499154802447025 -3.5670086465125101e-06 0 -0.034984106787250828 3.8690393546081365e-07 0 -0.034992944444324658 1.7099755985553536e-05 0 -0.034718046080686606 5.3823938070300789e-05 0 -0.034630976785847561 0.00011433324226202612 0 -0.03497270517576085 1.4071316650325997e-05 0 -0.034984106787250828 3.8690393546081365e-07 0 -0.034992944444324658 1.7099755985553536e-05 0 -0.034997912420707697 2.4861727906979715e-05 0 -0.03496714084294518 3.3576370311213787e-05 0 -0.034967902580208488 7.1292050294055129e-05 0 -0.034630976785847561 0.00011433324226202612 0 -0.034233016247117845 0.00041890047027304234 0 -0.034435989843841552 0.0004733183491244691 0 -0.03457357705832427 0.00033981446999280376 0 -0.034426915629820386 0.00030461627492643119 0 -0.034630976785847561 0.00011433324226202612 0 -0.034708417399600726 0.00011970259498519464 0 -0.03497270517576085 1.4071316650325997e-05 0 -0.034964664030150978 4.3662235094551712e-05 0 -0.034954651787802049 2.785050829871722e-05 0 -0.03497270517576085 1.4071316650325997e-05 0 -0.034992944444324658 1.7099755985553536e-05 0 -0.034964664030150978 4.3662235094551712e-05 0 -0.034964664030150978 4.3662235094551712e-05 0 -0.0349408442086468 4.4056529887225928e-05 0 -0.034954651787802049 2.785050829871722e-05 0 -0.034574599292958225 0.00023189680664902979 0 -0.034426915629820386 0.00030461627492643119 0 -0.034584692652922702 7.9094679532390832e-05 0 -0.034715346644052417 0.00020379863840142267 0 -0.03457357705832427 0.00033981446999280376 0 -0.034574599292958225 0.00023189680664902979 0 -0.034907395890135973 7.1440159881159195e-05 0 -0.034964664030150978 4.3662235094551712e-05 0 -0.0349408442086468 4.4056529887225928e-05 0 -0.03476905452498457 9.6471377105720611e-05 0 -0.034708417399600726 0.00011970259498519464 0 -0.03457357705832427 0.00033981446999280376 0 -0.034574599292958225 0.00023189680664902979 0 -0.034426915629820386 0.00030461627492643119 0 -0.034233016247117845 0.00041890047027304234 0 -0.034410480293619518 0.00021143341450057641 0 -0.034233016247117845 0.00041890047027304234 0 -0.033599653074961974 4.070124440848503e-05 0 -0.03441250668237323 0.00032164427902363362 0 -0.034398067397146473 2.7560273457391995e-05 0 -0.034584692652922702 7.9094679532390832e-05 0 -0.034715346644052417 0.00020379863840142267 0 -0.034574599292958225 0.00023189680664902979 0 -0.034584692652922702 7.9094679532390832e-05 0 -0.034715346644052417 0.00020379863840142267 0 -0.034713368289850881 2.8979305654203013e-05 0 -0.034584692652922702 7.9094679532390832e-05 0 -0.034713368289850881 2.8979305654203013e-05 0 -0.034701310965827202 -7.6100158816318596e-05 0 -0.034574792370685718 -5.040866513332893e-05 0 -0.034398067397146473 2.7560273457391995e-05 0 -0.034584692652922702 7.9094679532390832e-05 0 -0.034574792370685718 -5.040866513332893e-05 0 -0.034713368289850881 2.8979305654203013e-05 0 -0.034584692652922702 7.9094679532390832e-05 0 -0.034574792370685718 -5.040866513332893e-05 0 -0.034701310965827202 -7.6100158816318596e-05 0 -0.034574792370685718 -5.040866513332893e-05 0 -0.034595781014325103 -0.00018018194247810079 0 -0.034574792370685718 -5.040866513332893e-05 0 -0.034595781014325103 -0.00018018194247810079 0 -0.034379946885184691 -0.00026423787984979232 0 -0.03316612875671994 -0.00065159739651124904 0 -0.033165114900268633 -0.00078703722127576288 0 -0.03168924672194158 -0.0012608073529297187 0 -0.031817659173219673 -0.0010573461943635333 0 -0.031775013657099331 -0.001080105545933074 0 -0.033165114900268633 -0.00078703722127576288 0 -0.033121324828716145 -0.00080044930010466264 0 -0.031834029120670015 -0.00098789506037753774 0 -0.031826910579843763 -0.0010146416670968076 0 -0.03185563211729299 -0.00089169250150602228 0 -0.033165114900268633 -0.00078703722127576288 0 -0.033160328215494604 -0.00079054697987003997 0 -0.034398067397146473 2.7560273457391995e-05 0 -0.034574792370685718 -5.040866513332893e-05 0 -0.034379946885184691 -0.00026423787984979232 0 -0.033599653074961974 4.070124440848503e-05 0 -0.033165114900268633 -0.00078703722127576288 0 -0.032251140890755751 0.00032572010178748766 0 -0.031598023681583355 -0.00047766085159593394 0 -0.03141721954222592 0.00028143502030556438 0 -0.032251140890755751 0.00032572010178748766 0 -0.032056655640047428 -0.00079627170086305594 0 -0.031598023681583355 -0.00047766085159593394 0 -0.031598023681583355 -0.00047766085159593394 0 -0.031252680206427026 -0.0010109437002690806 0 -0.031582019257087264 -0.00092737788851538991 0 -0.031598023681583355 -0.00047766085159593394 0 -0.03185563211729299 -0.00089169250150602228 0 -0.031582019257087264 -0.00092737788851538991 0 -0.032056655640047428 -0.00079627170086305594 0 -0.031598023681583355 -0.00047766085159593394 0 -0.03185563211729299 -0.00089169250150602228 0 -0.031598023681583355 -0.00047766085159593394 0 -0.030920837933530232 -0.00032974095415656558 0 -0.031252680206427026 -0.0010109437002690806 0 -0.031598023681583355 -0.00047766085159593394 0 -0.03141721954222592 0.00028143502030556438 0 -0.030920837933530232 -0.00032974095415656558 0 -0.03141721954222592 0.00028143502030556438 0 -0.031880500250674355 0.0008015552695244786 0 -0.030993272619645962 0.0010228471777226891 0 -0.032223223764820459 0.0010207771661294052 0 -0.032251140890755751 0.00032572010178748766 0 -0.031880500250674355 0.0008015552695244786 0 -0.032251140890755751 0.00032572010178748766 0 -0.03141721954222592 0.00028143502030556438 0 -0.031880500250674355 0.0008015552695244786 0 -0.03216491188768443 0.0010641944651635304 0 -0.032223223764820459 0.0010207771661294052 0 -0.031880500250674355 0.0008015552695244786 0 -0.031465285442192514 0.00088947619932668411 0 -0.031136173107438648 0.00073679773136986829 0 -0.03216491188768443 0.0010641944651635304 0 -0.031880500250674355 0.0008015552695244786 0 -0.030993272619645962 0.0010228471777226891 0 -0.032385750585903934 0.00093530791607597714 0 -0.032222396845065802 0.00051791928557310795 0 -0.031141031249025085 0.00059135939715089503 0 -0.032222396845065802 0.00051791928557310795 0 -0.031141031249025085 0.00059135939715089503 0 -0.030421718481272165 -0.00014012725054366425 0 -0.031136173107438648 0.00073679773136986829 0 -0.03032507048789812 0.0003686024443874499 0 -0.030993272619645962 0.0010228471777226891 0 -0.029834416607518951 0.00066390463757474353 0 -0.030647669000544685 0.00029631498148853345 0 -0.03141721954222592 0.00028143502030556438 0 -0.030993272619645962 0.0010228471777226891 0 -0.030647669000544685 0.00029631498148853345 0 -0.03141721954222592 0.00028143502030556438 0 -0.030647669000544685 0.00029631498148853345 0 -0.030920837933530232 -0.00032974095415656558 0 -0.030647669000544685 0.00029631498148853345 0 -0.030920837933530232 -0.00032974095415656558 0 -0.029954559877607756 -0.00025879404593413097 0 -0.030920837933530232 -0.00032974095415656558 0 -0.03042334793557375 -0.00088138396860736512 0 -0.031252680206427026 -0.0010109437002690806 0 -0.030920837933530232 -0.00032974095415656558 0 -0.029954559877607756 -0.00025879404593413097 0 -0.03042334793557375 -0.00088138396860736512 0 -0.029954559877607756 -0.00025879404593413097 0 -0.029095733263823243 -0.0013036097689363097 0 -0.03042334793557375 -0.00088138396860736512 0 -0.029834416607518951 0.00066390463757474353 0 -0.030647669000544685 0.00029631498148853345 0 -0.029954559877607756 -0.00025879404593413097 0 -0.03032507048789812 0.0003686024443874499 0 -0.029763546866904501 0.00011776003437715344 0 -0.029834416607518951 0.00066390463757474353 0 -0.029954559877607756 -0.00025879404593413097 0 -0.028514603058583249 8.929826972807127e-05 0 -0.029954559877607756 -0.00025879404593413097 0 -0.028514603058583249 8.929826972807127e-05 0 -0.029095733263823243 -0.0013036097689363097 0 -0.026326119102589758 -3.2027254635330162e-06 0 -0.028514603058583249 8.929826972807127e-05 0 -0.029095733263823243 -0.0013036097689363097 0 -0.026326119102589758 -3.2027254635330162e-06 0 -0.027774599014493719 6.8500840612060183e-07 0 -0.028514603058583249 8.929826972807127e-05 0 -0.027774599014493719 6.8500840612060183e-07 0 -0.028514603058583249 8.929826972807127e-05 0 -0.029221473404847535 1.2123724248906225e-06 0 -0.030421718481272165 -0.00014012725054366425 0 -0.029221473404847535 1.2123724248906225e-06 0 -0.030035245389481744 0.00062743724750102239 0 -0.030421718481272165 -0.00014012725054366425 0 -0.028514603058583249 8.929826972807127e-05 0 -0.029221473404847535 1.2123724248906225e-06 0 -0.031141031249025085 0.00059135939715089503 0 -0.030421718481272165 -0.00014012725054366425 0 -0.030035245389481744 0.00062743724750102239 0 -0.031387588002413862 0.0011578056971915955 0 -0.031141031249025085 0.00059135939715089503 0 -0.030035245389481744 0.00062743724750102239 0 -0.02922659128795985 3.3498127683453135e-07 0 -0.030578313773261648 0.00051143545018610516 0 -0.022550327444901097 3.2515354152402202e-07 0 -0.022215199621847769 0.00011353481272591813 0 -0.021256437139621043 0.00027365476361582624 0 -0.022215199621847769 0.00011353481272591813 0 -0.021098144354341465 0.00032813394143690785 0 -0.021256437139621043 0.00027365476361582624 0 -0.022550327444901097 3.2515354152402202e-07 0 -0.022215199621847769 0.00011353481272591813 0 -0.024436763579250117 7.5777950889684342e-07 0 -0.02631882436190728 -3.1358350717154438e-06 0 -0.024436763579250117 7.5777950889684342e-07 0 -0.022985573413565902 -0.00080350884906064241 0 -0.026321954165653645 -7.764809257387321e-07 0 -0.025982158878213611 -0.00041209755273562848 0 -0.022215199621847769 0.00011353481272591813 0 -0.024436763579250117 7.5777950889684342e-07 0 -0.022985573413565902 -0.00080350884906064241 0 -0.022215199621847769 0.00011353481272591813 0 -0.022985573413565902 -0.00080350884906064241 0 -0.021182305663223995 -0.00057401029720081421 0 -0.025982158878213611 -0.00041209755273562848 0 -0.025911164016425525 -0.00063216905512134989 0 -0.029095733263823243 -0.0013036097689363097 0 -0.03042334793557375 -0.00088138396860736512 0 -0.030532606005987992 -0.0015469724706367331 0 -0.03042334793557375 -0.00088138396860736512 0 -0.030532606005987992 -0.0015469724706367331 0 -0.031252680206427026 -0.0010109437002690806 0 -0.021182305663223995 -0.00057401029720081421 0 -0.021023586921760727 5.6432823991544699e-05 0 -0.020387667037811745 -0.00015169799456747136 0 -0.022215199621847769 0.00011353481272591813 0 -0.021182305663223995 -0.00057401029720081421 0 -0.021023586921760727 5.6432823991544699e-05 0 -0.022215199621847769 0.00011353481272591813 0 -0.021023586921760727 5.6432823991544699e-05 0 -0.021098144354341465 0.00032813394143690785 0 -0.021023586921760727 5.6432823991544699e-05 0 -0.021098144354341465 0.00032813394143690785 0 -0.020531443825024746 0.00028579545855318635 0 -0.021098144354341465 0.00032813394143690785 0 -0.020531443825024746 0.00028579545855318635 0 -0.020494224891022737 0.00045126775646495962 0 -0.020531443825024746 0.00028579545855318635 0 -0.020238184870513102 0.00027480312494701715 0 -0.020253357149112472 0.00044022210200414378 0 -0.020238184870513102 0.00027480312494701715 0 -0.020387667037811745 -0.00015169799456747136 0 -0.020135132367642077 7.328467459967717e-05 0 -0.025895526999478162 -0.00061020935121852042 0 -0.025845187165504869 -0.0004512725467084158 0 -0.021023586921760727 5.6432823991544699e-05 0 -0.020531443825024746 0.00028579545855318635 0 -0.020387667037811745 -0.00015169799456747136 0 -0.020531443825024746 0.00028579545855318635 0 -0.020238184870513102 0.00027480312494701715 0 -0.020387667037811745 -0.00015169799456747136 0 -0.030532606005987992 -0.0015469724706367331 0 -0.031466585702515475 -0.0014583729684932748 0 -0.031252680206427026 -0.0010109437002690806 0 -0.025911164016425525 -0.00063216905512134989 0 -0.025895526999478162 -0.00061020935121852042 0 -0.031252680206427026 -0.0010109437002690806 0 -0.031582019257087264 -0.00092737788851538991 0 -0.031699170657295488 -0.0011238041545941306 0 -0.031766216606095424 -0.0010206326547407471 0 -0.031582019257087264 -0.00092737788851538991 0 -0.031699170657295488 -0.0011238041545941306 0 -0.03185563211729299 -0.00089169250150602228 0 -0.031766216606095424 -0.0010206326547407471 0 -0.031582019257087264 -0.00092737788851538991 0 -0.031826910579843763 -0.0010146416670968076 0 -0.03185563211729299 -0.00089169250150602228 0 -0.031766216606095424 -0.0010206326547407471 0 -0.031766216606095424 -0.0010206326547407471 0 -0.031699170657295488 -0.0011238041545941306 0 -0.031768579601968917 -0.001053635656836439 0 -0.031466585702515475 -0.0014583729684932748 0 -0.031699170657295488 -0.0011238041545941306 0 -0.031739015249568694 -0.0011527243846275919 0 -0.031466585702515475 -0.0014583729684932748 0 -0.031252680206427026 -0.0010109437002690806 0 -0.031699170657295488 -0.0011238041545941306 0 -0.031466585702515475 -0.0014583729684932748 0 -0.031739015249568694 -0.0011527243846275919 0 -0.031744353263950448 -0.0011218256392458239 0 -0.031739015249568694 -0.0011527243846275919 0 -0.031713848224533638 -0.0011055926899026691 0 -0.031744353263950448 -0.0011218256392458239 0 -0.031739015249568694 -0.0011527243846275919 0 -0.031775013657099331 -0.001080105545933074 0 -0.031713848224533638 -0.0011055926899026691 0 -0.031699170657295488 -0.0011238041545941306 0 -0.031775013657099331 -0.001080105545933074 0 -0.031768579601968917 -0.001053635656836439 0 -0.031699170657295488 -0.0011238041545941306 0 -0.031739015249568694 -0.0011527243846275919 0 -0.031775013657099331 -0.001080105545933074 0 -0.031826910579843763 -0.0010146416670968076 0 -0.031775013657099331 -0.001080105545933074 0 -0.031768579601968917 -0.001053635656836439 0 -0.031817659173219673 -0.0010573461943635333 0 -0.031826910579843763 -0.0010146416670968076 0 -0.031775013657099331 -0.001080105545933074 0 -0.031826910579843763 -0.0010146416670968076 0 -0.031766216606095424 -0.0010206326547407471 0 -0.031768579601968917 -0.001053635656836439 0 -0.03168924672194158 -0.0012608073529297187 0 -0.031775013657099331 -0.001080105545933074 0 -0.031611727127462554 -0.001156477171396647 0 -0.031775013657099331 -0.001080105545933074 0 -0.031713848224533638 -0.0011055926899026691 0 -0.031611727127462554 -0.001156477171396647 0 -0.031713848224533638 -0.0011055926899026691 0 -0.031744353263950448 -0.0011218256392458239 0 -0.03160420028942839 -0.0010297776657474955 0 -0.031713848224533638 -0.0011055926899026691 0 -0.031611727127462554 -0.001156477171396647 0 -0.03160420028942839 -0.0010297776657474955 0 -0.025845187165504869 -0.0004512725467084158 0 -0.02569529168255566 -0.00020756923953401914 0 -0.031744353263950448 -0.0011218256392458239 0 -0.03160420028942839 -0.0010297776657474955 0 -0.031587718717282685 -0.00085766227510596777 0 -0.020238184870513102 0.00027480312494701715 0 -0.020135132367642077 7.328467459967717e-05 0 -0.020138013583133774 0.00042234885497215814 0 -0.020135132367642077 7.328467459967717e-05 0 -0.020138013583133774 0.00042234885497215814 0 -0.01986947556022127 0.00016905656959895302 0 -0.020138013583133774 0.00042234885497215814 0 -0.01986947556022127 0.00016905656959895302 0 -0.019857146829055483 0.00045780532318294735 0 -0.020138013583133774 0.00042234885497215814 0 -0.019930552863712977 0.00075509397861180431 0 -0.019857146829055483 0.00045780532318294735 0 -0.020238184870513102 0.00027480312494701715 0 -0.020138013583133774 0.00042234885497215814 0 -0.020253357149112472 0.00044022210200414378 0 -0.020138013583133774 0.00042234885497215814 0 -0.020200689075268018 0.0004108258131985008 0 -0.020253357149112472 0.00044022210200414378 0 -0.020200689075268018 0.0004108258131985008 0 -0.020229708577444723 0.0003363379146412671 0 -0.020202031934811189 0.00040133304665177595 0 -0.020200689075268018 0.0004108258131985008 0 -0.020306245065567548 0.00039893271150958363 0 -0.020267809312268563 0.00035014399660409935 0 -0.020138013583133774 0.00042234885497215814 0 -0.020200689075268018 0.0004108258131985008 0 -0.020306245065567548 0.00039893271150958363 0 -0.01749365100459677 -0.0002117564216198874 0 -0.016462998945797364 0.00032901077342207267 0 -0.020306245065567548 0.00039893271150958363 0 -0.02032710047116652 0.00031627948967211735 0 -0.020267809312268563 0.00035014399660409935 0 -0.02032710047116652 0.00031627948967211735 0 -0.020267809312268563 0.00035014399660409935 0 -0.02028529387413602 0.00028480661839926948 0 -0.02032710047116652 0.00031627948967211735 0 -0.02028529387413602 0.00028480661839926948 0 -0.020340678014097661 0.00024011204706082055 0 -0.02028529387413602 0.00028480661839926948 0 -0.020340678014097661 0.00024011204706082055 0 -0.020293289465258525 0.00017906450706704969 0 -0.020340678014097661 0.00024011204706082055 0 -0.020293289465258525 0.00017906450706704969 0 -0.020375274149069728 0.00012657595353937642 0 -0.020237419711926042 0.00011521429647638989 0 -0.020237392826527721 0.00024586428899440365 0 -0.02015456895553884 0.00017317156178836633 0 -0.020293289465258525 0.00017906450706704969 0 -0.020237419711926042 0.00011521429647638989 0 -0.020274190024501766 5.0794737798849503e-05 0 -0.020293289465258525 0.00017906450706704969 0 -0.020237419711926042 0.00011521429647638989 0 -0.020237392826527721 0.00024586428899440365 0 -0.02028529387413602 0.00028480661839926948 0 -0.020293289465258525 0.00017906450706704969 0 -0.020237392826527721 0.00024586428899440365 0 -0.020237392826527721 0.00024586428899440365 0 -0.020229708577444723 0.0003363379146412671 0 -0.020190488253919388 0.0003219888048457875 0 -0.02028529387413602 0.00028480661839926948 0 -0.020237392826527721 0.00024586428899440365 0 -0.020229708577444723 0.0003363379146412671 0 -0.020200689075268018 0.0004108258131985008 0 -0.020267809312268563 0.00035014399660409935 0 -0.020229708577444723 0.0003363379146412671 0 -0.020267809312268563 0.00035014399660409935 0 -0.02028529387413602 0.00028480661839926948 0 -0.020229708577444723 0.0003363379146412671 0 -0.020229708577444723 0.0003363379146412671 0 -0.020190488253919388 0.0003219888048457875 0 -0.020202031934811189 0.00040133304665177595 0 -0.020190488253919388 0.0003219888048457875 0 -0.02015456895553884 0.00017317156178836633 0 -0.020115402024223177 0.00039642517569277169 0 -0.020190488253919388 0.0003219888048457875 0 -0.020115402024223177 0.00039642517569277169 0 -0.020202031934811189 0.00040133304665177595 0 -0.020237392826527721 0.00024586428899440365 0 -0.020190488253919388 0.0003219888048457875 0 -0.02015456895553884 0.00017317156178836633 0 -0.020237419711926042 0.00011521429647638989 0 -0.02015456895553884 0.00017317156178836633 0 -0.020184049147130664 4.3845136267148293e-05 0 -0.02015456895553884 0.00017317156178836633 0 -0.019927917144172306 0.0001808236778745756 0 -0.020068359040915654 1.9227188211056269e-06 0 -0.02015456895553884 0.00017317156178836633 0 -0.019927917144172306 0.0001808236778745756 0 -0.020115402024223177 0.00039642517569277169 0 -0.019927917144172306 0.0001808236778745756 0 -0.020115402024223177 0.00039642517569277169 0 -0.019772101884198263 0.000393201759593867 0 -0.020115402024223177 0.00039642517569277169 0 -0.020253357149112472 0.00044022210200414378 0 -0.02014856153595861 0.00046166394783209668 0 -0.020253357149112472 0.00044022210200414378 0 -0.020494224891022737 0.00045126775646495962 0 -0.02014856153595861 0.00046166394783209668 0 -0.020200689075268018 0.0004108258131985008 0 -0.020202031934811189 0.00040133304665177595 0 -0.020253357149112472 0.00044022210200414378 0 -0.020115402024223177 0.00039642517569277169 0 -0.020202031934811189 0.00040133304665177595 0 -0.020253357149112472 0.00044022210200414378 0 -0.020531443825024746 0.00028579545855318635 0 -0.020253357149112472 0.00044022210200414378 0 -0.020494224891022737 0.00045126775646495962 0 -0.021098144354341465 0.00032813394143690785 0 -0.020494224891022737 0.00045126775646495962 0 -0.020131365996173874 0.00045450702414691867 0 -0.020494224891022737 0.00045126775646495962 0 -0.020131365996173874 0.00045450702414691867 0 -0.02014856153595861 0.00046166394783209668 0 -0.020115402024223177 0.00039642517569277169 0 -0.02014856153595861 0.00046166394783209668 0 -0.019772101884198263 0.000393201759593867 0 -0.020131365996173874 0.00045450702414691867 0 -0.02014856153595861 0.00046166394783209668 0 -0.019772101884198263 0.000393201759593867 0 -0.019927917144172306 0.0001808236778745756 0 -0.019772101884198263 0.000393201759593867 0 -0.019364853543655608 -5.6635553544478686e-06 0 -0.019772101884198263 0.000393201759593867 0 -0.01903359388413178 0.00029907554017664798 0 -0.019364853543655608 -5.6635553544478686e-06 0 -0.020131365996173874 0.00045450702414691867 0 -0.019772101884198263 0.000393201759593867 0 -0.01903359388413178 0.00029907554017664798 0 -0.020131365996173874 0.00045450702414691867 0 -0.01903359388413178 0.00029907554017664798 0 -0.019277957964623383 0.00030086662867722036 0 -0.01903359388413178 0.00029907554017664798 0 -0.019277957964623383 0.00030086662867722036 0 -0.018030652503668407 0.00013589917427749446 0 -0.01903359388413178 0.00029907554017664798 0 -0.018030652503668407 0.00013589917427749446 0 -0.017804206605506464 -4.5688856249629102e-05 0 -0.018030652503668407 0.00013589917427749446 0 -0.018779171922262337 4.8422511711106466e-07 0 -0.016893005808030735 -1.142130285540672e-07 0 -0.019277957964623383 0.00030086662867722036 0 -0.018030652503668407 0.00013589917427749446 0 -0.018779171922262337 4.8422511711106466e-07 0 -0.019277957964623383 0.00030086662867722036 0 -0.018779171922262337 4.8422511711106466e-07 0 -0.020664638923041417 6.2815840869867277e-07 0 -0.020131365996173874 0.00045450702414691867 0 -0.019277957964623383 0.00030086662867722036 0 -0.020664638923041417 6.2815840869867277e-07 0 -0.020131365996173874 0.00045450702414691867 0 -0.020664638923041417 6.2815840869867277e-07 0 -0.021256437139621043 0.00027365476361582624 0 -0.021098144354341465 0.00032813394143690785 0 -0.020131365996173874 0.00045450702414691867 0 -0.021256437139621043 0.00027365476361582624 0 -0.022550327444901097 3.2515354152402202e-07 0 -0.020664638923041417 6.2815840869867277e-07 0 -0.021256437139621043 0.00027365476361582624 0 -0.030193799494183736 -0.0010874480808869085 0 -0.030516678820965929 -0.0011035092169779399 0 -0.030117717091760837 -0.0015441829403286134 0 -0.030193799494183736 -0.0010874480808869085 0 -0.030147807470411726 -0.00098901766546779396 0 -0.030070509500408796 -0.0013689884527102846 0 -0.026252369630843871 0.0012019263881916742 0 -0.028943846341406676 0.00096681367810046235 0 -0.026252369630843871 0.0012019263881916742 0 -0.026944848074504944 0.00091922236862862787 0 -0.030193799494183736 -0.0010874480808869085 0 -0.030147807470411726 -0.00098901766546779396 0 -0.030355691634374699 -0.0010495350575212914 0 -0.030105460032955236 -0.00096565391483770279 0 -0.030355691634374699 -0.0010495350575212914 0 -0.030353196643541573 -0.0008254498286677011 0 -0.030892399858120784 -0.00086528326702860236 0 -0.030884270019612314 -0.00099202507226464945 0 -0.031013633961157885 -0.00096605362476339502 0 -0.030516678820965929 -0.0011035092169779399 0 -0.030355691634374699 -0.0010495350575212914 0 -0.030543982820051517 -0.00085736947335922256 0 -0.030193799494183736 -0.0010874480808869085 0 -0.030516678820965929 -0.0011035092169779399 0 -0.030355691634374699 -0.0010495350575212914 0 -0.030353196643541573 -0.0008254498286677011 0 -0.030543982820051517 -0.00085736947335922256 0 -0.030573271161869281 -0.00068705381616416812 0 -0.030543982820051517 -0.00085736947335922256 0 -0.030573271161869281 -0.00068705381616416812 0 -0.03101020206094408 -0.00059148007153446544 0 -0.030516678820965929 -0.0011035092169779399 0 -0.030543982820051517 -0.00085736947335922256 0 -0.03101020206094408 -0.00059148007153446544 0 -0.030355691634374699 -0.0010495350575212914 0 -0.030353196643541573 -0.0008254498286677011 0 -0.030543982820051517 -0.00085736947335922256 0 -0.030573271161869281 -0.00068705381616416812 0 -0.030187698652682247 -0.00055955690002138902 0 -0.030552528214117611 -0.00047198040793141759 0 -0.030353196643541573 -0.0008254498286677011 0 -0.030573271161869281 -0.00068705381616416812 0 -0.030187698652682247 -0.00055955690002138902 0 -0.021168716913620947 0.0045082432953774338 0 -0.021206131470176744 0.0044320584882820806 0 -0.021137966673248226 0.0044037136348258118 0 -0.030105460032955236 -0.00096565391483770279 0 -0.030353196643541573 -0.0008254498286677011 0 -0.030187698652682247 -0.00055955690002138902 0 -0.026252369630843871 0.0012019263881916742 0 -0.024519238724221567 0.0020548559130878839 0 -0.026252369630843871 0.0012019263881916742 0 -0.024284569297356316 0.0026934144221008064 0 -0.021168716913620947 0.0045082432953774338 0 -0.021206131470176744 0.0044320584882820806 0 -0.021277295472412177 0.0044778735518610216 0 -0.021206131470176744 0.0044320584882820806 0 -0.021277295472412177 0.0044778735518610216 0 -0.021243843888993086 0.0043753005670236766 0 -0.021277295472412177 0.0044778735518610216 0 -0.0213166913911636 0.004401041431695305 0 -0.021243843888993086 0.0043753005670236766 0 -0.024284569297356316 0.0026934144221008064 0 -0.023576281159700271 0.0034817461804863364 0 -0.021277295472412177 0.0044778735518610216 0 -0.021404658602524464 0.0044585663440723676 0 -0.0213166913911636 0.004401041431695305 0 -0.0259861436035086 0.002992362995923242 0 -0.024700988179817914 0.0034519419816565373 0 -0.025808636923231047 0.0021816166814591122 0 -0.023576281159700271 0.0034817461804863364 0 -0.025648876569471034 0.0027950183714696864 0 -0.024340174596619732 0.0039281269478248287 0 -0.024104104124963582 0.0039135395876954745 0 -0.024261348362539979 0.0041489920547742917 0 -0.024340174596619732 0.0039281269478248287 0 -0.024291562772907248 0.0036648898840204833 0 -0.024104104124963582 0.0039135395876954745 0 -0.027265422282839472 0.0025329238615023572 0 -0.0259861436035086 0.002992362995923242 0 -0.025808636923231047 0.0021816166814591122 0 -0.025648876569471034 0.0027950183714696864 0 -0.028943846341406676 0.00096681367810046235 0 -0.027265422282839472 0.0025329238615023572 0 -0.025808636923231047 0.0021816166814591122 0 -0.026911938252000896 0.00091625264308870533 0 -0.024104104124963582 0.0039135395876954745 0 -0.024082996656255348 0.0041394780182223995 0 -0.023928468704979673 0.0041412268820521514 0 -0.024082996656255348 0.0041394780182223995 0 -0.023966489766119651 0.0042986667967849198 0 -0.023928468704979673 0.0041412268820521514 0 -0.030131181453460193 0.00080116696383284662 0 -0.028943846341406676 0.00096681367810046235 0 -0.024104104124963582 0.0039135395876954745 0 -0.024082996656255348 0.0041394780182223995 0 -0.024261348362539979 0.0041489920547742917 0 -0.024082996656255348 0.0041394780182223995 0 -0.024261348362539979 0.0041489920547742917 0 -0.024119642432449542 0.004300033701743298 0 -0.024433502816059129 0.0044405509823559819 0 -0.024098140017946211 0.0044505266411574941 0 -0.024264383823499991 0.004322208647203704 0 -0.024408247878803767 0.0042708592005087998 0 -0.024261348362539979 0.0041489920547742917 0 -0.024264383823499991 0.004322208647203704 0 -0.024261348362539979 0.0041489920547742917 0 -0.024264383823499991 0.004322208647203704 0 -0.024119642432449542 0.004300033701743298 0 -0.024098140017946211 0.0044505266411574941 0 -0.024264383823499991 0.004322208647203704 0 -0.024119642432449542 0.004300033701743298 0 -0.029681006266527046 0.0011972490838673855 0 -0.029546502698581906 0.0010392599992274589 0 -0.029383391468898616 -0.00013008675053331178 0 -0.030501788549064213 0.00072258786179643555 0 -0.030483103159655179 0.00070088825571634772 0 -0.030529186643255813 0.00084006215350310848 0 -0.030131181453460193 0.00080116696383284662 0 -0.030121277414373253 0.00071030769830027142 0 -0.024082996656255348 0.0041394780182223995 0 -0.023966489766119651 0.0042986667967849198 0 -0.024119642432449542 0.004300033701743298 0 -0.024098140017946211 0.0044505266411574941 0 -0.023966489766119651 0.0042986667967849198 0 -0.024119642432449542 0.004300033701743298 0 -0.030131181453460193 0.00080116696383284662 0 -0.030789704660911445 0.00084126953780861401 0 -0.031018680345980838 0.0018128562964508117 0 -0.030222044509090079 0.00087257731049394948 0 -0.030360679528105394 0.0014976060062239912 0 -0.030581890851451323 0.0011695349864553584 0 -0.030131181453460193 0.00080116696383284662 0 -0.030121277414373253 0.00071030769830027142 0 -0.030789704660911445 0.00084126953780861401 0 -0.031192949024514239 0.00022831727483592945 0 -0.031023972141708323 0.00036232005800200951 0 -0.03125106586434663 0.00044800410272742596 0 -0.030733020399102886 -0.0010692149849663285 0 -0.030900848655388849 -0.0010674070769458052 0 -0.030855233384715249 -0.0012104035472736243 0 -0.031101731028385215 0.00060887872965003818 0 -0.031023972141708323 0.00036232005800200951 0 -0.03125106586434663 0.00044800410272742596 0 -0.031361845221812477 0.00029823014591405831 0 -0.031192949024514239 0.00022831727483592945 0 -0.03125106586434663 0.00044800410272742596 0 -0.031361845221812477 0.00029823014591405831 0 -0.03125106586434663 0.00044800410272742596 0 -0.03156665969613652 0.00040555804517996939 0 -0.03125106586434663 0.00044800410272742596 0 -0.031242361457116286 0.00077551747289631139 0 -0.03156665969613652 0.00040555804517996939 0 -0.030015007121966471 0.00030188229514733686 0 -0.031376683795395474 -4.1989148398211776e-05 0 -0.031101731028385215 0.00060887872965003818 0 -0.03125106586434663 0.00044800410272742596 0 -0.031242361457116286 0.00077551747289631139 0 -0.030121277414373253 0.00071030769830027142 0 -0.030015007121966471 0.00030188229514733686 0 -0.030121277414373253 0.00071030769830027142 0 -0.029506097663509281 0.00056536185997684333 0 -0.029462305857884355 -0.00012119745187227213 0 -0.029506097663509281 0.00056536185997684333 0 -0.030193799494183736 -0.0010874480808869085 0 -0.030094646848262605 -0.0013964618836132319 0 -0.030070509500408796 -0.0013689884527102846 0 -0.029546502698581906 0.0010392599992274589 0 -0.029227888091409217 4.9618753056002964e-05 0 -0.029383391468898616 -0.00013008675053331178 0 -0.030277669370552152 -0.0004296089540766444 0 -0.030015007121966471 0.00030188229514733686 0 -0.029844314317330367 0.00082576180208077891 0 -0.029499020677923513 -0.00025243535742606733 0 -0.029211080556745855 7.9914662911705531e-05 0 -0.030193799494183736 -0.0010874480808869085 0 -0.030065233420280349 -0.0014832217944079342 0 -0.030117717091760837 -0.0015441829403286134 0 -0.029506097663509281 0.00056536185997684333 0 -0.030015007121966471 0.00030188229514733686 0 -0.029506097663509281 0.00056536185997684333 0 -0.028943846341406676 0.00096681367810046235 0 -0.030900848655388849 -0.0010674070769458052 0 -0.031006694479360785 -0.0011415646442277647 0 -0.031013633961157885 -0.00096605362476339502 0 -0.030733020399102886 -0.0010692149849663285 0 -0.030884270019612314 -0.00099202507226464945 0 -0.030900848655388849 -0.0010674070769458052 0 -0.030892399858120784 -0.00086528326702860236 0 -0.030733020399102886 -0.0010692149849663285 0 -0.030884270019612314 -0.00099202507226464945 0 -0.030884270019612314 -0.00099202507226464945 0 -0.030900848655388849 -0.0010674070769458052 0 -0.031013633961157885 -0.00096605362476339502 0 -0.03098913695871439 -0.0013539096091448792 0 -0.030855233384715249 -0.0012104035472736243 0 -0.031006694479360785 -0.0011415646442277647 0 -0.030900848655388849 -0.0010674070769458052 0 -0.030855233384715249 -0.0012104035472736243 0 -0.031006694479360785 -0.0011415646442277647 0 -0.03098913695871439 -0.0013539096091448792 0 -0.031006694479360785 -0.0011415646442277647 0 -0.031154831831925911 -0.0011953638990962238 0 -0.031006694479360785 -0.0011415646442277647 0 -0.031154831831925911 -0.0011953638990962238 0 -0.031122149749951252 -0.00106467073440839 0 -0.031154831831925911 -0.0011953638990962238 0 -0.031292226624640561 -0.001078018942598671 0 -0.031122149749951252 -0.00106467073440839 0 -0.031154831831925911 -0.0011953638990962238 0 -0.031292226624640561 -0.001078018942598671 0 -0.031382684574240385 -0.0012245497489674748 0 -0.031292226624640561 -0.001078018942598671 0 -0.031391027400195566 -0.00092793345582665705 0 -0.031179829761544185 -0.0009296711851110134 0 -0.031292226624640561 -0.001078018942598671 0 -0.031122149749951252 -0.00106467073440839 0 -0.031179829761544185 -0.0009296711851110134 0 -0.031013633961157885 -0.00096605362476339502 0 -0.031122149749951252 -0.00106467073440839 0 -0.031179829761544185 -0.0009296711851110134 0 -0.031006694479360785 -0.0011415646442277647 0 -0.031013633961157885 -0.00096605362476339502 0 -0.031122149749951252 -0.00106467073440839 0 -0.031611727127462554 -0.001156477171396647 0 -0.031382684574240385 -0.0012245497489674748 0 -0.03147038671124381 -0.0010928416413029222 0 -0.031292226624640561 -0.001078018942598671 0 -0.031382684574240385 -0.0012245497489674748 0 -0.03147038671124381 -0.0010928416413029222 0 -0.031292226624640561 -0.001078018942598671 0 -0.03147038671124381 -0.0010928416413029222 0 -0.031391027400195566 -0.00092793345582665705 0 -0.03147038671124381 -0.0010928416413029222 0 -0.03160420028942839 -0.0010297776657474955 0 -0.031391027400195566 -0.00092793345582665705 0 -0.031611727127462554 -0.001156477171396647 0 -0.03147038671124381 -0.0010928416413029222 0 -0.03160420028942839 -0.0010297776657474955 0 -0.03160420028942839 -0.0010297776657474955 0 -0.031391027400195566 -0.00092793345582665705 0 -0.031587718717282685 -0.00085766227510596777 0 -0.019469032575375696 0.00035241010522119509 0 -0.01986947556022127 0.00016905656959895302 0 -0.019650862355973294 0.00041304161069049877 0 -0.025448024383136949 0.0001622902907346323 0 -0.02569529168255566 -0.00020756923953401914 0 -0.031391027400195566 -0.00092793345582665705 0 -0.031340605844758215 -0.00066401019013430471 0 -0.031587718717282685 -0.00085766227510596777 0 -0.01986947556022127 0.00016905656959895302 0 -0.019857146829055483 0.00045780532318294735 0 -0.019650862355973294 0.00041304161069049877 0 -0.031013633961157885 -0.00096605362476339502 0 -0.031052671244815592 -0.00082377777282174121 0 -0.031179829761544185 -0.0009296711851110134 0 -0.030892399858120784 -0.00086528326702860236 0 -0.031013633961157885 -0.00096605362476339502 0 -0.031052671244815592 -0.00082377777282174121 0 -0.031391027400195566 -0.00092793345582665705 0 -0.031179829761544185 -0.0009296711851110134 0 -0.031197732978026298 -0.00078573678949455002 0 -0.031052671244815592 -0.00082377777282174121 0 -0.031179829761544185 -0.0009296711851110134 0 -0.031197732978026298 -0.00078573678949455002 0 -0.031340605844758215 -0.00066401019013430471 0 -0.031197732978026298 -0.00078573678949455002 0 -0.03101020206094408 -0.00059148007153446544 0 -0.031391027400195566 -0.00092793345582665705 0 -0.031340605844758215 -0.00066401019013430471 0 -0.031197732978026298 -0.00078573678949455002 0 -0.031052671244815592 -0.00082377777282174121 0 -0.031197732978026298 -0.00078573678949455002 0 -0.03101020206094408 -0.00059148007153446544 0 -0.030277669370552152 -0.0004296089540766444 0 -0.030510155859758376 -0.00043188924269824553 0 -0.030573271161869281 -0.00068705381616416812 0 -0.03101020206094408 -0.00059148007153446544 0 -0.030774753898029285 -0.00054412790375797518 0 -0.030892399858120784 -0.00086528326702860236 0 -0.031052671244815592 -0.00082377777282174121 0 -0.03101020206094408 -0.00059148007153446544 0 -0.03101020206094408 -0.00059148007153446544 0 -0.030956182055905952 -0.00042536050118053805 0 -0.030774753898029285 -0.00054412790375797518 0 -0.030956182055905952 -0.00042536050118053805 0 -0.030774753898029285 -0.00054412790375797518 0 -0.030552528214117611 -0.00047198040793141759 0 -0.019469032575375696 0.00035241010522119509 0 -0.019457599974874163 0.00044598305857141562 0 -0.019454384282699966 0.00043525022101165362 0 -0.019457599974874163 0.00044598305857141562 0 -0.019459017607042151 0.00043245380373435458 0 -0.019454384282699966 0.00043525022101165362 0 -0.031340605844758215 -0.00066401019013430471 0 -0.03101020206094408 -0.00059148007153446544 0 -0.030956182055905952 -0.00042536050118053805 0 -0.01956128595453448 0.0019136586766301503 0 -0.019440392051718332 0.0015879001511353338 0 -0.025448024383136949 0.0001622902907346323 0 -0.024934108939539186 0.00086113463935055779 0 -0.017921401882492104 0.00067156504762631202 0 -0.018688646465598893 0.00089953946006757592 0 -0.019454384282699966 0.00043525022101165362 0 -0.018688646465598893 0.00089953946006757592 0 -0.019168265446429227 0.00081911435124877271 0 -0.019454384282699966 0.00043525022101165362 0 -0.018688646465598893 0.00089953946006757592 0 -0.019168265446429227 0.00081911435124877271 0 -0.019213574593629046 0.0012475739316828557 0 -0.019168265446429227 0.00081911435124877271 0 -0.019213574593629046 0.0012475739316828557 0 -0.019434429094461865 0.00064488596677649587 0 -0.018688646465598893 0.00089953946006757592 0 -0.019213574593629046 0.0012475739316828557 0 -0.01885064820713217 0.0017701984095128442 0 -0.018688646465598893 0.00089953946006757592 0 -0.018152058425047753 0.0013018915150082347 0 -0.01885064820713217 0.0017701984095128442 0 -0.018152058425047753 0.0013018915150082347 0 -0.017645224231141829 0.0011371679378387621 0 -0.017353608296735303 0.0016894459125682537 0 -0.017921401882492104 0.00067156504762631202 0 -0.017645224231141829 0.0011371679378387621 0 -0.018101786979700041 0.0010023880854528075 0 -0.018688646465598893 0.00089953946006757592 0 -0.018152058425047753 0.0013018915150082347 0 -0.018101786979700041 0.0010023880854528075 0 -0.017921401882492104 0.00067156504762631202 0 -0.018688646465598893 0.00089953946006757592 0 -0.018101786979700041 0.0010023880854528075 0 -0.018152058425047753 0.0013018915150082347 0 -0.017645224231141829 0.0011371679378387621 0 -0.018101786979700041 0.0010023880854528075 0 -0.019857146829055483 0.00045780532318294735 0 -0.019681583922447642 0.00054888113568371338 0 -0.019650862355973294 0.00041304161069049877 0 -0.019857146829055483 0.00045780532318294735 0 -0.019681583922447642 0.00054888113568371338 0 -0.019783486514405205 0.00064000095706112843 0 -0.019579668705381418 0.0005370799461674289 0 -0.019650862355973294 0.00041304161069049877 0 -0.019454384282699966 0.00043525022101165362 0 -0.019579668705381418 0.0005370799461674289 0 -0.019434429094461865 0.00064488596677649587 0 -0.019608166995225117 0.00068132562609967177 0 -0.019681583922447642 0.00054888113568371338 0 -0.019579668705381418 0.0005370799461674289 0 -0.019650862355973294 0.00041304161069049877 0 -0.019681583922447642 0.00054888113568371338 0 -0.019579668705381418 0.0005370799461674289 0 -0.019608166995225117 0.00068132562609967177 0 -0.019469032575375696 0.00035241010522119509 0 -0.019650862355973294 0.00041304161069049877 0 -0.019454384282699966 0.00043525022101165362 0 -0.019579668705381418 0.0005370799461674289 0 -0.019454384282699966 0.00043525022101165362 0 -0.019434429094461865 0.00064488596677649587 0 -0.019168265446429227 0.00081911435124877271 0 -0.019454384282699966 0.00043525022101165362 0 -0.019434429094461865 0.00064488596677649587 0 -0.019434429094461865 0.00064488596677649587 0 -0.019608166995225117 0.00068132562609967177 0 -0.019606540804266191 0.00086005087928921631 0 -0.019213574593629046 0.0012475739316828557 0 -0.019434429094461865 0.00064488596677649587 0 -0.020048124951214951 0.0016725015273578502 0 -0.019213574593629046 0.0012475739316828557 0 -0.020048124951214951 0.0016725015273578502 0 -0.01885064820713217 0.0017701984095128442 0 -0.013743095365200375 0.0030172023161750289 0 -0.012388374420039485 0.0027419703841305505 0 -0.019608166995225117 0.00068132562609967177 0 -0.019665945822248156 0.00077927721825750071 0 -0.019606540804266191 0.00086005087928921631 0 -0.012714790105878556 0.0024515568322284178 0 -0.012388374420039485 0.0027419703841305505 0 -0.019930552863712977 0.00075509397861180431 0 -0.019857146829055483 0.00045780532318294735 0 -0.019783486514405205 0.00064000095706112843 0 -0.019930552863712977 0.00075509397861180431 0 -0.019665945822248156 0.00077927721825750071 0 -0.019695753910304811 0.001067531887345999 0 -0.019683867414507974 0.00066925634401765054 0 -0.019665945822248156 0.00077927721825750071 0 -0.019783486514405205 0.00064000095706112843 0 -0.019681583922447642 0.00054888113568371338 0 -0.019683867414507974 0.00066925634401765054 0 -0.019783486514405205 0.00064000095706112843 0 -0.019681583922447642 0.00054888113568371338 0 -0.019608166995225117 0.00068132562609967177 0 -0.019683867414507974 0.00066925634401765054 0 -0.019608166995225117 0.00068132562609967177 0 -0.019683867414507974 0.00066925634401765054 0 -0.019665945822248156 0.00077927721825750071 0 -0.019930552863712977 0.00075509397861180431 0 -0.019665945822248156 0.00077927721825750071 0 -0.019783486514405205 0.00064000095706112843 0 -0.016462998945797364 0.00032901077342207267 0 -0.012054585684763782 0.0033676301108259 0 -0.020306245065567548 0.00039893271150958363 0 -0.02032710047116652 0.00031627948967211735 0 -0.020429355867825925 0.00029177127841742932 0 -0.019665945822248156 0.00077927721825750071 0 -0.019695753910304811 0.001067531887345999 0 -0.019585776148981559 0.0008772401571614072 0 -0.02032710047116652 0.00031627948967211735 0 -0.020340678014097661 0.00024011204706082055 0 -0.020429355867825925 0.00029177127841742932 0 -0.012054585684763782 0.0033676301108259 0 -0.012388374420039485 0.0027419703841305505 0 -0.012388374420039485 0.0027419703841305505 0 -0.011824411473655606 0.0043358729252075236 0 -0.0048326543317632571 0.0067662177583983638 0 -0.0047975179582455656 0.0066891094976989458 0 -0.0046941334748430152 0.0068423279599933136 0 -0.020048124951214951 0.0016725015273578502 0 -0.01885064820713217 0.0017701984095128442 0 -0.019137394390824347 0.0028906022762572692 0 -0.012054585684763782 0.0033676301108259 0 -0.0072808399363162891 0.0071407781309378348 0 -0.0048326543317632571 0.0067662177583983638 0 -0.0047004885217587292 0.0068739521770524534 0 -0.0046941334748430152 0.0068423279599933136 0 -0.0031964037048248409 0.0087452876824772683 0 -0.0038838416038724627 0.0078128655962199089 0 -0.0032236320066789314 0.0075274320486063574 0 -0.020340678014097661 0.00024011204706082055 0 -0.020429355867825925 0.00029177127841742932 0 -0.020375274149069728 0.00012657595353937642 0 -0.0031964037048248409 0.0087452876824772683 0 -0.0032236320066789314 0.0075274320486063574 0 -0.0025567026247276356 0.0077364456864287001 0 -0.012054585684763782 0.0033676301108259 0 -0.01176737848743906 0.0035353042187505619 0 -0.018152058425047753 0.0013018915150082347 0 -0.017918000773990292 0.0025818620597066098 0 -0.01885064820713217 0.0017701984095128442 0 -0.018152058425047753 0.0013018915150082347 0 -0.017918000773990292 0.0025818620597066098 0 -0.017353608296735303 0.0016894459125682537 0 -0.017918000773990292 0.0025818620597066098 0 -0.01885064820713217 0.0017701984095128442 0 -0.019137394390824347 0.0028906022762572692 0 -0.011824411473655606 0.0043358729252075236 0 -0.011732392111106514 0.0049215235219918722 0 -0.017918000773990292 0.0025818620597066098 0 -0.019137394390824347 0.0028906022762572692 0 -0.018225180227007858 0.0041059899000610968 0 -0.0047004885217587292 0.0068739521770524534 0 -0.0046941334748430152 0.0068423279599933136 0 -0.0047551366890053312 0.006889132532442924 0 -0.017918000773990292 0.0025818620597066098 0 -0.017007607966824614 0.0038772470939146693 0 -0.018225180227007858 0.0041059899000610968 0 -0.019020964841019387 0.0032160519794590817 0 -0.016464752645273747 0.0039466021506752739 0 -0.020731922304998766 0.0037292035282447044 0 -0.020557566219201146 0.0039683028573454394 0 -0.020456118097946809 0.0035955290755308299 0 -0.017918000773990292 0.0025818620597066098 0 -0.016703277235444895 0.0024354424492619912 0 -0.017007607966824614 0.0038772470939146693 0 -0.020731922304998766 0.0037292035282447044 0 -0.020834959539440857 0.0039128761396138882 0 -0.020557566219201146 0.0039683028573454394 0 -0.020731922304998766 0.0037292035282447044 0 -0.020834959539440857 0.0039128761396138882 0 -0.020929046197358525 0.0036928141726340819 0 -0.020834959539440857 0.0039128761396138882 0 -0.020797900841838423 0.0041194541849312516 0 -0.020557566219201146 0.0039683028573454394 0 -0.020797900841838423 0.0041194541849312516 0 -0.020557566219201146 0.0039683028573454394 0 -0.020650115111299615 0.0043541305835420518 0 -0.020834959539440857 0.0039128761396138882 0 -0.020797900841838423 0.0041194541849312516 0 -0.020978203450933094 0.0040419062484507561 0 -0.017918000773990292 0.0025818620597066098 0 -0.016703277235444895 0.0024354424492619912 0 -0.017353608296735303 0.0016894459125682537 0 -0.016703277235444895 0.0024354424492619912 0 -0.017353608296735303 0.0016894459125682537 0 -0.01639205414901802 0.00099233179371078345 0 -0.019020964841019387 0.0032160519794590817 0 -0.021838447993765206 0.00272212400673653 0 -0.01956128595453448 0.0019136586766301503 0 -0.021838447993765206 0.00272212400673653 0 -0.017645224231141829 0.0011371679378387621 0 -0.017353608296735303 0.0016894459125682537 0 -0.01639205414901802 0.00099233179371078345 0 -0.017921401882492104 0.00067156504762631202 0 -0.017645224231141829 0.0011371679378387621 0 -0.01639205414901802 0.00099233179371078345 0 -0.019459017607042151 0.00043245380373435458 0 -0.019578818812322953 0.00043553034175052474 0 -0.019581042824675595 0.00044646942559001458 0 -0.020797900841838423 0.0041194541849312516 0 -0.020843972349057518 0.0043168419806550451 0 -0.020650115111299615 0.0043541305835420518 0 -0.020797900841838423 0.0041194541849312516 0 -0.020843972349057518 0.0043168419806550451 0 -0.020978394613389673 0.0042898649478156836 0 -0.021772404518772302 0.0030665401267894786 0 -0.022478395986955422 0.0028328261964806153 0 -0.021181476445906452 0.0042627003019337691 0 -0.021111382745737126 0.0042939711924700752 0 -0.021183378322240414 0.0043470694092336386 0 -0.021889900141267023 0.0034690998583014471 0 -0.022652179629244082 0.003313225920890092 0 -0.022616423655280323 0.0031515261393526401 0 -0.021772404518772302 0.0030665401267894786 0 -0.021838447993765206 0.00272212400673653 0 -0.021838447993765206 0.00272212400673653 0 -0.022478395986955422 0.0028328261964806153 0 -0.022478395986955422 0.0028328261964806153 0 -0.024519238724221567 0.0020548559130878839 0 -0.021111382745737126 0.0042939711924700752 0 -0.021183378322240414 0.0043470694092336386 0 -0.021137966673248226 0.0044037136348258118 0 -0.030268140512976837 -0.00011552129545489168 0 -0.030187698652682247 -0.00055955690002138902 0 -0.030552528214117611 -0.00047198040793141759 0 -0.021206131470176744 0.0044320584882820806 0 -0.021183378322240414 0.0043470694092336386 0 -0.021137966673248226 0.0044037136348258118 0 -0.030956182055905952 -0.00042536050118053805 0 -0.030268140512976837 -0.00011552129545489168 0 -0.030552528214117611 -0.00047198040793141759 0 -0.019457599974874163 0.00044598305857141562 0 -0.019459017607042151 0.00043245380373435458 0 -0.019581042824675595 0.00044646942559001458 0 -0.024934108939539186 0.00086113463935055779 0 -0.022478395986955422 0.0028328261964806153 0 -0.030573271161869281 -0.00068705381616416812 0 -0.030774753898029285 -0.00054412790375797518 0 -0.030552528214117611 -0.00047198040793141759 0 -0.021288672260763253 0.004312334710970896 0 -0.021379467452164402 0.004341994821867594 0 -0.0213166913911636 0.004401041431695305 0 -0.021404658602524464 0.0044585663440723676 0 -0.021379467452164402 0.004341994821867594 0 -0.0213166913911636 0.004401041431695305 0 -0.021288672260763253 0.004312334710970896 0 -0.0213166913911636 0.004401041431695305 0 -0.021243843888993086 0.0043753005670236766 0 -0.021206131470176744 0.0044320584882820806 0 -0.021183378322240414 0.0043470694092336386 0 -0.021243843888993086 0.0043753005670236766 0 -0.021181476445906452 0.0042627003019337691 0 -0.021183378322240414 0.0043470694092336386 0 -0.021225063249683446 0.0043097434685128357 0 -0.021183378322240414 0.0043470694092336386 0 -0.021243843888993086 0.0043753005670236766 0 -0.021225063249683446 0.0043097434685128357 0 -0.021288672260763253 0.004312334710970896 0 -0.021243843888993086 0.0043753005670236766 0 -0.021225063249683446 0.0043097434685128357 0 -0.021288672260763253 0.004312334710970896 0 -0.021225063249683446 0.0043097434685128357 0 -0.021228236679134305 0.0042513951583939263 0 -0.021772404518772302 0.0030665401267894786 0 -0.021520811363356724 0.0032574091986321695 0 -0.021181476445906452 0.0042627003019337691 0 -0.021225063249683446 0.0043097434685128357 0 -0.021228236679134305 0.0042513951583939263 0 -0.021520811363356724 0.0032574091986321695 0 -0.021345929821755337 0.0034294535788040965 0 -0.021288672260763253 0.004312334710970896 0 -0.021228236679134305 0.0042513951583939263 0 -0.021335268205602793 0.0041983410844713851 0 -0.021288672260763253 0.004312334710970896 0 -0.021379467452164402 0.004341994821867594 0 -0.021335268205602793 0.0041983410844713851 0 -0.020978394613389673 0.0042898649478156836 0 -0.021335268205602793 0.0041983410844713851 0 -0.021189773008648025 0.0040150900045751768 0 -0.021335268205602793 0.0041983410844713851 0 -0.021189773008648025 0.0040150900045751768 0 -0.021355050090699077 0.0039249960706566672 0 -0.021189773008648025 0.0040150900045751768 0 -0.021355050090699077 0.0039249960706566672 0 -0.02110098953342715 0.0038769907602558881 0 -0.020834959539440857 0.0039128761396138882 0 -0.020978203450933094 0.0040419062484507561 0 -0.02110098953342715 0.0038769907602558881 0 -0.020978394613389673 0.0042898649478156836 0 -0.021189773008648025 0.0040150900045751768 0 -0.020978203450933094 0.0040419062484507561 0 -0.020797900841838423 0.0041194541849312516 0 -0.020978394613389673 0.0042898649478156836 0 -0.020978203450933094 0.0040419062484507561 0 -0.021189773008648025 0.0040150900045751768 0 -0.020978203450933094 0.0040419062484507561 0 -0.02110098953342715 0.0038769907602558881 0 -0.020834959539440857 0.0039128761396138882 0 -0.02110098953342715 0.0038769907602558881 0 -0.020929046197358525 0.0036928141726340819 0 -0.02110098953342715 0.0038769907602558881 0 -0.020929046197358525 0.0036928141726340819 0 -0.021208569710979713 0.0036319703749182327 0 -0.021511673062684377 0.0036843305188672937 0 -0.021355050090699077 0.0039249960706566672 0 -0.021208569710979713 0.0036319703749182327 0 -0.021355050090699077 0.0039249960706566672 0 -0.02110098953342715 0.0038769907602558881 0 -0.021208569710979713 0.0036319703749182327 0 -0.021511673062684377 0.0036843305188672937 0 -0.021208569710979713 0.0036319703749182327 0 -0.0213816142010518 0.0034376410872679012 0 -0.021208569710979713 0.0036319703749182327 0 -0.021147258091178168 0.0033203474843442374 0 -0.0213816142010518 0.0034376410872679012 0 -0.021208569710979713 0.0036319703749182327 0 -0.020944869748683811 0.0034780793991965177 0 -0.021147258091178168 0.0033203474843442374 0 -0.020929046197358525 0.0036928141726340819 0 -0.021208569710979713 0.0036319703749182327 0 -0.020944869748683811 0.0034780793991965177 0 -0.020929046197358525 0.0036928141726340819 0 -0.020944869748683811 0.0034780793991965177 0 -0.020757187947937697 0.0035355930494606245 0 -0.020895438753608313 0.003268343960771252 0 -0.02112251810234515 0.0031160120149196281 0 -0.020667450146593793 0.0030858463812715692 0 -0.020944869748683811 0.0034780793991965177 0 -0.020895438753608313 0.003268343960771252 0 -0.021147258091178168 0.0033203474843442374 0 -0.020895438753608313 0.003268343960771252 0 -0.021147258091178168 0.0033203474843442374 0 -0.02112251810234515 0.0031160120149196281 0 -0.021147258091178168 0.0033203474843442374 0 -0.021314272240364692 0.0032613622932686618 0 -0.0213816142010518 0.0034376410872679012 0 -0.021147258091178168 0.0033203474843442374 0 -0.021314272240364692 0.0032613622932686618 0 -0.02112251810234515 0.0031160120149196281 0 -0.020101135686817845 0.0025237329055331978 0 -0.019020830295153977 0.0033451598409248587 0 -0.019162275590058279 0.001398890143182701 0 -0.019422775728918922 0.0033758373528370448 0 -0.020217774253979852 0.0033160033386980333 0 -0.021314272240364692 0.0032613622932686618 0 -0.02112251810234515 0.0031160120149196281 0 -0.0214519910224143 0.0031325912468271972 0 -0.020101135686817845 0.0025237329055331978 0 -0.019020830295153977 0.0033451598409248587 0 -0.021002150736995906 0.0030365567075179779 0 -0.019020830295153977 0.0033451598409248587 0 -0.021002150736995906 0.0030365567075179779 0 -0.0214519910224143 0.0031325912468271972 0 -0.020101135686817845 0.0025237329055331978 0 -0.019162275590058279 0.001398890143182701 0 -0.021499247992727632 0.0024750284298421465 0 -0.017107360077933231 0.0050160082008633778 0 -0.019341984797874565 0.0047081686656363225 0 -0.019422775728918922 0.0033758373528370448 0 -0.017332568724267722 0.0035459703528670189 0 -0.019020830295153977 0.0033451598409248587 0 -0.017169432143121971 0.0025695499021145497 0 -0.016457820450495587 0.0034791579486094012 0 -0.019020830295153977 0.0033451598409248587 0 -0.017169432143121971 0.0025695499021145497 0 -0.017541313597611144 0.001722616285208863 0 -0.019020830295153977 0.0033451598409248587 0 -0.017541313597611144 0.001722616285208863 0 -0.019162275590058279 0.001398890143182701 0 -0.017107360077933231 0.0050160082008633778 0 -0.012279719478377003 0.0043500297919696071 0 -0.017491874785083031 0.0087944462028450038 0 -0.016654686786384508 0.0084054106852914576 0 -0.017376789658211947 0.0082580589007843572 0 -0.017541313597611144 0.001722616285208863 0 -0.019162275590058279 0.001398890143182701 0 -0.016732518366368722 0.00028450435006725181 0 -0.017491874785083031 0.0087944462028450038 0 -0.018323717696273948 0.0091732677926427662 0 -0.018040320372544116 0.0085734220746738147 0 -0.017491874785083031 0.0087944462028450038 0 -0.017726375913215329 0.008359120425395862 0 -0.017376789658211947 0.0082580589007843572 0 -0.017491874785083031 0.0087944462028450038 0 -0.017726375913215329 0.008359120425395862 0 -0.018040320372544116 0.0085734220746738147 0 -0.017726375913215329 0.008359120425395862 0 -0.018040320372544116 0.0085734220746738147 0 -0.018031830400839867 0.0082425882084436498 0 -0.0058062846283069465 0.0022558659804804838 0 -0.0063238456315956731 0.00250922068527391 0 -0.0059876036999107563 0.0026687091557817265 0 -0.0058062846283069465 0.0022558659804804838 0 -0.0059876036999107563 0.0026687091557817265 0 -0.0056779365783552584 0.0027062813610147008 0 -0.0058062846283069465 0.0022558659804804838 0 -0.0063238456315956731 0.00250922068527391 0 -0.0063408978781508089 0.0019750221185115013 0 -0.0063238456315956731 0.00250922068527391 0 -0.0063408978781508089 0.0019750221185115013 0 -0.0067005076178647321 0.0022380723965962587 0 -0.0063238456315956731 0.00250922068527391 0 -0.0062383065202834915 0.0029063543554795164 0 -0.0068724436376963668 0.0030130908534546212 0 -0.0063238456315956731 0.00250922068527391 0 -0.0062383065202834915 0.0029063543554795164 0 -0.0059876036999107563 0.0026687091557817265 0 -0.0062383065202834915 0.0029063543554795164 0 -0.0059876036999107563 0.0026687091557817265 0 -0.0059061486191591423 0.0030136092096972847 0 -0.0059876036999107563 0.0026687091557817265 0 -0.0057041142721893923 0.0028545165395132753 0 -0.0056779365783552584 0.0027062813610147008 0 -0.0059061486191591423 0.0030136092096972847 0 -0.0057041142721893923 0.0028545165395132753 0 -0.0056390895229492533 0.0030517537692959788 0 -0.0059876036999107563 0.0026687091557817265 0 -0.0059061486191591423 0.0030136092096972847 0 -0.0057041142721893923 0.0028545165395132753 0 -0.012032297662951342 0.0036095492546692168 0 -0.011685751016222214 0.0040268654256517492 0 -0.0058062846283069465 0.0022558659804804838 0 -0.0056779365783552584 0.0027062813610147008 0 -0.005218684416327027 0.0030459931042637355 0 -0.0057041142721893923 0.0028545165395132753 0 -0.0056779365783552584 0.0027062813610147008 0 -0.005218684416327027 0.0030459931042637355 0 -0.0057041142721893923 0.0028545165395132753 0 -0.005218684416327027 0.0030459931042637355 0 -0.0056390895229492533 0.0030517537692959788 0 -0.012279719478377003 0.0043500297919696071 0 -0.012905673325104911 0.0036181865804796581 0 -0.016732518366368722 0.00028450435006725181 0 -0.016716565499415383 0.001290731871883614 0 -0.015918650767250631 0.0013629040383952445 0 -0.016697212985626379 0.00033267757020846511 0 -0.015918650767250631 0.0013629040383952445 0 -0.016448634877295743 0.00021620743950469072 0 -0.012279719478377003 0.0043500297919696071 0 -0.011685751016222214 0.0040268654256517492 0 -0.017541313597611144 0.001722616285208863 0 -0.016732518366368722 0.00028450435006725181 0 -0.016716565499415383 0.001290731871883614 0 -0.016673318220770266 0.0017918273982433241 0 -0.015918650767250631 0.0013629040383952445 0 -0.0161454226340914 0.0022822317761066503 0 -0.016716565499415383 0.001290731871883614 0 -0.016673318220770266 0.0017918273982433241 0 -0.015918650767250631 0.0013629040383952445 0 -0.017541313597611144 0.001722616285208863 0 -0.016716565499415383 0.001290731871883614 0 -0.016673318220770266 0.0017918273982433241 0 -0.015203329697141506 0.0018763213715938562 0 -0.015918650767250631 0.0013629040383952445 0 -0.016448634877295743 0.00021620743950469072 0 -0.015203329697141506 0.0018763213715938562 0 -0.015918650767250631 0.0013629040383952445 0 -0.0161454226340914 0.0022822317761066503 0 -0.015203329697141506 0.0018763213715938562 0 -0.0161454226340914 0.0022822317761066503 0 -0.015663513509902416 0.0026217916769704585 0 -0.0161454226340914 0.0022822317761066503 0 -0.015663513509902416 0.0026217916769704585 0 -0.016457820450495587 0.0034791579486094012 0 -0.015203329697141506 0.0018763213715938562 0 -0.015663513509902416 0.0026217916769704585 0 -0.01518280503485564 0.0030001523049028524 0 -0.017169432143121971 0.0025695499021145497 0 -0.0161454226340914 0.0022822317761066503 0 -0.016457820450495587 0.0034791579486094012 0 -0.017169432143121971 0.0025695499021145497 0 -0.016673318220770266 0.0017918273982433241 0 -0.0161454226340914 0.0022822317761066503 0 -0.017169432143121971 0.0025695499021145497 0 -0.017541313597611144 0.001722616285208863 0 -0.016673318220770266 0.0017918273982433241 0 -0.015663513509902416 0.0026217916769704585 0 -0.016457820450495587 0.0034791579486094012 0 -0.01518280503485564 0.0030001523049028524 0 -0.017332568724267722 0.0035459703528670189 0 -0.012625196877614243 0.0039200515056770722 0 -0.016457820450495587 0.0034791579486094012 0 -0.01518280503485564 0.0030001523049028524 0 -0.013916479762453467 0.0035869591090076742 0 -0.015203329697141506 0.0018763213715938562 0 -0.01518280503485564 0.0030001523049028524 0 -0.013916479762453467 0.0035869591090076742 0 -0.012032297662951342 0.0036095492546692168 0 -0.012625196877614243 0.0039200515056770722 0 -0.0063408978781508089 0.0019750221185115013 0 -0.0065369677035764665 0.0014595102698459141 0 -0.0067005076178647321 0.0022380723965962587 0 -0.0058062846283069465 0.0022558659804804838 0 -0.0063408978781508089 0.0019750221185115013 0 -0.006408260127133544 0.0014647379758027858 0 -0.0063408978781508089 0.0019750221185115013 0 -0.006408260127133544 0.0014647379758027858 0 -0.0065369677035764665 0.0014595102698459141 0 -0.012625196877614243 0.0039200515056770722 0 -0.011846038239902242 0.0039192116522381868 0 -0.010581518802981801 0.0068202496120418664 0 -0.014856165640780657 0.0066311371939132254 0 -0.013893499061716816 0.0024559349535273663 0 -0.012547993142895768 0.0041372533897761129 0 -0.016464752645273747 0.0039466021506752739 0 -0.020095922856405362 0.0030959243593278781 0 -0.020045892869784723 0.0031595745048475054 0 -0.020524100470382597 0.003355743218802235 0 -0.012547993142895768 0.0041372533897761129 0 -0.017396372052118584 0.0048919988747671232 0 -0.020347002102468297 0.0032090256553056621 0 -0.020656560789540229 0.0033403272006222846 0 -0.020456118097946809 0.0035955290755308299 0 -0.011846038239902242 0.0039192116522381868 0 -0.012547993142895768 0.0041372533897761129 0 -0.012625196877614243 0.0039200515056770722 0 -0.012547993142895768 0.0041372533897761129 0 -0.018573247563087179 0.0049930934548051871 0 -0.017396372052118584 0.0048919988747671232 0 -0.020895438753608313 0.003268343960771252 0 -0.020667450146593793 0.0030858463812715692 0 -0.020524100470382597 0.003355743218802235 0 -0.020944869748683811 0.0034780793991965177 0 -0.020895438753608313 0.003268343960771252 0 -0.020524100470382597 0.003355743218802235 0 -0.020667450146593793 0.0030858463812715692 0 -0.020095922856405362 0.0030959243593278781 0 -0.020524100470382597 0.003355743218802235 0 -0.020944869748683811 0.0034780793991965177 0 -0.020656560789540229 0.0033403272006222846 0 -0.020757187947937697 0.0035355930494606245 0 -0.020731922304998766 0.0037292035282447044 0 -0.020757187947937697 0.0035355930494606245 0 -0.020456118097946809 0.0035955290755308299 0 -0.020656560789540229 0.0033403272006222846 0 -0.020757187947937697 0.0035355930494606245 0 -0.020456118097946809 0.0035955290755308299 0 -0.020731922304998766 0.0037292035282447044 0 -0.020929046197358525 0.0036928141726340819 0 -0.020757187947937697 0.0035355930494606245 0 -0.017312431265859868 0.0053175723335009287 0 -0.017007607966824614 0.0038772470939146693 0 -0.018225180227007858 0.0041059899000610968 0 -0.0072808399363162891 0.0071407781309378348 0 -0.0064053951496707943 0.0075444135269082434 0 -0.0047004885217587292 0.0068739521770524534 0 -0.0047551366890053312 0.006889132532442924 0 -0.0046143726532865441 0.0067831474732276669 0 -0.0047551366890053312 0.006889132532442924 0 -0.0046143726532865441 0.0067831474732276669 0 -0.0048914005176359373 0.0065118114248444107 0 -0.0046143726532865441 0.0067831474732276669 0 -0.004193792245199811 0.0063999840429014125 0 -0.0039616485720222654 0.0067011489059967252 0 -0.0046143726532865441 0.0067831474732276669 0 -0.004193792245199811 0.0063999840429014125 0 -0.0045154390955345347 0.0063443155425428064 0 -0.004193792245199811 0.0063999840429014125 0 -0.0045154390955345347 0.0063443155425428064 0 -0.0040975391877799902 0.0060652601247241245 0 -0.0045154390955345347 0.0063443155425428064 0 -0.0048914005176359373 0.0065118114248444107 0 -0.0049055174190473852 0.0062797007234016789 0 -0.0046143726532865441 0.0067831474732276669 0 -0.0045154390955345347 0.0063443155425428064 0 -0.0048914005176359373 0.0065118114248444107 0 -0.0053173344669245224 0.0063771539329536128 0 -0.0047551366890053312 0.006889132532442924 0 -0.0048914005176359373 0.0065118114248444107 0 -0.012547993142895768 0.0041372533897761129 0 -0.011732392111106514 0.0049215235219918722 0 -0.0048914005176359373 0.0065118114248444107 0 -0.0051731741422547869 0.0062976836270376303 0 -0.0049055174190473852 0.0062797007234016789 0 -0.0053173344669245224 0.0063771539329536128 0 -0.0048914005176359373 0.0065118114248444107 0 -0.0051731741422547869 0.0062976836270376303 0 -0.012547993142895768 0.0041372533897761129 0 -0.010786547304266821 0.0040262019483605716 0 -0.0027836671148325017 0.007124451150252703 0 -0.0032236320066789314 0.0075274320486063574 0 -0.0025567026247276356 0.0077364456864287001 0 -0.0027836671148325017 0.007124451150252703 0 -0.0032236320066789314 0.0075274320486063574 0 -0.0033682541696459182 0.006851640112712048 0 -0.0038838416038724627 0.0078128655962199089 0 -0.0046143726532865441 0.0067831474732276669 0 -0.0038046145245785204 0.0071360969731814891 0 -0.0032236320066789314 0.0075274320486063574 0 -0.0038046145245785204 0.0071360969731814891 0 -0.0033682541696459182 0.006851640112712048 0 -0.0038838416038724627 0.0078128655962199089 0 -0.0032236320066789314 0.0075274320486063574 0 -0.0038046145245785204 0.0071360969731814891 0 -0.0046143726532865441 0.0067831474732276669 0 -0.0038046145245785204 0.0071360969731814891 0 -0.0039616485720222654 0.0067011489059967252 0 -0.004193792245199811 0.0063999840429014125 0 -0.0037133916938584676 0.006348650005128173 0 -0.0040975391877799902 0.0060652601247241245 0 -0.004193792245199811 0.0063999840429014125 0 -0.0039616485720222654 0.0067011489059967252 0 -0.0037133916938584676 0.006348650005128173 0 -0.0037133916938584676 0.006348650005128173 0 -0.003164946515597628 0.006484076265746078 0 -0.003282883562620163 0.0061292082685669635 0 -0.0037133916938584676 0.006348650005128173 0 -0.0033682541696459182 0.006851640112712048 0 -0.003164946515597628 0.006484076265746078 0 -0.0039616485720222654 0.0067011489059967252 0 -0.0037133916938584676 0.006348650005128173 0 -0.0033682541696459182 0.006851640112712048 0 -0.0038046145245785204 0.0071360969731814891 0 -0.0039616485720222654 0.0067011489059967252 0 -0.0033682541696459182 0.006851640112712048 0 -0.0033682541696459182 0.006851640112712048 0 -0.003164946515597628 0.006484076265746078 0 -0.0027864102466404238 0.0066623885954592279 0 -0.003164946515597628 0.006484076265746078 0 -0.0027864102466404238 0.0066623885954592279 0 -0.00273181866436041 0.0061648747470941087 0 -0.0027864102466404238 0.0066623885954592279 0 -0.00273181866436041 0.0061648747470941087 0 -0.0022911652259085626 0.0064227210196176592 0 -0.0027836671148325017 0.007124451150252703 0 -0.0027864102466404238 0.0066623885954592279 0 -0.0025492329068066027 0.0068155872513252251 0 -0.0027836671148325017 0.007124451150252703 0 -0.0033682541696459182 0.006851640112712048 0 -0.0027864102466404238 0.0066623885954592279 0 -0.00273181866436041 0.0061648747470941087 0 -0.0030190795866954522 0.0056751826829252615 0 -0.0024638164212224113 0.0056315953284682644 0 -0.003164946515597628 0.006484076265746078 0 -0.00273181866436041 0.0061648747470941087 0 -0.003282883562620163 0.0061292082685669635 0 -0.003282883562620163 0.0061292082685669635 0 -0.0030190795866954522 0.0056751826829252615 0 -0.0036735866183119376 0.0058738409076814274 0 -0.00273181866436041 0.0061648747470941087 0 -0.003282883562620163 0.0061292082685669635 0 -0.0030190795866954522 0.0056751826829252615 0 -0.0027125720303116069 0.0042201399455664345 0 -0.0043673745775289121 0.0042515763417000692 0 -0.0036735866183119376 0.0058738409076814274 0 -0.0034777687223783351 0.0052815261733572018 0 -0.0044510200355840765 0.0057119472783199723 0 -0.0030190795866954522 0.0056751826829252615 0 -0.0036735866183119376 0.0058738409076814274 0 -0.0034777687223783351 0.0052815261733572018 0 -0.0037133916938584676 0.006348650005128173 0 -0.003282883562620163 0.0061292082685669635 0 -0.0036735866183119376 0.0058738409076814274 0 -0.0036735866183119376 0.0058738409076814274 0 -0.0040975391877799902 0.0060652601247241245 0 -0.0044510200355840765 0.0057119472783199723 0 -0.0037133916938584676 0.006348650005128173 0 -0.0036735866183119376 0.0058738409076814274 0 -0.0040975391877799902 0.0060652601247241245 0 0.00023622156108964694 0.0045015387001271136 0 -8.1596469560669545e-05 0.004414912149372922 0 0.00041267977134041558 0.0042020576214824622 0 0.00023622156108964694 0.0045015387001271136 0 6.8095058372592382e-05 0.0047320082771067726 0 0.00044340964466133546 0.0047743045899627298 0 0.00023622156108964694 0.0045015387001271136 0 6.8095058372592382e-05 0.0047320082771067726 0 -8.1596469560669545e-05 0.004414912149372922 0 -0.0030190795866954522 0.0056751826829252615 0 -0.0024638164212224113 0.0056315953284682644 0 -0.0024483609477581277 0.0048812235014167211 0 6.8095058372592382e-05 0.0047320082771067726 0 -8.1596469560669545e-05 0.004414912149372922 0 -0.00058826052586378466 0.0045206733262137437 0 -0.0027125720303116069 0.0042201399455664345 0 -0.0020828447969289958 0.0042833077161321771 0 -0.0030190795866954522 0.0056751826829252615 0 -0.0034777687223783351 0.0052815261733572018 0 -0.0024483609477581277 0.0048812235014167211 0 -0.010786547304266821 0.0040262019483605716 0 -0.0043673745775289121 0.0042515763417000692 0 -0.0073370001436573826 0.0030089293896422434 0 -0.0077836740731027001 0.0032139116178694308 0 -0.0073131758505526603 0.0033156759980744474 0 -0.0052546738596846582 0.0062793975417050748 0 -0.0049055174190473852 0.0062797007234016789 0 -0.0043951636963171616 0.0058212676917788623 0 -0.011846038239902242 0.0039192116522381868 0 -0.0083878557366701533 0.0035613162728998968 0 -0.0072513066583790144 0.0030129745586676476 0 -0.0073370001436573826 0.0030089293896422434 0 -0.0073131758505526603 0.0033156759980744474 0 -0.011846038239902242 0.0039192116522381868 0 -0.010786547304266821 0.0040262019483605716 0 -0.010911819518412779 0.0041081875993637272 0 -0.01051476264722854 0.0023835630318415802 0 -0.013992672358732149 0.00397132179146574 0 -0.010786547304266821 0.0040262019483605716 0 -0.010103366819459947 0.0041184245759414203 0 -0.0045154390955345347 0.0063443155425428064 0 -0.0049055174190473852 0.0062797007234016789 0 -0.0043951636963171616 0.0058212676917788623 0 -0.0045154390955345347 0.0063443155425428064 0 -0.0040975391877799902 0.0060652601247241245 0 -0.0043951636963171616 0.0058212676917788623 0 -0.0042672322454879244 0.004406315360798752 0 -0.0043673745775289121 0.0042515763417000692 0 0.00023622156108964694 0.0045015387001271136 0 0.00041267977134041558 0.0042020576214824622 0 0.00044340964466133546 0.0047743045899627298 0 -0.0043673745775289121 0.0042515763417000692 0 -0.0053406203454031955 0.004025943837906879 0 0.00041267977134041558 0.0042020576214824622 0 0.00044340964466133546 0.0047743045899627298 0 0.0010044967844374212 0.0048034369983891165 0 -0.0077836740731027001 0.0032139116178694308 0 -0.0073131758505526603 0.0033156759980744474 0 -0.0073768229051672666 0.0036188267264528505 0 -0.0083878557366701533 0.0035613162728998968 0 -0.0053406203454031955 0.004025943837906879 0 -0.0063238456315956731 0.00250922068527391 0 -0.0067005076178647321 0.0022380723965962587 0 -0.0068724436376963668 0.0030130908534546212 0 0.0010044967844374212 0.0048034369983891165 0 0.0006254759394647303 0.0051110405462012915 0 0.00075580792322834387 0.0055731818346351682 0 0.00069195695313854278 0.005871953983688484 0 0.00065082212227403412 0.0057202710068570009 0 0.00075580792322834387 0.0055731818346351682 0 -0.0053406203454031955 0.004025943837906879 0 -0.0044112873497251818 0.0042730399810457743 0 0.00044340964466133546 0.0047743045899627298 0 0.0010044967844374212 0.0048034369983891165 0 0.0006254759394647303 0.0051110405462012915 0 0.00038622566068279788 0.0052470566836478119 0 0.0006254759394647303 0.0051110405462012915 0 0.00075580792322834387 0.0055731818346351682 0 6.8095058372592382e-05 0.0047320082771067726 0 0.00044340964466133546 0.0047743045899627298 0 0.00038622566068279788 0.0052470566836478119 0 0.00044340964466133546 0.0047743045899627298 0 0.00038622566068279788 0.0052470566836478119 0 0.0006254759394647303 0.0051110405462012915 0 0.00038622566068279788 0.0052470566836478119 0 0.00041274817480700546 0.0055847497511641378 0 0.00070575247275931306 0.0056775140849696006 0 0.00038622566068279788 0.0052470566836478119 0 0.00075580792322834387 0.0055731818346351682 0 0.00070575247275931306 0.0056775140849696006 0 0.00075580792322834387 0.0055731818346351682 0 0.00070575247275931306 0.0056775140849696006 0 0.00064855916893946349 0.0057379722757219054 0 0.00065082212227403412 0.0057202710068570009 0 0.00075580792322834387 0.0055731818346351682 0 0.00064855916893946349 0.0057379722757219054 0 6.8095058372592382e-05 0.0047320082771067726 0 -7.4148521329080974e-05 0.0050092887827748941 0 -0.00058826052586378466 0.0045206733262137437 0 -7.4148521329080974e-05 0.0050092887827748941 0 -0.00037801481287107528 0.0051292595346662711 0 -0.00058826052586378466 0.0045206733262137437 0 -0.00037801481287107528 0.0051292595346662711 0 -0.00058826052586378466 0.0045206733262137437 0 -0.00075206043839037948 0.0050003226097830849 0 6.8095058372592382e-05 0.0047320082771067726 0 0.00038622566068279788 0.0052470566836478119 0 -7.4148521329080974e-05 0.0050092887827748941 0 0.00038622566068279788 0.0052470566836478119 0 -7.4148521329080974e-05 0.0050092887827748941 0 5.2862743341985428e-05 0.005370697392323355 0 0.00038622566068279788 0.0052470566836478119 0 5.2862743341985428e-05 0.005370697392323355 0 0.00041274817480700546 0.0055847497511641378 0 -7.4148521329080974e-05 0.0050092887827748941 0 5.2862743341985428e-05 0.005370697392323355 0 -0.00037801481287107528 0.0051292595346662711 0 5.2862743341985428e-05 0.005370697392323355 0 -0.00033225327390378715 0.0054780390872759006 0 -0.00037801481287107528 0.0051292595346662711 0 -0.00033225327390378715 0.0054780390872759006 0 -0.00037801481287107528 0.0051292595346662711 0 -0.00064344905856872695 0.0053018482486859803 0 -0.00030799217688022584 0.0057705076157706552 0 8.9525812696725205e-05 0.0058152860633782352 0 -0.00047040856175787824 0.0060625005973556773 0 5.2862743341985428e-05 0.005370697392323355 0 -0.00033225327390378715 0.0054780390872759006 0 8.9525812696725205e-05 0.0058152860633782352 0 -0.00030799217688022584 0.0057705076157706552 0 -0.00047040856175787824 0.0060625005973556773 0 -0.00073679635338009131 0.0056646607142801708 0 -0.00033225327390378715 0.0054780390872759006 0 -0.00030799217688022584 0.0057705076157706552 0 -0.00073679635338009131 0.0056646607142801708 0 -0.00033225327390378715 0.0054780390872759006 0 -0.00030799217688022584 0.0057705076157706552 0 8.9525812696725205e-05 0.0058152860633782352 0 0.00041274817480700546 0.0055847497511641378 0 8.9525812696725205e-05 0.0058152860633782352 0 0.00067349266641204949 0.0057968775764351077 0 5.2862743341985428e-05 0.005370697392323355 0 0.00041274817480700546 0.0055847497511641378 0 8.9525812696725205e-05 0.0058152860633782352 0 0.00042674423346212448 0.0059647982999275085 0 -0.00013795344941964322 0.0062567577898378609 0 0.00028528843111087505 0.006339588109486061 0 8.9525812696725205e-05 0.0058152860633782352 0 0.00042674423346212448 0.0059647982999275085 0 0.00067349266641204949 0.0057968775764351077 0 8.9525812696725205e-05 0.0058152860633782352 0 0.00042674423346212448 0.0059647982999275085 0 -0.00013795344941964322 0.0062567577898378609 0 0.00042674423346212448 0.0059647982999275085 0 0.00088291937724267668 0.0059400895023384954 0 0.00028528843111087505 0.006339588109486061 0 8.9525812696725205e-05 0.0058152860633782352 0 -0.00013795344941964322 0.0062567577898378609 0 -0.00047040856175787824 0.0060625005973556773 0 -0.00013795344941964322 0.0062567577898378609 0 -0.00047040856175787824 0.0060625005973556773 0 -0.00082640673947133325 0.0063481582250314783 0 0.00067319849140280686 0.0057810280106421474 0 0.00070575247275931306 0.0056775140849696006 0 0.00064855916893946349 0.0057379722757219054 0 0.00075324756110406042 0.0057725924928967035 0 0.00067319849140280686 0.0057810280106421474 0 0.00068780229764939997 0.0057800821498273413 0 0.00075324756110406042 0.0057725924928967035 0 0.00067319849140280686 0.0057810280106421474 0 0.00070575247275931306 0.0056775140849696006 0 0.00041274817480700546 0.0055847497511641378 0 0.00070575247275931306 0.0056775140849696006 0 0.00067349266641204949 0.0057968775764351077 0 0.00075324756110406042 0.0057725924928967035 0 0.00070575247275931306 0.0056775140849696006 0 0.00067349266641204949 0.0057968775764351077 0 0.00075324756110406042 0.0057725924928967035 0 0.00067349266641204949 0.0057968775764351077 0 0.00087963863536551278 0.0058039888509552546 0 0.00067349266641204949 0.0057968775764351077 0 0.00088291937724267668 0.0059400895023384954 0 0.00087963863536551278 0.0058039888509552546 0 0.00042674423346212448 0.0059647982999275085 0 0.00067349266641204949 0.0057968775764351077 0 0.00088291937724267668 0.0059400895023384954 0 0.00088291937724267668 0.0059400895023384954 0 0.00087963863536551278 0.0058039888509552546 0 0.0010801452449665757 0.0056665150031595668 0 0.00075324756110406042 0.0057725924928967035 0 0.00087963863536551278 0.0058039888509552546 0 0.00068780229764939997 0.0057800821498273413 0 0.00087963863536551278 0.0058039888509552546 0 0.00071087400935809797 0.0056459034625506365 0 0.00098195865534768671 0.0055191402953892292 0 0.00087963863536551278 0.0058039888509552546 0 0.00068780229764939997 0.0057800821498273413 0 0.00071087400935809797 0.0056459034625506365 0 0.00071087400935809797 0.0056459034625506365 0 0.00043792573230257771 0.0057414076604264128 0 0.0004434474661269313 0.0054903250989352635 0 0.00043792573230257771 0.0057414076604264128 0 0.00017272681430721243 0.005614635454506153 0 0.0004434474661269313 0.0054903250989352635 0 0.00068780229764939997 0.0057800821498273413 0 0.00071087400935809797 0.0056459034625506365 0 0.00043792573230257771 0.0057414076604264128 0 0.00068780229764939997 0.0057800821498273413 0 0.00043792573230257771 0.0057414076604264128 0 0.00053526314653469227 0.0058197199022285723 0 0.00067319849140280686 0.0057810280106421474 0 0.00068780229764939997 0.0057800821498273413 0 0.00053526314653469227 0.0058197199022285723 0 0.00053526314653469227 0.0058197199022285723 0 0.00045248890268615312 0.0058399012684763885 0 0.00033556680172720479 0.0058431824766343099 0 0.00043792573230257771 0.0057414076604264128 0 0.00053526314653469227 0.0058197199022285723 0 0.00033556680172720479 0.0058431824766343099 0 0.00053526314653469227 0.0058197199022285723 0 0.00045248890268615312 0.0058399012684763885 0 0.00064855916893946349 0.0057379722757219054 0 0.00067319849140280686 0.0057810280106421474 0 0.00053526314653469227 0.0058197199022285723 0 0.00064855916893946349 0.0057379722757219054 0 0.00045248890268615312 0.0058399012684763885 0 0.00017980767808144072 0.0059518192524693342 0 0.00033556680172720479 0.0058431824766343099 0 0.00017980767808144072 0.0059518192524693342 0 0.00033556680172720479 0.0058431824766343099 0 9.1780523507223023e-05 0.0058216996841342801 0 0.00043792573230257771 0.0057414076604264128 0 0.00033556680172720479 0.0058431824766343099 0 9.1780523507223023e-05 0.0058216996841342801 0 0.00043792573230257771 0.0057414076604264128 0 9.1780523507223023e-05 0.0058216996841342801 0 0.00017272681430721243 0.005614635454506153 0 9.1780523507223023e-05 0.0058216996841342801 0 -0.00016023882831986601 0.0056555455176863839 0 0.00017272681430721243 0.005614635454506153 0 0.00017980767808144072 0.0059518192524693342 0 9.1780523507223023e-05 0.0058216996841342801 0 -0.00033765239748856721 0.0058316908431733398 0 0.00022483013211878962 0.0086465051438681367 0 -0.00046841985799437572 0.0072009996685837973 0 -0.00085267425176500727 0.0075875554292335074 0 9.1780523507223023e-05 0.0058216996841342801 0 -0.00033765239748856721 0.0058316908431733398 0 -0.00016023882831986601 0.0056555455176863839 0 -0.00046841985799437572 0.0072009996685837973 0 -0.00085267425176500727 0.0075875554292335074 0 -0.0020353873299158191 0.0064746935608055592 0 -0.004240728158846351 0.0052042052020867761 0 -0.0038052665406251027 0.0052893033252034349 0 -0.0036472432163389499 0.0055642506027868245 0 -0.002647580149311767 0.0059766002872271599 0 -0.0028515738964698901 0.0058564821089154223 0 -0.004240728158846351 0.0052042052020867761 0 -0.0038052665406251027 0.0052893033252034349 0 -0.0040046286132384866 0.0049681509769798175 0 -0.0038052665406251027 0.0052893033252034349 0 -0.0036818102285326522 0.0049806870700463933 0 -0.0040046286132384866 0.0049681509769798175 0 -0.010867814812719463 0.0056447792370522562 0 -0.011106740409202962 0.0055695594835551256 0 -0.0036818102285326522 0.0049806870700463933 0 -0.0041559657339980795 0.0046415552204290148 0 -0.0043365607684294309 0.0040588569575838946 0 -0.018006609135232218 0.0066491605349082335 0 -0.017333543534584026 0.0075295934947537512 0 -0.017967246456032308 0.0073121973150180996 0 -0.0036818102285326522 0.0049806870700463933 0 -0.0040046286132384866 0.0049681509769798175 0 -0.0041559657339980795 0.0046415552204290148 0 -0.004240728158846351 0.0052042052020867761 0 -0.0040046286132384866 0.0049681509769798175 0 -0.0041559657339980795 0.0046415552204290148 0 -0.0049401128523342977 0.0046378858972570209 0 -0.004240728158846351 0.0052042052020867761 0 -0.0041559657339980795 0.0046415552204290148 0 -0.0049401128523342977 0.0046378858972570209 0 -0.0041559657339980795 0.0046415552204290148 0 -0.0044359184350133999 0.0043842005011049531 0 -0.0028058857457351717 0.0056114802475390121 0 -0.0017120573143644712 0.0063439962076400729 0 -0.0028058857457351717 0.0056114802475390121 0 -0.002647580149311767 0.0059766002872271599 0 -0.0049401128523342977 0.0046378858972570209 0 -0.0046600784428885347 0.0042034407797700585 0 -0.0050323546566882404 0.0040351772363223081 0 -0.0049401128523342977 0.0046378858972570209 0 -0.0046600784428885347 0.0042034407797700585 0 -0.0044359184350133999 0.0043842005011049531 0 -0.0046600784428885347 0.0042034407797700585 0 -0.0044359184350133999 0.0043842005011049531 0 -0.0043365607684294309 0.0040588569575838946 0 -0.0041559657339980795 0.0046415552204290148 0 -0.0044359184350133999 0.0043842005011049531 0 -0.0043365607684294309 0.0040588569575838946 0 -0.0046600784428885347 0.0042034407797700585 0 -0.0043365607684294309 0.0040588569575838946 0 -0.004629140894088864 0.0038898034956375621 0 -0.0046600784428885347 0.0042034407797700585 0 -0.004629140894088864 0.0038898034956375621 0 -0.0050323546566882404 0.0040351772363223081 0 -0.004629140894088864 0.0038898034956375621 0 -0.0049740783186848761 0.003814640813269279 0 -0.0050323546566882404 0.0040351772363223081 0 -0.017333543534584026 0.0075295934947537512 0 -0.017967246456032308 0.0073121973150180996 0 -0.017669539369000939 0.0076928421333623048 0 -0.017333543534584026 0.0075295934947537512 0 -0.017669539369000939 0.0076928421333623048 0 -0.017358940057961958 0.0079380633445459946 0 -0.017967246456032308 0.0073121973150180996 0 -0.017669539369000939 0.0076928421333623048 0 -0.017984005216053072 0.0076919433401238966 0 -0.017735486522940776 0.0079592978532790851 0 -0.018186735514902661 0.0079421384005600049 0 -0.018031830400839867 0.0082425882084436498 0 -0.017984005216053072 0.0076919433401238966 0 -0.017735486522940776 0.0079592978532790851 0 -0.018186735514902661 0.0079421384005600049 0 -0.017669539369000939 0.0076928421333623048 0 -0.017984005216053072 0.0076919433401238966 0 -0.017735486522940776 0.0079592978532790851 0 -0.017669539369000939 0.0076928421333623048 0 -0.017735486522940776 0.0079592978532790851 0 -0.017358940057961958 0.0079380633445459946 0 -0.017735486522940776 0.0079592978532790851 0 -0.017358940057961958 0.0079380633445459946 0 -0.017376789658211947 0.0082580589007843572 0 -0.017735486522940776 0.0079592978532790851 0 -0.017726375913215329 0.008359120425395862 0 -0.017376789658211947 0.0082580589007843572 0 -0.017735486522940776 0.0079592978532790851 0 -0.017726375913215329 0.008359120425395862 0 -0.018031830400839867 0.0082425882084436498 0 -0.016654686786384508 0.0084054106852914576 0 -0.017358940057961958 0.0079380633445459946 0 -0.017376789658211947 0.0082580589007843572 0 -0.012279719478377003 0.0043500297919696071 0 -0.011106740409202962 0.0055695594835551256 0 -0.016654686786384508 0.0084054106852914576 0 -0.017333543534584026 0.0075295934947537512 0 -0.017358940057961958 0.0079380633445459946 0 -0.004629140894088864 0.0038898034956375621 0 -0.0052354184856499087 0.0030898372229558255 0 -0.005066404059660458 0.0035959315397740802 0 -0.0052318011060254153 0.0029342518748704813 0 -0.0043365607684294309 0.0040588569575838946 0 -0.004629140894088864 0.0038898034956375621 0 -0.0096493761252767554 0.0050061537667064069 0 -0.011685751016222214 0.0040268654256517492 0 -0.004629140894088864 0.0038898034956375621 0 -0.0049740783186848761 0.003814640813269279 0 -0.005066404059660458 0.0035959315397740802 0 -0.0052354184856499087 0.0030898372229558255 0 -0.0053009054277607234 0.0033943392531201977 0 -0.005066404059660458 0.0035959315397740802 0 -0.0052318011060254153 0.0029342518748704813 0 -0.004629140894088864 0.0038898034956375621 0 -0.0053472444404099474 0.0029871575003989981 0 -0.0052354184856499087 0.0030898372229558255 0 -0.0053009054277607234 0.0033943392531201977 0 -0.0054364954368502126 0.0032896808818596644 0 -0.0051720657734015425 0.0037363304250270265 0 -0.0056072475224563005 0.0035006117727331247 0 -0.0050323546566882404 0.0040351772363223081 0 -0.0053009054277607234 0.0033943392531201977 0 -0.005066404059660458 0.0035959315397740802 0 -0.0053027673818291255 0.0035721749256036992 0 -0.005066404059660458 0.0035959315397740802 0 -0.0053027673818291255 0.0035721749256036992 0 -0.0051720657734015425 0.0037363304250270265 0 -0.0049740783186848761 0.003814640813269279 0 -0.005066404059660458 0.0035959315397740802 0 -0.0051720657734015425 0.0037363304250270265 0 -0.0053027673818291255 0.0035721749256036992 0 -0.0051720657734015425 0.0037363304250270265 0 -0.0056072475224563005 0.0035006117727331247 0 -0.0053027673818291255 0.0035721749256036992 0 -0.0054189908209712652 0.0034708529907229351 0 -0.0056072475224563005 0.0035006117727331247 0 -0.0053009054277607234 0.0033943392531201977 0 -0.0053027673818291255 0.0035721749256036992 0 -0.0054189908209712652 0.0034708529907229351 0 -0.0054189908209712652 0.0034708529907229351 0 -0.0056072475224563005 0.0035006117727331247 0 -0.0054841246839765195 0.0033772941987307843 0 -0.005218684416327027 0.0030459931042637355 0 -0.0056390895229492533 0.0030517537692959788 0 -0.0057331221854878042 0.003292402728934067 0 -0.0052354184856499087 0.0030898372229558255 0 -0.0054364954368502126 0.0032896808818596644 0 -0.0057331221854878042 0.003292402728934067 0 -0.0054841246839765195 0.0033772941987307843 0 -0.0054364954368502126 0.0032896808818596644 0 -0.0057331221854878042 0.003292402728934067 0 -0.0056072475224563005 0.0035006117727331247 0 -0.0054841246839765195 0.0033772941987307843 0 -0.0057331221854878042 0.003292402728934067 0 -0.011685751016222214 0.0040268654256517492 0 -0.010698572464491648 0.0036688976126673981 0 -0.0053009054277607234 0.0033943392531201977 0 -0.0054841246839765195 0.0033772941987307843 0 -0.0054364954368502126 0.0032896808818596644 0 -0.0053009054277607234 0.0033943392531201977 0 -0.0054189908209712652 0.0034708529907229351 0 -0.0054841246839765195 0.0033772941987307843 0 -0.0068724436376963668 0.0030130908534546212 0 -0.0061358787019970724 0.0033252885128374847 0 -0.0058891547777423642 0.0039989690061120733 0 -0.0059061486191591423 0.0030136092096972847 0 -0.0056390895229492533 0.0030517537692959788 0 -0.0057331221854878042 0.003292402728934067 0 -0.0062383065202834915 0.0029063543554795164 0 -0.0059061486191591423 0.0030136092096972847 0 -0.0061358787019970724 0.0033252885128374847 0 0.00069195695313854278 0.005871953983688484 0 0.00065082212227403412 0.0057202710068570009 0 0.00052488675038862137 0.0058005179782678988 0 -0.0059061486191591423 0.0030136092096972847 0 -0.0061358787019970724 0.0033252885128374847 0 -0.0057331221854878042 0.003292402728934067 0 -0.0053406203454031955 0.004025943837906879 0 -0.0034843444902530629 0.0051154038919622646 0 -0.0056072475224563005 0.0035006117727331247 0 -0.0057331221854878042 0.003292402728934067 0 -0.0058405596209298687 0.0035266247631947543 0 -0.0061358787019970724 0.0033252885128374847 0 -0.0057331221854878042 0.003292402728934067 0 -0.0058405596209298687 0.0035266247631947543 0 -0.0062383065202834915 0.0029063543554795164 0 -0.0068724436376963668 0.0030130908534546212 0 -0.0061358787019970724 0.0033252885128374847 0 -0.0061358787019970724 0.0033252885128374847 0 -0.0058405596209298687 0.0035266247631947543 0 -0.0058891547777423642 0.0039989690061120733 0 -0.0056072475224563005 0.0035006117727331247 0 -0.0058405596209298687 0.0035266247631947543 0 -0.0058891547777423642 0.0039989690061120733 0 0.00065082212227403412 0.0057202710068570009 0 0.00052488675038862137 0.0058005179782678988 0 0.00064855916893946349 0.0057379722757219054 0 0.00045248890268615312 0.0058399012684763885 0 0.00052488675038862137 0.0058005179782678988 0 0.00064855916893946349 0.0057379722757219054 0 -0.0048184055672783142 0.005048185061645085 0 -0.0056072475224563005 0.0035006117727331247 0 -0.0058891547777423642 0.0039989690061120733 0 -0.0028058857457351717 0.0056114802475390121 0 -0.0034843444902530629 0.0051154038919622646 0 0.00045248890268615312 0.0058399012684763885 0 0.00017980767808144072 0.0059518192524693342 0 0.00052488675038862137 0.0058005179782678988 0 -0.0028058857457351717 0.0056114802475390121 0 -0.0040713684343076937 0.0040726825344932997 0 -0.0049401128523342977 0.0046378858972570209 0 -0.0056072475224563005 0.0035006117727331247 0 -0.0050323546566882404 0.0040351772363223081 0 -0.0049740783186848761 0.003814640813269279 0 -0.0051720657734015425 0.0037363304250270265 0 -0.0050323546566882404 0.0040351772363223081 0 -0.015007279605505556 -1.0453525376453132e-06 0 -0.014423339672469107 0.00010222463355145556 0 -0.013120849476530676 1.2969748655512442e-06 0 -0.013741038865497426 0.00018478324729491916 0 -0.014423339672469107 0.00010222463355145556 0 -0.013120849476530676 1.2969748655512442e-06 0 -0.013741038865497426 0.00018478324729491916 0 -0.013623873983889303 0.00012970469890061901 0 -0.012935660118533632 0.00046473196512322208 0 -0.013741038865497426 0.00018478324729491916 0 -0.013623873983889303 0.00012970469890061901 0 -0.014423339672469107 0.00010222463355145556 0 -0.014063479103083962 -0.00037412798046372115 0 -0.014423339672469107 0.00010222463355145556 0 -0.015822863557735947 -0.00062496217055286183 0 -0.013623873983889303 0.00012970469890061901 0 -0.014063479103083962 -0.00037412798046372115 0 -0.014423339672469107 0.00010222463355145556 0 -0.015007279605505556 -1.0453525376453132e-06 0 -0.014423339672469107 0.00010222463355145556 0 -0.015822863557735947 -0.00062496217055286183 0 -0.015007279605505556 -1.0453525376453132e-06 0 -0.016786512922851483 -0.00018786325455921564 0 -0.016893005808030735 -1.142130285540672e-07 0 -0.015007279605505556 -1.0453525376453132e-06 0 -0.016786512922851483 -0.00018786325455921564 0 -0.015822863557735947 -0.00062496217055286183 0 -0.018030652503668407 0.00013589917427749446 0 -0.016786512922851483 -0.00018786325455921564 0 -0.016893005808030735 -1.142130285540672e-07 0 -0.018030652503668407 0.00013589917427749446 0 -0.016786512922851483 -0.00018786325455921564 0 -0.017804206605506464 -4.5688856249629102e-05 0 -0.017804206605506464 -4.5688856249629102e-05 0 -0.015822863557735947 -0.00062496217055286183 0 -0.018829537684649358 -0.00092102505995978715 0 -0.014063479103083962 -0.00037412798046372115 0 -0.015822863557735947 -0.00062496217055286183 0 -0.012748765917659116 -0.001332998916898585 0 -0.016786512922851483 -0.00018786325455921564 0 -0.017804206605506464 -4.5688856249629102e-05 0 -0.015822863557735947 -0.00062496217055286183 0 -0.015696238273214192 -0.00036240989469686727 0 -0.015511934813186998 -0.00027346497606107914 0 -0.014063479103083962 -0.00037412798046372115 0 -0.012748765917659116 -0.001332998916898585 0 -0.011393996591767938 -0.0005703056519927339 0 -0.01903359388413178 0.00029907554017664798 0 -0.017804206605506464 -4.5688856249629102e-05 0 -0.018741662498372884 -0.00010510824904553013 0 -0.018829537684649358 -0.00092102505995978715 0 -0.018741662498372884 -0.00010510824904553013 0 -0.019364853543655608 -5.6635553544478686e-06 0 -0.01903359388413178 0.00029907554017664798 0 -0.018741662498372884 -0.00010510824904553013 0 -0.019364853543655608 -5.6635553544478686e-06 0 -0.017804206605506464 -4.5688856249629102e-05 0 -0.018829537684649358 -0.00092102505995978715 0 -0.018741662498372884 -0.00010510824904553013 0 -0.019364853543655608 -5.6635553544478686e-06 0 -0.019809072181324099 -0.0005312894652767646 0 -0.019874279399698866 -0.00010098186632308667 0 -0.019927917144172306 0.0001808236778745756 0 -0.019364853543655608 -5.6635553544478686e-06 0 -0.019874279399698866 -0.00010098186632308667 0 -0.015511934813186998 -0.00027346497606107914 0 -0.015071971943421244 0.00016658551880841186 0 -0.011393996591767938 -0.0005703056519927339 0 -0.0097713851624624294 8.6063910584558079e-05 0 -0.010264992395216476 -0.0015104462156240446 0 -0.012748765917659116 -0.001332998916898585 0 -0.011393996591767938 -0.0005703056519927339 0 -0.010264992395216476 -0.0015104462156240446 0 -0.018829537684649358 -0.00092102505995978715 0 -0.019364853543655608 -5.6635553544478686e-06 0 -0.019809072181324099 -0.0005312894652767646 0 -0.01116106754392829 0.00093307556645725383 0 -0.011393996591767938 -0.0005703056519927339 0 -0.0097713851624624294 8.6063910584558079e-05 0 -0.012923563200800774 0.00015160311180004821 0 -0.01206148321931245 0.00060422266227305515 0 -0.014063479103083962 -0.00037412798046372115 0 -0.01116106754392829 0.00093307556645725383 0 -0.011393996591767938 -0.0005703056519927339 0 -0.013623873983889303 0.00012970469890061901 0 -0.014063479103083962 -0.00037412798046372115 0 -0.012306288816691949 0.00010665304242914299 0 -0.013623873983889303 0.00012970469890061901 0 -0.012306288816691949 0.00010665304242914299 0 -0.012935660118533632 0.00046473196512322208 0 -0.012306288816691949 0.00010665304242914299 0 -0.012203618101178277 0.00041048997468389679 0 -0.012286516550528745 0.00042301616127754212 0 -0.012306288816691949 0.00010665304242914299 0 -0.012444739803522389 0.00045206304054819571 0 -0.012286516550528745 0.00042301616127754212 0 -0.012306288816691949 0.00010665304242914299 0 -0.012935660118533632 0.00046473196512322208 0 -0.012444739803522389 0.00045206304054819571 0 -0.01116106754392829 0.00093307556645725383 0 -0.0085056235431568272 0.0022369945545475216 0 -0.0094045675822958755 0.00087458136035609005 0 -0.01206148321931245 0.00060422266227305515 0 -0.011791787977801556 0.00090828824482827174 0 -0.012306288816691949 0.00010665304242914299 0 -0.012114794912400495 0.00036036262347537146 0 -0.012203618101178277 0.00041048997468389679 0 -0.0085056235431568272 0.0022369945545475216 0 -0.0081914004988731508 0.00024639752855547096 0 -0.0094045675822958755 0.00087458136035609005 0 -0.010968669403615239 0.0019407336704569721 0 -0.01114582433893286 0.002622881954403221 0 -0.011791787977801556 0.00090828824482827174 0 -0.013554246590518728 0.00062441760619031674 0 -0.019922690248258913 -0.00051072839367715848 0 -0.01998696190784376 -0.00054317170284818043 0 -0.019987347412601674 -0.00027134680237078657 0 -0.01998696190784376 -0.00054317170284818043 0 -0.019987347412601674 -0.00027134680237078657 0 -0.020165977784549222 -0.00029205454465559849 0 -0.011791787977801556 0.00090828824482827174 0 -0.010968669403615239 0.0019407336704569721 0 -0.019987347412601674 -0.00027134680237078657 0 -0.02013483394169404 -0.00015354759805623114 0 -0.020165977784549222 -0.00029205454465559849 0 -0.0081914004988731508 0.00024639752855547096 0 -0.0094045675822958755 0.00087458136035609005 0 -0.0097713851624624294 8.6063910584558079e-05 0 -0.0081914004988731508 0.00024639752855547096 0 -0.0097713851624624294 8.6063910584558079e-05 0 -0.0090075965776961232 -0.00063891961708089609 0 -0.01116106754392829 0.00093307556645725383 0 -0.0094045675822958755 0.00087458136035609005 0 -0.0097713851624624294 8.6063910584558079e-05 0 -0.0097713851624624294 8.6063910584558079e-05 0 -0.0090075965776961232 -0.00063891961708089609 0 -0.010264992395216476 -0.0015104462156240446 0 -0.019809072181324099 -0.0005312894652767646 0 -0.020025060374409636 -0.00019814756794861622 0 -0.02020367150235431 -0.00021103219065505581 0 -0.015071971943421244 0.00016658551880841186 0 -0.015247726555012026 0.0012592596921252547 0 -0.0090075965776961232 -0.00063891961708089609 0 -0.010264992395216476 -0.0015104462156240446 0 -0.0078867403390458675 -0.001741221804505466 0 -0.019809072181324099 -0.0005312894652767646 0 -0.019874279399698866 -0.00010098186632308667 0 -0.020025060374409636 -0.00019814756794861622 0 -0.019874279399698866 -0.00010098186632308667 0 -0.020025060374409636 -0.00019814756794861622 0 -0.020068359040915654 1.9227188211056269e-06 0 -0.019927917144172306 0.0001808236778745756 0 -0.019874279399698866 -0.00010098186632308667 0 -0.020068359040915654 1.9227188211056269e-06 0 -0.02015456895553884 0.00017317156178836633 0 -0.020068359040915654 1.9227188211056269e-06 0 -0.020184049147130664 4.3845136267148293e-05 0 -0.020068359040915654 1.9227188211056269e-06 0 -0.020184049147130664 4.3845136267148293e-05 0 -0.020192162761046861 -8.4893781210767342e-05 0 -0.020025060374409636 -0.00019814756794861622 0 -0.020192162761046861 -8.4893781210767342e-05 0 -0.02020367150235431 -0.00021103219065505581 0 -0.020025060374409636 -0.00019814756794861622 0 -0.020068359040915654 1.9227188211056269e-06 0 -0.020192162761046861 -8.4893781210767342e-05 0 -0.020184049147130664 4.3845136267148293e-05 0 -0.020192162761046861 -8.4893781210767342e-05 0 -0.020214357274431636 1.7045223041773666e-05 0 -0.013554246590518728 0.00062441760619031674 0 -0.015247726555012026 0.0012592596921252547 0 -0.020192162761046861 -8.4893781210767342e-05 0 -0.020194653612231231 -5.9823370761947592e-05 0 -0.0201726886798833 -5.2840542524560001e-05 0 -0.020052020544627156 -5.343171027720383e-05 0 -0.02013483394169404 -0.00015354759805623114 0 -0.0201726886798833 -5.2840542524560001e-05 0 -0.015247726555012026 0.0012592596921252547 0 -0.015812640598415417 0.0012621702097875686 0 -0.019987347412601674 -0.00027134680237078657 0 -0.020052020544627156 -5.343171027720383e-05 0 -0.02013483394169404 -0.00015354759805623114 0 -0.0081914004988731508 0.00024639752855547096 0 -0.0090075965776961232 -0.00063891961708089609 0 -0.0078867403390458675 -0.001741221804505466 0 -0.015316234879398762 0.0012135225115306608 0 -0.015247726555012026 0.0012592596921252547 0 -0.02013483394169404 -0.00015354759805623114 0 -0.020303616043844404 -6.3815311320533709e-05 0 -0.020165977784549222 -0.00029205454465559849 0 -0.02013483394169404 -0.00015354759805623114 0 -0.0201726886798833 -5.2840542524560001e-05 0 -0.020303616043844404 -6.3815311320533709e-05 0 -0.011422668667497719 0.0031720803688898794 0 -0.01114582433893286 0.002622881954403221 0 -0.0201726886798833 -5.2840542524560001e-05 0 -0.020274190024501766 5.0794737798849503e-05 0 -0.020214357274431636 1.7045223041773666e-05 0 -0.020192162761046861 -8.4893781210767342e-05 0 -0.0201726886798833 -5.2840542524560001e-05 0 -0.020214357274431636 1.7045223041773666e-05 0 -0.0201726886798833 -5.2840542524560001e-05 0 -0.020274190024501766 5.0794737798849503e-05 0 -0.020303616043844404 -6.3815311320533709e-05 0 -0.020237419711926042 0.00011521429647638989 0 -0.020184049147130664 4.3845136267148293e-05 0 -0.020214357274431636 1.7045223041773666e-05 0 -0.020237419711926042 0.00011521429647638989 0 -0.020274190024501766 5.0794737798849503e-05 0 -0.020214357274431636 1.7045223041773666e-05 0 -0.01176737848743906 0.0035353042187505619 0 -0.011422668667497719 0.0031720803688898794 0 -0.020274190024501766 5.0794737798849503e-05 0 -0.020375274149069728 0.00012657595353937642 0 -0.020303616043844404 -6.3815311320533709e-05 0 -0.0025567026247276356 0.0077364456864287001 0 -0.00232588673584691 0.0070365058198089596 0 -0.002036531051185694 0.0067840342485416972 0 -0.020293289465258525 0.00017906450706704969 0 -0.020274190024501766 5.0794737798849503e-05 0 -0.020375274149069728 0.00012657595353937642 0 -0.0027836671148325017 0.007124451150252703 0 -0.0025567026247276356 0.0077364456864287001 0 -0.00232588673584691 0.0070365058198089596 0 -0.00232588673584691 0.0070365058198089596 0 -0.0025492329068066027 0.0068155872513252251 0 -0.0022911652259085626 0.0064227210196176592 0 -0.00232588673584691 0.0070365058198089596 0 -0.0022911652259085626 0.0064227210196176592 0 -0.0015475199609681634 0.0058328760213030677 0 -0.00232588673584691 0.0070365058198089596 0 -0.002036531051185694 0.0067840342485416972 0 -0.0019136279332645986 0.0058822460857831764 0 -0.0027836671148325017 0.007124451150252703 0 -0.00232588673584691 0.0070365058198089596 0 -0.0025492329068066027 0.0068155872513252251 0 -0.0042404485211758837 0.005250664485703738 0 -0.0047861331583042019 0.0043722489897056105 0 -0.0027864102466404238 0.0066623885954592279 0 -0.0025492329068066027 0.0068155872513252251 0 -0.0022911652259085626 0.0064227210196176592 0 -0.00273181866436041 0.0061648747470941087 0 -0.0022911652259085626 0.0064227210196176592 0 -0.0021859252259524178 0.0059043342919816071 0 -0.00273181866436041 0.0061648747470941087 0 -0.0021859252259524178 0.0059043342919816071 0 -0.0024638164212224113 0.0056315953284682644 0 -0.0021859252259524178 0.0059043342919816071 0 -0.0024638164212224113 0.0056315953284682644 0 -0.0018960863496918427 0.0054728911975266145 0 -0.0021859252259524178 0.0059043342919816071 0 -0.0015475199609681634 0.0058328760213030677 0 -0.0018960863496918427 0.0054728911975266145 0 -0.0022911652259085626 0.0064227210196176592 0 -0.0021859252259524178 0.0059043342919816071 0 -0.0015475199609681634 0.0058328760213030677 0 -0.002036531051185694 0.0067840342485416972 0 -0.0016108780981532252 0.0058484478291873079 0 -0.0019136279332645986 0.0058822460857831764 0 -0.0047861331583042019 0.0043722489897056105 0 -0.0075348183593621334 0.002608543229759288 0 -0.0015475199609681634 0.0058328760213030677 0 -0.001206577096850668 0.0050142421654109891 0 -0.0018960863496918427 0.0054728911975266145 0 -0.0011398994540931624 0.0049966135811373661 0 -0.0019136279332645986 0.0058822460857831764 0 -0.0014611169722683298 0.004834243637402179 0 -0.001206577096850668 0.0050142421654109891 0 -0.0017724575862505994 0.0050431477954561736 0 -0.0018960863496918427 0.0054728911975266145 0 -0.0015475199609681634 0.0058328760213030677 0 -0.001206577096850668 0.0050142421654109891 0 -0.00090175761432606321 0.0046203185814542788 0 -0.0011398994540931624 0.0049966135811373661 0 -0.0016108780981532252 0.0058484478291873079 0 -0.0019136279332645986 0.0058822460857831764 0 -0.001206577096850668 0.0050142421654109891 0 -0.0014502855753186748 0.0049015713674935195 0 -0.0017724575862505994 0.0050431477954561736 0 -0.001206577096850668 0.0050142421654109891 0 -0.0014502855753186748 0.0049015713674935195 0 -0.0011925262837257492 0.0046647464447255793 0 -0.0014502855753186748 0.0049015713674935195 0 -0.0017724575862505994 0.0050431477954561736 0 -0.0013312019282492799 0.0046686766252873168 0 -0.0017724575862505994 0.0050431477954561736 0 -0.0024483609477581277 0.0048812235014167211 0 -0.0013312019282492799 0.0046686766252873168 0 -0.0024638164212224113 0.0056315953284682644 0 -0.0024483609477581277 0.0048812235014167211 0 -0.0018960863496918427 0.0054728911975266145 0 -0.0017724575862505994 0.0050431477954561736 0 -0.0024483609477581277 0.0048812235014167211 0 -0.0018960863496918427 0.0054728911975266145 0 -0.00058826052586378466 0.0045206733262137437 0 -0.0010114255165880963 0.0048395918762994903 0 -0.00075206043839037948 0.0050003226097830849 0 -0.0020828447969289958 0.0042833077161321771 0 -0.0019036888134142172 0.0043082929569945071 0 -0.00058826052586378466 0.0045206733262137437 0 -0.0010114255165880963 0.0048395918762994903 0 -0.0013312019282492799 0.0046686766252873168 0 -0.0010114255165880963 0.0048395918762994903 0 -0.0013026067700714066 0.0047552009467624655 0 -0.0010309057327893419 0.0052404768852309129 0 -0.0010114255165880963 0.0048395918762994903 0 -0.00075206043839037948 0.0050003226097830849 0 -0.0010309057327893419 0.0052404768852309129 0 -0.0010114255165880963 0.0048395918762994903 0 -0.0013312019282492799 0.0046686766252873168 0 -0.0013026067700714066 0.0047552009467624655 0 -0.0014922469039121036 0.0046593099048159942 0 -0.0013026067700714066 0.0047552009467624655 0 -0.0015060796202605205 0.0054210355764657244 0 -0.0014502855753186748 0.0049015713674935195 0 -0.0013312019282492799 0.0046686766252873168 0 -0.0011925262837257492 0.0046647464447255793 0 -0.0013312019282492799 0.0046686766252873168 0 -0.0011925262837257492 0.0046647464447255793 0 -0.0013026067700714066 0.0047552009467624655 0 -0.0063587698321796301 0.0026067326109294343 0 -0.0059938933850183854 0.002782895870759894 0 -0.0061617662594870759 0.002882025717722011 0 -0.0063587698321796301 0.0026067326109294343 0 -0.001206577096850668 0.0050142421654109891 0 -0.00090175761432606321 0.0046203185814542788 0 -0.0011291142419780785 0.0045042016914264432 0 -0.0075348183593621334 0.002608543229759288 0 -0.0063587698321796301 0.0026067326109294343 0 -0.0013026067700714066 0.0047552009467624655 0 -0.0015060796202605205 0.0054210355764657244 0 -0.0010309057327893419 0.0052404768852309129 0 -0.0063587698321796301 0.0026067326109294343 0 -0.0057581475312643363 0.0028291689247108972 0 -0.0015060796202605205 0.0054210355764657244 0 -0.0010309057327893419 0.0052404768852309129 0 -0.0011753690485323282 0.0057396414676837417 0 -0.00075206043839037948 0.0050003226097830849 0 -0.0010309057327893419 0.0052404768852309129 0 -0.00064344905856872695 0.0053018482486859803 0 -0.00037801481287107528 0.0051292595346662711 0 -0.00075206043839037948 0.0050003226097830849 0 -0.00064344905856872695 0.0053018482486859803 0 -0.00033225327390378715 0.0054780390872759006 0 -0.00064344905856872695 0.0053018482486859803 0 -0.00073679635338009131 0.0056646607142801708 0 -0.0010309057327893419 0.0052404768852309129 0 -0.00064344905856872695 0.0053018482486859803 0 -0.00073679635338009131 0.0056646607142801708 0 -0.0010309057327893419 0.0052404768852309129 0 -0.00073679635338009131 0.0056646607142801708 0 -0.0011753690485323282 0.0057396414676837417 0 -0.00073679635338009131 0.0056646607142801708 0 -0.00085697100670066887 0.0060079104341156471 0 -0.0011753690485323282 0.0057396414676837417 0 -0.00047040856175787824 0.0060625005973556773 0 -0.00073679635338009131 0.0056646607142801708 0 -0.00085697100670066887 0.0060079104341156471 0 -0.00047040856175787824 0.0060625005973556773 0 -0.00085697100670066887 0.0060079104341156471 0 -0.00082640673947133325 0.0063481582250314783 0 -0.00085697100670066887 0.0060079104341156471 0 -0.00082640673947133325 0.0063481582250314783 0 -0.0012047402633761665 0.0060656525231063416 0 -0.0012417401894763279 0.0063397171895448624 0 -0.0012047402633761665 0.0060656525231063416 0 -0.0015789456017114302 0.0061098730396068838 0 -0.0012417401894763279 0.0063397171895448624 0 -0.0015789456017114302 0.0061098730396068838 0 -0.0016183876191075428 0.0063800833261073234 0 -0.00082640673947133325 0.0063481582250314783 0 -0.0012417401894763279 0.0063397171895448624 0 -0.0012047402633761665 0.0060656525231063416 0 -0.00085697100670066887 0.0060079104341156471 0 -0.0012047402633761665 0.0060656525231063416 0 -0.0011753690485323282 0.0057396414676837417 0 -0.0012047402633761665 0.0060656525231063416 0 -0.0011753690485323282 0.0057396414676837417 0 -0.0015731420016497654 0.0061197232234138773 0 -0.0039318491511705937 0.0028565088400152512 0 -0.0045170188452374671 0.0027175586150409749 0 -0.0015060796202605205 0.0054210355764657244 0 -0.0011753690485323282 0.0057396414676837417 0 -0.0015731420016497654 0.0061197232234138773 0 -0.0057581475312643363 0.0028291689247108972 0 -0.0045170188452374671 0.0027175586150409749 0 -0.012302701731652731 0.00025554348234391319 0 -0.012250774125400639 0.00023008717405489254 0 -0.012254184689093199 0.00017519563747619952 0 -0.012302701731652731 0.00025554348234391319 0 -0.012254184689093199 0.00017519563747619952 0 -0.012277910116261795 0.00012168480899451113 0 -0.012250774125400639 0.00023008717405489254 0 -0.012227387832580743 0.00020560598452475402 0 -0.012254184689093199 0.00017519563747619952 0 -0.012227387832580743 0.00020560598452475402 0 -0.012162398302070892 0.00029121118498252484 0 -0.01222159174905595 0.00024930389087147618 0 -0.012250774125400639 0.00023008717405489254 0 -0.012227387832580743 0.00020560598452475402 0 -0.01222159174905595 0.00024930389087147618 0 -0.012227387832580743 0.00020560598452475402 0 -0.012254184689093199 0.00017519563747619952 0 -0.012216310654526873 0.00014628799101549042 0 -0.012254184689093199 0.00017519563747619952 0 -0.012277910116261795 0.00012168480899451113 0 -0.012234755509308153 0.00011709907507837871 0 -0.012254184689093199 0.00017519563747619952 0 -0.012234755509308153 0.00011709907507837871 0 -0.012216310654526873 0.00014628799101549042 0 -0.0045170188452374671 0.0027175586150409749 0 -0.006074310517513953 0.0015387752100779349 0 -0.00045346141768285423 -0.002381373860813643 0 0.00042488685813335395 -0.0017900032499969013 0 -9.85050371886422e-05 -0.0012107279066882564 0 -0.006074310517513953 0.0015387752100779349 0 -0.0036002658298307237 0.0023438342890305251 0 -0.0041935888143129476 0.0019359881102475782 0 -0.0037180297763334492 0.0018643501630410263 0 -0.0041439130421604947 0.0015855749548520403 0 -0.0045170188452374671 0.0027175586150409749 0 -0.0036002658298307237 0.0023438342890305251 0 -0.012234755509308153 0.00011709907507837871 0 -0.012216310654526873 0.00014628799101549042 0 -0.012138027091737927 0.00010905955284860597 0 -0.006074310517513953 0.0015387752100779349 0 -0.007099090510848248 0.00023778673512439257 0 -0.00045346141768285423 -0.002381373860813643 0 -0.0026924256650288506 -0.0020911567665722755 0 -0.0016456891547316106 -0.0010494848362173625 0 -0.006074310517513953 0.0015387752100779349 0 -0.0094084938560717209 -7.377153323057933e-05 0 -0.012754733670805039 -0.00030827555769763845 0 -0.012138027091737927 0.00010905955284860597 0 -0.011996969076929764 -0.00045004374399529453 0 -0.012227387832580743 0.00020560598452475402 0 -0.012216310654526873 0.00014628799101549042 0 -0.012162398302070892 0.00029121118498252484 0 -0.011653252798389932 0.00058754502137297086 0 -0.011604594854710297 0.00072490852645254087 0 -0.012216310654526873 0.00014628799101549042 0 -0.012210988967791646 0.00023420029155143257 0 -0.012138027091737927 0.00010905955284860597 0 -0.012216310654526873 0.00014628799101549042 0 -0.012210988967791646 0.00023420029155143257 0 -0.012283798919834079 0.00029980340148845529 0 -0.012210988967791646 0.00023420029155143257 0 -0.012225759570152603 0.00031303659149796881 0 -0.012173642436847385 0.00037489796893006927 0 -0.012244182795273138 0.00041412768721573633 0 -0.012283798919834079 0.00029980340148845529 0 -0.01225744231192036 0.00046004849105651756 0 -0.012210988967791646 0.00023420029155143257 0 -0.012225759570152603 0.00031303659149796881 0 -0.012283798919834079 0.00029980340148845529 0 -0.011604594854710297 0.00072490852645254087 0 -0.011453500230358304 0.0011836187010431183 0 -0.012230059373101756 0.00036917069800482472 0 -0.012224325764353183 0.00043129028007931068 0 -0.012173642436847385 0.00037489796893006927 0 -0.012225759570152603 0.00031303659149796881 0 -0.012230059373101756 0.00036917069800482472 0 -0.012173642436847385 0.00037489796893006927 0 -0.012230059373101756 0.00036917069800482472 0 -0.012244182795273138 0.00041412768721573633 0 -0.012224325764353183 0.00043129028007931068 0 -0.012230059373101756 0.00036917069800482472 0 -0.012244182795273138 0.00041412768721573633 0 -0.012283798919834079 0.00029980340148845529 0 -0.012225759570152603 0.00031303659149796881 0 -0.012230059373101756 0.00036917069800482472 0 -0.012283798919834079 0.00029980340148845529 0 -0.01222159174905595 0.00024930389087147618 0 -0.012252148287779541 0.00028459497445042404 0 -0.012242615391142134 0.00034535192800696878 0 -0.012314883545346645 0.00043759310830683346 0 -0.012302701731652731 0.00025554348234391319 0 -0.012242615391142134 0.00034535192800696878 0 -0.012162398302070892 0.00029121118498252484 0 -0.01222159174905595 0.00024930389087147618 0 -0.012339050569539467 0.00047779756525925376 0 -0.0089572006959048392 0.001955367961878258 0 -0.0086286434314918371 0.0021317113129488631 0 -0.012162398302070892 0.00029121118498252484 0 -0.012339050569539467 0.00047779756525925376 0 -0.012184177651153731 0.00057957316971642765 0 -0.012250774125400639 0.00023008717405489254 0 -0.01222159174905595 0.00024930389087147618 0 -0.012252148287779541 0.00028459497445042404 0 -0.012302701731652731 0.00025554348234391319 0 -0.012250774125400639 0.00023008717405489254 0 -0.012252148287779541 0.00028459497445042404 0 -0.012302701731652731 0.00025554348234391319 0 -0.012252148287779541 0.00028459497445042404 0 -0.012242615391142134 0.00034535192800696878 0 -0.012339050569539467 0.00047779756525925376 0 -0.012184177651153731 0.00057957316971642765 0 -0.012326950529471775 0.00065501872053767124 0 -0.0075348183593621334 0.002608543229759288 0 -0.0086286434314918371 0.0021317113129488631 0 -0.012281131990845811 0.00045506140353204912 0 -0.012314883545346645 0.00043759310830683346 0 -0.012242615391142134 0.00034535192800696878 0 -0.012467516128158858 0.00074472888227130609 0 -0.012339050569539467 0.00047779756525925376 0 -0.012326950529471775 0.00065501872053767124 0 -0.010968669403615239 0.0019407336704569721 0 -0.0075348183593621334 0.002608543229759288 0 -0.012318535075991517 0.00081992468440496204 0 -0.012467516128158858 0.00074472888227130609 0 -0.012326950529471775 0.00065501872053767124 0 -0.010968669403615239 0.0019407336704569721 0 -0.011453500230358304 0.0011836187010431183 0 -0.011791787977801556 0.00090828824482827174 0 -0.011453500230358304 0.0011836187010431183 0 -0.012318535075991517 0.00081992468440496204 0 -0.012184177651153731 0.00057957316971642765 0 -0.012326950529471775 0.00065501872053767124 0 -0.011303795580753692 0.0026800099033105328 0 -0.011916699845446433 0.0023706261363658676 0 -0.011024042006482727 0.00091815513491783974 0 -0.012114794912400495 0.00036036262347537146 0 -0.012201855180631958 0.0004299802154987503 0 -0.012203618101178277 0.00041048997468389679 0 -0.012203618101178277 0.00041048997468389679 0 -0.012224325764353183 0.00043129028007931068 0 -0.012286516550528745 0.00042301616127754212 0 -0.012203618101178277 0.00041048997468389679 0 -0.012224325764353183 0.00043129028007931068 0 -0.012219866339465006 0.00042708071975435311 0 -0.012244182795273138 0.00041412768721573633 0 -0.012224325764353183 0.00043129028007931068 0 -0.012219866339465006 0.00042708071975435311 0 -0.012201855180631958 0.0004299802154987503 0 -0.012203618101178277 0.00041048997468389679 0 -0.012219866339465006 0.00042708071975435311 0 -0.012244182795273138 0.00041412768721573633 0 -0.012201855180631958 0.0004299802154987503 0 -0.012219866339465006 0.00042708071975435311 0 -0.01145764762444691 0.0011664170971066455 0 -0.011453500230358304 0.0011836187010431183 0 -0.012265118045023917 0.00044579529241273961 0 -0.012158646156737321 0.00044709274320817145 0 -0.012173642436847385 0.00037489796893006927 0 -0.012224325764353183 0.00043129028007931068 0 -0.012265118045023917 0.00044579529241273961 0 -0.012286516550528745 0.00042301616127754212 0 -0.012224325764353183 0.00043129028007931068 0 -0.012265118045023917 0.00044579529241273961 0 -0.012173642436847385 0.00037489796893006927 0 -0.012444739803522389 0.00045206304054819571 0 -0.012265118045023917 0.00044579529241273961 0 -0.012286516550528745 0.00042301616127754212 0 -0.012444739803522389 0.00045206304054819571 0 -0.012265118045023917 0.00044579529241273961 0 -0.012158646156737321 0.00044709274320817145 0 -0.012935660118533632 0.00046473196512322208 0 -0.012444739803522389 0.00045206304054819571 0 -0.012158646156737321 0.00044709274320817145 0 -0.012935660118533632 0.00046473196512322208 0 -0.012158646156737321 0.00044709274320817145 0 -0.011520678119282399 0.00044444887780751023 0 -0.012158646156737321 0.00044709274320817145 0 -0.011991310791817752 0.00025642493253877997 0 -0.011539871091982601 0.00019801627669189286 0 -0.012158646156737321 0.00044709274320817145 0 -0.012173642436847385 0.00037489796893006927 0 -0.011991310791817752 0.00025642493253877997 0 -0.012210988967791646 0.00023420029155143257 0 -0.012173642436847385 0.00037489796893006927 0 -0.011991310791817752 0.00025642493253877997 0 -0.012210988967791646 0.00023420029155143257 0 -0.011991310791817752 0.00025642493253877997 0 -0.012138027091737927 0.00010905955284860597 0 -0.011991310791817752 0.00025642493253877997 0 -0.012138027091737927 0.00010905955284860597 0 -0.011721949581398694 -4.7260882562224472e-05 0 -0.012138027091737927 0.00010905955284860597 0 -0.011996969076929764 -0.00045004374399529453 0 -0.011721949581398694 -4.7260882562224472e-05 0 -0.007099090510848248 0.00023778673512439257 0 -0.0078547358893919922 -0.000129448099137945 0 -0.011996969076929764 -0.00045004374399529453 0 -0.011721949581398694 -4.7260882562224472e-05 0 -0.010904872330096156 -0.00049989583417655431 0 -0.011539871091982601 0.00019801627669189286 0 -0.011721949581398694 -4.7260882562224472e-05 0 -0.010904872330096156 -0.00049989583417655431 0 -0.011991310791817752 0.00025642493253877997 0 -0.011539871091982601 0.00019801627669189286 0 -0.011721949581398694 -4.7260882562224472e-05 0 -0.011539871091982601 0.00019801627669189286 0 -0.01090913538102177 0.00015234970787332745 0 -0.010904872330096156 -0.00049989583417655431 0 -0.0098319142113055969 9.736784303815301e-07 0 -0.01090913538102177 0.00015234970787332745 0 -0.010904872330096156 -0.00049989583417655431 0 -0.0098319142113055969 9.736784303815301e-07 0 -0.008433804996577185 -2.5869100858490059e-06 0 -0.010904872330096156 -0.00049989583417655431 0 -0.0098319142113055969 9.736784303815301e-07 0 -0.01090913538102177 0.00015234970787332745 0 -0.011233386042723429 5.5005705725702316e-07 0 -0.011236298202683348 4.3208656911091414e-07 0 -0.01198950764737333 0.00033853773351575522 0 -0.01090913538102177 0.00015234970787332745 0 -0.011233386042723429 5.5005705725702316e-07 0 -0.011520678119282399 0.00044444887780751023 0 -0.012158646156737321 0.00044709274320817145 0 -0.011539871091982601 0.00019801627669189286 0 -0.011520678119282399 0.00044444887780751023 0 -0.011539871091982601 0.00019801627669189286 0 -0.01090913538102177 0.00015234970787332745 0 -0.011520678119282399 0.00044444887780751023 0 -0.012168631291707145 0.00036361159027000471 0 -0.01198950764737333 0.00033853773351575522 0 -0.013741038865497426 0.00018478324729491916 0 -0.012935660118533632 0.00046473196512322208 0 -0.013427764563331095 0.00013742788034735651 0 -0.011237362252142367 -1.2995974007987691e-06 0 -0.013427764563331095 0.00013742788034735651 0 -0.013120849476530676 1.2969748655512442e-06 0 -0.013741038865497426 0.00018478324729491916 0 -0.013427764563331095 0.00013742788034735651 0 -0.013120849476530676 1.2969748655512442e-06 0 -0.0047121497624179462 0.00036186416600051264 0 -0.0048391217594979854 1.1586739511346061e-06 0 -0.0052921645208841225 0.0001256653629699589 0 -0.0047121497624179462 0.00036186416600051264 0 -0.0044934506460913085 0.00021078756020468439 0 -0.0052921645208841225 0.0001256653629699589 0 -0.0047121497624179462 0.00036186416600051264 0 -0.0043252877385923519 0.00040075305457015477 0 -0.0044380332256768887 0.00064801799157424608 0 -0.0047121497624179462 0.00036186416600051264 0 -0.0048391217594979854 1.1586739511346061e-06 0 -0.0043252877385923519 0.00040075305457015477 0 -0.0035845022509122543 0.00048540424676239908 0 -0.0044934506460913085 0.00021078756020468439 0 -0.0026829892123223539 -1.3093776886486791e-05 0 -0.0020039134730436732 0.0010786001791588627 0 -0.004465842310594755 0.0012087656303531201 0 -0.0043761243608740966 0.00090308694656521 0 -0.0047121497624179462 0.00036186416600051264 0 -0.0044380332256768887 0.00064801799157424608 0 -0.0043478151168146757 0.00052759996250276327 0 -0.0044380332256768887 0.00064801799157424608 0 -0.0042858285792634256 0.00071344918676485988 0 -0.0043761243608740966 0.00090308694656521 0 -0.0044380332256768887 0.00064801799157424608 0 -0.0042858285792634256 0.00071344918676485988 0 -0.0043478151168146757 0.00052759996250276327 0 -0.0042858285792634256 0.00071344918676485988 0 -0.0038055058887247238 0.00071552313628130452 0 -0.0043761243608740966 0.00090308694656521 0 -0.0042858285792634256 0.00071344918676485988 0 -0.0038055058887247238 0.00071552313628130452 0 -0.0043478151168146757 0.00052759996250276327 0 -0.0038055058887247238 0.00071552313628130452 0 -0.0035845022509122543 0.00048540424676239908 0 -0.0043478151168146757 0.00052759996250276327 0 -0.0035845022509122543 0.00048540424676239908 0 -0.0043478151168146757 0.00052759996250276327 0 -0.0044934506460913085 0.00021078756020468439 0 -0.0047121497624179462 0.00036186416600051264 0 -0.0043478151168146757 0.00052759996250276327 0 -0.0044934506460913085 0.00021078756020468439 0 -0.0055712446170520079 0.00053505809687338609 0 -0.0036166627441376366 0.00093669461483585276 0 -0.006000033373773579 0.00096498182160564361 0 -0.0042471616779146655 0.00084706129137622997 0 -0.0038678350226375642 0.001853053059781585 0 -0.0044934506460913085 0.00021078756020468439 0 -0.0052921645208841225 0.0001256653629699589 0 -0.0051312243591028093 -0.00058854997292218266 0 -0.0044934506460913085 0.00021078756020468439 0 -0.0051312243591028093 -0.00058854997292218266 0 -0.0026829892123223539 -1.3093776886486791e-05 0 -0.0063526749910046117 -1.743660511600266e-08 0 -0.0052921645208841225 0.0001256653629699589 0 -0.0051312243591028093 -0.00058854997292218266 0 -0.0048391217594979854 1.1586739511346061e-06 0 -0.0063526749910046117 -1.743660511600266e-08 0 -0.0052921645208841225 0.0001256653629699589 0 -0.0078678743792865696 2.432609602131081e-06 0 -0.0064947909941808395 -0.00015499533830792711 0 -0.006000033373773579 0.00096498182160564361 0 -0.0063526749910046117 -1.743660511600266e-08 0 -0.0078625838585839013 -1.50579152615193e-06 0 -0.0051312243591028093 -0.00058854997292218266 0 -0.0078617791439374394 -6.6368593044880143e-08 0 -0.0055712446170520079 0.00053505809687338609 0 -0.0078678743792865696 2.432609602131081e-06 0 -0.0084262959735721347 -3.4281265445141041e-06 0 -0.0064947909941808395 -0.00015499533830792711 0 -0.0084262959735721347 -3.4281265445141041e-06 0 -0.0064947909941808395 -0.00015499533830792711 0 -0.0053035948543971234 -0.0016282946853629161 0 -0.0084292551355030342 -3.3745401143813879e-07 0 -0.0078547358893919922 -0.000129448099137945 0 -0.0064947909941808395 -0.00015499533830792711 0 -0.0053035948543971234 -0.0016282946853629161 0 -0.0042213079810741365 -0.0001891500530720027 0 -0.006000033373773579 0.00096498182160564361 0 -0.0042471616779146655 0.00084706129137622997 0 -0.0042213079810741365 -0.0001891500530720027 0 -0.0064947909941808395 -0.00015499533830792711 0 -0.006000033373773579 0.00096498182160564361 0 -0.0042213079810741365 -0.0001891500530720027 0 -0.0042471616779146655 0.00084706129137622997 0 -0.0042213079810741365 -0.0001891500530720027 0 -0.0029838413463264039 0.00073474785445959184 0 -0.0026924256650288506 -0.0020911567665722755 0 -0.0053035948543971234 -0.0016282946853629161 0 -0.0042213079810741365 -0.0001891500530720027 0 -0.0026924256650288506 -0.0020911567665722755 0 -0.0023366600077702015 -0.00025524445701438349 0 -0.0016456891547316106 -0.0010494848362173625 0 -0.0026924256650288506 -0.0020911567665722755 0 -0.0042213079810741365 -0.0001891500530720027 0 -0.0023366600077702015 -0.00025524445701438349 0 -0.0042213079810741365 -0.0001891500530720027 0 -0.0023366600077702015 -0.00025524445701438349 0 -0.0029838413463264039 0.00073474785445959184 0 -0.0023366600077702015 -0.00025524445701438349 0 -0.0019184377574143405 0.00084052140851944874 0 -0.0014110842829349218 0.00032098120872659078 0 -0.0023366600077702015 -0.00025524445701438349 0 -0.0029838413463264039 0.00073474785445959184 0 -0.0019184377574143405 0.00084052140851944874 0 -0.0029838413463264039 0.00073474785445959184 0 -0.0019184377574143405 0.00084052140851944874 0 -0.002450269055138744 0.0015435659811698316 0 -0.0029838413463264039 0.00073474785445959184 0 -0.002450269055138744 0.0015435659811698316 0 -0.0038678350226375642 0.001853053059781585 0 -0.0019184377574143405 0.00084052140851944874 0 -0.002450269055138744 0.0015435659811698316 0 -0.0014554279444062863 0.0016729339626298464 0 -0.0042471616779146655 0.00084706129137622997 0 -0.0029838413463264039 0.00073474785445959184 0 -0.0038678350226375642 0.001853053059781585 0 -0.0020039134730436732 0.0010786001791588627 0 -0.001766356246901383 0.00122385145306825 0 -0.001270515296825685 0.00097256994641707509 0 -0.0018602636033897555 0.00012297323793851331 0 -0.0019701766430546296 -6.1812354945950055e-06 0 -0.0038055058887247238 0.00071552313628130452 0 -0.0020039134730436732 0.0010786001791588627 0 -0.0043761243608740966 0.00090308694656521 0 -0.0026829892123223539 -1.3093776886486791e-05 0 -0.0020039134730436732 0.0010786001791588627 0 -0.001766356246901383 0.00122385145306825 0 -0.0035845022509122543 0.00048540424676239908 0 -0.0026829892123223539 -1.3093776886486791e-05 0 -0.0020039134730436732 0.0010786001791588627 0 -0.0038055058887247238 0.00071552313628130452 0 -0.0035845022509122543 0.00048540424676239908 0 -0.0020039134730436732 0.0010786001791588627 0 -0.0036166627441376366 0.00093669461483585276 0 -0.0018925826595606085 0.0012204213404432714 0 -0.002450269055138744 0.0015435659811698316 0 -0.0038678350226375642 0.001853053059781585 0 -0.0020844950698951682 0.0025262115412505921 0 -0.002450269055138744 0.0015435659811698316 0 -0.0020844950698951682 0.0025262115412505921 0 -0.0014554279444062863 0.0016729339626298464 0 -0.00094924883585543302 0.0023308578515304724 0 -0.00039514116990321146 0.0017379019444884482 0 -0.0014554279444062863 0.0016729339626298464 0 -0.0020844950698951682 0.0025262115412505921 0 -0.00094924883585543302 0.0023308578515304724 0 -0.0014554279444062863 0.0016729339626298464 0 -0.00039514116990321146 0.0017379019444884482 0 0.00078157449470957457 0.0016973135076537008 0 -0.00015823897868459352 0.0024928022617267055 0 -0.00094924883585543302 0.0023308578515304724 0 -0.00039514116990321146 0.0017379019444884482 0 -0.00015823897868459352 0.0024928022617267055 0 -0.00039514116990321146 0.0017379019444884482 0 0.00024235092663765542 0.000960729995250906 0 0.00078157449470957457 0.0016973135076537008 0 -0.00039514116990321146 0.0017379019444884482 0 0.00024235092663765542 0.000960729995250906 0 -0.00081819370540274169 0.00093789882227069809 0 0.00024235092663765542 0.000960729995250906 0 -0.00023623990019645686 0.00058089230201872118 0 0.00013271289878089593 0.00023081354375065647 0 0.00024235092663765542 0.000960729995250906 0 -0.00081819370540274169 0.00093789882227069809 0 -0.00023623990019645686 0.00058089230201872118 0 -0.00081819370540274169 0.00093789882227069809 0 -0.00076285399811810582 0.00033927492700810188 0 -0.00023623990019645686 0.00058089230201872118 0 -0.00039514116990321146 0.0017379019444884482 0 -0.00081819370540274169 0.00093789882227069809 0 -0.0014554279444062863 0.0016729339626298464 0 -0.0019184377574143405 0.00084052140851944874 0 -0.00081819370540274169 0.00093789882227069809 0 -0.0014554279444062863 0.0016729339626298464 0 -0.0019184377574143405 0.00084052140851944874 0 -0.00081819370540274169 0.00093789882227069809 0 -0.0014110842829349218 0.00032098120872659078 0 -0.0014110842829349218 0.00032098120872659078 0 -0.00076285399811810582 0.00033927492700810188 0 -0.001238894401142175 -0.00026623758537192731 0 -0.00081819370540274169 0.00093789882227069809 0 -0.0014110842829349218 0.00032098120872659078 0 -0.00076285399811810582 0.00033927492700810188 0 -0.001238894401142175 -0.00026623758537192731 0 -0.00086923965622574784 -0.00069637790618426747 0 -0.0004711924652588571 -0.00015390323402426608 0 -0.00076285399811810582 0.00033927492700810188 0 -0.001238894401142175 -0.00026623758537192731 0 -0.0004711924652588571 -0.00015390323402426608 0 -0.0023366600077702015 -0.00025524445701438349 0 -0.0014110842829349218 0.00032098120872659078 0 -0.001238894401142175 -0.00026623758537192731 0 -0.001238894401142175 -0.00026623758537192731 0 -0.0016456891547316106 -0.0010494848362173625 0 -0.00086923965622574784 -0.00069637790618426747 0 -0.00045346141768285423 -0.002381373860813643 0 -0.0016456891547316106 -0.0010494848362173625 0 -0.00065957515982917943 -0.0012623667366707299 0 -0.0023366600077702015 -0.00025524445701438349 0 -0.001238894401142175 -0.00026623758537192731 0 -0.0016456891547316106 -0.0010494848362173625 0 -0.0016456891547316106 -0.0010494848362173625 0 -0.00086923965622574784 -0.00069637790618426747 0 -0.00065957515982917943 -0.0012623667366707299 0 -0.00086923965622574784 -0.00069637790618426747 0 -0.00065957515982917943 -0.0012623667366707299 0 -0.00034632957484748839 -0.00076658829189836758 0 0.00042488685813335395 -0.0017900032499969013 0 -9.85050371886422e-05 -0.0012107279066882564 0 0.0002435692984598648 -0.00054742424472919689 0 -0.0036002658298307237 0.0023438342890305251 0 -0.0019742905885378743 0.0013242052442022842 0 -0.00045346141768285423 -0.002381373860813643 0 -0.00065957515982917943 -0.0012623667366707299 0 -9.85050371886422e-05 -0.0012107279066882564 0 -9.85050371886422e-05 -0.0012107279066882564 0 -0.00034632957484748839 -0.00076658829189836758 0 0.0002435692984598648 -0.00054742424472919689 0 -0.00065957515982917943 -0.0012623667366707299 0 -9.85050371886422e-05 -0.0012107279066882564 0 -0.00034632957484748839 -0.00076658829189836758 0 -0.00086923965622574784 -0.00069637790618426747 0 -0.00034632957484748839 -0.00076658829189836758 0 -0.0004711924652588571 -0.00015390323402426608 0 -0.00034632957484748839 -0.00076658829189836758 0 0.0002435692984598648 -0.00054742424472919689 0 -0.00012370135300707777 -0.00030761438647954829 0 0.0002435692984598648 -0.00054742424472919689 0 -0.00012370135300707777 -0.00030761438647954829 0 0.00013271289878089593 0.00023081354375065647 0 -0.0019742905885378743 0.0013242052442022842 0 -0.0018680131361715729 0.001113105573600939 0 0.00026657189439589958 -0.00023590665536171531 0 0.00013271289878089593 0.00023081354375065647 0 0.0007036011081580706 6.8765638635232327e-05 0 -0.00034632957484748839 -0.00076658829189836758 0 -0.00012370135300707777 -0.00030761438647954829 0 -0.0004711924652588571 -0.00015390323402426608 0 -0.00012370135300707777 -0.00030761438647954829 0 -0.0004711924652588571 -0.00015390323402426608 0 0.00013271289878089593 0.00023081354375065647 0 -0.0004711924652588571 -0.00015390323402426608 0 -0.00023623990019645686 0.00058089230201872118 0 0.00013271289878089593 0.00023081354375065647 0 -0.00076285399811810582 0.00033927492700810188 0 -0.0004711924652588571 -0.00015390323402426608 0 -0.00023623990019645686 0.00058089230201872118 0 0.00024235092663765542 0.000960729995250906 0 0.00013271289878089593 0.00023081354375065647 0 0.00094039636777381891 0.00048527639698080877 0 0.00094039636777381891 0.00048527639698080877 0 0.0007036011081580706 6.8765638635232327e-05 0 0.0014171191061502736 -0.00016225310154320077 0 0.00013271289878089593 0.00023081354375065647 0 0.00094039636777381891 0.00048527639698080877 0 0.0007036011081580706 6.8765638635232327e-05 0 0.00026657189439589958 -0.00023590665536171531 0 0.0007036011081580706 6.8765638635232327e-05 0 0.0014171191061502736 -0.00016225310154320077 0 -0.0036002658298307237 0.0023438342890305251 0 -0.00048849514228840808 0.0022728914658792106 0 -0.0019742905885378743 0.0013242052442022842 0 -0.00048849514228840808 0.0022728914658792106 0 -0.002757792071419584 0.001806598999513534 0 -0.0028450738748131738 0.0024400449298021729 0 -0.001903099903633032 0.0023613200773963351 0 -0.0012417401894763279 0.0063397171895448624 0 -0.0016183876191075428 0.0063800833261073234 0 -0.00097433854087175119 0.0068002745204486462 0 -0.00082640673947133325 0.0063481582250314783 0 -0.00097433854087175119 0.0068002745204486462 0 -0.00015573372092781703 0.0067286277672545924 0 -0.00048849514228840808 0.0022728914658792106 0 0.00065846412796726178 0.0031216397808182007 0 -0.00082640673947133325 0.0063481582250314783 0 -0.0012417401894763279 0.0063397171895448624 0 -0.00097433854087175119 0.0068002745204486462 0 -0.00048849514228840808 0.0022728914658792106 0 0.00050182171738471408 0.0020555517957467555 0 0.0014171191061502736 -0.00016225310154320077 0 0.0016373441861028651 0.00078826002208556899 0 0.0021581943302156686 0.00069340412654246 0 0.00094039636777381891 0.00048527639698080877 0 0.0014171191061502736 -0.00016225310154320077 0 0.0016373441861028651 0.00078826002208556899 0 0.0016373441861028651 0.00078826002208556899 0 0.0010987657593037577 0.0010523441144791445 0 0.001672303210300174 0.0013612996997957112 0 0.0016373441861028651 0.00078826002208556899 0 0.001672303210300174 0.0013612996997957112 0 0.002010777937623874 0.0011929421584066925 0 0.00094039636777381891 0.00048527639698080877 0 0.0016373441861028651 0.00078826002208556899 0 0.0010987657593037577 0.0010523441144791445 0 0.00024235092663765542 0.000960729995250906 0 0.0010987657593037577 0.0010523441144791445 0 0.00078157449470957457 0.0016973135076537008 0 0.00024235092663765542 0.000960729995250906 0 0.00094039636777381891 0.00048527639698080877 0 0.0010987657593037577 0.0010523441144791445 0 0.00078157449470957457 0.0016973135076537008 0 0.001672303210300174 0.0013612996997957112 0 0.0018649129723761473 0.0017218448153147189 0 0.0010987657593037577 0.0010523441144791445 0 0.00078157449470957457 0.0016973135076537008 0 0.001672303210300174 0.0013612996997957112 0 0.001672303210300174 0.0013612996997957112 0 0.0020072817151454191 0.0014785960262948146 0 0.0018649129723761473 0.0017218448153147189 0 0.001672303210300174 0.0013612996997957112 0 0.0020072817151454191 0.0014785960262948146 0 0.002010777937623874 0.0011929421584066925 0 0.0020072817151454191 0.0014785960262948146 0 0.0021496828312824253 0.0012426324433930964 0 0.002202130802084088 0.0012233729266428964 0 0.0020072817151454191 0.0014785960262948146 0 0.0018649129723761473 0.0017218448153147189 0 0.0021496828312824253 0.0012426324433930964 0 0.0018649129723761473 0.0017218448153147189 0 0.0022604614459610949 0.0012032321820464843 0 0.00244800684144929 0.0012658164003398027 0 0.00078157449470957457 0.0016973135076537008 0 0.0018649129723761473 0.0017218448153147189 0 0.00060056995687872232 0.0027286410387210407 0 0.00090173817840762127 0.0014290479192579015 0 0.00068720492229446429 0.0014093216659076021 0 0.0022604614459610949 0.0012032321820464843 0 0.0024425810966672004 0.0010037960783057986 0 0.00244800684144929 0.0012658164003398027 0 0.0018649129723761473 0.0017218448153147189 0 0.0022604614459610949 0.0012032321820464843 0 0.0021496828312824253 0.0012426324433930964 0 0.0022604614459610949 0.0012032321820464843 0 0.0024082968175929737 0.00098530361124990582 0 0.0021496828312824253 0.0012426324433930964 0 0.0022604614459610949 0.0012032321820464843 0 0.0024082968175929737 0.00098530361124990582 0 0.0024425810966672004 0.0010037960783057986 0 0.0024082968175929737 0.00098530361124990582 0 0.0021496828312824253 0.0012426324433930964 0 0.0023827793053874872 0.0010058706842383362 0 0.0021496828312824253 0.0012426324433930964 0 0.0023827793053874872 0.0010058706842383362 0 0.002202130802084088 0.0012233729266428964 0 0.0023827793053874872 0.0010058706842383362 0 0.0025916248815487696 0.00085979274909439433 0 0.0023686001716922652 0.00095456177440506843 0 0.0025896891289447057 0.00067699541729926438 0 0.0025916248815487696 0.00085979274909439433 0 0.0023686001716922652 0.00095456177440506843 0 0.0024082968175929737 0.00098530361124990582 0 0.0025916248815487696 0.00085979274909439433 0 0.0024819684392926545 0.00084544512918868742 0 0.0024082968175929737 0.00098530361124990582 0 0.0023827793053874872 0.0010058706842383362 0 0.0025916248815487696 0.00085979274909439433 0 0.0025916248815487696 0.00085979274909439433 0 0.0024819684392926545 0.00084544512918868742 0 0.002449079691992023 0.00089433656114276758 0 0.0028624708312235147 0.00063445729379094876 0 0.0025916248815487696 0.00085979274909439433 0 0.0030475875935555871 0.00067564914295719931 0 0.0026003069228907232 0.00072432804811360999 0 0.0026164808493918845 0.00068534772419260313 0 0.0026164808493918845 0.00068534772419260313 0 0.0025032802969283275 0.00058554324767997852 0 0.0024819684392926545 0.00084544512918868742 0 0.002449079691992023 0.00089433656114276758 0 0.0022753241658190031 0.00066988531911154649 0 0.002449079691992023 0.00089433656114276758 0 0.0022753241658190031 0.00066988531911154649 0 0.002025439937342193 0.00071871978797919279 0 0.0024819684392926545 0.00084544512918868742 0 0.0022753241658190031 0.00066988531911154649 0 0.0023890510382353785 0.0007047015853295927 0 0.0023890510382353785 0.0007047015853295927 0 0.0024556544156465383 0.000739391361299546 0 0.0021241575311433981 0.0003234391235127132 0 0.0023890510382353785 0.0007047015853295927 0 0.0025141607431584329 0.0008872042906487497 0 0.0024556544156465383 0.000739391361299546 0 0.0024082968175929737 0.00098530361124990582 0 0.0024819684392926545 0.00084544512918868742 0 0.0024425810966672004 0.0010037960783057986 0 0.0024819684392926545 0.00084544512918868742 0 0.0023890510382353785 0.0007047015853295927 0 0.0025141607431584329 0.0008872042906487497 0 0.0024819684392926545 0.00084544512918868742 0 0.0024425810966672004 0.0010037960783057986 0 0.0025141607431584329 0.0008872042906487497 0 0.00068720492229446429 0.0014093216659076021 0 3.3155313286122837e-05 0.0013133473581912463 0 0.0025141607431584329 0.0008872042906487497 0 0.00244800684144929 0.0012658164003398027 0 0.0025837676608518752 0.00093098214425593176 0 0.00060056995687872232 0.0027286410387210407 0 -0.00015823897868459352 0.0024928022617267055 0 -0.00060755445386469122 0.0032574631211613018 0 0.00012568249856893015 0.0013501444474108219 0 3.3155313286122837e-05 0.0013133473581912463 0 0.0024425810966672004 0.0010037960783057986 0 0.0025141607431584329 0.0008872042906487497 0 0.00244800684144929 0.0012658164003398027 0 0.00078157449470957457 0.0016973135076537008 0 0.00060056995687872232 0.0027286410387210407 0 -0.00015823897868459352 0.0024928022617267055 0 3.3155313286122837e-05 0.0013133473581912463 0 0.00028762048998887786 0.00079695244586519434 0 -0.0018925826595606085 0.0012204213404432714 0 3.3155313286122837e-05 0.0013133473581912463 0 -0.0020844950698951682 0.0025262115412505921 0 -0.00094924883585543302 0.0023308578515304724 0 -0.00060755445386469122 0.0032574631211613018 0 -0.00094924883585543302 0.0023308578515304724 0 -0.00015823897868459352 0.0024928022617267055 0 -0.00060755445386469122 0.0032574631211613018 0 -0.001766356246901383 0.00122385145306825 0 -0.0025707351509898714 0.00060242703877310809 0 -0.0016722935950388325 0.00029855603480466865 0 -0.001766356246901383 0.00122385145306825 0 -0.001270515296825685 0.00097256994641707509 0 -0.0016722935950388325 0.00029855603480466865 0 -0.001270515296825685 0.00097256994641707509 0 -0.00026377612613398993 0.00057798319519640831 0 -0.0016722935950388325 0.00029855603480466865 0 -0.0020039134730436732 0.0010786001791588627 0 -0.001270515296825685 0.00097256994641707509 0 0.0003502700330230098 0.0012993379055631854 0 -0.001270515296825685 0.00097256994641707509 0 -0.00026377612613398993 0.00057798319519640831 0 -3.8883403013184369e-05 0.00087131880790444218 0 0.00028762048998887786 0.00079695244586519434 0 0.00058166157606597728 0.0005886946250793513 0 -0.00026377612613398993 0.00057798319519640831 0 -0.0016722935950388325 0.00029855603480466865 0 0.001152998042291617 3.0445674501336641e-05 0 0.0021241575311433981 0.0003234391235127132 0 0.0019257041940430153 0.00046628840041108128 0 0.001152998042291617 3.0445674501336641e-05 0 0.0022753241658190031 0.00066988531911154649 0 0.0023890510382353785 0.0007047015853295927 0 0.0021241575311433981 0.0003234391235127132 0 0.0022753241658190031 0.00066988531911154649 0 0.0021241575311433981 0.0003234391235127132 0 0.0019257041940430153 0.00046628840041108128 0 0.0022753241658190031 0.00066988531911154649 0 0.002025439937342193 0.00071871978797919279 0 0.0019257041940430153 0.00046628840041108128 0 0.0031029682413839842 0.00052663137601541548 0 0.0030475875935555871 0.00067564914295719931 0 0.0030356722956684777 0.00036153261114860212 0 0.0030356722956684777 0.00036153261114860212 0 0.0020425589834870187 0.00027432107005007068 0 0.0024732670786422411 0.00038933217390855373 0 0.0027944048354331947 0.00045900008384329953 0 0.0030356722956684777 0.00036153261114860212 0 0.0024732670786422411 0.00038933217390855373 0 0.0031029682413839842 0.00052663137601541548 0 0.0027944048354331947 0.00045900008384329953 0 0.0030356722956684777 0.00036153261114860212 0 0.0025032802969283275 0.00058554324767997852 0 0.0023521341680629239 0.00051824193051345255 0 0.002025439937342193 0.00071871978797919279 0 0.0019257041940430153 0.00046628840041108128 0 0.0017269803745730821 0.00027613640368734702 0 0.002025439937342193 0.00071871978797919279 0 0.0017269803745730821 0.00027613640368734702 0 0.0020425589834870187 0.00027432107005007068 0 0.0020425589834870187 0.00027432107005007068 0 0.00220482708653158 0.00034495214441358215 0 0.0013728693096730221 -1.5907099751362974e-05 0 9.1261153656253824e-05 0.00021028259508927894 0 -0.00078598358402498026 1.2708791061521373e-05 0 0.0017269803745730821 0.00027613640368734702 0 0.0020425589834870187 0.00027432107005007068 0 0.0013728693096730221 -1.5907099751362974e-05 0 0.0020425589834870187 0.00027432107005007068 0 0.0024732670786422411 0.00038933217390855373 0 0.00220482708653158 0.00034495214441358215 0 0.0026111941270692395 0.00038567420614649014 0 0.0024732670786422411 0.00038933217390855373 0 0.00220482708653158 0.00034495214441358215 0 0.0027944048354331947 0.00045900008384329953 0 0.0026111941270692395 0.00038567420614649014 0 0.0024732670786422411 0.00038933217390855373 0 0.0028625992362565286 0.00031769916865191872 0 0.0026111941270692395 0.00038567420614649014 0 0.00220482708653158 0.00034495214441358215 0 0.00073821194938257604 0.00040096042536680109 0 9.1261153656253824e-05 0.00021028259508927894 0 0.00080410494921628753 -5.3066030632721429e-07 0 -0.0011197517089007931 6.2917674975557523e-05 0 -0.0012622271429371186 8.9457467376707664e-07 0 -0.0012622271429371186 8.9457467376707664e-07 0 -0.0016585537807490222 0.0001372568410969269 0 -0.0033245038367724199 -1.1273584439489095e-06 0 -0.0011197517089007931 6.2917674975557523e-05 0 -0.0016585537807490222 0.0001372568410969269 0 -0.0019500044690806482 0.00020326561166699822 0 -0.0011197517089007931 6.2917674975557523e-05 0 -0.0012622271429371186 8.9457467376707664e-07 0 -0.0016585537807490222 0.0001372568410969269 0 -0.0016585537807490222 0.0001372568410969269 0 -0.0019500044690806482 0.00020326561166699822 0 -0.0033245038367724199 -1.1273584439489095e-06 0 0.0019257041940430153 0.00046628840041108128 0 0.0017269803745730821 0.00027613640368734702 0 0.001152998042291617 3.0445674501336641e-05 0 0.0017269803745730821 0.00027613640368734702 0 0.001152998042291617 3.0445674501336641e-05 0 0.0013728693096730221 -1.5907099751362974e-05 0 -0.00026377612613398993 0.00057798319519640831 0 0.001152998042291617 3.0445674501336641e-05 0 0.00057362400460923694 0.00053761181555979679 0 0.0013728693096730221 -1.5907099751362974e-05 0 0.00057362400460923694 0.00053761181555979679 0 0.00053999216988966255 0.00075549775654997495 0 0.001152998042291617 3.0445674501336641e-05 0 0.0013728693096730221 -1.5907099751362974e-05 0 0.00057362400460923694 0.00053761181555979679 0 -0.001270515296825685 0.00097256994641707509 0 -3.8883403013184369e-05 0.00087131880790444218 0 0.0003502700330230098 0.0012993379055631854 0 0.0013728693096730221 -1.5907099751362974e-05 0 0.00053999216988966255 0.00075549775654997495 0 0.0003502700330230098 0.0012993379055631854 0 -0.00078598358402498026 1.2708791061521373e-05 0 -0.0019701766430546296 -6.1812354945950055e-06 0 -0.00026377612613398993 0.00057798319519640831 0 0.00057362400460923694 0.00053761181555979679 0 -3.8883403013184369e-05 0.00087131880790444218 0 0.00053999216988966255 0.00075549775654997495 0 -3.8883403013184369e-05 0.00087131880790444218 0 0.0003502700330230098 0.0012993379055631854 0 0.00057362400460923694 0.00053761181555979679 0 0.00053999216988966255 0.00075549775654997495 0 -3.8883403013184369e-05 0.00087131880790444218 0 -0.0019701766430546296 -6.1812354945950055e-06 0 -0.0019833339668747889 1.0593326870629586e-05 0 -0.0043252877385923519 0.00040075305457015477 0 -0.0044380332256768887 0.00064801799157424608 0 -0.0045103275190037807 0.00066281499226886502 0 -0.0044380332256768887 0.00064801799157424608 0 -0.0045103275190037807 0.00066281499226886502 0 -0.0043761243608740966 0.00090308694656521 0 -0.0048391217594979854 1.1586739511346061e-06 0 -0.0043252877385923519 0.00040075305457015477 0 -0.0033298892467969908 -2.0307092830982065e-07 0 -0.0019701766430546296 -6.1812354945950055e-06 0 -0.0033262062722382948 5.1114159643758958e-07 0 -0.0019500044690806482 0.00020326561166699822 0 -0.0018135048587820304 -0.00090921415683820463 0 -0.0033245038367724199 -1.1273584439489095e-06 0 -0.0043252877385923519 0.00040075305457015477 0 -0.0045103275190037807 0.00066281499226886502 0 -0.0033298892467969908 -2.0307092830982065e-07 0 0.00037706850068817239 0.0043233792543166602 0 0.0008371254475485338 0.0032677962491083601 0 8.9376929940803215e-05 0.0036058569616795912 0 0.00037706850068817239 0.0043233792543166602 0 -0.0004598910832199377 0.0043351005860570967 0 -0.00012253767853030509 0.0049361536367893508 0 0.00037706850068817239 0.0043233792543166602 0 8.9376929940803215e-05 0.0036058569616795912 0 -0.0004598910832199377 0.0043351005860570967 0 0.00037706850068817239 0.0043233792543166602 0 0.00099057047288390681 0.0041045850905371091 0 0.0008371254475485338 0.0032677962491083601 0 0.00037706850068817239 0.0043233792543166602 0 0.00099057047288390681 0.0041045850905371091 0 0.00083424320012272701 0.004785861399159777 0 0.0008371254475485338 0.0032677962491083601 0 8.9376929940803215e-05 0.0036058569616795912 0 0.00027048129252461839 0.0027146034992533118 0 8.9376929940803215e-05 0.0036058569616795912 0 -0.00065391289437368122 0.0030446332210395041 0 0.00027048129252461839 0.0027146034992533118 0 -0.00065391289437368122 0.0030446332210395041 0 -0.00053814303280436007 0.0037409741312493601 0 -0.0011746029610162109 0.0039800734977825181 0 8.9376929940803215e-05 0.0036058569616795912 0 -0.00065391289437368122 0.0030446332210395041 0 -0.00053814303280436007 0.0037409741312493601 0 -0.00065391289437368122 0.0030446332210395041 0 -0.0014978467626324049 0.0033867583483403654 0 -0.0011746029610162109 0.0039800734977825181 0 -0.0014978467626324049 0.0033867583483403654 0 -0.0018163340881941889 0.0028857422738785147 0 -0.0022268023033811769 0.003428320226162203 0 -0.00065391289437368122 0.0030446332210395041 0 -0.0014978467626324049 0.0033867583483403654 0 -0.0012360900484363144 0.002822528389171043 0 -0.0014978467626324049 0.0033867583483403654 0 -0.0018163340881941889 0.0028857422738785147 0 -0.0012360900484363144 0.002822528389171043 0 -0.0014978467626324049 0.0033867583483403654 0 -0.0020116755286370613 0.0040153279821226392 0 -0.0011746029610162109 0.0039800734977825181 0 -0.0014978467626324049 0.0033867583483403654 0 -0.0020116755286370613 0.0040153279821226392 0 -0.0022268023033811769 0.003428320226162203 0 -0.0020116755286370613 0.0040153279821226392 0 -0.0011746029610162109 0.0039800734977825181 0 -0.0019435116160751097 0.0046034011484982398 0 -0.0011746029610162109 0.0039800734977825181 0 -0.0019435116160751097 0.0046034011484982398 0 -0.0012737496919669434 0.0047596708875097095 0 8.9376929940803215e-05 0.0036058569616795912 0 -0.00053814303280436007 0.0037409741312493601 0 -0.0004598910832199377 0.0043351005860570967 0 -0.00053814303280436007 0.0037409741312493601 0 -0.0011746029610162109 0.0039800734977825181 0 -0.0004598910832199377 0.0043351005860570967 0 -0.0011746029610162109 0.0039800734977825181 0 -0.0004598910832199377 0.0043351005860570967 0 -0.0012737496919669434 0.0047596708875097095 0 -0.0004598910832199377 0.0043351005860570967 0 -0.00067474366749781288 0.0050173373420618339 0 -0.00012253767853030509 0.0049361536367893508 0 -0.0004598910832199377 0.0043351005860570967 0 -0.00067474366749781288 0.0050173373420618339 0 -0.0012737496919669434 0.0047596708875097095 0 -0.00067474366749781288 0.0050173373420618339 0 -0.001220277295767032 0.0055889744400949752 0 -0.00041739662098406603 0.005410614466210684 0 -0.00067474366749781288 0.0050173373420618339 0 -0.00041739662098406603 0.005410614466210684 0 -0.00012253767853030509 0.0049361536367893508 0 -0.0019435116160751097 0.0046034011484982398 0 -0.0019219491079307208 0.0050747454900357076 0 -0.0012737496919669434 0.0047596708875097095 0 -0.00067474366749781288 0.0050173373420618339 0 -0.0012737496919669434 0.0047596708875097095 0 -0.001220277295767032 0.0055889744400949752 0 -0.0019219491079307208 0.0050747454900357076 0 -0.0012737496919669434 0.0047596708875097095 0 -0.001220277295767032 0.0055889744400949752 0 -0.0019219491079307208 0.0050747454900357076 0 -0.001220277295767032 0.0055889744400949752 0 -0.0022333827868494609 0.0055865088442520992 0 -0.00046841985799437572 0.0072009996685837973 0 -0.001220277295767032 0.0055889744400949752 0 -0.0020353873299158191 0.0064746935608055592 0 -0.001220277295767032 0.0055889744400949752 0 -0.0020353873299158191 0.0064746935608055592 0 -0.0022333827868494609 0.0055865088442520992 0 -0.0017120573143644712 0.0063439962076400729 0 -0.0016268484997557144 0.0061462148335380048 0 -0.00033765239748856721 0.0058316908431733398 0 -0.001220277295767032 0.0055889744400949752 0 -0.0005229228195142697 0.0056331422727750975 0 -0.001220277295767032 0.0055889744400949752 0 -0.00041739662098406603 0.005410614466210684 0 -0.0005229228195142697 0.0056331422727750975 0 -0.00041739662098406603 0.005410614466210684 0 -0.0005229228195142697 0.0056331422727750975 0 -0.00016023882831986601 0.0056555455176863839 0 -0.00033765239748856721 0.0058316908431733398 0 -0.0005229228195142697 0.0056331422727750975 0 -0.00016023882831986601 0.0056555455176863839 0 -0.00016023882831986601 0.0056555455176863839 0 0.00017272681430721243 0.005614635454506153 0 5.9367968182262439e-05 0.0053651915428960173 0 0.00017272681430721243 0.005614635454506153 0 5.9367968182262439e-05 0.0053651915428960173 0 0.0004434474661269313 0.0054903250989352635 0 5.9367968182262439e-05 0.0053651915428960173 0 0.00040754763082242887 0.0050492785740299745 0 0.0004434474661269313 0.0054903250989352635 0 -0.00041739662098406603 0.005410614466210684 0 -0.00016023882831986601 0.0056555455176863839 0 5.9367968182262439e-05 0.0053651915428960173 0 -0.00041739662098406603 0.005410614466210684 0 5.9367968182262439e-05 0.0053651915428960173 0 -0.00012253767853030509 0.0049361536367893508 0 0.00037706850068817239 0.0043233792543166602 0 -0.00012253767853030509 0.0049361536367893508 0 0.00040754763082242887 0.0050492785740299745 0 5.9367968182262439e-05 0.0053651915428960173 0 -0.00012253767853030509 0.0049361536367893508 0 0.00040754763082242887 0.0050492785740299745 0 0.00037706850068817239 0.0043233792543166602 0 0.00083424320012272701 0.004785861399159777 0 0.00040754763082242887 0.0050492785740299745 0 0.00083424320012272701 0.004785861399159777 0 0.00040754763082242887 0.0050492785740299745 0 0.00074300591301923815 0.0052949206057068786 0 0.00040754763082242887 0.0050492785740299745 0 0.00074300591301923815 0.0052949206057068786 0 0.0004434474661269313 0.0054903250989352635 0 0.00071087400935809797 0.0056459034625506365 0 0.00074300591301923815 0.0052949206057068786 0 0.0004434474661269313 0.0054903250989352635 0 0.00071087400935809797 0.0056459034625506365 0 0.00074300591301923815 0.0052949206057068786 0 0.00098195865534768671 0.0055191402953892292 0 0.00074300591301923815 0.0052949206057068786 0 0.00098195865534768671 0.0055191402953892292 0 0.0010379809202158 0.0051021372055992092 0 0.00098195865534768671 0.0055191402953892292 0 0.0013542044303181038 0.0051563727981630324 0 0.0010379809202158 0.0051021372055992092 0 0.00098195865534768671 0.0055191402953892292 0 0.001200589139054914 0.0054527861762043847 0 0.0013542044303181038 0.0051563727981630324 0 0.00098195865534768671 0.0055191402953892292 0 0.0010801452449665757 0.0056665150031595668 0 0.001200589139054914 0.0054527861762043847 0 0.00087963863536551278 0.0058039888509552546 0 0.00098195865534768671 0.0055191402953892292 0 0.0010801452449665757 0.0056665150031595668 0 0.00088291937724267668 0.0059400895023384954 0 0.0010801452449665757 0.0056665150031595668 0 0.0014833865344308036 0.0054489320595786997 0 0.0010801452449665757 0.0056665150031595668 0 0.0014833865344308036 0.0054489320595786997 0 0.0014186926045103936 0.0054517851246368588 0 0.0010801452449665757 0.0056665150031595668 0 0.001200589139054914 0.0054527861762043847 0 0.0014186926045103936 0.0054517851246368588 0 0.00073098476997595968 0.0043028812898352935 0 0.00073116829507031142 0.0037593893033224441 0 0.00088291937724267668 0.0059400895023384954 0 0.00083412060153382388 0.0066394137994946539 0 0.00028528843111087505 0.006339588109486061 0 0.00073116829507031142 0.0037593893033224441 0 0.00073646568595785915 0.0037628516523722393 0 0.001200589139054914 0.0054527861762043847 0 0.0014186926045103936 0.0054517851246368588 0 0.0013542044303181038 0.0051563727981630324 0 0.0015493929354456742 0.005438032627703638 0 0.0014186926045103936 0.0054517851246368588 0 0.0013542044303181038 0.0051563727981630324 0 0.00073116829507031142 0.0037593893033224441 0 0.0015106052080479449 0.0026729000545356882 0 0.0015493929354456742 0.005438032627703638 0 0.0013542044303181038 0.0051563727981630324 0 0.0020670605898641908 0.0043826859585484748 0 0.0013542044303181038 0.0051563727981630324 0 0.0013588931582279751 0.0045840445431857531 0 0.0020670605898641908 0.0043826859585484748 0 0.0025158857986371762 0.00047734275487107213 0 0.0023326431535669241 0.00066454033356373743 0 0.0025035724145894486 0.00084184184218454386 0 0.00099057047288390681 0.0041045850905371091 0 0.00083424320012272701 0.004785861399159777 0 0.0013588931582279751 0.0045840445431857531 0 0.00083424320012272701 0.004785861399159777 0 0.00074300591301923815 0.0052949206057068786 0 0.0010379809202158 0.0051021372055992092 0 0.00083424320012272701 0.004785861399159777 0 0.0013588931582279751 0.0045840445431857531 0 0.0010379809202158 0.0051021372055992092 0 0.0013542044303181038 0.0051563727981630324 0 0.0013588931582279751 0.0045840445431857531 0 0.0010379809202158 0.0051021372055992092 0 -0.00013795344941964322 0.0062567577898378609 0 -0.00082640673947133325 0.0063481582250314783 0 -0.00015573372092781703 0.0067286277672545924 0 0.00083412060153382388 0.0066394137994946539 0 -0.00015573372092781703 0.0067286277672545924 0 0.00028528843111087505 0.006339588109486061 0 0.00073116829507031142 0.0037593893033224441 0 0.00065846412796726178 0.0031216397808182007 0 0.0025158857986371762 0.00047734275487107213 0 0.002176255174799243 0.00051193702274785174 0 0.0023326431535669241 0.00066454033356373743 0 -0.00013795344941964322 0.0062567577898378609 0 -0.00015573372092781703 0.0067286277672545924 0 0.00028528843111087505 0.006339588109486061 0 0.0018926754916711963 0.00053929657139442731 0 0.002176255174799243 0.00051193702274785174 0 0.0021581943302156686 0.00069340412654246 0 0.002176255174799243 0.00051193702274785174 0 0.0023326431535669241 0.00066454033356373743 0 0.0021581943302156686 0.00069340412654246 0 0.0016373441861028651 0.00078826002208556899 0 0.0021581943302156686 0.00069340412654246 0 0.002010777937623874 0.0011929421584066925 0 0.0021581943302156686 0.00069340412654246 0 0.0022723876811908887 0.0010196447213048196 0 0.002010777937623874 0.0011929421584066925 0 0.0023326431535669241 0.00066454033356373743 0 0.0021581943302156686 0.00069340412654246 0 0.0022723876811908887 0.0010196447213048196 0 0.0022723876811908887 0.0010196447213048196 0 0.0025035724145894486 0.00084184184218454386 0 0.0023815781930939454 0.0012101591374841505 0 0.0023326431535669241 0.00066454033356373743 0 0.0022723876811908887 0.0010196447213048196 0 0.0025035724145894486 0.00084184184218454386 0 0.0022723876811908887 0.0010196447213048196 0 0.0023815781930939454 0.0012101591374841505 0 0.0021769261542793632 0.0013533499407559556 0 0.0022723876811908887 0.0010196447213048196 0 0.002010777937623874 0.0011929421584066925 0 0.0021769261542793632 0.0013533499407559556 0 0.0020072817151454191 0.0014785960262948146 0 0.002010777937623874 0.0011929421584066925 0 0.0021769261542793632 0.0013533499407559556 0 0.00099057047288390681 0.0041045850905371091 0 0.0013588931582279751 0.0045840445431857531 0 0.0015547562051192096 0.0036652855555590301 0 0.0020670605898641908 0.0043826859585484748 0 0.0023723726737357714 0.0031599301440835038 0 0.0015547562051192096 0.0036652855555590301 0 0.0015106052080479449 0.0026729000545356882 0 0.0019018984387829845 0.0021245387164756414 0 0.0013588931582279751 0.0045840445431857531 0 0.0020670605898641908 0.0043826859585484748 0 0.0015547562051192096 0.0036652855555590301 0 0.0023723726737357714 0.0031599301440835038 0 0.0015547562051192096 0.0036652855555590301 0 0.0016661374119895155 0.002388013785456515 0 0.0008371254475485338 0.0032677962491083601 0 0.0015547562051192096 0.0036652855555590301 0 0.0016661374119895155 0.002388013785456515 0 0.00099057047288390681 0.0041045850905371091 0 0.0008371254475485338 0.0032677962491083601 0 0.0015547562051192096 0.0036652855555590301 0 0.0019018984387829845 0.0021245387164756414 0 0.0020683470662997204 0.0017021166550106031 0 0.0023723726737357714 0.0031599301440835038 0 0.0016661374119895155 0.002388013785456515 0 0.002432962872691566 0.0019523289997575239 0 0.0016661374119895155 0.002388013785456515 0 0.0019571489429016618 0.0015058667222152217 0 0.002432962872691566 0.0019523289997575239 0 0.0019571489429016618 0.0015058667222152217 0 0.002432962872691566 0.0019523289997575239 0 0.0022086659818844273 0.0010523717574160622 0 0.0020683470662997204 0.0017021166550106031 0 0.0021098279791332848 0.0014811027966209985 0 0.0016661374119895155 0.002388013785456515 0 0.0019571489429016618 0.0015058667222152217 0 0.0015075200965307823 0.001540926327532191 0 0.0016661374119895155 0.002388013785456515 0 0.0015075200965307823 0.001540926327532191 0 0.00098259493254568091 0.0021285671943626519 0 0.0020072817151454191 0.0014785960262948146 0 0.0021769261542793632 0.0013533499407559556 0 0.002202130802084088 0.0012233729266428964 0 0.0023815781930939454 0.0012101591374841505 0 0.0022015129710617771 0.0012904586417667886 0 0.0021769261542793632 0.0013533499407559556 0 0.0022015129710617771 0.0012904586417667886 0 0.0022290959789170823 0.00118883781120381 0 0.0022086659818844273 0.0010523717574160622 0 0.0022015129710617771 0.0012904586417667886 0 0.0021769261542793632 0.0013533499407559556 0 0.0022290959789170823 0.00118883781120381 0 0.0021769261542793632 0.0013533499407559556 0 0.0022290959789170823 0.00118883781120381 0 0.002202130802084088 0.0012233729266428964 0 0.0023827793053874872 0.0010058706842383362 0 0.002202130802084088 0.0012233729266428964 0 0.0023686001716922652 0.00095456177440506843 0 0.0022290959789170823 0.00118883781120381 0 0.002202130802084088 0.0012233729266428964 0 0.0023686001716922652 0.00095456177440506843 0 0.0022290959789170823 0.00118883781120381 0 0.0023686001716922652 0.00095456177440506843 0 0.0022086659818844273 0.0010523717574160622 0 0.0024223109923296065 0.00066054949238314204 0 0.0023686001716922652 0.00095456177440506843 0 0.0022086659818844273 0.0010523717574160622 0 0.0020067134544243582 0.00060186261923790552 0 0.0024223109923296065 0.00066054949238314204 0 0.0022086659818844273 0.0010523717574160622 0 0.0024223109923296065 0.00066054949238314204 0 0.0025896891289447057 0.00067699541729926438 0 0.0023686001716922652 0.00095456177440506843 0 0.0015075200965307823 0.001540926327532191 0 0.001784683207819076 0.00099010348443380339 0 0.0011237885802874131 0.0011637682315715514 0 0.0019571489429016618 0.0015058667222152217 0 0.0015075200965307823 0.001540926327532191 0 0.001784683207819076 0.00099010348443380339 0 0.001784683207819076 0.00099010348443380339 0 0.0014125169264352481 0.00061507292230571654 0 0.0011237885802874131 0.0011637682315715514 0 0.0019571489429016618 0.0015058667222152217 0 0.001784683207819076 0.00099010348443380339 0 0.0022086659818844273 0.0010523717574160622 0 0.0020067134544243582 0.00060186261923790552 0 0.001784683207819076 0.00099010348443380339 0 0.0022086659818844273 0.0010523717574160622 0 0.0020067134544243582 0.00060186261923790552 0 0.001784683207819076 0.00099010348443380339 0 0.0014125169264352481 0.00061507292230571654 0 0.0014044991102911263 0.00036118599498319721 0 0.0014125169264352481 0.00061507292230571654 0 0.0011932824590055733 0.00032933783259513798 0 0.0014125169264352481 0.00061507292230571654 0 0.0011932824590055733 0.00032933783259513798 0 0.00091636889612833471 0.0005880540357928399 0 0.0011932824590055733 0.00032933783259513798 0 0.00088636128910890935 0.0001197771915373332 0 0.00091636889612833471 0.0005880540357928399 0 0.0011615073123034203 0.00018883910660877606 0 0.0011932824590055733 0.00032933783259513798 0 0.00088636128910890935 0.0001197771915373332 0 0.00088636128910890935 0.0001197771915373332 0 0.00091636889612833471 0.0005880540357928399 0 0.00049030300718636748 0.00042391674830079956 0 0.00091636889612833471 0.0005880540357928399 0 0.0005314742455822726 0.0010550753449837355 0 0.0011237885802874131 0.0011637682315715514 0 0.00091636889612833471 0.0005880540357928399 0 0.0005314742455822726 0.0010550753449837355 0 0.00049030300718636748 0.00042391674830079956 0 0.0014125169264352481 0.00061507292230571654 0 0.00091636889612833471 0.0005880540357928399 0 0.0011237885802874131 0.0011637682315715514 0 0.0015075200965307823 0.001540926327532191 0 0.0011237885802874131 0.0011637682315715514 0 0.00098259493254568091 0.0021285671943626519 0 0.0011237885802874131 0.0011637682315715514 0 0.00045384069577397132 0.0017991282216594767 0 0.00098259493254568091 0.0021285671943626519 0 0.0005314742455822726 0.0010550753449837355 0 0.0011237885802874131 0.0011637682315715514 0 0.00045384069577397132 0.0017991282216594767 0 0.0005314742455822726 0.0010550753449837355 0 0.00045384069577397132 0.0017991282216594767 0 3.6060990029372723e-05 0.001518947933350687 0 0.00045384069577397132 0.0017991282216594767 0 -0.00021202618851063167 0.0022890576244112347 0 3.6060990029372723e-05 0.001518947933350687 0 0.00045384069577397132 0.0017991282216594767 0 0.00027048129252461839 0.0027146034992533118 0 -0.00021202618851063167 0.0022890576244112347 0 0.00045384069577397132 0.0017991282216594767 0 0.00027048129252461839 0.0027146034992533118 0 0.00098259493254568091 0.0021285671943626519 0 0.0008371254475485338 0.0032677962491083601 0 0.00027048129252461839 0.0027146034992533118 0 0.00098259493254568091 0.0021285671943626519 0 0.0008371254475485338 0.0032677962491083601 0 0.0016661374119895155 0.002388013785456515 0 0.00098259493254568091 0.0021285671943626519 0 -0.0014441408005289361 0.0023816339988360089 0 -0.0010962962030673488 0.0018220561934242071 0 -0.0017267967175816985 0.0018676917530999829 0 -0.0014441408005289361 0.0023816339988360089 0 -0.00084122187772354235 0.0023721174374316274 0 -0.0010962962030673488 0.0018220561934242071 0 -0.0014441408005289361 0.0023816339988360089 0 -0.0017267967175816985 0.0018676917530999829 0 -0.002135084558742768 0.0023284242961087798 0 -0.0014441408005289361 0.0023816339988360089 0 -0.0018163340881941889 0.0028857422738785147 0 -0.002135084558742768 0.0023284242961087798 0 -0.0014441408005289361 0.0023816339988360089 0 -0.0012360900484363144 0.002822528389171043 0 -0.00084122187772354235 0.0023721174374316274 0 -0.0014441408005289361 0.0023816339988360089 0 -0.0018163340881941889 0.0028857422738785147 0 -0.0012360900484363144 0.002822528389171043 0 -0.00065391289437368122 0.0030446332210395041 0 -0.0012360900484363144 0.002822528389171043 0 -0.00084122187772354235 0.0023721174374316274 0 -0.00065391289437368122 0.0030446332210395041 0 0.00027048129252461839 0.0027146034992533118 0 -0.00021202618851063167 0.0022890576244112347 0 -0.00065391289437368122 0.0030446332210395041 0 -0.00021202618851063167 0.0022890576244112347 0 -0.00084122187772354235 0.0023721174374316274 0 -0.00084122187772354235 0.0023721174374316274 0 -0.00047937339774246375 0.0018451751651344672 0 -0.0010962962030673488 0.0018220561934242071 0 -0.00021202618851063167 0.0022890576244112347 0 -0.00084122187772354235 0.0023721174374316274 0 -0.00047937339774246375 0.0018451751651344672 0 -0.00047937339774246375 0.0018451751651344672 0 -0.00081102000000091168 0.001059213703405615 0 -0.0010962962030673488 0.0018220561934242071 0 -0.00021202618851063167 0.0022890576244112347 0 -0.00047937339774246375 0.0018451751651344672 0 3.6060990029372723e-05 0.001518947933350687 0 -0.00047937339774246375 0.0018451751651344672 0 3.6060990029372723e-05 0.001518947933350687 0 -8.1910432784209125e-05 0.00098888724281736163 0 0.0005314742455822726 0.0010550753449837355 0 3.6060990029372723e-05 0.001518947933350687 0 -8.1910432784209125e-05 0.00098888724281736163 0 -0.00047937339774246375 0.0018451751651344672 0 -0.00081102000000091168 0.001059213703405615 0 -8.1910432784209125e-05 0.00098888724281736163 0 -0.001341997913438069 0.0013609047735528455 0 -0.00081102000000091168 0.001059213703405615 0 -0.0010962962030673488 0.0018220561934242071 0 -0.001341997913438069 0.0013609047735528455 0 -0.00081102000000091168 0.001059213703405615 0 -0.0018314030851031549 0.00086024822335266588 0 -0.001341997913438069 0.0013609047735528455 0 -0.0010962962030673488 0.0018220561934242071 0 -0.0017267967175816985 0.0018676917530999829 0 -0.0017267967175816985 0.0018676917530999829 0 -0.0018314030851031549 0.00086024822335266588 0 -0.0024285582988278487 0.001638718211724193 0 -0.001341997913438069 0.0013609047735528455 0 -0.0017267967175816985 0.0018676917530999829 0 -0.0018314030851031549 0.00086024822335266588 0 -0.00081102000000091168 0.001059213703405615 0 -0.00098593526878251628 0.00028749095491794664 0 -0.00013690095233876714 0.00036299191698110271 0 -0.00081102000000091168 0.001059213703405615 0 -0.0018314030851031549 0.00086024822335266588 0 -0.00098593526878251628 0.00028749095491794664 0 -0.0018314030851031549 0.00086024822335266588 0 -0.00098593526878251628 0.00028749095491794664 0 -0.0017520268304302489 -0.00025722305085154276 0 0.0005314742455822726 0.0010550753449837355 0 -8.1910432784209125e-05 0.00098888724281736163 0 0.00049030300718636748 0.00042391674830079956 0 -0.00081102000000091168 0.001059213703405615 0 -8.1910432784209125e-05 0.00098888724281736163 0 -0.00013690095233876714 0.00036299191698110271 0 -0.00013690095233876714 0.00036299191698110271 0 0.00049030300718636748 0.00042391674830079956 0 0.00047430146502416539 -0.0001789792920715837 0 -8.1910432784209125e-05 0.00098888724281736163 0 -0.00013690095233876714 0.00036299191698110271 0 0.00049030300718636748 0.00042391674830079956 0 -0.0003872272046645728 -0.0026534842712527245 0 0.00047430146502416539 -0.0001789792920715837 0 -0.00065962556791949903 -0.00096810199723908869 0 0.00088636128910890935 0.0001197771915373332 0 0.00049030300718636748 0.00042391674830079956 0 0.00047430146502416539 -0.0001789792920715837 0 -0.00013690095233876714 0.00036299191698110271 0 0.00047430146502416539 -0.0001789792920715837 0 -0.00065962556791949903 -0.00096810199723908869 0 0.0011214524948929855 6.9413076353952516e-06 0 0.00088636128910890935 0.0001197771915373332 0 0.00047430146502416539 -0.0001789792920715837 0 -0.0017520268304302489 -0.00025722305085154276 0 -0.00065962556791949903 -0.00096810199723908869 0 -0.0018645103510383826 -0.0012308117530294585 0 -0.00098593526878251628 0.00028749095491794664 0 -0.00013690095233876714 0.00036299191698110271 0 -0.00065962556791949903 -0.00096810199723908869 0 -0.00098593526878251628 0.00028749095491794664 0 -0.0017520268304302489 -0.00025722305085154276 0 -0.00065962556791949903 -0.00096810199723908869 0 -0.001449304918093066 -0.0018153271343178238 0 -0.00065962556791949903 -0.00096810199723908869 0 -0.0018645103510383826 -0.0012308117530294585 0 -0.001449304918093066 -0.0018153271343178238 0 -0.0020492001091309791 -0.0020840463137933411 0 -0.0018645103510383826 -0.0012308117530294585 0 -0.0018645103510383826 -0.0012308117530294585 0 -0.0025553898240078645 -0.0015971441702598123 0 -0.0027101004508886615 -0.00079881481186421313 0 -0.0020492001091309791 -0.0020840463137933411 0 -0.0018645103510383826 -0.0012308117530294585 0 -0.0025553898240078645 -0.0015971441702598123 0 -0.0017520268304302489 -0.00025722305085154276 0 -0.0018645103510383826 -0.0012308117530294585 0 -0.0027101004508886615 -0.00079881481186421313 0 -0.0027101004508886615 -0.00079881481186421313 0 -0.003950274047614272 -0.0010242683390336851 0 -0.0032384036117688816 -0.00010026523776895507 0 -0.0025553898240078645 -0.0015971441702598123 0 -0.0027101004508886615 -0.00079881481186421313 0 -0.0033920152646663439 -0.0017675961959458864 0 -0.004633641805326905 -0.0021093226775826214 0 -0.003950274047614272 -0.0010242683390336851 0 -0.0055583685028016824 -0.0012097172248837888 0 -0.004633641805326905 -0.0021093226775826214 0 -0.0033920152646663439 -0.0017675961959458864 0 -0.003950274047614272 -0.0010242683390336851 0 -0.003950274047614272 -0.0010242683390336851 0 -0.0044323858988959399 -0.00012115453057743904 0 -0.0055583685028016824 -0.0012097172248837888 0 -0.0027101004508886615 -0.00079881481186421313 0 -0.0033920152646663439 -0.0017675961959458864 0 -0.003950274047614272 -0.0010242683390336851 0 -0.003950274047614272 -0.0010242683390336851 0 -0.0044323858988959399 -0.00012115453057743904 0 -0.0032384036117688816 -0.00010026523776895507 0 -0.0044323858988959399 -0.00012115453057743904 0 -0.0037041728564357439 0.00050512446664187263 0 -0.0042371304423907572 0.0010766492671792449 0 -0.0044323858988959399 -0.00012115453057743904 0 -0.0037041728564357439 0.00050512446664187263 0 -0.0032384036117688816 -0.00010026523776895507 0 -0.0037041728564357439 0.00050512446664187263 0 -0.0032384036117688816 -0.00010026523776895507 0 -0.0027678124791617881 0.00085661493326052464 0 -0.0024309789882127871 0.00012836356883445864 0 -0.0032384036117688816 -0.00010026523776895507 0 -0.0027678124791617881 0.00085661493326052464 0 -0.0018314030851031549 0.00086024822335266588 0 -0.0024309789882127871 0.00012836356883445864 0 -0.0027678124791617881 0.00085661493326052464 0 -0.0018314030851031549 0.00086024822335266588 0 -0.0017520268304302489 -0.00025722305085154276 0 -0.0024309789882127871 0.00012836356883445864 0 -0.0017520268304302489 -0.00025722305085154276 0 -0.0027101004508886615 -0.00079881481186421313 0 -0.0024309789882127871 0.00012836356883445864 0 -0.0027101004508886615 -0.00079881481186421313 0 -0.0024309789882127871 0.00012836356883445864 0 -0.0032384036117688816 -0.00010026523776895507 0 -0.0072053045283048209 -0.0025607547647071246 0 -0.0070946415865628873 -0.0013061399326514248 0 -0.0055583685028016824 -0.0012097172248837888 0 -0.0070946415865628873 -0.0013061399326514248 0 -0.0055583685028016824 -0.0012097172248837888 0 -0.0063229082813533203 -0.00052206160108439947 0 -0.0044323858988959399 -0.00012115453057743904 0 -0.0055583685028016824 -0.0012097172248837888 0 -0.0056122007138650508 0.00035827722026161082 0 -0.0055583685028016824 -0.0012097172248837888 0 -0.0056122007138650508 0.00035827722026161082 0 -0.0063229082813533203 -0.00052206160108439947 0 -0.0044323858988959399 -0.00012115453057743904 0 -0.0056122007138650508 0.00035827722026161082 0 -0.0042371304423907572 0.0010766492671792449 0 -0.0056122007138650508 0.00035827722026161082 0 -0.0063229082813533203 -0.00052206160108439947 0 -0.0070541404162784826 6.173474675986624e-05 0 -0.0070946415865628873 -0.0013061399326514248 0 -0.0063229082813533203 -0.00052206160108439947 0 -0.0070541404162784826 6.173474675986624e-05 0 -0.0070946415865628873 -0.0013061399326514248 0 -0.0070541404162784826 6.173474675986624e-05 0 -0.0081958935820303971 -0.00092650619350005702 0 -0.0070541404162784826 6.173474675986624e-05 0 -0.0066132698619930505 0.0014397586370891152 0 -0.0084733412559370204 0.00056260994092219763 0 -0.0056122007138650508 0.00035827722026161082 0 -0.0070541404162784826 6.173474675986624e-05 0 -0.0066132698619930505 0.0014397586370891152 0 -0.0066132698619930505 0.0014397586370891152 0 -0.0050139824556300538 0.0015071265363252354 0 -0.0054416415812953292 0.0024928357097318641 0 -0.0056122007138650508 0.00035827722026161082 0 -0.0066132698619930505 0.0014397586370891152 0 -0.0050139824556300538 0.0015071265363252354 0 -0.0056122007138650508 0.00035827722026161082 0 -0.0050139824556300538 0.0015071265363252354 0 -0.0042371304423907572 0.0010766492671792449 0 -0.0050139824556300538 0.0015071265363252354 0 -0.0054416415812953292 0.0024928357097318641 0 -0.0044861495412991739 0.0023057122604773395 0 -0.0046199203749768434 0.0029754265533130258 0 -0.0054416415812953292 0.0024928357097318641 0 -0.0044861495412991739 0.0023057122604773395 0 -0.0046199203749768434 0.0029754265533130258 0 -0.0054416415812953292 0.0024928357097318641 0 -0.0057020120247559015 0.0033936627718481327 0 -0.0054416415812953292 0.0024928357097318641 0 -0.0065465851612711914 0.0025553277303152298 0 -0.0057020120247559015 0.0033936627718481327 0 -0.0066132698619930505 0.0014397586370891152 0 -0.0065465851612711914 0.0025553277303152298 0 -0.0082132096552662882 0.0022167259388889979 0 -0.0066132698619930505 0.0014397586370891152 0 -0.0054416415812953292 0.0024928357097318641 0 -0.0065465851612711914 0.0025553277303152298 0 -0.0031824168661480985 0.0014464315516295369 0 -0.0024285582988278487 0.001638718211724193 0 -0.0029187663395539806 0.0022854530690480292 0 -0.0031824168661480985 0.0014464315516295369 0 -0.0037200661528331851 0.0018095987423738433 0 -0.0029187663395539806 0.0022854530690480292 0 -0.0018314030851031549 0.00086024822335266588 0 -0.0024285582988278487 0.001638718211724193 0 -0.0027678124791617881 0.00085661493326052464 0 -0.0031824168661480985 0.0014464315516295369 0 -0.0024285582988278487 0.001638718211724193 0 -0.0027678124791617881 0.00085661493326052464 0 -0.0037041728564357439 0.00050512446664187263 0 -0.0031824168661480985 0.0014464315516295369 0 -0.0027678124791617881 0.00085661493326052464 0 -0.0037041728564357439 0.00050512446664187263 0 -0.0031824168661480985 0.0014464315516295369 0 -0.0042371304423907572 0.0010766492671792449 0 -0.0050139824556300538 0.0015071265363252354 0 -0.0042371304423907572 0.0010766492671792449 0 -0.0037200661528331851 0.0018095987423738433 0 -0.0031824168661480985 0.0014464315516295369 0 -0.0042371304423907572 0.0010766492671792449 0 -0.0037200661528331851 0.0018095987423738433 0 -0.0037200661528331851 0.0018095987423738433 0 -0.0036673409069409588 0.0027197073798661065 0 -0.0029187663395539806 0.0022854530690480292 0 -0.0037200661528331851 0.0018095987423738433 0 -0.0044861495412991739 0.0023057122604773395 0 -0.0036673409069409588 0.0027197073798661065 0 -0.0050139824556300538 0.0015071265363252354 0 -0.0037200661528331851 0.0018095987423738433 0 -0.0044861495412991739 0.0023057122604773395 0 -0.0046199203749768434 0.0029754265533130258 0 -0.0036673409069409588 0.0027197073798661065 0 -0.0040276024200237136 0.0032018367028658953 0 -0.0046199203749768434 0.0029754265533130258 0 -0.0044861495412991739 0.0023057122604773395 0 -0.0036673409069409588 0.0027197073798661065 0 -0.0036673409069409588 0.0027197073798661065 0 -0.0030737604377189874 0.0029457948291404918 0 -0.0029187663395539806 0.0022854530690480292 0 -0.0030737604377189874 0.0029457948291404918 0 -0.0029187663395539806 0.0022854530690480292 0 -0.0024871942833251518 0.0028789058960062308 0 -0.0017267967175816985 0.0018676917530999829 0 -0.0024285582988278487 0.001638718211724193 0 -0.002135084558742768 0.0023284242961087798 0 -0.0024285582988278487 0.001638718211724193 0 -0.0029187663395539806 0.0022854530690480292 0 -0.002135084558742768 0.0023284242961087798 0 -0.0018163340881941889 0.0028857422738785147 0 -0.002135084558742768 0.0023284242961087798 0 -0.0024871942833251518 0.0028789058960062308 0 -0.0029187663395539806 0.0022854530690480292 0 -0.002135084558742768 0.0023284242961087798 0 -0.0024871942833251518 0.0028789058960062308 0 -0.0018163340881941889 0.0028857422738785147 0 -0.0024871942833251518 0.0028789058960062308 0 -0.0022268023033811769 0.003428320226162203 0 -0.0024871942833251518 0.0028789058960062308 0 -0.0022268023033811769 0.003428320226162203 0 -0.002894540119309032 0.0034448885658282949 0 -0.0030737604377189874 0.0029457948291404918 0 -0.0024871942833251518 0.0028789058960062308 0 -0.002894540119309032 0.0034448885658282949 0 -0.0030737604377189874 0.0029457948291404918 0 -0.002894540119309032 0.0034448885658282949 0 -0.0034981249889200613 0.0032871759962855092 0 -0.002894540119309032 0.0034448885658282949 0 -0.0026794802516714876 0.0039363755921798752 0 -0.0034352545826451955 0.0039271585515850355 0 -0.0020116755286370613 0.0040153279821226392 0 -0.0022268023033811769 0.003428320226162203 0 -0.0026794802516714876 0.0039363755921798752 0 -0.0022268023033811769 0.003428320226162203 0 -0.002894540119309032 0.0034448885658282949 0 -0.0026794802516714876 0.0039363755921798752 0 -0.0020116755286370613 0.0040153279821226392 0 -0.0019435116160751097 0.0046034011484982398 0 -0.002545355930519801 0.0044132226807688194 0 -0.0020116755286370613 0.0040153279821226392 0 -0.0026794802516714876 0.0039363755921798752 0 -0.002545355930519801 0.0044132226807688194 0 -0.0026794802516714876 0.0039363755921798752 0 -0.002545355930519801 0.0044132226807688194 0 -0.0030949472007497539 0.0043215962868533324 0 -0.0026794802516714876 0.0039363755921798752 0 -0.0030949472007497539 0.0043215962868533324 0 -0.0034352545826451955 0.0039271585515850355 0 -0.002545355930519801 0.0044132226807688194 0 -0.0030082462755999105 0.0047082213859016174 0 -0.0025373384928691414 0.0048730140922547283 0 -0.002545355930519801 0.0044132226807688194 0 -0.0030949472007497539 0.0043215962868533324 0 -0.0030082462755999105 0.0047082213859016174 0 -0.0030949472007497539 0.0043215962868533324 0 -0.0030082462755999105 0.0047082213859016174 0 -0.0034639259457064863 0.0047975860962560374 0 -0.0030082462755999105 0.0047082213859016174 0 -0.0034639259457064863 0.0047975860962560374 0 -0.0030342807775323474 0.0050950409078768131 0 -0.0030082462755999105 0.0047082213859016174 0 -0.0025373384928691414 0.0048730140922547283 0 -0.0030342807775323474 0.0050950409078768131 0 -0.0019435116160751097 0.0046034011484982398 0 -0.002545355930519801 0.0044132226807688194 0 -0.0025373384928691414 0.0048730140922547283 0 -0.0040041013063639337 0.004633189745294186 0 -0.0040434848863821204 0.0049828268518109751 0 -0.0034639259457064863 0.0047975860962560374 0 -0.0040041013063639337 0.004633189745294186 0 -0.0040434848863821204 0.0049828268518109751 0 -0.0044823124699826132 0.004710205982521639 0 -0.0040434848863821204 0.0049828268518109751 0 -0.0044823124699826132 0.004710205982521639 0 -0.0044696437025797363 0.005003806682807475 0 -0.0040434848863821204 0.0049828268518109751 0 -0.0044696437025797363 0.005003806682807475 0 -0.0042553006617616915 0.0052575518334821054 0 -0.0040434848863821204 0.0049828268518109751 0 -0.0034639259457064863 0.0047975860962560374 0 -0.0034309689166522042 0.0053861254574040464 0 -0.0040041013063639337 0.004633189745294186 0 -0.0034639259457064863 0.0047975860962560374 0 -0.0037183354890190173 0.004368233383853364 0 -0.0030949472007497539 0.0043215962868533324 0 -0.0037183354890190173 0.004368233383853364 0 -0.0034352545826451955 0.0039271585515850355 0 -0.0030949472007497539 0.0043215962868533324 0 -0.0034639259457064863 0.0047975860962560374 0 -0.0037183354890190173 0.004368233383853364 0 -0.0037183354890190173 0.004368233383853364 0 -0.0039614020861751132 0.004038213125915957 0 -0.0034352545826451955 0.0039271585515850355 0 -0.0037183354890190173 0.004368233383853364 0 -0.004340523541227272 0.0042984662523632448 0 -0.0039614020861751132 0.004038213125915957 0 -0.0040041013063639337 0.004633189745294186 0 -0.0037183354890190173 0.004368233383853364 0 -0.004340523541227272 0.0042984662523632448 0 -0.0040041013063639337 0.004633189745294186 0 -0.004340523541227272 0.0042984662523632448 0 -0.0044823124699826132 0.004710205982521639 0 -0.004340523541227272 0.0042984662523632448 0 -0.0039614020861751132 0.004038213125915957 0 -0.0045778934932376083 0.0037755199168490843 0 -0.0039376515162884793 0.0036472566397788711 0 -0.0040276024200237136 0.0032018367028658953 0 -0.0045778934932376083 0.0037755199168490843 0 -0.0039614020861751132 0.004038213125915957 0 -0.0039376515162884793 0.0036472566397788711 0 -0.0045778934932376083 0.0037755199168490843 0 -0.002894540119309032 0.0034448885658282949 0 -0.0034352545826451955 0.0039271585515850355 0 -0.0034981249889200613 0.0032871759962855092 0 -0.0039376515162884793 0.0036472566397788711 0 -0.0034352545826451955 0.0039271585515850355 0 -0.0034981249889200613 0.0032871759962855092 0 -0.0039614020861751132 0.004038213125915957 0 -0.0039376515162884793 0.0036472566397788711 0 -0.0034352545826451955 0.0039271585515850355 0 -0.0036673409069409588 0.0027197073798661065 0 -0.0030737604377189874 0.0029457948291404918 0 -0.0034981249889200613 0.0032871759962855092 0 -0.0036673409069409588 0.0027197073798661065 0 -0.0034981249889200613 0.0032871759962855092 0 -0.0040276024200237136 0.0032018367028658953 0 -0.0039376515162884793 0.0036472566397788711 0 -0.0034981249889200613 0.0032871759962855092 0 -0.0040276024200237136 0.0032018367028658953 0 -0.0046199203749768434 0.0029754265533130258 0 -0.0040276024200237136 0.0032018367028658953 0 -0.0045778934932376083 0.0037755199168490843 0 -0.0046199203749768434 0.0029754265533130258 0 -0.0057020120247559015 0.0033936627718481327 0 -0.0045778934932376083 0.0037755199168490843 0 -0.0057020120247559015 0.0033936627718481327 0 -0.0045778934932376083 0.0037755199168490843 0 -0.0053198334823333221 0.0042001110218435802 0 -0.0057020120247559015 0.0033936627718481327 0 -0.0064978164736298307 0.0044337730788312048 0 -0.0053198334823333221 0.0042001110218435802 0 -0.0065465851612711914 0.0025553277303152298 0 -0.0057020120247559015 0.0033936627718481327 0 -0.0070138241610573525 0.0032892596910250038 0 -0.0057020120247559015 0.0033936627718481327 0 -0.0070138241610573525 0.0032892596910250038 0 -0.0064978164736298307 0.0044337730788312048 0 -0.0064978164736298307 0.0044337730788312048 0 -0.0065584614211199425 0.0055488200298167006 0 -0.0082922871333573813 0.0054172461579610268 0 -0.0064978164736298307 0.0044337730788312048 0 -0.005196801767593069 0.0048877295682613281 0 -0.0065584614211199425 0.0055488200298167006 0 -0.005196801767593069 0.0048877295682613281 0 -0.0047161221071696244 0.0055878528236420043 0 -0.0065584614211199425 0.0055488200298167006 0 -0.004340523541227272 0.0042984662523632448 0 -0.0045778934932376083 0.0037755199168490843 0 -0.0048091327710687859 0.0044506947248395528 0 -0.0048091327710687859 0.0044506947248395528 0 -0.0053198334823333221 0.0042001110218435802 0 -0.005196801767593069 0.0048877295682613281 0 -0.0045778934932376083 0.0037755199168490843 0 -0.0048091327710687859 0.0044506947248395528 0 -0.0053198334823333221 0.0042001110218435802 0 -0.004340523541227272 0.0042984662523632448 0 -0.0048091327710687859 0.0044506947248395528 0 -0.0044823124699826132 0.004710205982521639 0 -0.0064978164736298307 0.0044337730788312048 0 -0.0053198334823333221 0.0042001110218435802 0 -0.005196801767593069 0.0048877295682613281 0 -0.0048091327710687859 0.0044506947248395528 0 -0.005196801767593069 0.0048877295682613281 0 -0.0044823124699826132 0.004710205982521639 0 -0.005196801767593069 0.0048877295682613281 0 -0.0044823124699826132 0.004710205982521639 0 -0.0044696437025797363 0.005003806682807475 0 -0.005196801767593069 0.0048877295682613281 0 -0.0044696437025797363 0.005003806682807475 0 -0.0047595143365196831 0.0051554938768625311 0 -0.005196801767593069 0.0048877295682613281 0 -0.0047595143365196831 0.0051554938768625311 0 -0.0047161221071696244 0.0055878528236420043 0 -0.0044696437025797363 0.005003806682807475 0 -0.0046258556024570564 0.005324837810390939 0 -0.0042553006617616915 0.0052575518334821054 0 -0.0044696437025797363 0.005003806682807475 0 -0.0047595143365196831 0.0051554938768625311 0 -0.0046258556024570564 0.005324837810390939 0 -0.0046258556024570564 0.005324837810390939 0 -0.0047161221071696244 0.0055878528236420043 0 -0.0042553006617616915 0.0052575518334821054 0 -0.0047595143365196831 0.0051554938768625311 0 -0.0046258556024570564 0.005324837810390939 0 -0.0047161221071696244 0.0055878528236420043 0 -0.011002989052648468 0.0043769448614295334 0 -0.013101469485160205 0.0052781916825422907 0 -0.019377345496061602 0.0048370383644250562 0 -0.019852688901674829 0.005185382862044681 0 -0.020244675142124222 0.0047569615521630883 0 -0.019377345496061602 0.0048370383644250562 0 -0.019500865835416367 0.0053008036764603354 0 -0.019224421899701034 0.0055274873141659417 0 -0.019377345496061602 0.0048370383644250562 0 -0.019852688901674829 0.005185382862044681 0 -0.019500865835416367 0.0053008036764603354 0 -0.020244675142124222 0.0047569615521630883 0 -0.020365473166105718 0.0054761534296630561 0 -0.020876266506049054 0.00529226265198369 0 -0.019852688901674829 0.005185382862044681 0 -0.020244675142124222 0.0047569615521630883 0 -0.020365473166105718 0.0054761534296630561 0 -0.020365473166105718 0.0054761534296630561 0 -0.020209727174722643 0.0058925085682032816 0 -0.019693702793726744 0.0056583600237594478 0 -0.019852688901674829 0.005185382862044681 0 -0.020365473166105718 0.0054761534296630561 0 -0.019693702793726744 0.0056583600237594478 0 -0.020365473166105718 0.0054761534296630561 0 -0.020209727174722643 0.0058925085682032816 0 -0.020818719555811917 0.0058699621969631015 0 -0.019500865835416367 0.0053008036764603354 0 -0.019693702793726744 0.0056583600237594478 0 -0.019224421899701034 0.0055274873141659417 0 -0.019852688901674829 0.005185382862044681 0 -0.019500865835416367 0.0053008036764603354 0 -0.019693702793726744 0.0056583600237594478 0 -0.019693702793726744 0.0056583600237594478 0 -0.019224421899701034 0.0055274873141659417 0 -0.019152633214045183 0.0060982868490169241 0 -0.019224421899701034 0.0055274873141659417 0 -0.018688825924959195 0.0057497987861508401 0 -0.019152633214045183 0.0060982868490169241 0 -0.019377345496061602 0.0048370383644250562 0 -0.019224421899701034 0.0055274873141659417 0 -0.018688825924959195 0.0057497987861508401 0 -0.0036472432163389499 0.0055642506027868245 0 -0.003288130348125163 0.0055902865705043216 0 -0.0032613147337093116 0.0055402039895359224 0 -0.0038052665406251027 0.0052893033252034349 0 -0.0036472432163389499 0.0055642506027868245 0 -0.003288130348125163 0.0055902865705043216 0 -0.0020353873299158191 0.0064746935608055592 0 -0.0032613147337093116 0.0055402039895359224 0 -0.0022333827868494609 0.0055865088442520992 0 -0.0028515738964698901 0.0058564821089154223 0 -0.0030186043971065744 0.0057098532870150081 0 -0.0019219491079307208 0.0050747454900357076 0 -0.0022333827868494609 0.0055865088442520992 0 -0.0026440453573004404 0.005247163111787574 0 -0.0032613147337093116 0.0055402039895359224 0 -0.0022333827868494609 0.0055865088442520992 0 -0.0026440453573004404 0.005247163111787574 0 -0.0019219491079307208 0.0050747454900357076 0 -0.0026440453573004404 0.005247163111787574 0 -0.0025373384928691414 0.0048730140922547283 0 -0.0019435116160751097 0.0046034011484982398 0 -0.0019219491079307208 0.0050747454900357076 0 -0.0025373384928691414 0.0048730140922547283 0 -0.0032613147337093116 0.0055402039895359224 0 -0.0026440453573004404 0.005247163111787574 0 -0.0030342807775323474 0.0050950409078768131 0 -0.0026440453573004404 0.005247163111787574 0 -0.0025373384928691414 0.0048730140922547283 0 -0.0030342807775323474 0.0050950409078768131 0 -0.0032613147337093116 0.0055402039895359224 0 -0.0030342807775323474 0.0050950409078768131 0 -0.0034309689166522042 0.0053861254574040464 0 -0.0034639259457064863 0.0047975860962560374 0 -0.0030342807775323474 0.0050950409078768131 0 -0.0034309689166522042 0.0053861254574040464 0 -0.011002989052648468 0.0043769448614295334 0 -0.010873689276380832 0.005292654281767643 0 -0.0036593858580487898 0.005405260506009809 0 -0.003288130348125163 0.0055902865705043216 0 -0.0032613147337093116 0.0055402039895359224 0 -0.0036593858580487898 0.005405260506009809 0 -0.0032613147337093116 0.0055402039895359224 0 -0.0034309689166522042 0.0053861254574040464 0 -0.0040434848863821204 0.0049828268518109751 0 -0.0034309689166522042 0.0053861254574040464 0 -0.0042553006617616915 0.0052575518334821054 0 -0.0047161221071696244 0.0055878528236420043 0 -0.0034309689166522042 0.0053861254574040464 0 -0.0042553006617616915 0.0052575518334821054 0 -0.011002989052648468 0.0043769448614295334 0 -0.0091498437941103777 0.0045740395367049966 0 -0.019174134434007339 0.0066607010407019364 0 -0.020135746716296588 0.0070501900204724306 0 -0.018517914790064569 0.0075392002526971681 0 -0.019174134434007339 0.0066607010407019364 0 -0.020135746716296588 0.0070501900204724306 0 -0.019878474675758324 0.0061000731047055404 0 -0.020135746716296588 0.0070501900204724306 0 -0.018517914790064569 0.0075392002526971681 0 -0.019961799662432823 0.0082730958002830805 0 -0.018517914790064569 0.0075392002526971681 0 -0.017571649058074047 0.0075392892309491984 0 -0.016967952512957005 0.0085459489960902583 0 -0.017571649058074047 0.0075392892309491984 0 -0.016841807040008309 0.0076052381860120593 0 -0.016967952512957005 0.0085459489960902583 0 -0.016841807040008309 0.0076052381860120593 0 -0.017958406592682084 0.0064517119148752005 0 -0.016585411771172419 0.0062772981876823694 0 -0.017571649058074047 0.0075392892309491984 0 -0.016841807040008309 0.0076052381860120593 0 -0.017958406592682084 0.0064517119148752005 0 -0.018517914790064569 0.0075392002526971681 0 -0.017571649058074047 0.0075392892309491984 0 -0.017958406592682084 0.0064517119148752005 0 -0.019174134434007339 0.0066607010407019364 0 -0.018517914790064569 0.0075392002526971681 0 -0.017958406592682084 0.0064517119148752005 0 -0.017958406592682084 0.0064517119148752005 0 -0.019338050206608483 0.0057696551114586768 0 -0.018528291859384084 0.0047064506679039301 0 -0.017958406592682084 0.0064517119148752005 0 -0.017339012081057033 0.0053387818916451699 0 -0.018528291859384084 0.0047064506679039301 0 -0.017958406592682084 0.0064517119148752005 0 -0.017339012081057033 0.0053387818916451699 0 -0.016585411771172419 0.0062772981876823694 0 -0.019881622017176092 0.0050994666198516227 0 -0.019338050206608483 0.0057696551114586768 0 -0.018528291859384084 0.0047064506679039301 0 -0.019881622017176092 0.0050994666198516227 0 -0.019338050206608483 0.0057696551114586768 0 -0.020078328869264306 0.0054853363822403405 0 -0.019174134434007339 0.0066607010407019364 0 -0.019338050206608483 0.0057696551114586768 0 -0.019878474675758324 0.0061000731047055404 0 -0.019174134434007339 0.0066607010407019364 0 -0.017958406592682084 0.0064517119148752005 0 -0.019338050206608483 0.0057696551114586768 0 -0.020135746716296588 0.0070501900204724306 0 -0.019878474675758324 0.0061000731047055404 0 -0.020472947776582498 0.0055788190451371332 0 -0.019338050206608483 0.0057696551114586768 0 -0.019878474675758324 0.0061000731047055404 0 -0.020078328869264306 0.0054853363822403405 0 -0.019878474675758324 0.0061000731047055404 0 -0.020472947776582498 0.0055788190451371332 0 -0.020078328869264306 0.0054853363822403405 0 -0.020472947776582498 0.0055788190451371332 0 -0.020078328869264306 0.0054853363822403405 0 -0.020480705122728982 0.0049157380903714094 0 -0.019881622017176092 0.0050994666198516227 0 -0.020078328869264306 0.0054853363822403405 0 -0.020480705122728982 0.0049157380903714094 0 -0.019881622017176092 0.0050994666198516227 0 -0.020480705122728982 0.0049157380903714094 0 -0.020233860554919953 0.0043938708931597643 0 -0.020603910588373939 0.0061394359825281027 0 -0.020987369468170616 0.0055932404967496008 0 -0.020765618272252734 0.0049743825662046538 0 -0.020983302529818972 0.0051284061208076593 0 -0.020988227697686577 0.0044568647996248234 0 -0.020135746716296588 0.0070501900204724306 0 -0.021242694163141885 0.0057985705907112883 0 -0.021238194108793223 0.0059330474703568779 0 -0.020135746716296588 0.0070501900204724306 0 -0.020983302529818972 0.0051284061208076593 0 -0.021722538677755327 0.0047076534776021757 0 -0.020135746716296588 0.0070501900204724306 0 -0.020472947776582498 0.0055788190451371332 0 -0.020983302529818972 0.0051284061208076593 0 -0.020472947776582498 0.0055788190451371332 0 -0.020765618272252734 0.0049743825662046538 0 -0.020983302529818972 0.0051284061208076593 0 -0.020472947776582498 0.0055788190451371332 0 -0.020480705122728982 0.0049157380903714094 0 -0.020765618272252734 0.0049743825662046538 0 -0.020983302529818972 0.0051284061208076593 0 -0.021722538677755327 0.0047076534776021757 0 -0.021328611863348241 0.0045816485065533659 0 -0.020365473166105718 0.0054761534296630561 0 -0.020818719555811917 0.0058699621969631015 0 -0.020859506768961696 0.0056310535933943827 0 -0.021238194108793223 0.0059330474703568779 0 -0.020818719555811917 0.0058699621969631015 0 -0.020859506768961696 0.0056310535933943827 0 -0.021242694163141885 0.0057985705907112883 0 -0.021238194108793223 0.0059330474703568779 0 -0.020818719555811917 0.0058699621969631015 0 -0.021238194108793223 0.0059330474703568779 0 -0.020859506768961696 0.0056310535933943827 0 -0.020876266506049054 0.00529226265198369 0 -0.020365473166105718 0.0054761534296630561 0 -0.020859506768961696 0.0056310535933943827 0 -0.020876266506049054 0.00529226265198369 0 -0.020244675142124222 0.0047569615521630883 0 -0.020876266506049054 0.00529226265198369 0 -0.021165695462652706 0.004649551903383474 0 -0.016253101748765264 0.0063572138391331905 0 -0.014559160307458296 0.0062803479833861567 0 -0.013101469485160205 0.0052781916825422907 0 -0.014559160307458296 0.0062803479833861567 0 -0.021238194108793223 0.0059330474703568779 0 -0.020876266506049054 0.00529226265198369 0 -0.021165695462652706 0.004649551903383474 0 -0.020135746716296588 0.0070501900204724306 0 -0.021602993780347933 0.0078612079654359641 0 -0.019961799662432823 0.0082730958002830805 0 -0.020135746716296588 0.0070501900204724306 0 -0.021238194108793223 0.0059330474703568779 0 -0.021602993780347933 0.0078612079654359641 0 -0.012182035996146779 0.0075941128832032563 0 -0.0095874036650813281 0.010106557790872116 0 -0.013120049393725498 0.0097862051598305768 0 -0.012182035996146779 0.0075941128832032563 0 -0.0095874036650813281 0.010106557790872116 0 -0.0093168300904682734 0.0067220745077367795 0 -0.014559160307458296 0.0062803479833861567 0 -0.015733538676381113 0.0071600605391220293 0 -0.0064978164736298307 0.0044337730788312048 0 -0.0082922871333573813 0.0054172461579610268 0 -0.0081776503542754318 0.0037709198103010886 0 -0.014559160307458296 0.0062803479833861567 0 -0.012044948672564514 0.0048466630387642836 0 -0.0070138241610573525 0.0032892596910250038 0 -0.0081776503542754318 0.0037709198103010886 0 -0.0082132096552662882 0.0022167259388889979 0 -0.0070138241610573525 0.0032892596910250038 0 -0.0064978164736298307 0.0044337730788312048 0 -0.0081776503542754318 0.0037709198103010886 0 -0.012182035996146779 0.0075941128832032563 0 -0.0093168300904682734 0.0067220745077367795 0 -0.010953404524009093 0.0054139225389896141 0 -0.0093168300904682734 0.0067220745077367795 0 -0.010953404524009093 0.0054139225389896141 0 -0.0089625408087484829 0.0035581425215256875 0 -0.012182035996146779 0.0075941128832032563 0 -0.010953404524009093 0.0054139225389896141 0 -0.012737871903650638 0.0056222560133741264 0 -0.012737871903650638 0.0056222560133741264 0 -0.014647076790201536 0.0062849790283480943 0 -0.014023587106884415 0.0071500935454564211 0 -0.012737871903650638 0.0056222560133741264 0 -0.014647076790201536 0.0062849790283480943 0 -0.013354908718505899 0.0044539786759588392 0 -0.014647076790201536 0.0062849790283480943 0 -0.014023587106884415 0.0071500935454564211 0 -0.015459586457537552 0.0078252384149165074 0 -0.012182035996146779 0.0075941128832032563 0 -0.012737871903650638 0.0056222560133741264 0 -0.014023587106884415 0.0071500935454564211 0 -0.018517914790064569 0.0075392002526971681 0 -0.019961799662432823 0.0082730958002830805 0 -0.016967952512957005 0.0085459489960902583 0 -0.012182035996146779 0.0075941128832032563 0 -0.014411015934095847 0.0083353418850356398 0 -0.013120049393725498 0.0097862051598305768 0 -0.015733538676381113 0.0071600605391220293 0 -0.016094616493070001 0.007395301124653475 0 -0.012182035996146779 0.0075941128832032563 0 -0.014023587106884415 0.0071500935454564211 0 -0.014411015934095847 0.0083353418850356398 0 -0.014411015934095847 0.0083353418850356398 0 -0.013120049393725498 0.0097862051598305768 0 -0.016967952512957005 0.0085459489960902583 0 -0.014023587106884415 0.0071500935454564211 0 -0.014411015934095847 0.0083353418850356398 0 -0.015459586457537552 0.0078252384149165074 0 -0.016841807040008309 0.0076052381860120593 0 -0.016967952512957005 0.0085459489960902583 0 -0.01702099688910956 0.00847162432942479 0 -0.014411015934095847 0.0083353418850356398 0 -0.016967952512957005 0.0085459489960902583 0 -0.015459586457537552 0.0078252384149165074 0 -0.016967952512957005 0.0085459489960902583 0 -0.015459586457537552 0.0078252384149165074 0 -0.01702099688910956 0.00847162432942479 0 0.00065405731884460479 -0.0033857995111716589 0 0.00094909641516703256 -0.0047670323824232199 0 0.0015914754962362751 -0.0054380280375750257 0 -0.0085523683540064607 0.0012978619444181849 0 -0.0069456625346790779 -0.00059711878612314921 0 -0.014647076790201536 0.0062849790283480943 0 -0.01702099688910956 0.00847162432942479 0 -0.014926069565880631 0.0044716345581399045 0 0.00065405731884460479 -0.0033857995111716589 0 0.00057990824240209066 -0.0045294864952892195 0 0.00094909641516703256 -0.0047670323824232199 0 -0.014647076790201536 0.0062849790283480943 0 -0.015459586457537552 0.0078252384149165074 0 -0.01702099688910956 0.00847162432942479 0 0.00057990824240209066 -0.0045294864952892195 0 0.00094909641516703256 -0.0047670323824232199 0 0.00096320168137353844 -0.0057210402471543137 0 0.00096320168137353844 -0.0057210402471543137 0 0.0015914754962362751 -0.0054380280375750257 0 0.0021280232592506723 -0.0076692548559494029 0 0.0018931604920119189 -0.0064815674681903907 0 0.0015063549117834663 -0.0070658591343768541 0 0.00063604180585477045 -0.0064434113869839575 0 0.00094909641516703256 -0.0047670323824232199 0 0.00096320168137353844 -0.0057210402471543137 0 0.0015914754962362751 -0.0054380280375750257 0 -0.014647076790201536 0.0062849790283480943 0 -0.014926069565880631 0.0044716345581399045 0 -0.013354908718505899 0.0044539786759588392 0 -0.012737871903650638 0.0056222560133741264 0 -0.013354908718505899 0.0044539786759588392 0 -0.011628874222655426 0.0036488707903876132 0 -0.012942234518674415 0.002859036800819803 0 -0.011628874222655426 0.0036488707903876132 0 -0.011755306782433726 0.0023194787648035857 0 -0.013354908718505899 0.0044539786759588392 0 -0.012942234518674415 0.002859036800819803 0 -0.011628874222655426 0.0036488707903876132 0 -0.014926069565880631 0.0044716345581399045 0 -0.013354908718505899 0.0044539786759588392 0 -0.012942234518674415 0.002859036800819803 0 -0.014926069565880631 0.0044716345581399045 0 -0.012942234518674415 0.002859036800819803 0 -0.012182594880656978 0.00097024015972920071 0 0.0015914754962362751 -0.0054380280375750257 0 0.0021280232592506723 -0.0076692548559494029 0 0.0022811841257540646 -0.0077687529182374274 0 0.0018931604920119189 -0.0064815674681903907 0 0.0021280232592506723 -0.0076692548559494029 0 0.0019331183715732812 -0.0074517588527808218 0 0.0011602405631715217 -0.0058278395950319964 0 0.0017393307136781321 -0.0065663077200320283 0 -0.0069456625346790779 -0.00059711878612314921 0 -0.0053305085724098646 -0.002968061115086055 0 -0.012942234518674415 0.002859036800819803 0 -0.012087229498866698 0.0019027684797873177 0 -0.012182594880656978 0.00097024015972920071 0 -0.012942234518674415 0.002859036800819803 0 -0.012087229498866698 0.0019027684797873177 0 -0.011755306782433726 0.0023194787648035857 0 -0.012087229498866698 0.0019027684797873177 0 -0.012182594880656978 0.00097024015972920071 0 -0.01149080345536223 0.0014755986463994091 0 0.0021280232592506723 -0.0076692548559494029 0 0.0020072358600000772 -0.0077611039378112151 0 0.0021186358562271901 -0.0078269626088754308 0 0.0021280232592506723 -0.0076692548559494029 0 0.0022811841257540646 -0.0077687529182374274 0 0.0021186358562271901 -0.0078269626088754308 0 0.0021280232592506723 -0.0076692548559494029 0 0.0020072358600000772 -0.0077611039378112151 0 0.0019331183715732812 -0.0074517588527808218 0 0.0020072358600000772 -0.0077611039378112151 0 0.0019331183715732812 -0.0074517588527808218 0 0.0018490212402341953 -0.007817776349366758 0 0.0018931604920119189 -0.0064815674681903907 0 0.0019331183715732812 -0.0074517588527808218 0 0.0017931752629916631 -0.0073738140297908714 0 0.0019331183715732812 -0.0074517588527808218 0 0.0017931752629916631 -0.0073738140297908714 0 0.0018490212402341953 -0.007817776349366758 0 0.001541858218522926 -0.0078805373440659441 0 0.0017931752629916631 -0.0073738140297908714 0 0.0018490212402341953 -0.007817776349366758 0 0.001541858218522926 -0.0078805373440659441 0 0.0015063549117834663 -0.0070658591343768541 0 0.0017931752629916631 -0.0073738140297908714 0 0.0018931604920119189 -0.0064815674681903907 0 0.0015063549117834663 -0.0070658591343768541 0 0.0017931752629916631 -0.0073738140297908714 0 -0.012044948672564514 0.0048466630387642836 0 -0.010761555194819781 0.0030638686042484603 0 -0.0065465851612711914 0.0025553277303152298 0 -0.0070138241610573525 0.0032892596910250038 0 -0.0082132096552662882 0.0022167259388889979 0 -0.010953404524009093 0.0054139225389896141 0 -0.0089625408087484829 0.0035581425215256875 0 -0.011628874222655426 0.0036488707903876132 0 -0.0089625408087484829 0.0035581425215256875 0 -0.011628874222655426 0.0036488707903876132 0 -0.010320105238062649 0.0019829440968538326 0 -0.010953404524009093 0.0054139225389896141 0 -0.012737871903650638 0.0056222560133741264 0 -0.011628874222655426 0.0036488707903876132 0 -0.011755306782433726 0.0023194787648035857 0 -0.01149080345536223 0.0014755986463994091 0 -0.010320105238062649 0.0019829440968538326 0 -0.011628874222655426 0.0036488707903876132 0 -0.011755306782433726 0.0023194787648035857 0 -0.010320105238062649 0.0019829440968538326 0 -0.012087229498866698 0.0019027684797873177 0 -0.011755306782433726 0.0023194787648035857 0 -0.01149080345536223 0.0014755986463994091 0 -0.012182594880656978 0.00097024015972920071 0 -0.011361193074583763 0.00098347756312101571 0 -0.010646336273942646 0.00026736291950993043 0 -0.01149080345536223 0.0014755986463994091 0 -0.010824817012138672 0.00108090494701585 0 -0.010320105238062649 0.0019829440968538326 0 -0.012182594880656978 0.00097024015972920071 0 -0.01149080345536223 0.0014755986463994091 0 -0.011361193074583763 0.00098347756312101571 0 -0.01149080345536223 0.0014755986463994091 0 -0.011361193074583763 0.00098347756312101571 0 -0.010824817012138672 0.00108090494701585 0 -0.011361193074583763 0.00098347756312101571 0 -0.010824817012138672 0.00108090494701585 0 -0.010646336273942646 0.00026736291950993043 0 -0.0097814723202803121 0.00075878319435234277 0 -0.010320105238062649 0.0019829440968538326 0 -0.0084733412559370204 0.00056260994092219763 0 -0.010824817012138672 0.00108090494701585 0 -0.0097814723202803121 0.00075878319435234277 0 -0.010320105238062649 0.0019829440968538326 0 -0.0089625408087484829 0.0035581425215256875 0 -0.010320105238062649 0.0019829440968538326 0 -0.0084733412559370204 0.00056260994092219763 0 -0.0066132698619930505 0.0014397586370891152 0 -0.0082132096552662882 0.0022167259388889979 0 -0.0084733412559370204 0.00056260994092219763 0 -0.010761555194819781 0.0030638686042484603 0 -0.010352007935326283 0.00208793858977852 0 -0.0070541404162784826 6.173474675986624e-05 0 -0.0081958935820303971 -0.00092650619350005702 0 -0.0084733412559370204 0.00056260994092219763 0 -0.0097814723202803121 0.00075878319435234277 0 -0.0084733412559370204 0.00056260994092219763 0 -0.0090732106939203153 -0.00040171632862610917 0 -0.0081958935820303971 -0.00092650619350005702 0 -0.0090732106939203153 -0.00040171632862610917 0 -0.0094702001188072347 -0.0013669644103744111 0 -0.0081958935820303971 -0.00092650619350005702 0 -0.0084733412559370204 0.00056260994092219763 0 -0.0090732106939203153 -0.00040171632862610917 0 0.0022811841257540646 -0.0077687529182374274 0 0.0020072100712412565 -0.0081234692262594065 0 0.0020868227589330743 -0.0079429957033629456 0 -0.012182594880656978 0.00097024015972920071 0 -0.010646336273942646 0.00026736291950993043 0 -0.0097471807993000648 -0.0017415055661734831 0 -0.0098465430081469095 -0.00062177424756449631 0 -0.010646336273942646 0.00026736291950993043 0 -0.0097471807993000648 -0.0017415055661734831 0 -0.0053305085724098646 -0.002968061115086055 0 -0.0038767745462284647 -0.0052456393937579671 0 -0.0090732106939203153 -0.00040171632862610917 0 -0.0098465430081469095 -0.00062177424756449631 0 -0.0094702001188072347 -0.0013669644103744111 0 -0.0090732106939203153 -0.00040171632862610917 0 -0.0098465430081469095 -0.00062177424756449631 0 -0.0099053888061729108 5.112577172634927e-05 0 -0.0097814723202803121 0.00075878319435234277 0 -0.0090732106939203153 -0.00040171632862610917 0 -0.0099053888061729108 5.112577172634927e-05 0 -0.0098465430081469095 -0.00062177424756449631 0 -0.0099053888061729108 5.112577172634927e-05 0 -0.010646336273942646 0.00026736291950993043 0 -0.010824817012138672 0.00108090494701585 0 -0.0097814723202803121 0.00075878319435234277 0 -0.010646336273942646 0.00026736291950993043 0 -0.0097814723202803121 0.00075878319435234277 0 -0.0099053888061729108 5.112577172634927e-05 0 -0.010646336273942646 0.00026736291950993043 0 0.0020072100712412565 -0.0081234692262594065 0 0.0019817360366668705 -0.0080371425874626919 0 0.0020868227589330743 -0.0079429957033629456 0 0.0020072100712412565 -0.0081234692262594065 0 0.0019817360366668705 -0.0080371425874626919 0 0.0018413340456097942 -0.0081183600519924744 0 -0.0098465430081469095 -0.00062177424756449631 0 -0.0097471807993000648 -0.0017415055661734831 0 -0.0094702001188072347 -0.0013669644103744111 0 -0.0096253237082722671 -0.0015697479598689968 0 -0.0094702001188072347 -0.0013669644103744111 0 -0.0086072993515963619 -0.0020456929204064251 0 -0.0038767745462284647 -0.0052456393937579671 0 -0.0039163624672382789 -0.0052365886961916845 0 -0.0042906027077344259 -0.0049221901817631539 0 -0.0038767745462284647 -0.0052456393937579671 0 -0.0084924094458447806 -0.0030261135097537197 0 -0.0096253237082722671 -0.0015697479598689968 0 -0.0086072993515963619 -0.0020456929204064251 0 -0.0081958935820303971 -0.00092650619350005702 0 -0.0094702001188072347 -0.0013669644103744111 0 -0.0086072993515963619 -0.0020456929204064251 0 -0.0072053045283048209 -0.0025607547647071246 0 -0.0070946415865628873 -0.0013061399326514248 0 -0.0086072993515963619 -0.0020456929204064251 0 -0.0070946415865628873 -0.0013061399326514248 0 -0.0081958935820303971 -0.00092650619350005702 0 -0.0086072993515963619 -0.0020456929204064251 0 0.001827105070290517 -0.0080049327097907567 0 0.0016780877207073859 -0.008100048473646787 0 0.0018090575024514268 -0.0081098008142621511 0 0.001541858218522926 -0.0078805373440659441 0 0.0016780877207073859 -0.008100048473646787 0 0.0018490212402341953 -0.007817776349366758 0 0.001827105070290517 -0.0080049327097907567 0 0.0016780877207073859 -0.008100048473646787 0 0.0018490212402341953 -0.007817776349366758 0 0.0020072358600000772 -0.0077611039378112151 0 0.0018490212402341953 -0.007817776349366758 0 0.0019801531730542004 -0.0079414356108269118 0 0.001827105070290517 -0.0080049327097907567 0 0.0018490212402341953 -0.007817776349366758 0 0.0019801531730542004 -0.0079414356108269118 0 0.0020072358600000772 -0.0077611039378112151 0 0.0019801531730542004 -0.0079414356108269118 0 0.0021186358562271901 -0.0078269626088754308 0 0.0022811841257540646 -0.0077687529182374274 0 0.0021186358562271901 -0.0078269626088754308 0 0.0020868227589330743 -0.0079429957033629456 0 0.0019801531730542004 -0.0079414356108269118 0 0.0021186358562271901 -0.0078269626088754308 0 0.0020868227589330743 -0.0079429957033629456 0 0.0019801531730542004 -0.0079414356108269118 0 0.0019817360366668705 -0.0080371425874626919 0 0.0018090575024514268 -0.0081098008142621511 0 0.0019801531730542004 -0.0079414356108269118 0 0.0019817360366668705 -0.0080371425874626919 0 0.0020868227589330743 -0.0079429957033629456 0 0.001827105070290517 -0.0080049327097907567 0 0.0019801531730542004 -0.0079414356108269118 0 0.0018090575024514268 -0.0081098008142621511 0 0.0015677399989487137 -0.0081579625153676959 0 0.0018090575024514268 -0.0081098008142621511 0 0.0018413340456097942 -0.0081183600519924744 0 0.0015677399989487137 -0.0081579625153676959 0 0.0020072100712412565 -0.0081234692262594065 0 0.0018413340456097942 -0.0081183600519924744 0 0.0015677399989487137 -0.0081579625153676959 0 0.0018090575024514268 -0.0081098008142621511 0 0.0016242992867866676 -0.0081865849660065614 0 0.0019817360366668705 -0.0080371425874626919 0 0.0018090575024514268 -0.0081098008142621511 0 0.0018413340456097942 -0.0081183600519924744 0 0.0016780877207073859 -0.008100048473646787 0 0.0018090575024514268 -0.0081098008142621511 0 0.0016242992867866676 -0.0081865849660065614 0 0.0016780877207073859 -0.008100048473646787 0 0.0016242992867866676 -0.0081865849660065614 0 0.0017182261778997869 -0.0083376369107567121 0 0.0016780877207073859 -0.008100048473646787 0 0.0017182261778997869 -0.0083376369107567121 0 0.0017141767603306808 -0.0081519049109549987 0 0.001541858218522926 -0.0078805373440659441 0 0.0016780877207073859 -0.008100048473646787 0 0.0017141767603306808 -0.0081519049109549987 0 0.0017141767603306808 -0.0081519049109549987 0 0.0016131116613331117 -0.0085527517103479826 0 0.0012919722846706666 -0.0082198753605439139 0 0.0018376645482998709 -0.0084627286060472966 0 0.0017182261778997869 -0.0083376369107567121 0 0.0016131116613331117 -0.0085527517103479826 0 0.0017182261778997869 -0.0083376369107567121 0 0.0017141767603306808 -0.0081519049109549987 0 0.0016131116613331117 -0.0085527517103479826 0 0.0016131116613331117 -0.0085527517103479826 0 0.001558546497973913 -0.0086932849134241427 0 0.00067519533651635175 -0.0092277175098466387 0 0.0018376645482998709 -0.0084627286060472966 0 0.0016131116613331117 -0.0085527517103479826 0 0.001558546497973913 -0.0086932849134241427 0 0.001558546497973913 -0.0086932849134241427 0 0.0017155649695724071 -0.008712174266161183 0 0.00067519533651635175 -0.0092277175098466387 0 0.0018166693151902755 -0.0085648829978130035 0 0.001558546497973913 -0.0086932849134241427 0 0.0017155649695724071 -0.008712174266161183 0 0.00017239199412465294 -0.010104565558822817 0 0.00031802096689169434 -0.0098647978370725812 0 -0.00066310049485425796 -0.012202695486148328 0 0.00067519533651635175 -0.0092277175098466387 0 -0.0016260894367963641 -0.010104551245598746 0 0.00067519533651635175 -0.0092277175098466387 0 -0.0016260894367963641 -0.010104551245598746 0 -0.0013416270148590404 -0.0079973246133299494 0 0.00067519533651635175 -0.0092277175098466387 0 0.0012919722846706666 -0.0082198753605439139 0 -0.0013416270148590404 -0.0079973246133299494 0 0.0016131116613331117 -0.0085527517103479826 0 0.00067519533651635175 -0.0092277175098466387 0 0.0012919722846706666 -0.0082198753605439139 0 0.0012919722846706666 -0.0082198753605439139 0 0.00029213376313360701 -0.0064099694903503807 0 0.0017876917121308249 -0.0077328500004385783 0 -0.001864087504924982 -0.0064206352890889481 0 -8.4995011236097077e-05 -0.0071226170599068429 0 0.0012919722846706666 -0.0082198753605439139 0 0.00029213376313360701 -0.0064099694903503807 0 -0.0013416270148590404 -0.0079973246133299494 0 -0.0033272421877295869 -0.0063762612917748155 0 -0.0054990472319505421 -0.0054725543226495314 0 -0.0040474532906696059 -0.0043580757499104734 0 -0.0033272421877295869 -0.0063762612917748155 0 -0.0009392843259745634 -0.0072743499753045648 0 -0.001998548004033129 -0.004659504301583824 0 -0.0005084760767682466 -0.0056875342001059355 0 0.00063604180585477045 -0.0064434113869839575 0 -0.0009392843259745634 -0.0072743499753045648 0 -0.0005084760767682466 -0.0056875342001059355 0 -0.0009392843259745634 -0.0072743499753045648 0 -0.001998548004033129 -0.004659504301583824 0 0.0018931604920119189 -0.0064815674681903907 0 0.00063604180585477045 -0.0064434113869839575 0 0.00027900412810925629 -0.004350969040446238 0 -0.0005084760767682466 -0.0056875342001059355 0 0.00063604180585477045 -0.0064434113869839575 0 0.00027900412810925629 -0.004350969040446238 0 0.001541858218522926 -0.0078805373440659441 0 0.0015063549117834663 -0.0070658591343768541 0 0.00063604180585477045 -0.0064434113869839575 0 0.001541858218522926 -0.0078805373440659441 0 0.00063604180585477045 -0.0064434113869839575 0 -0.0009392843259745634 -0.0072743499753045648 0 0.001541858218522926 -0.0078805373440659441 0 0.0017141767603306808 -0.0081519049109549987 0 0.0017876917121308249 -0.0077328500004385783 0 0.00068727742738230264 -0.007421212314223909 0 -8.4995011236097077e-05 -0.0071226170599068429 0 0.0017141767603306808 -0.0081519049109549987 0 0.0012919722846706666 -0.0082198753605439139 0 0.0017876917121308249 -0.0077328500004385783 0 -0.010694162357023284 -0.0085001109456647288 0 -0.008737828715928481 -0.011132477863460164 0 -0.0085750917717913565 -0.0075061509975194451 0 -0.0084543442872461495 -0.012559981625712561 0 -0.0098110753583136208 -0.012317809917897457 0 -0.008737828715928481 -0.011132477863460164 0 -0.008737828715928481 -0.011132477863460164 0 -0.0064383833814688814 -0.0096736964403560024 0 -0.0054888781954021484 -0.012773251113329285 0 -0.0060523106692548859 -0.010299283577475102 0 -0.0042840058857513096 -0.010517984199834692 0 -0.0084543442872461495 -0.012559981625712561 0 -0.008737828715928481 -0.011132477863460164 0 -0.00643556255060879 -0.012295645337206156 0 -0.008737828715928481 -0.011132477863460164 0 -0.0064383833814688814 -0.0096736964403560024 0 -0.0085750917717913565 -0.0075061509975194451 0 -0.0064383833814688814 -0.0096736964403560024 0 -0.0038443691554380329 -0.0098572996354206587 0 -0.0053575917672606423 -0.0074289047888227763 0 -0.0064383833814688814 -0.0096736964403560024 0 -0.0038443691554380329 -0.0098572996354206587 0 -0.0054888781954021484 -0.012773251113329285 0 -0.0038443691554380329 -0.0098572996354206587 0 -0.0054888781954021484 -0.012773251113329285 0 -0.0027524924708432481 -0.011890310669785848 0 -0.0019232011126584447 -0.014515962387065087 0 -0.00066310049485425796 -0.012202695486148328 0 -0.0027524924708432481 -0.011890310669785848 0 -0.00066310049485425796 -0.012202695486148328 0 -0.0027524924708432481 -0.011890310669785848 0 -0.0016260894367963641 -0.010104551245598746 0 -0.0038443691554380329 -0.0098572996354206587 0 -0.0016260894367963641 -0.010104551245598746 0 -0.0013416270148590404 -0.0079973246133299494 0 -0.0038443691554380329 -0.0098572996354206587 0 -0.0027524924708432481 -0.011890310669785848 0 -0.0016260894367963641 -0.010104551245598746 0 -0.0013416270148590404 -0.0079973246133299494 0 -0.0031733971871282939 -0.0051681539010512458 0 -0.0053575917672606423 -0.0074289047888227763 0 -0.001864087504924982 -0.0064206352890889481 0 -0.0040363115458738972 -0.0056464650698558154 0 0.00029213376313360701 -0.0064099694903503807 0 -0.0013416270148590404 -0.0079973246133299494 0 -0.0031733971871282939 -0.0051681539010512458 0 -0.0040363115458738972 -0.0056464650698558154 0 -0.0053547369842964357 -0.0052295654585454371 0 -0.0031733971871282939 -0.0051681539010512458 0 -0.0053575917672606423 -0.0074289047888227763 0 -0.0073209604419884689 -0.0047155362848374923 0 -0.0038443691554380329 -0.0098572996354206587 0 -0.0013416270148590404 -0.0079973246133299494 0 -0.0053575917672606423 -0.0074289047888227763 0 -0.0064383833814688814 -0.0096736964403560024 0 -0.0053575917672606423 -0.0074289047888227763 0 -0.0085750917717913565 -0.0075061509975194451 0 -0.0053575917672606423 -0.0074289047888227763 0 -0.0085750917717913565 -0.0075061509975194451 0 -0.0073209604419884689 -0.0047155362848374923 0 -0.011053420032574932 -0.0065171763946342345 0 -0.0085750917717913565 -0.0075061509975194451 0 -0.0098531705593142335 -0.0048977604988949151 0 -0.0085750917717913565 -0.0075061509975194451 0 -0.0098531705593142335 -0.0048977604988949151 0 -0.0073209604419884689 -0.0047155362848374923 0 -0.009140369053097213 -0.0030238933822486439 0 -0.0073209604419884689 -0.0047155362848374923 0 -0.0074284780643498489 -0.0020627828604992226 0 -0.01080577896316723 -0.0033976003171192698 0 -0.009140369053097213 -0.0030238933822486439 0 -0.0098531705593142335 -0.0048977604988949151 0 -0.01080577896316723 -0.0033976003171192698 0 -0.010546117491501245 -0.00201133076133115 0 -0.009140369053097213 -0.0030238933822486439 0 -0.009140369053097213 -0.0030238933822486439 0 -0.0098531705593142335 -0.0048977604988949151 0 -0.0073209604419884689 -0.0047155362848374923 0 -0.0073209604419884689 -0.0047155362848374923 0 -0.006066748042279863 -0.0035926492786293083 0 -0.0074284780643498489 -0.0020627828604992226 0 -0.006066748042279863 -0.0035926492786293083 0 -0.0059161622465928008 -0.0019589434200564691 0 -0.0074284780643498489 -0.0020627828604992226 0 -0.0054990472319505421 -0.0054725543226495314 0 -0.0073209604419884689 -0.0047155362848374923 0 -0.006066748042279863 -0.0035926492786293083 0 -0.0054990472319505421 -0.0054725543226495314 0 -0.006066748042279863 -0.0035926492786293083 0 -0.0040474532906696059 -0.0043580757499104734 0 -0.006066748042279863 -0.0035926492786293083 0 -0.0046505295473240121 -0.0025965625452069522 0 -0.0040474532906696059 -0.0043580757499104734 0 -0.006066748042279863 -0.0035926492786293083 0 -0.0046505295473240121 -0.0025965625452069522 0 -0.0059161622465928008 -0.0019589434200564691 0 -0.0046505295473240121 -0.0025965625452069522 0 -0.0048797496234652344 -0.0010345536894457148 0 -0.0059161622465928008 -0.0019589434200564691 0 -0.0048797496234652344 -0.0010345536894457148 0 -0.0038211089813530975 -0.00032865253771975378 0 -0.0049978823264085629 0.00056516399879747716 0 -0.0048797496234652344 -0.0010345536894457148 0 -0.0065871023096211335 -0.00044572143419782645 0 -0.0049978823264085629 0.00056516399879747716 0 -0.0065871023096211335 -0.00044572143419782645 0 -0.0062865081855390473 0.00087368298692031866 0 -0.0049978823264085629 0.00056516399879747716 0 -0.0065871023096211335 -0.00044572143419782645 0 -0.0080651284078988861 0.00089399728772279405 0 -0.0062865081855390473 0.00087368298692031866 0 -0.0048797496234652344 -0.0010345536894457148 0 -0.0065871023096211335 -0.00044572143419782645 0 -0.0059161622465928008 -0.0019589434200564691 0 -0.0065871023096211335 -0.00044572143419782645 0 -0.0059161622465928008 -0.0019589434200564691 0 -0.0074284780643498489 -0.0020627828604992226 0 -0.0065871023096211335 -0.00044572143419782645 0 -0.0074284780643498489 -0.0020627828604992226 0 -0.0090602544990615926 -0.00081615594355198952 0 -0.009140369053097213 -0.0030238933822486439 0 -0.0074284780643498489 -0.0020627828604992226 0 -0.0090602544990615926 -0.00081615594355198952 0 -0.0065871023096211335 -0.00044572143419782645 0 -0.0090602544990615926 -0.00081615594355198952 0 -0.0080651284078988861 0.00089399728772279405 0 -0.010987856131122872 -0.00037919585441512901 0 -0.010452460144664659 0.0014188177966218888 0 -0.0090602544990615926 -0.00081615594355198952 0 -0.010546117491501245 -0.00201133076133115 0 -0.009140369053097213 -0.0030238933822486439 0 -0.0090602544990615926 -0.00081615594355198952 0 -0.010987856131122872 -0.00037919585441512901 0 -0.010546117491501245 -0.00201133076133115 0 -0.0090602544990615926 -0.00081615594355198952 0 -0.0016249547061060537 -0.0024566992571486983 0 -0.00039866041918878748 -0.0028149324833462385 0 -0.0003280562227847278 -0.0040163020130601938 0 -0.0016249547061060537 -0.0024566992571486983 0 0.00027900412810925629 -0.004350969040446238 0 -0.001998548004033129 -0.004659504301583824 0 -0.00074830595490207982 -0.0035942655019874526 0 -5.636266322464591e-07 -0.0044397902349328786 0 0.00065405731884460479 -0.0033857995111716589 0 -0.00039866041918878748 -0.0028149324833462385 0 -0.00022989176359652862 -0.0024064426676471671 0 0.00065405731884460479 -0.0033857995111716589 0 4.8343810657342199e-05 -0.0035380269428582399 0 0.00027637724178423972 -0.0039362611905702592 0 0.00065405731884460479 -0.0033857995111716589 0 -0.00039866041918878748 -0.0028149324833462385 0 4.8343810657342199e-05 -0.0035380269428582399 0 -0.00039866041918878748 -0.0028149324833462385 0 4.8343810657342199e-05 -0.0035380269428582399 0 -0.0003280562227847278 -0.0040163020130601938 0 0.00057990824240209066 -0.0045294864952892195 0 0.00096320168137353844 -0.0057210402471543137 0 -0.0003280562227847278 -0.0040163020130601938 0 0.0011602405631715217 -0.0058278395950319964 0 -5.636266322464591e-07 -0.0044397902349328786 0 0.00057990824240209066 -0.0045294864952892195 0 -0.0003280562227847278 -0.0040163020130601938 0 0.00027637724178423972 -0.0039362611905702592 0 4.8343810657342199e-05 -0.0035380269428582399 0 -0.0003280562227847278 -0.0040163020130601938 0 0.00027637724178423972 -0.0039362611905702592 0 0.00065405731884460479 -0.0033857995111716589 0 0.00057990824240209066 -0.0045294864952892195 0 0.00027637724178423972 -0.0039362611905702592 0 -0.0005084760767682466 -0.0056875342001059355 0 0.00027900412810925629 -0.004350969040446238 0 -0.001998548004033129 -0.004659504301583824 0 -0.0033272421877295869 -0.0063762612917748155 0 -0.001998548004033129 -0.004659504301583824 0 -0.0040474532906696059 -0.0043580757499104734 0 -0.001998548004033129 -0.004659504301583824 0 -0.0040474532906696059 -0.0043580757499104734 0 -0.0030290824904647771 -0.0027866691763792175 0 -0.0046505295473240121 -0.0025965625452069522 0 -0.0040474532906696059 -0.0043580757499104734 0 -0.0030290824904647771 -0.0027866691763792175 0 -0.0016249547061060537 -0.0024566992571486983 0 -0.001998548004033129 -0.004659504301583824 0 -0.0030290824904647771 -0.0027866691763792175 0 -0.0016249547061060537 -0.0024566992571486983 0 -0.0030290824904647771 -0.0027866691763792175 0 -0.0020667307713377035 -0.0014540733651900327 0 -0.0030290824904647771 -0.0027866691763792175 0 -0.0020667307713377035 -0.0014540733651900327 0 -0.0035070141168800965 -0.0013758464331095415 0 -0.0020667307713377035 -0.0014540733651900327 0 -0.0035070141168800965 -0.0013758464331095415 0 -0.0028237252442206927 -0.00051733741977782761 0 -0.0046505295473240121 -0.0025965625452069522 0 -0.0030290824904647771 -0.0027866691763792175 0 -0.0035070141168800965 -0.0013758464331095415 0 -0.0046505295473240121 -0.0025965625452069522 0 -0.0048797496234652344 -0.0010345536894457148 0 -0.0035070141168800965 -0.0013758464331095415 0 -0.0038211089813530975 -0.00032865253771975378 0 -0.0029708828778041022 0.00059742334378942979 0 -0.0049978823264085629 0.00056516399879747716 0 -0.0048797496234652344 -0.0010345536894457148 0 -0.0035070141168800965 -0.0013758464331095415 0 -0.0038211089813530975 -0.00032865253771975378 0 -0.0035070141168800965 -0.0013758464331095415 0 -0.0038211089813530975 -0.00032865253771975378 0 -0.0028237252442206927 -0.00051733741977782761 0 -0.0038211089813530975 -0.00032865253771975378 0 -0.0028237252442206927 -0.00051733741977782761 0 -0.0029708828778041022 0.00059742334378942979 0 -0.0020667307713377035 -0.0014540733651900327 0 -0.0028237252442206927 -0.00051733741977782761 0 -0.0018456006529144751 -0.00025668690875774262 0 -0.0056974959679430542 -7.1373106534861115e-05 0 -0.0096624244169651579 0.0018756143056360862 0 -0.0028237252442206927 -0.00051733741977782761 0 -0.0018456006529144751 -0.00025668690875774262 0 -0.0029708828778041022 0.00059742334378942979 0 -0.015618106386615756 0.0070597765326301919 0 -0.015383541288652281 0.0053269871926157532 0 -0.013834621647206693 0.0041565029483481859 0 -0.010077573333838715 0.0017260555144842362 0 -0.013472107071819048 0.002203491421348958 0 -0.0020667307713377035 -0.0014540733651900327 0 -0.0018456006529144751 -0.00025668690875774262 0 -0.00082798511817584503 -0.0010381460162933497 0 -0.00082798511817584503 -0.0010381460162933497 0 -0.00023829426007479027 -0.0014446262100443121 0 -0.0015980619260671572 0.0010312127645650316 0 -0.0022432078212874045 -8.8422983373338327e-05 0 -0.00082798511817584503 -0.0010381460162933497 0 -0.0015980619260671572 0.0010312127645650316 0 -0.0056974959679430542 -7.1373106534861115e-05 0 -0.0044774546937877829 -0.00066995970556009584 0 -0.0016249547061060537 -0.0024566992571486983 0 -0.00039866041918878748 -0.0028149324833462385 0 -0.00096820068452864265 -0.0019746275795894802 0 -0.0020667307713377035 -0.0014540733651900327 0 -0.00082798511817584503 -0.0010381460162933497 0 -0.00096820068452864265 -0.0019746275795894802 0 -0.00082798511817584503 -0.0010381460162933497 0 -0.00096820068452864265 -0.0019746275795894802 0 -0.00023829426007479027 -0.0014446262100443121 0 -0.00039866041918878748 -0.0028149324833462385 0 -0.00096820068452864265 -0.0019746275795894802 0 -0.00022989176359652862 -0.0024064426676471671 0 -0.0016249547061060537 -0.0024566992571486983 0 -0.0020667307713377035 -0.0014540733651900327 0 -0.00096820068452864265 -0.0019746275795894802 0 -0.0085523683540064607 0.0012978619444181849 0 -0.010077573333838715 0.0017260555144842362 0 -0.016841807040008309 0.0076052381860120593 0 -0.01702099688910956 0.00847162432942479 0 -0.015618106386615756 0.0070597765326301919 0 0.00065405731884460479 -0.0033857995111716589 0 -0.00022989176359652862 -0.0024064426676471671 0 -0.00023829426007479027 -0.0014446262100443121 0 -0.00096820068452864265 -0.0019746275795894802 0 -0.00022989176359652862 -0.0024064426676471671 0 -0.00023829426007479027 -0.0014446262100443121 0 -0.016841807040008309 0.0076052381860120593 0 -0.015618106386615756 0.0070597765326301919 0 -0.016585411771172419 0.0062772981876823694 0 -0.015618106386615756 0.0070597765326301919 0 -0.016585411771172419 0.0062772981876823694 0 -0.015383541288652281 0.0053269871926157532 0 -0.017339012081057033 0.0053387818916451699 0 -0.016601516123636379 0.0052049110537557 0 -0.017104217020153117 0.0038550049120974887 0 -0.015383541288652281 0.0053269871926157532 0 -0.016601516123636379 0.0052049110537557 0 -0.017104217020153117 0.0038550049120974887 0 -0.017339012081057033 0.0053387818916451699 0 -0.016585411771172419 0.0062772981876823694 0 -0.016601516123636379 0.0052049110537557 0 -0.016585411771172419 0.0062772981876823694 0 -0.015383541288652281 0.0053269871926157532 0 -0.016601516123636379 0.0052049110537557 0 -0.015383541288652281 0.0053269871926157532 0 -0.013834621647206693 0.0041565029483481859 0 -0.017104217020153117 0.0038550049120974887 0 -0.013472107071819048 0.002203491421348958 0 -0.018224169106968155 0.0027995865507280397 0 -0.021358065394014986 0.0035665624260836407 0 -0.021445164610903848 0.0034284087723744612 0 -0.021220880758255442 0.0034608960002404827 0 -0.021245777708555281 0.003612174374206746 0 -0.021358065394014986 0.0035665624260836407 0 -0.021220880758255442 0.0034608960002404827 0 -0.021358065394014986 0.0035665624260836407 0 -0.021296011769170488 0.0035999336441784554 0 -0.02133998836156379 0.0035917220005938794 0 -0.021245777708555281 0.003612174374206746 0 -0.021296011769170488 0.0035999336441784554 0 -0.021257915828824955 0.0036181930030602404 0 -0.021245777708555281 0.003612174374206746 0 -0.021358065394014986 0.0035665624260836407 0 -0.021296011769170488 0.0035999336441784554 0 -0.021358065394014986 0.0035665624260836407 0 -0.021713255913985555 0.0035268886227150945 0 -0.021415940937133119 0.0036196203094542249 0 -0.022148626701590918 0.0037757717808244756 0 -0.022216735086124331 0.0038424799993344158 0 -0.021358065394014986 0.0035665624260836407 0 -0.021445164610903848 0.0034284087723744612 0 -0.021713255913985555 0.0035268886227150945 0 -0.021445164610903848 0.0034284087723744612 0 -0.021471198002960878 0.0032120234512341955 0 -0.021220880758255442 0.0034608960002404827 0 -0.021445164610903848 0.0034284087723744612 0 -0.021471198002960878 0.0032120234512341955 0 -0.021713255913985555 0.0035268886227150945 0 -0.021078903999414329 0.0021098026681305474 0 -0.022448469218281596 0.0020131869801989018 0 -0.022615532002435327 0.0030140893896183395 0 -0.0022432078212874045 -8.8422983373338327e-05 0 -0.0015980619260671572 0.0010312127645650316 0 -0.0037000462159658114 0.0009073941644278567 0 -0.013472107071819048 0.002203491421348958 0 -0.0096624244169651579 0.0018756143056360862 0 -0.0096624244169651579 0.0018756143056360862 0 -0.0067550436102296711 0.001772451244148145 0 -0.0028001614768760267 0.00073468290831256162 0 -0.0049978823264085629 0.00056516399879747716 0 -0.0050190575863483557 0.0023121393790321086 0 -0.022448469218281596 0.0020131869801989018 0 -0.022615532002435327 0.0030140893896183395 0 -0.024026034321034822 0.0032599568293490179 0 -0.0096624244169651579 0.0018756143056360862 0 -0.013630400574752743 0.0031497033077199726 0 -0.022615532002435327 0.0030140893896183395 0 -0.023344880951153741 0.0038543186525133812 0 -0.024026034321034822 0.0032599568293490179 0 -0.022615532002435327 0.0030140893896183395 0 -0.02207237063619891 0.0037958055059518644 0 -0.023344880951153741 0.0038543186525133812 0 -0.013472107071819048 0.002203491421348958 0 -0.016793991003825632 0.0044783559010930819 0 -0.021471198002960878 0.0032120234512341955 0 -0.021713255913985555 0.0035268886227150945 0 -0.02207237063619891 0.0037958055059518644 0 -0.021713255913985555 0.0035268886227150945 0 -0.02207237063619891 0.0037958055059518644 0 -0.021494745285953507 0.0041803977599704579 0 -0.021078903999414329 0.0021098026681305474 0 -0.022615532002435327 0.0030140893896183395 0 -0.02207237063619891 0.0037958055059518644 0 -0.02207237063619891 0.0037958055059518644 0 -0.02192031918295172 0.0044904075195732413 0 -0.021494745285953507 0.0041803977599704579 0 -0.02207237063619891 0.0037958055059518644 0 -0.02192031918295172 0.0044904075195732413 0 -0.02264692525445185 0.0043090784711944151 0 -0.02192031918295172 0.0044904075195732413 0 -0.02264692525445185 0.0043090784711944151 0 -0.022182490397338127 0.0050012378504938181 0 -0.02207237063619891 0.0037958055059518644 0 -0.023344880951153741 0.0038543186525133812 0 -0.02264692525445185 0.0043090784711944151 0 -0.02264692525445185 0.0043090784711944151 0 -0.023272818289131886 0.0047681100137982073 0 -0.022182490397338127 0.0050012378504938181 0 -0.023344880951153741 0.0038543186525133812 0 -0.02264692525445185 0.0043090784711944151 0 -0.023272818289131886 0.0047681100137982073 0 -0.023344880951153741 0.0038543186525133812 0 -0.023272818289131886 0.0047681100137982073 0 -0.024171273505301565 0.0041997048061533501 0 -0.023315210905600091 0.0037758531437639548 0 -0.022790727150010251 0.0038369190514071796 0 -0.024485071167321241 0.0042443707313083757 0 -0.024506116708867477 0.0041193273476450498 0 -0.02472143567309884 0.0041283268251203955 0 -0.024506116708867477 0.0041193273476450498 0 -0.02472143567309884 0.0041283268251203955 0 -0.024631908624273034 0.0040284445613135138 0 -0.023315210905600091 0.0037758531437639548 0 -0.023400242490650799 0.0035998518378355477 0 -0.024485071167321241 0.0042443707313083757 0 -0.024506116708867477 0.0041193273476450498 0 -0.024303932446628668 0.0041912926047231345 0 -0.023043964896590233 0.0037654194694533593 0 -0.023055611015776318 0.0037170891965287098 0 -0.022894318410495398 0.0037565738245027773 0 -0.022790727150010251 0.0038369190514071796 0 -0.022559742270891969 0.0036956065606811054 0 -0.02192031918295172 0.0044904075195732413 0 -0.022182490397338127 0.0050012378504938181 0 -0.021220735448543627 0.005217753997491326 0 -0.023218231784943606 0.003678852511251691 0 -0.023043964896590233 0.0037654194694533593 0 -0.023055611015776318 0.0037170891965287098 0 -0.023400242490650799 0.0035998518378355477 0 -0.022979207461473035 0.003465797974201921 0 -0.023043964896590233 0.0037654194694533593 0 -0.022894318410495398 0.0037565738245027773 0 -0.022871118471431119 0.0038528679846807144 0 -0.021278503153649462 0.0035063079468931088 0 -0.021326628177915107 0.0034840519823862246 0 -0.021328417118560181 0.0035611876455713403 0 -0.022559742270891969 0.0036956065606811054 0 -0.022979207461473035 0.003465797974201921 0 -0.021278503153649462 0.0035063079468931088 0 -0.021359332941158604 0.0033072860828988557 0 -0.021326628177915107 0.0034840519823862246 0 -0.02250732844138122 0.0029634258142286866 0 -0.022298843124399104 0.0030108079965482097 0 -0.022484025746513338 0.0030601446998398752 0 -0.022559742270891969 0.0036956065606811054 0 -0.022127974756398761 0.0035272532896629041 0 -0.021359332941158604 0.0033072860828988557 0 -0.021326628177915107 0.0034840519823862246 0 -0.021429872822828426 0.0034649403078242783 0 -0.021326628177915107 0.0034840519823862246 0 -0.02132027047405622 0.0035658121286863327 0 -0.021328417118560181 0.0035611876455713403 0 -0.02132027047405622 0.0035658121286863327 0 -0.02133998836156379 0.0035917220005938794 0 -0.021328417118560181 0.0035611876455713403 0 -0.021326628177915107 0.0034840519823862246 0 -0.02132027047405622 0.0035658121286863327 0 -0.021429872822828426 0.0034649403078242783 0 -0.021296011769170488 0.0035999336441784554 0 -0.02132027047405622 0.0035658121286863327 0 -0.021257915828824955 0.0036181930030602404 0 -0.021296011769170488 0.0035999336441784554 0 -0.02132027047405622 0.0035658121286863327 0 -0.02133998836156379 0.0035917220005938794 0 -0.022559742270891969 0.0036956065606811054 0 -0.022216735086124331 0.0038424799993344158 0 -0.02192031918295172 0.0044904075195732413 0 -0.021220735448543627 0.005217753997491326 0 -0.021494745285953507 0.0041803977599704579 0 -0.021358065394014986 0.0035665624260836407 0 -0.02133998836156379 0.0035917220005938794 0 -0.021415940937133119 0.0036196203094542249 0 -0.02133998836156379 0.0035917220005938794 0 -0.021415940937133119 0.0036196203094542249 0 -0.021328417118560181 0.0035611876455713403 0 -0.021278503153649462 0.0035063079468931088 0 -0.021415940937133119 0.0036196203094542249 0 -0.021328417118560181 0.0035611876455713403 0 -0.010452460144664659 0.0014188177966218888 0 -0.01030251757959594 0.0033798270909323638 0 -0.0086064305689082018 0.0027914503548502204 0 -0.010452460144664659 0.0014188177966218888 0 -0.0080651284078988861 0.00089399728772279405 0 -0.0086064305689082018 0.0027914503548502204 0 -0.010452460144664659 0.0014188177966218888 0 -0.0090602544990615926 -0.00081615594355198952 0 -0.0080651284078988861 0.00089399728772279405 0 -0.0080651284078988861 0.00089399728772279405 0 -0.0086064305689082018 0.0027914503548502204 0 -0.0068003097770122332 0.0021594790616809483 0 -0.0086064305689082018 0.0027914503548502204 0 -0.0068003097770122332 0.0021594790616809483 0 -0.0072818199599702944 0.0039609689249277035 0 -0.0068003097770122332 0.0021594790616809483 0 -0.0050190575863483557 0.0023121393790321086 0 -0.0072818199599702944 0.0039609689249277035 0 -0.024026034321034822 0.0032599568293490179 0 -0.024152205716320246 0.0037881650583787242 0 -0.024514209038359845 0.0041133686241853328 0 -0.013630400574752743 0.0031497033077199726 0 -0.015738874603550872 0.0038463323805050819 0 -0.0068003097770122332 0.0021594790616809483 0 -0.0062865081855390473 0.00087368298692031866 0 -0.0050190575863483557 0.0023121393790321086 0 -0.0080651284078988861 0.00089399728772279405 0 -0.0068003097770122332 0.0021594790616809483 0 -0.0062865081855390473 0.00087368298692031866 0 -0.0062865081855390473 0.00087368298692031866 0 -0.0049978823264085629 0.00056516399879747716 0 -0.0050190575863483557 0.0023121393790321086 0 -0.023344880951153741 0.0038543186525133812 0 -0.024026034321034822 0.0032599568293490179 0 -0.024152205716320246 0.0037881650583787242 0 -0.023344880951153741 0.0038543186525133812 0 -0.024152205716320246 0.0037881650583787242 0 -0.024171273505301565 0.0041997048061533501 0 -0.024152205716320246 0.0037881650583787242 0 -0.024171273505301565 0.0041997048061533501 0 -0.024324866861531895 0.0040879928671584756 0 -0.024171273505301565 0.0041997048061533501 0 -0.024303932446628668 0.0041912926047231345 0 -0.024324866861531895 0.0040879928671584756 0 -0.023315210905600091 0.0037758531437639548 0 -0.023453513463449933 0.0037735132314763368 0 -0.024485071167321241 0.0042443707313083757 0 -0.024171273505301565 0.0041997048061533501 0 -0.024303932446628668 0.0041912926047231345 0 -0.024303932446628668 0.0041912926047231345 0 -0.024332323858673191 0.0041393547664807647 0 -0.024324866861531895 0.0040879928671584756 0 -0.024506116708867477 0.0041193273476450498 0 -0.024303932446628668 0.0041912926047231345 0 -0.024332323858673191 0.0041393547664807647 0 -0.024506116708867477 0.0041193273476450498 0 -0.024332323858673191 0.0041393547664807647 0 -0.024457763510473268 0.00404981505565898 0 -0.025153111356656457 0.0036659238063288116 0 -0.025410918585845932 0.0034177765848267495 0 -0.024332323858673191 0.0041393547664807647 0 -0.024324866861531895 0.0040879928671584756 0 -0.024247866390574822 0.0041098199822618576 0 -0.024152205716320246 0.0037881650583787242 0 -0.024514209038359845 0.0041133686241853328 0 -0.024324866861531895 0.0040879928671584756 0 -0.024514209038359845 0.0041133686241853328 0 -0.024324866861531895 0.0040879928671584756 0 -0.024514808100559671 0.0040531716375022753 0 -0.015738874603550872 0.0038463323805050819 0 -0.017413928879526488 0.0042149221395684612 0 -0.0086064305689082018 0.0027914503548502204 0 -0.0072818199599702944 0.0039609689249277035 0 -0.0096310058842397194 0.0056059643087105013 0 -0.024514209038359845 0.0041133686241853328 0 -0.024348787449739191 0.0040973380352793643 0 -0.024514808100559671 0.0040531716375022753 0 -0.011277980714665837 0.004462899931802853 0 -0.01030251757959594 0.0033798270909323638 0 -0.0096310058842397194 0.0056059643087105013 0 -0.01030251757959594 0.0033798270909323638 0 -0.0086064305689082018 0.0027914503548502204 0 -0.0096310058842397194 0.0056059643087105013 0 -0.024284200578195594 0.0037926888470837979 0 -0.02437883080729368 0.0038210979009152641 0 -0.024357223563076874 0.0037012442996185173 0 -0.02437883080729368 0.0038210979009152641 0 -0.02440913152180138 0.0037416656181174825 0 -0.024357223563076874 0.0037012442996185173 0 -0.024284200578195594 0.0037926888470837979 0 -0.02437883080729368 0.0038210979009152641 0 -0.02435205456041746 0.0039394285666985596 0 -0.024232040360561615 0.0039218013611554492 0 -0.024284200578195594 0.0037926888470837979 0 -0.02435205456041746 0.0039394285666985596 0 -0.024232040360561615 0.0039218013611554492 0 -0.024348787449739191 0.0040973380352793643 0 -0.02435205456041746 0.0039394285666985596 0 -0.024348787449739191 0.0040973380352793643 0 -0.02435205456041746 0.0039394285666985596 0 -0.024514808100559671 0.0040531716375022753 0 -0.02437883080729368 0.0038210979009152641 0 -0.02435205456041746 0.0039394285666985596 0 -0.024514808100559671 0.0040531716375022753 0 -0.026225997618922678 0.002142317202633959 0 -0.025410918585845932 0.0034177765848267495 0 -0.02437883080729368 0.0038210979009152641 0 -0.024479931182082582 0.0037821547814787843 0 -0.024514808100559671 0.0040531716375022753 0 -0.024014939978171435 0.0037069974040866249 0 -0.024156421642111386 0.0038087632319153903 0 -0.024247866390574822 0.0041098199822618576 0 -0.02437883080729368 0.0038210979009152641 0 -0.024479931182082582 0.0037821547814787843 0 -0.02440913152180138 0.0037416656181174825 0 -0.024014939978171435 0.0037069974040866249 0 -0.024070860514298343 0.0036928956525603038 0 -0.024097086225707512 0.0037308525733214149 0 -0.024014939978171435 0.0037069974040866249 0 -0.024070860514298343 0.0036928956525603038 0 -0.024104908343866104 0.0036103174473319172 0 -0.024070860514298343 0.0036928956525603038 0 -0.02413774652013435 0.0037048056394281214 0 -0.024104908343866104 0.0036103174473319172 0 -0.024070860514298343 0.0036928956525603038 0 -0.02413774652013435 0.0037048056394281214 0 -0.024097086225707512 0.0037308525733214149 0 -0.024014939978171435 0.0037069974040866249 0 -0.024097086225707512 0.0037308525733214149 0 -0.024156421642111386 0.0038087632319153903 0 -0.02413774652013435 0.0037048056394281214 0 -0.024097086225707512 0.0037308525733214149 0 -0.024156421642111386 0.0038087632319153903 0 -0.024211351847771963 0.003743786938299382 0 -0.024212712274505929 0.0036473354511410505 0 -0.024366693291189099 0.0036750539711904824 0 -0.02413774652013435 0.0037048056394281214 0 -0.024211351847771963 0.003743786938299382 0 -0.024156421642111386 0.0038087632319153903 0 -0.02413774652013435 0.0037048056394281214 0 -0.024211351847771963 0.003743786938299382 0 -0.024212712274505929 0.0036473354511410505 0 -0.02413774652013435 0.0037048056394281214 0 -0.024212712274505929 0.0036473354511410505 0 -0.024104908343866104 0.0036103174473319172 0 -0.024366693291189099 0.0036750539711904824 0 -0.024302136151635064 0.0038128415378102507 0 -0.024458498582900362 0.0038217746817450866 0 -0.024211351847771963 0.003743786938299382 0 -0.024366693291189099 0.0036750539711904824 0 -0.024302136151635064 0.0038128415378102507 0 -0.024302136151635064 0.0038128415378102507 0 -0.024337256349097041 0.0040082803684827004 0 -0.024458498582900362 0.0038217746817450866 0 -0.024211351847771963 0.003743786938299382 0 -0.024302136151635064 0.0038128415378102507 0 -0.024156421642111386 0.0038087632319153903 0 -0.024302136151635064 0.0038128415378102507 0 -0.024156421642111386 0.0038087632319153903 0 -0.024337256349097041 0.0040082803684827004 0 -0.024332323858673191 0.0041393547664807647 0 -0.024247866390574822 0.0041098199822618576 0 -0.024337256349097041 0.0040082803684827004 0 -0.024156421642111386 0.0038087632319153903 0 -0.024247866390574822 0.0041098199822618576 0 -0.024337256349097041 0.0040082803684827004 0 -0.024337256349097041 0.0040082803684827004 0 -0.024493049762298904 0.0039423310161810698 0 -0.024458498582900362 0.0038217746817450866 0 -0.024337256349097041 0.0040082803684827004 0 -0.024457763510473268 0.00404981505565898 0 -0.024493049762298904 0.0039423310161810698 0 -0.024332323858673191 0.0041393547664807647 0 -0.024337256349097041 0.0040082803684827004 0 -0.024457763510473268 0.00404981505565898 0 -0.024457763510473268 0.00404981505565898 0 -0.024493049762298904 0.0039423310161810698 0 -0.024631908624273034 0.0040284445613135138 0 -0.024802622786797974 0.0036779358995260763 0 -0.024950992965939046 0.0034465864451722708 0 -0.024493049762298904 0.0039423310161810698 0 -0.024630917287349029 0.0036996590333173707 0 -0.024964827361834495 0.0035228012253850686 0 -0.024493049762298904 0.0039423310161810698 0 -0.024458498582900362 0.0038217746817450866 0 -0.024630917287349029 0.0036996590333173707 0 -0.024366693291189099 0.0036750539711904824 0 -0.024458498582900362 0.0038217746817450866 0 -0.024630917287349029 0.0036996590333173707 0 -0.024630917287349029 0.0036996590333173707 0 -0.024911765953904288 0.0033448715575827778 0 -0.024964827361834495 0.0035228012253850686 0 -0.024630917287349029 0.0036996590333173707 0 -0.024487767874919259 0.0034769087363283897 0 -0.024750969507426133 0.0032594211911028195 0 -0.024915897276304833 0.0034301409782458974 0 -0.025002554688762696 0.0032107735519085021 0 -0.024366693291189099 0.0036750539711904824 0 -0.024630917287349029 0.0036996590333173707 0 -0.024487767874919259 0.0034769087363283897 0 -0.024487767874919259 0.0034769087363283897 0 -0.024750969507426133 0.0032594211911028195 0 -0.024431869013768186 0.0032555100122501975 0 -0.024866197670642992 0.002801021071367218 0 -0.024750969507426133 0.0032594211911028195 0 -0.024574760655717568 0.0030074298492951627 0 -0.024750969507426133 0.0032594211911028195 0 -0.024574760655717568 0.0030074298492951627 0 -0.024431869013768186 0.0032555100122501975 0 -0.024574760655717568 0.0030074298492951627 0 -0.024431869013768186 0.0032555100122501975 0 -0.024222507352367122 0.0030432730439087846 0 -0.024431869013768186 0.0032555100122501975 0 -0.024222507352367122 0.0030432730439087846 0 -0.024174259289286057 0.003334541616489294 0 -0.024174259289286057 0.003334541616489294 0 -0.024270898725251316 0.0034921451473019145 0 -0.024066098070057874 0.0034985889868467891 0 -0.024487767874919259 0.0034769087363283897 0 -0.024431869013768186 0.0032555100122501975 0 -0.024270898725251316 0.0034921451473019145 0 -0.024431869013768186 0.0032555100122501975 0 -0.024174259289286057 0.003334541616489294 0 -0.024270898725251316 0.0034921451473019145 0 -0.024212712274505929 0.0036473354511410505 0 -0.024366693291189099 0.0036750539711904824 0 -0.024270898725251316 0.0034921451473019145 0 -0.024366693291189099 0.0036750539711904824 0 -0.024487767874919259 0.0034769087363283897 0 -0.024270898725251316 0.0034921451473019145 0 -0.024212712274505929 0.0036473354511410505 0 -0.024270898725251316 0.0034921451473019145 0 -0.024104908343866104 0.0036103174473319172 0 -0.024270898725251316 0.0034921451473019145 0 -0.024066098070057874 0.0034985889868467891 0 -0.024104908343866104 0.0036103174473319172 0 -0.026264815272466061 0.0017341651686382366 0 -0.026343145861650392 0.0019506202538941962 0 -0.026388083364564528 0.0019095577359707783 0 -0.026225997618922678 0.002142317202633959 0 -0.026652146309154866 0.0011823210076797816 0 -0.024014939978171435 0.0037069974040866249 0 -0.024066098070057874 0.0034985889868467891 0 -0.023883158816593079 0.0033783356822013224 0 -0.024014939978171435 0.0037069974040866249 0 -0.024066098070057874 0.0034985889868467891 0 -0.024104908343866104 0.0036103174473319172 0 -0.026225997618922678 0.002142317202633959 0 -0.026518952746824326 0.0015513882977089169 0 -0.024479931182082582 0.0037821547814787843 0 -0.02440913152180138 0.0037416656181174825 0 -0.024409172143096972 0.003655008601639699 0 -0.026652146309154866 0.0011823210076797816 0 -0.026518952746824326 0.0015513882977089169 0 -0.024174259289286057 0.003334541616489294 0 -0.024066098070057874 0.0034985889868467891 0 -0.023883158816593079 0.0033783356822013224 0 -0.029306824220085657 -0.0021390642283503642 0 -0.028928841178228352 -0.0032280129820902257 0 -0.028786667058491328 -0.0024665501003601049 0 -0.028138985832000307 -0.0025320101278651455 0 -0.028928841178228352 -0.0032280129820902257 0 -0.028786667058491328 -0.0024665501003601049 0 -0.024222507352367122 0.0030432730439087846 0 -0.024174259289286057 0.003334541616489294 0 -0.023883158816593079 0.0033783356822013224 0 -0.026448183393961454 0.00081145477253788574 0 -0.026652146309154866 0.0011823210076797816 0 -0.029306824220085657 -0.0021390642283503642 0 -0.029026750290179201 -0.0029220104551033093 0 -0.029443082283219048 -0.0025963510824958823 0 -0.026870164881847774 -0.00055047037480391897 0 -0.026652146309154866 0.0011823210076797816 0 -0.026950032977854289 0.00062911840648575783 0 -0.026518952746824326 0.0015513882977089169 0 -0.029791700713767886 -0.0021449777275807497 0 -0.029549641396082408 -0.0021578863763080623 0 -0.029443082283219048 -0.0025963510824958823 0 -0.027463366863007863 -0.00015451081282597326 0 -0.026950032977854289 0.00062911840648575783 0 -0.024230535550135154 0.0036199772070680362 0 -0.024336110547786238 0.0034968605549726231 0 -0.024335093612048157 0.0035999341706060149 0 -0.024230535550135154 0.0036199772070680362 0 -0.024335093612048157 0.0035999341706060149 0 -0.024357223563076874 0.0037012442996185173 0 -0.024230535550135154 0.0036199772070680362 0 -0.024284200578195594 0.0037926888470837979 0 -0.024357223563076874 0.0037012442996185173 0 -0.024335093612048157 0.0035999341706060149 0 -0.024428748671279445 0.003638342392201851 0 -0.024357223563076874 0.0037012442996185173 0 -0.029026750290179201 -0.0029220104551033093 0 -0.029443082283219048 -0.0025963510824958823 0 -0.029135513062977993 -0.0030207045115637032 0 -0.024336110547786238 0.0034968605549726231 0 -0.024335093612048157 0.0035999341706060149 0 -0.024428748671279445 0.003638342392201851 0 -0.02440913152180138 0.0037416656181174825 0 -0.024409172143096972 0.003655008601639699 0 -0.024357223563076874 0.0037012442996185173 0 -0.026518952746824326 0.0015513882977089169 0 -0.026302823006256727 0.0017537811053788678 0 -0.024798320091495012 0.0039547080719661044 0 -0.024873380156153577 0.0038988103661844165 0 -0.024812783418254492 0.0038351098458844191 0 -0.023738947556249942 0.0034514961128300496 0 -0.022979207461473035 0.003465797974201921 0 -0.024798320091495012 0.0039547080719661044 0 -0.024718129833399858 0.003938425993836544 0 -0.024812783418254492 0.0038351098458844191 0 -0.024798320091495012 0.0039547080719661044 0 -0.024873380156153577 0.0038988103661844165 0 -0.024836213011041879 0.0040620151064630758 0 -0.022539986871163733 0.0031844308351306641 0 -0.022470037213196434 0.0031628747837957097 0 -0.022488282392822748 0.0030716534058354361 0 -0.022539986871163733 0.0031844308351306641 0 -0.022470037213196434 0.0031628747837957097 0 -0.022496583572860929 0.0032031772244349591 0 -0.022298843124399104 0.0030108079965482097 0 -0.022289257885900488 0.0031557901843762776 0 -0.022484025746513338 0.0030601446998398752 0 -0.022539986871163733 0.0031844308351306641 0 -0.022488282392822748 0.0030716534058354361 0 -0.022593473344051335 0.0030190074011128432 0 -0.022667576360456167 0.003412639753552253 0 -0.022979207461473035 0.003465797974201921 0 -0.024798320091495012 0.0039547080719661044 0 -0.024836213011041879 0.0040620151064630758 0 -0.024745482917380351 0.0040293577167103975 0 -0.02472143567309884 0.0041283268251203955 0 -0.024836213011041879 0.0040620151064630758 0 -0.024745482917380351 0.0040293577167103975 0 -0.024745482917380351 0.0040293577167103975 0 -0.024631908624273034 0.0040284445613135138 0 -0.024718129833399858 0.003938425993836544 0 -0.02472143567309884 0.0041283268251203955 0 -0.024745482917380351 0.0040293577167103975 0 -0.024631908624273034 0.0040284445613135138 0 -0.024493049762298904 0.0039423310161810698 0 -0.024631908624273034 0.0040284445613135138 0 -0.024826117052189362 0.0037445002938559266 0 -0.024506116708867477 0.0041193273476450498 0 -0.024457763510473268 0.00404981505565898 0 -0.024631908624273034 0.0040284445613135138 0 -0.024739297607644796 0.0037338689602626368 0 -0.024802260283399793 0.0036179769520531492 0 -0.024493049762298904 0.0039423310161810698 0 -0.024826117052189362 0.0037445002938559266 0 -0.024804332292446576 0.0034256377019196232 0 -0.024631908624273034 0.0040284445613135138 0 -0.024826117052189362 0.0037445002938559266 0 -0.025185143702763816 0.003766179026935673 0 -0.024798320091495012 0.0039547080719661044 0 -0.024745482917380351 0.0040293577167103975 0 -0.024718129833399858 0.003938425993836544 0 -0.024826117052189362 0.0037445002938559266 0 -0.025185143702763816 0.003766179026935673 0 -0.025083321616198442 0.0035102555349038455 0 -0.024802260283399793 0.0036179769520531492 0 -0.024827460948190397 0.0033776303566110211 0 -0.025083321616198442 0.0035102555349038455 0 -0.025240904065742812 0.0032690946180578616 0 -0.025601753460953999 0.0034012392451442117 0 -0.025185143702763816 0.003766179026935673 0 -0.025083321616198442 0.0035102555349038455 0 -0.025601753460953999 0.0034012392451442117 0 -0.025083321616198442 0.0035102555349038455 0 -0.024804332292446576 0.0034256377019196232 0 -0.025240904065742812 0.0032690946180578616 0 -0.024826117052189362 0.0037445002938559266 0 -0.025083321616198442 0.0035102555349038455 0 -0.024804332292446576 0.0034256377019196232 0 -0.025325865543817116 0.0031029710744690611 0 -0.025118910302152127 0.0030000238414881275 0 -0.024911765953904288 0.0033448715575827778 0 -0.02519261081259961 0.0030877113658459403 0 -0.024950992965939046 0.0034465864451722708 0 -0.025229562383052611 0.0029383483007154221 0 -0.024804332292446576 0.0034256377019196232 0 -0.025240904065742812 0.0032690946180578616 0 -0.025325865543817116 0.0031029710744690611 0 -0.024911765953904288 0.0033448715575827778 0 -0.024964827361834495 0.0035228012253850686 0 -0.025223495266274487 0.0026733273247917981 0 -0.025002554688762696 0.0032107735519085021 0 -0.025229562383052611 0.0029383483007154221 0 -0.025240904065742812 0.0032690946180578616 0 -0.025364005720626408 0.0030517944155681897 0 -0.025240904065742812 0.0032690946180578616 0 -0.025540755177745875 0.003107972424498734 0 -0.025601753460953999 0.0034012392451442117 0 -0.025240904065742812 0.0032690946180578616 0 -0.025364005720626408 0.0030517944155681897 0 -0.025540755177745875 0.003107972424498734 0 -0.025464895100391259 0.0029483279925244478 0 -0.025364005720626408 0.0030517944155681897 0 -0.025540755177745875 0.003107972424498734 0 -0.024827460948190397 0.0033776303566110211 0 -0.024575164071393457 0.0031430421296604993 0 -0.025540755177745875 0.003107972424498734 0 -0.025601753460953999 0.0034012392451442117 0 -0.025868395236594888 0.0030777238647737878 0 -0.025623211712217486 0.0028795467833405836 0 -0.025540755177745875 0.003107972424498734 0 -0.025868395236594888 0.0030777238647737878 0 -0.024873380156153577 0.0038988103661844165 0 -0.024812783418254492 0.0038351098458844191 0 -0.024911346309624584 0.0037311234848670296 0 -0.022539986871163733 0.0031844308351306641 0 -0.022534751019564724 0.0031841123726529703 0 -0.022496583572860929 0.0032031772244349591 0 -0.023738947556249942 0.0034514961128300496 0 -0.024575164071393457 0.0031430421296604993 0 -0.022534751019564724 0.0031841123726529703 0 -0.022584882143860521 0.0031867303463856628 0 -0.022766752494267132 0.0031511098349451634 0 -0.022584882143860521 0.0031867303463856628 0 -0.022766752494267132 0.0031511098349451634 0 -0.022557152535782533 0.0031358972179092873 0 -0.022753316981403083 0.0030958510280765239 0 -0.022766752494267132 0.0031511098349451634 0 -0.022557152535782533 0.0031358972179092873 0 -0.022584882143860521 0.0031867303463856628 0 -0.022408274129889681 0.0031738107437720947 0 -0.022557152535782533 0.0031358972179092873 0 -0.022534751019564724 0.0031841123726529703 0 -0.022584882143860521 0.0031867303463856628 0 -0.022496583572860929 0.0032031772244349591 0 -0.022584882143860521 0.0031867303463856628 0 -0.022408274129889681 0.0031738107437720947 0 -0.022496583572860929 0.0032031772244349591 0 -0.022667576360456167 0.003412639753552253 0 -0.022565839797859356 0.0034008984545414339 0 -0.022408274129889681 0.0031738107437720947 0 -0.022496583572860929 0.0032031772244349591 0 -0.022289439504534266 0.0031627571409794009 0 -0.022470037213196434 0.0031628747837957097 0 -0.022488282392822748 0.0030716534058354361 0 -0.022289439504534266 0.0031627571409794009 0 -0.022470037213196434 0.0031628747837957097 0 -0.022496583572860929 0.0032031772244349591 0 -0.022289439504534266 0.0031627571409794009 0 -0.022408274129889681 0.0031738107437720947 0 -0.022289439504534266 0.0031627571409794009 0 -0.022215071640046737 0.0031464088531882365 0 -0.022289439504534266 0.0031627571409794009 0 -0.022215071640046737 0.0031464088531882365 0 -0.021963092171650291 0.0031251518936771527 0 -0.022215071640046737 0.0031464088531882365 0 -0.021963092171650291 0.0031251518936771527 0 -0.02208347297979275 0.0031429668266730435 0 -0.022298843124399104 0.0030108079965482097 0 -0.021963092171650291 0.0031251518936771527 0 -0.022205761845851383 0.003141887642974588 0 -0.022289257885900488 0.0031557901843762776 0 -0.022289439504534266 0.0031627571409794009 0 -0.022205761845851383 0.003141887642974588 0 -0.022289439504534266 0.0031627571409794009 0 -0.021963092171650291 0.0031251518936771527 0 -0.022205761845851383 0.003141887642974588 0 -0.022127974756398761 0.0035272532896629041 0 -0.022060133079721909 0.003461978625358192 0 -0.022298843124399104 0.0030108079965482097 0 -0.022289257885900488 0.0031557901843762776 0 -0.022205761845851383 0.003141887642974588 0 -0.022133098561231981 0.0031470243101928762 0 -0.02208347297979275 0.0031429668266730435 0 -0.022049981756187751 0.0032093874023150547 0 -0.022133098561231981 0.0031470243101928762 0 -0.02208347297979275 0.0031429668266730435 0 -0.022366484957822019 0.0031822169073715116 0 -0.022215071640046737 0.0031464088531882365 0 -0.02208347297979275 0.0031429668266730435 0 -0.022366484957822019 0.0031822169073715116 0 -0.022408274129889681 0.0031738107437720947 0 -0.022215071640046737 0.0031464088531882365 0 -0.022366484957822019 0.0031822169073715116 0 -0.022133098561231981 0.0031470243101928762 0 -0.022366484957822019 0.0031822169073715116 0 -0.022164598288589743 0.0031907790520261763 0 -0.022396622493477521 0.0033079940130253263 0 -0.022364379212451792 0.0033805056249944666 0 -0.022366484957822019 0.0031822169073715116 0 -0.02224747551403997 0.0034621346120797614 0 -0.022164598288589743 0.0031907790520261763 0 -0.022366484957822019 0.0031822169073715116 0 -0.022557152535782533 0.0031358972179092873 0 -0.022531946165217899 0.0030584429015733795 0 -0.022408274129889681 0.0031738107437720947 0 -0.022366484957822019 0.0031822169073715116 0 -0.022557152535782533 0.0031358972179092873 0 -0.022753316981403083 0.0030958510280765239 0 -0.022557152535782533 0.0031358972179092873 0 -0.022531946165217899 0.0030584429015733795 0 -0.022273192554881326 0.003581457845385755 0 -0.022364379212451792 0.0033805056249944666 0 -0.022091376761599051 0.0037557043351478954 0 -0.02224747551403997 0.0034621346120797614 0 -0.02194876810364187 0.0034946193124115931 0 -0.02194876810364187 0.0034946193124115931 0 -0.022068551713662451 0.0032997491465709262 0 -0.021907206032871853 0.0032227013856793107 0 -0.02224747551403997 0.0034621346120797614 0 -0.022068551713662451 0.0032997491465709262 0 -0.022164598288589743 0.0031907790520261763 0 -0.02224747551403997 0.0034621346120797614 0 -0.02194876810364187 0.0034946193124115931 0 -0.022068551713662451 0.0032997491465709262 0 -0.021511673062684377 0.0036843305188672937 0 -0.021654152988105673 0.0034263660714380383 0 -0.0213816142010518 0.0034376410872679012 0 -0.021798184165289943 0.0037568760776072923 0 -0.02194876810364187 0.0034946193124115931 0 -0.021728755609805431 0.0035895402804178834 0 -0.021511673062684377 0.0036843305188672937 0 -0.021728755609805431 0.0035895402804178834 0 -0.021654152988105673 0.0034263660714380383 0 -0.02194876810364187 0.0034946193124115931 0 -0.021728755609805431 0.0035895402804178834 0 -0.021654152988105673 0.0034263660714380383 0 -0.02194876810364187 0.0034946193124115931 0 -0.021654152988105673 0.0034263660714380383 0 -0.021907206032871853 0.0032227013856793107 0 -0.021654152988105673 0.0034263660714380383 0 -0.021596050441567104 0.0032300912721444476 0 -0.021907206032871853 0.0032227013856793107 0 -0.021654152988105673 0.0034263660714380383 0 -0.021488624144087767 0.0033059614436388328 0 -0.0213816142010518 0.0034376410872679012 0 -0.021596050441567104 0.0032300912721444476 0 -0.021488624144087767 0.0033059614436388328 0 -0.0214519910224143 0.0031325912468271972 0 -0.021654152988105673 0.0034263660714380383 0 -0.021596050441567104 0.0032300912721444476 0 -0.021488624144087767 0.0033059614436388328 0 -0.021314272240364692 0.0032613622932686618 0 -0.021488624144087767 0.0033059614436388328 0 -0.0214519910224143 0.0031325912468271972 0 -0.021314272240364692 0.0032613622932686618 0 -0.021488624144087767 0.0033059614436388328 0 -0.0213816142010518 0.0034376410872679012 0 -0.020101135686817845 0.0025237329055331978 0 -0.021499247992727632 0.0024750284298421465 0 -0.021002150736995906 0.0030365567075179779 0 -0.019341984797874565 0.0047081686656363225 0 -0.019456553097253179 0.004580565531249082 0 -0.02146248080667976 0.0028894637684785222 0 -0.021002150736995906 0.0030365567075179779 0 -0.0214519910224143 0.0031325912468271972 0 -0.021596050441567104 0.0032300912721444476 0 -0.02146248080667976 0.0028894637684785222 0 -0.0214519910224143 0.0031325912468271972 0 -0.021907206032871853 0.0032227013856793107 0 -0.021957802616263584 0.0031854470152644998 0 -0.022034249371844051 0.0031707008012355781 0 -0.019341984797874565 0.0047081686656363225 0 -0.020238786849305745 0.0046687803614562659 0 -0.021596050441567104 0.0032300912721444476 0 -0.02146248080667976 0.0028894637684785222 0 -0.021907206032871853 0.0032227013856793107 0 -0.02189712678127911 0.0032023751628348341 0 -0.021907206032871853 0.0032227013856793107 0 -0.021957802616263584 0.0031854470152644998 0 -0.019341984797874565 0.0047081686656363225 0 -0.020059091130152321 0.0052827585470525537 0 -0.02189712678127911 0.0032023751628348341 0 -0.021957802616263584 0.0031854470152644998 0 -0.022007203447140689 0.0031442467381889148 0 -0.021957802616263584 0.0031854470152644998 0 -0.022034249371844051 0.0031707008012355781 0 -0.022007203447140689 0.0031442467381889148 0 -0.018323717696273948 0.0091732677926427662 0 -0.018040320372544116 0.0085734220746738147 0 -0.018426623970914557 0.0083492107175404569 0 -0.018323717696273948 0.0091732677926427662 0 -0.018426623970914557 0.0083492107175404569 0 -0.019025613371109869 0.0083705352870623584 0 -0.018040320372544116 0.0085734220746738147 0 -0.018031830400839867 0.0082425882084436498 0 -0.018426623970914557 0.0083492107175404569 0 -0.022164598288589743 0.0031907790520261763 0 -0.02206977857980864 0.0031937884205164436 0 -0.022107071462110446 0.0031594254603456644 0 -0.022068551713662451 0.0032997491465709262 0 -0.022164598288589743 0.0031907790520261763 0 -0.02206977857980864 0.0031937884205164436 0 -0.022068551713662451 0.0032997491465709262 0 -0.021907206032871853 0.0032227013856793107 0 -0.02206977857980864 0.0031937884205164436 0 -0.021907206032871853 0.0032227013856793107 0 -0.02206977857980864 0.0031937884205164436 0 -0.022034249371844051 0.0031707008012355781 0 -0.022034249371844051 0.0031707008012355781 0 -0.022107071462110446 0.0031594254603456644 0 -0.022106794026785531 0.0031623889955510313 0 -0.02206977857980864 0.0031937884205164436 0 -0.022034249371844051 0.0031707008012355781 0 -0.022107071462110446 0.0031594254603456644 0 -0.022034249371844051 0.0031707008012355781 0 -0.022106794026785531 0.0031623889955510313 0 -0.022007203447140689 0.0031442467381889148 0 -0.022133098561231981 0.0031470243101928762 0 -0.022107071462110446 0.0031594254603456644 0 -0.022110631873633924 0.0031844430863195564 0 -0.022133098561231981 0.0031470243101928762 0 -0.022164598288589743 0.0031907790520261763 0 -0.022107071462110446 0.0031594254603456644 0 -0.022107071462110446 0.0031594254603456644 0 -0.022110631873633924 0.0031844430863195564 0 -0.022106794026785531 0.0031623889955510313 0 -0.022110631873633924 0.0031844430863195564 0 -0.022106794026785531 0.0031623889955510313 0 -0.022122867515917948 0.0033160757477777979 0 -0.022004414117814529 0.003265131909956713 0 -0.021891434221242255 0.0033645156244610556 0 -0.022106794026785531 0.0031623889955510313 0 -0.022156647078719657 0.0032213143065771394 0 -0.022007203447140689 0.0031442467381889148 0 -0.020667888796024637 0.0052926964447850573 0 -0.020059091130152321 0.0052827585470525537 0 -0.019746817396186958 0.0075760604709663379 0 -0.019025613371109869 0.0083705352870623584 0 -0.019134989124485347 0.0076882544562518248 0 -0.019746817396186958 0.0075760604709663379 0 -0.019324491999608409 0.0071942760208610866 0 -0.019752382445858061 0.0069031857964610959 0 -0.019746817396186958 0.0075760604709663379 0 -0.019324491999608409 0.0071942760208610866 0 -0.019134989124485347 0.0076882544562518248 0 -0.022106794026785531 0.0031623889955510313 0 -0.022156647078719657 0.0032213143065771394 0 -0.022027020195554591 0.0032494892902121698 0 -0.022156647078719657 0.0032213143065771394 0 -0.022027020195554591 0.0032494892902121698 0 -0.022102885767118236 0.0036467032519640601 0 -0.018186735514902661 0.0079421384005600049 0 -0.018031830400839867 0.0082425882084436498 0 -0.018426623970914557 0.0083492107175404569 0 -0.018186735514902661 0.0079421384005600049 0 -0.018705691097752369 0.007881824787551563 0 -0.018361665091335685 0.0075525600957557105 0 -0.018186735514902661 0.0079421384005600049 0 -0.018426623970914557 0.0083492107175404569 0 -0.018705691097752369 0.007881824787551563 0 -0.018705691097752369 0.007881824787551563 0 -0.019025613371109869 0.0083705352870623584 0 -0.019134989124485347 0.0076882544562518248 0 -0.018426623970914557 0.0083492107175404569 0 -0.018705691097752369 0.007881824787551563 0 -0.019025613371109869 0.0083705352870623584 0 -0.019324491999608409 0.0071942760208610866 0 -0.018873435675778937 0.0074122457581856181 0 -0.018941444437270381 0.0069654691546098884 0 -0.019324491999608409 0.0071942760208610866 0 -0.019134989124485347 0.0076882544562518248 0 -0.018873435675778937 0.0074122457581856181 0 -0.018705691097752369 0.007881824787551563 0 -0.018873435675778937 0.0074122457581856181 0 -0.018361665091335685 0.0075525600957557105 0 -0.018705691097752369 0.007881824787551563 0 -0.019134989124485347 0.0076882544562518248 0 -0.018873435675778937 0.0074122457581856181 0 -0.018873435675778937 0.0074122457581856181 0 -0.018361665091335685 0.0075525600957557105 0 -0.018482384438295359 0.0070369770353640145 0 -0.017967246456032308 0.0073121973150180996 0 -0.018361665091335685 0.0075525600957557105 0 -0.018482384438295359 0.0070369770353640145 0 -0.017984005216053072 0.0076919433401238966 0 -0.018186735514902661 0.0079421384005600049 0 -0.018361665091335685 0.0075525600957557105 0 -0.017967246456032308 0.0073121973150180996 0 -0.017984005216053072 0.0076919433401238966 0 -0.018361665091335685 0.0075525600957557105 0 -0.018006609135232218 0.0066491605349082335 0 -0.017967246456032308 0.0073121973150180996 0 -0.018482384438295359 0.0070369770353640145 0 -0.018006609135232218 0.0066491605349082335 0 -0.018482384438295359 0.0070369770353640145 0 -0.018754642376710685 0.0065300764653036091 0 -0.018482384438295359 0.0070369770353640145 0 -0.018941444437270381 0.0069654691546098884 0 -0.018754642376710685 0.0065300764653036091 0 -0.018873435675778937 0.0074122457581856181 0 -0.018482384438295359 0.0070369770353640145 0 -0.018941444437270381 0.0069654691546098884 0 -0.019324491999608409 0.0071942760208610866 0 -0.018941444437270381 0.0069654691546098884 0 -0.019274676653013623 0.0066505890654277033 0 -0.018941444437270381 0.0069654691546098884 0 -0.018754642376710685 0.0065300764653036091 0 -0.019274676653013623 0.0066505890654277033 0 -0.018688825924959195 0.0057497987861508401 0 -0.019152633214045183 0.0060982868490169241 0 -0.018754642376710685 0.0065300764653036091 0 -0.019152633214045183 0.0060982868490169241 0 -0.018754642376710685 0.0065300764653036091 0 -0.019274676653013623 0.0066505890654277033 0 -0.010867814812719463 0.0056447792370522562 0 -0.010873689276380832 0.005292654281767643 0 -0.018006609135232218 0.0066491605349082335 0 -0.018688825924959195 0.0057497987861508401 0 -0.018754642376710685 0.0065300764653036091 0 -0.0038052665406251027 0.0052893033252034349 0 -0.0036818102285326522 0.0049806870700463933 0 -0.003288130348125163 0.0055902865705043216 0 -0.020667888796024637 0.0052926964447850573 0 -0.021027452452009082 0.0052916041375470329 0 -0.019746817396186958 0.0075760604709663379 0 -0.020505645527169644 0.00676821430904019 0 -0.019752382445858061 0.0069031857964610959 0 -0.020505645527169644 0.00676821430904019 0 -0.019752382445858061 0.0069031857964610959 0 -0.019890821553479477 0.0063244403368922387 0 -0.019324491999608409 0.0071942760208610866 0 -0.019752382445858061 0.0069031857964610959 0 -0.019274676653013623 0.0066505890654277033 0 -0.019752382445858061 0.0069031857964610959 0 -0.019274676653013623 0.0066505890654277033 0 -0.019890821553479477 0.0063244403368922387 0 -0.019693702793726744 0.0056583600237594478 0 -0.019152633214045183 0.0060982868490169241 0 -0.019890821553479477 0.0063244403368922387 0 -0.019152633214045183 0.0060982868490169241 0 -0.019274676653013623 0.0066505890654277033 0 -0.019890821553479477 0.0063244403368922387 0 -0.020505645527169644 0.00676821430904019 0 -0.019890821553479477 0.0063244403368922387 0 -0.020555388328722803 0.0061761943354664041 0 -0.020209727174722643 0.0058925085682032816 0 -0.019693702793726744 0.0056583600237594478 0 -0.019890821553479477 0.0063244403368922387 0 -0.020209727174722643 0.0058925085682032816 0 -0.019890821553479477 0.0063244403368922387 0 -0.020555388328722803 0.0061761943354664041 0 -0.020209727174722643 0.0058925085682032816 0 -0.020818719555811917 0.0058699621969631015 0 -0.020555388328722803 0.0061761943354664041 0 -0.020987369468170616 0.0055932404967496008 0 -0.021027452452009082 0.0052916041375470329 0 -0.021242694163141885 0.0057985705907112883 0 -0.020818719555811917 0.0058699621969631015 0 -0.020555388328722803 0.0061761943354664041 0 -0.021242694163141885 0.0057985705907112883 0 -0.020505645527169644 0.00676821430904019 0 -0.020555388328722803 0.0061761943354664041 0 -0.021722538677755327 0.0047076534776021757 0 -0.022102885767118236 0.0036467032519640601 0 -0.021487047509316123 0.0041394826604528928 0 -0.022102885767118236 0.0036467032519640601 0 -0.021493166707649582 0.0036221894243920723 0 -0.021487047509316123 0.0041394826604528928 0 -0.021891434221242255 0.0033645156244610556 0 -0.021510532811407929 0.0036720482377685837 0 -0.022027020195554591 0.0032494892902121698 0 -0.022102885767118236 0.0036467032519640601 0 -0.021493166707649582 0.0036221894243920723 0 -0.02191565813518899 0.0035957900646666745 0 -0.020651964942900329 0.0040381654987594728 0 -0.021266267093842259 0.0036285978120930498 0 -0.02191565813518899 0.0035957900646666745 0 -0.021266267093842259 0.0036285978120930498 0 -0.021645586095598083 0.003408360028884064 0 -0.02191565813518899 0.0035957900646666745 0 -0.020651964942900329 0.0040381654987594728 0 -0.020233860554919953 0.0043938708931597643 0 -0.021510532811407929 0.0036720482377685837 0 -0.021091018952901674 0.0040015447813434935 0 -0.021493166707649582 0.0036221894243920723 0 -0.021487047509316123 0.0041394826604528928 0 -0.020988227697686577 0.0044568647996248234 0 -0.021493166707649582 0.0036221894243920723 0 -0.020988227697686577 0.0044568647996248234 0 -0.020233860554919953 0.0043938708931597643 0 -0.021487047509316123 0.0041394826604528928 0 -0.021328611863348241 0.0045816485065533659 0 -0.020988227697686577 0.0044568647996248234 0 -0.021722538677755327 0.0047076534776021757 0 -0.021487047509316123 0.0041394826604528928 0 -0.021328611863348241 0.0045816485065533659 0 -0.020983302529818972 0.0051284061208076593 0 -0.021328611863348241 0.0045816485065533659 0 -0.020988227697686577 0.0044568647996248234 0 -0.020480705122728982 0.0049157380903714094 0 -0.020765618272252734 0.0049743825662046538 0 -0.020988227697686577 0.0044568647996248234 0 -0.020651964942900329 0.0040381654987594728 0 -0.020233860554919953 0.0043938708931597643 0 -0.018528291859384084 0.0047064506679039301 0 -0.020480705122728982 0.0049157380903714094 0 -0.020988227697686577 0.0044568647996248234 0 -0.020233860554919953 0.0043938708931597643 0 -0.019881622017176092 0.0050994666198516227 0 -0.020233860554919953 0.0043938708931597643 0 -0.018528291859384084 0.0047064506679039301 0 -0.019467265900955669 0.0030137282662288842 0 -0.018224169106968155 0.0027995865507280397 0 -0.020651964942900329 0.0040381654987594728 0 -0.021220880758255442 0.0034608960002404827 0 -0.021076991763419255 0.0037307031114630395 0 -0.020651964942900329 0.0040381654987594728 0 -0.017104217020153117 0.0038550049120974887 0 -0.018528291859384084 0.0047064506679039301 0 -0.017339012081057033 0.0053387818916451699 0 -0.017104217020153117 0.0038550049120974887 0 -0.018528291859384084 0.0047064506679039301 0 -0.021076991763419255 0.0037307031114630395 0 -0.021257915828824955 0.0036181930030602404 0 -0.021404491914983313 0.0035238202049190826 0 -0.021245777708555281 0.003612174374206746 0 -0.021220880758255442 0.0034608960002404827 0 -0.021076991763419255 0.0037307031114630395 0 -0.021245777708555281 0.003612174374206746 0 -0.021076991763419255 0.0037307031114630395 0 -0.021257915828824955 0.0036181930030602404 0 -0.020651964942900329 0.0040381654987594728 0 -0.021076991763419255 0.0037307031114630395 0 -0.021266267093842259 0.0036285978120930498 0 -0.021076991763419255 0.0037307031114630395 0 -0.021266267093842259 0.0036285978120930498 0 -0.021404491914983313 0.0035238202049190826 0 -0.021404491914983313 0.0035238202049190826 0 -0.021429872822828426 0.0034649403078242783 0 -0.021743836343110487 0.0033121843361603037 0 -0.021266267093842259 0.0036285978120930498 0 -0.021404491914983313 0.0035238202049190826 0 -0.021645586095598083 0.003408360028884064 0 -0.021404491914983313 0.0035238202049190826 0 -0.021743836343110487 0.0033121843361603037 0 -0.021645586095598083 0.003408360028884064 0 -0.02132027047405622 0.0035658121286863327 0 -0.021257915828824955 0.0036181930030602404 0 -0.021347013441479976 0.0035420886615488006 0 -0.021257915828824955 0.0036181930030602404 0 -0.021404491914983313 0.0035238202049190826 0 -0.021347013441479976 0.0035420886615488006 0 -0.021404491914983313 0.0035238202049190826 0 -0.021347013441479976 0.0035420886615488006 0 -0.021429872822828426 0.0034649403078242783 0 -0.02132027047405622 0.0035658121286863327 0 -0.021347013441479976 0.0035420886615488006 0 -0.021429872822828426 0.0034649403078242783 0 -0.021359332941158604 0.0033072860828988557 0 -0.021963092171650291 0.0031251518936771527 0 -0.021429872822828426 0.0034649403078242783 0 -0.021963092171650291 0.0031251518936771527 0 -0.021429872822828426 0.0034649403078242783 0 -0.021743836343110487 0.0033121843361603037 0 -0.021963092171650291 0.0031251518936771527 0 -0.02208347297979275 0.0031429668266730435 0 -0.021743836343110487 0.0033121843361603037 0 -0.02208347297979275 0.0031429668266730435 0 -0.021890049693440855 0.0032715811295608507 0 -0.022049981756187751 0.0032093874023150547 0 -0.02208347297979275 0.0031429668266730435 0 -0.021743836343110487 0.0033121843361603037 0 -0.021890049693440855 0.0032715811295608507 0 -0.021890049693440855 0.0032715811295608507 0 -0.022049981756187751 0.0032093874023150547 0 -0.021940318505452777 0.003338100098407887 0 -0.022110631873633924 0.0031844430863195564 0 -0.022122867515917948 0.0033160757477777979 0 -0.022049981756187751 0.0032093874023150547 0 -0.022133098561231981 0.0031470243101928762 0 -0.022110631873633924 0.0031844430863195564 0 -0.022049981756187751 0.0032093874023150547 0 -0.022122867515917948 0.0033160757477777979 0 -0.02191565813518899 0.0035957900646666745 0 -0.021940318505452777 0.003338100098407887 0 -0.022122867515917948 0.0033160757477777979 0 -0.022049981756187751 0.0032093874023150547 0 -0.021940318505452777 0.003338100098407887 0 -0.02191565813518899 0.0035957900646666745 0 -0.021645586095598083 0.003408360028884064 0 -0.021940318505452777 0.003338100098407887 0 -0.021890049693440855 0.0032715811295608507 0 -0.021645586095598083 0.003408360028884064 0 -0.021940318505452777 0.003338100098407887 0 -0.021743836343110487 0.0033121843361603037 0 -0.021890049693440855 0.0032715811295608507 0 -0.021645586095598083 0.003408360028884064 0 
</DataArray>
</PointData>
<CellData Scalars="region_id,cross_section_updated," Vectors="" Tensors="stress,">
<DataArray type="Float64" Name="region_id" format="ascii">
5 5 5 5 5 6 5 5 5 5 5 5 5 6 5 5 5 5 6 5 5 6 5 5 5 5 6 5 5 5 5 6 5 5 5 5 5 5 5 5 5 5 5 5 5 6 5 5 6 5 5 5 5 5 6 5 5 5 5 5 5 5 6 5 5 5 5 6 5 5 5 5 5 5 5 5 5 6 5 5 6 5 5 6 5 5 5 5 6 5 5 5 5 5 5 5 6 6 6 5 5 6 5 5 5 5 5 6 5 5 5 5 5 5 5 5 5 5 5 5 5 6 5 5 5 6 5 5 5 5 5 5 6 5 5 5 5 5 5 5 5 5 5 5 5 5 5 5 5 5 5 5 5 5 5 5 5 5 6 5 5 5 6 5 5 6 5 5 5 5 5 5 5 5 5 5 5 6 5 5 5 5 5 5 5 5 6 5 5 5 5 5 5 5 5 6 5 5 5 5 5 5 5 5 5 6 5 5 5 5 5 5 5 5 5 5 5 5 5 5 5 5 5 5 5 5 5 5 5 6 5 5 5 6 5 6 5 6 5 5 6 5 5 5 6 5 6 5 6 5 6 6 5 6 5 5 6 5 6 5 5 5 6 5 6 6 5 5 6 5 5 5 6 5 6 6 6 5 6 5 5 5 6 5 6 6 6 5 5 6 6 5 5 5 5 6 5 6 5 5 6 5 5 5 6 5 6 6 6 5 5 5 6 5 6 6 6 6 5 5 5 6 6 5 5 6 6 6 5 6 5 5 5 5 6 5 5 5 5 5 5 5 6 5 5 5 5 5 5 6 6 5 5 5 6 5 5 5 6 5 6 5 6 6 5 5 5 5 6 5 5 6 5 5 5 5 6 5 6 5 5 5 5 5 6 6 5 5 5 5 5 5 5 5 6 5 5 5 6 5 5 6 5 6 5 5 5 5 5 5 5 5 5 5 5 6 5 6 5 6 5 5 5 6 5 6 5 6 5 5 5 5 5 5 6 5 6 5 5 5 6 5 5 5 6 5 6 6 5 5 5 5 6 5 5 5 5 6 6 5 5 6 5 6 5 6 6 5 5 5 6 5 5 5 5 6 5 5 5 5 5 5 5 5 5 5 5 6 5 5 5 5 6 5 5 5 6 5 6 6 6 5 5 5 6 6 5 6 5 5 6 5 5 5 5 6 5 5 5 5 5 5 5 5 5 5 5 6 6 5 5 6 5 5 5 6 5 5 5 5 5 5 6 5 5 5 6 5 5 5 6 5 5 5 5 5 5 5 5 5 5 5 6 5 5 5 6 5 5 5 5 5 5 5 6 5 5 5 5 5 6 5 5 5 5 5 5 5 5 5 5 5 5 5 5 5 5 5 5 5 6 5 5 5 5 6 5 5 6 5 5 5 5 5 5 5 6 5 5 5 5 5 5 5 5 6 5 6 5 5 6 5 5 5 6 5 5 6 5 5 5 6 5 6 5 5 6 5 6 5 5 5 5 5 5 5 5 5 5 5 5 5 5 5 5 5 5 5 5 5 5 6 5 6 5 6 5 5 5 5 5 5 5 5 5 5 5 5 5 5 5 6 5 5 5 5 5 5 5 5 5 6 5 5 5 5 5 5 5 5 5 5 5 5 5 5 5 5 5 5 5 5 5 5 5 5 5 5 5 5 5 6 5 5 6 5 5 5 6 6 5 6 5 5 5 5 5 6 5 5 5 5 5 6 5 5 5 5 5 5 5 5 5 5 5 5 5 5 5 5 5 5 5 5 5 5 5 5 5 5 5 5 5 5 5 5 5 5 5 5 5 5 5 5 5 5 5 5 5 5 5 5 5 6 5 5 5 5 5 5 5 5 5 5 5 5 5 5 5 6 5 5 5 5 6 5 5 5 5 5 5 5 5 5 5 5 5 5 5 5 5 5 5 5 5 5 5 5 5 5 5 5 6 5 5 6 5 6 6 6 6 5 5 6 5 5 5 5 5 5 5 5 5 5 5 5 5 5 5 5 5 6 5 5 6 5 6 5 5 5 5 6 5 6 5 5 5 5 6 5 5 5 6 5 5 5 5 5 6 5 6 5 5 6 6 5 6 5 5 5 5 5 5 5 5 5 5 5 6 5 5 5 6 5 5 5 6 5 5 6 6 6 5 5 5 5 5 5 5 5 5 5 5 6 5 5 5 5 5 5 5 5 6 6 6 5 5 5 5 5 5 5 5 6 6 5 5 5 6 5 5 6 5 5 5 5 5 5 5 5 5 5 5 6 5 5 5 5 5 5 5 5 6 5 5 5 5 5 5 5 5 5 5 6 5 6 6 6 5 5 5 5 5 5 5 6 6 5 6 5 5 5 5 5 6 5 6 6 5 5 5 6 5 6 5 5 5 5 6 5 5 5 5 5 5 5 5 5 5 5 5 5 5 5 5 5 6 5 5 5 6 5 5 5 5 5 6 5 5 5 5 5 5 6 5 6 5 5 5 5 5 5 5 5 6 5 5 5 6 5 5 5 5 5 5 5 5 5 5 5 5 5 5 5 5 5 5 5 5 5 5 5 5 5 6 6 6 5 5 5 5 6 5 5 5 5 6 5 5 5 5 5 5 5 6 5 5 5 5 5 5 5 5 6 5 5 5 5 5 5 5 5 5 5 5 5 6 5 5 5 5 5 5 6 5 5 5 5 5 5 5 5 6 5 5 5 6 5 5 5 5 5 5 5 5 5 5 5 5 6 5 5 5 5 5 5 5 5 5 5 5 5 5 5 5 5 5 5 5 5 5 5 5 5 5 5 5 5 5 5 5 5 5 5 5 5 5 5 5 5 5 5 5 5 5 5 5 6 5 5 5 5 5 5 5 5 5 5 5 5 5 5 5 5 5 5 5 5 5 5 5 5 6 5 5 5 5 5 5 5 5 5 5 6 5 5 6 5 5 5 5 5 5 5 5 5 6 5 6 5 5 5 5 6 5 5 6 5 6 5 5 5 5 5 6 5 5 5 5 5 5 5 5 6 5 5 5 5 5 5 5 5 5 5 5 5 5 5 6 5 6 6 5 5 5 5 5 6 5 5 5 5 5 5 5 5 5 5 5 5 5 5 5 6 5 5 5 5 5 5 5 5 5 5 5 5 5 5 5 5 6 5 5 5 5 5 6 6 5 5 6 5 5 5 5 5 5 5 5 5 5 6 5 5 5 5 5 5 5 5 5 6 5 6 5 5 5 5 5 6 5 5 5 5 6 5 5 5 6 5 5 5 6 5 5 6 5 5 5 5 5 5 5 5 5 5 5 5 5 5 5 5 6 5 5 5 5 5 5 5 6 5 5 5 5 5 5 5 5 5 5 5 5 5 5 5 5 5 5 5 5 5 5 5 5 5 5 5 6 5 5 5 5 6 5 5 5 6 5 5 5 5 5 5 5 5 5 6 5 6 5 5 5 5 5 5 5 5 5 5 5 5 5 5 5 5 5 5 6 6 5 5 5 6 5 5 6 5 5 6 5 5 5 6 5 5 6 5 5 5 5 5 5 5 5 5 5 5 5 5 5 5 5 5 5 5 5 6 5 6 5 5 5 5 5 5 5 5 5 5 5 6 5 6 5 5 5 6 5 5 5 5 5 6 5 5 5 5 5 5 6 5 5 5 5 5 5 5 5 5 5 5 6 5 5 5 5 5 5 5 5 6 5 5 5 6 5 5 6 5 5 5 5 5 6 5 5 5 5 5 5 5 5 5 6 5 5 6 5 6 5 6 6 6 5 6 5 5 5 5 5 5 6 5 5 5 5 5 5 6 5 5 5 5 5 5 5 6 5 5 5 5 6 5 5 5 5 5 6 5 6 5 5 5 5 5 5 5 5 5 5 6 5 5 5 5 5 5 5 6 5 5 5 5 5 5 5 6 5 6 5 5 5 5 5 5 5 5 6 5 5 5 6 6 5 5 5 5 5 6 6 5 6 5 5 6 5 5 6 5 5 5 5 5 5 5 5 6 5 5 5 5 5 6 5 5 5 5 6 5 5 6 5 5 5 5 5 5 5 5 5 5 5 5 5 5 5 5 5 5 5 5 5 5 5 5 5 5 5 5 5 5 5 5 5 5 5 5 5 5 5 5 5 6 5 5 6 5 5 5 5 5 6 5 5 5 5 6 5 5 5 5 5 5 5 5 5 5 5 5 5 5 5 5 5 5 5 5 5 5 5 5 6 5 5 5 6 5 5 5 5 5 5 6 5 5 5 5 5 5 5 5 5 5 5 6 5 6 6 5 5 6 5 5 5 5 5 5 5 5 5 5 5 6 5 5 6 5 5 5 5 5 5 5 5 5 5 5 5 5 5 5 6 5 5 5 5 5 5 5 6 5 6 5 5 5 5 6 5 6 5 5 5 5 5 5 5 5 5 6 5 5 5 5 5 5 5 5 5 5 5 5 5 5 5 5 5 6 5 5 5 5 5 5 5 5 5 5 5 5 5 5 5 5 5 5 5 5 5 5 5 5 5 6 6 5 5 5 5 5 5 5 5 5 5 5 6 5 5 5 5 6 5 5 5 5 6 5 5 5 5 5 5 5 5 6 5 5 5 5 5 5 5 5 5 6 5 5 5 5 5 5 5 5 5 5 5 5 5 5 5 5 5 5 5 5 6 5 5 5 5 5 5 5 5 5 5 5 5 5 5 6 5 6 5 5 5 5 5 5 5 5 6 5 5 6 5 5 5 5 5 5 5 5 5 5 5 5 5 5 5 5 5 5 5 5 5 5 5 5 5 5 5 5 5 5 5 5 5 5 5 5 6 5 5 6 5 5 5 5 6 5 6 5 5 6 5 6 5 5 5 5 5 6 5 5 5 5 5 5 5 5 5 5 5 5 6 5 5 5 6 5 5 5 5 5 5 5 5 5 6 5 5 5 5 6 6 5 5 5 5 5 5 5 5 6 5 5 5 5 5 6 5 5 5 6 5 5 5 6 5 5 5 5 6 5 5 5 5 5 5 5 5 5 5 5 5 5 5 6 5 5 5 5 5 5 6 5 6 6 5 6 5 6 5 5 5 5 6 5 5 5 5 6 5 5 5 5 5 5 5 5 5 6 5 5 5 5 5 5 5 5 5 5 5 5 5 5 6 5 5 5 6 5 5 5 6 5 6 5 5 5 5 5 5 5 5 5 5 5 5 5 5 5 5 6 5 5 5 5 5 5 6 5 5 5 5 5 5 5 5 5 5 5 5 5 5 5 5 5 5 6 5 5 5 5 5 5 5 5 5 5 5 5 5 5 5 5 5 5 5 5 5 5 5 5 5 5 5 5 5 5 5 5 5 5 6 5 5 5 5 6 5 5 5 5 5 5 5 6 5 5 5 5 5 5 5 5 5 6 5 5 6 5 5 5 5 5 6 5 5 5 6 5 5 6 5 5 5 5 5 5 5 5 5 5 5 5 5 5 5 5 5 5 5 5 6 5 5 5 5 5 5 5 5 5 5 6 6 5 6 5 5 5 5 5 6 5 5 5 5 6 5 5 5 5 5 6 5 6 5 5 6 5 5 5 5 5 5 5 5 6 5 5 5 5 5 5 6 5 5 5 5 5 5 6 5 5 5 5 6 5 5 6 5 6 5 5 6 5 5 5 5 5 5 6 5 5 5 5 6 5 5 5 5 5 5 5 5 6 6 5 5 5 5 5 5 5 5 6 5 5 5 5 5 5 6 5 5 5 5 5 5 5 6 5 5 5 6 5 5 5 5 5 5 5 5 5 5 5 5 6 5 5 5 5 6 5 5 6 5 5 5 5 6 5 5 5 6 6 5 5 5 6 5 5 5 6 5 5 5 5 5 5 5 5 5 6 5 5 5 6 5 5 5 5 5 5 5 5 5 5 5 5 6 5 6 5 5 6 5 5 6 5 5 5 5 5 5 5 6 5 5 5 5 5 6 5 6 5 5 5 6 6 5 6 6 5 6 5 5 5 5 5 5 6 5 6 5 5 5 5 5 5 5 5 5 5 5 5 5 6 5 5 6 5 6 5 5 6 5 5 5 6 6 5 5 6 5 5 5 5 5 5 5 5 5 5 5 5 5 5 5 5 5 5 5 5 5 5 5 6 6 5 6 5 6 5 5 6 6 5 5 6 5 5 6 5 5 6 5 6 5 5 5 5 6 5 5 5 5 6 5 6 6 5 6 5 5 6 6 5 5 5 6 5 5 5 5 6 6 5 5 5 5 5 6 5 5 5 5 5 5 5 5 5 5 5 6 5 6 5 6 5 5 6 5 6 5 5 5 5 5 5 5 5 6 5 5 6 5 5 5 5 6 5 5 5 5 5 5 5 5 5 5 5 5 6 5 5 5 5 5 5 5 5 5 5 5 6 5 5 5 5 5 5 6 5 6 5 5 6 5 5 5 5 5 5 5 5 5 5 5 5 5 5 5 5 5 6 6 5 5 5 6 5 5 6 5 5 5 5 5 5 5 5 5 5 5 5 5 5 5 5 5 5 5 5 5 5 5 5 5 6 6 5 5 5 5 5 5 5 5 5 5 5 6 5 5 5 5 5 5 5 5 5 5 5 5 5 5 5 5 5 5 5 5 5 5 5 5 5 5 5 5 5 5 5 5 5 6 5 5 5 5 5 6 5 5 6 5 5 6 6 5 5 5 5 5 5 5 5 5 5 5 5 5 6 5 5 6 5 5 5 5 5 5 6 5 5 6 5 5 5 5 5 5 5 5 5 5 5 5 5 6 5 5 5 5 5 5 5 6 5 5 5 5 5 5 5 5 5 5 5 5 6 5 5 6 5 5 5 5 5 5 5 5 5 5 5 5 5 5 5 5 5 5 5 5 6 5 5 6 5 6 5 5 5 6 5 5 6 5 6 5 5 5 6 5 5 5 5 6 5 5 5 5 5 5 5 6 5 5 5 6 5 5 5 5 5 5 5 5 5 5 5 5 6 5 5 5 5 5 5 5 5 6 5 5 5 5 5 5 5 5 5 5 5 6 5 5 5 5 5 5 5 5 5 5 5 5 5 5 5 5 5 5 5 6 6 5 5 5 6 5 5 5 5 5 5 5 5 5 5 5 5 6 5 5 5 5 5 5 5 5 5 6 5 5 5 5 5 5 5 5 5 5 5 5 5 5 5 5 6 5 6 5 5 5 5 5 6 5 5 5 5 6 5 5 5 6 5 5 5 6 5 5 5 5 5 5 5 5 5 6 5 5 5 6 5 5 6 5 5 5 5 5 5 6 5 5 5 5 5 5 5 5 6 5 5 5 6 5 5 5 5 5 5 5 5 5 5 5 5 5 5 5 5 5 5 5 5 5 5 5 5 5 5 5 6 5 5 5 5 5 5 5 6 5 5 5 5 5 5 5 5 5 5 5 5 5 5 5 5 5 5 5 5 5 5 5 5 5 6 5 6 5 5 5 5 5 5 6 5 5 5 6 5 5 6 5 5 5 5 5 5 5 5 5 5 5 5 6 5 5 5 5 5 6 5 5 5 5 5 5 5 5 5 5 5 5 5 6 5 5 5 6 5 5 5 5 5 5 5 5 5 5 5 5 6 6 5 5 5 5 6 5 5 5 5 5 5 5 5 5 6 6 5 5 5 5 5 6 5 5 5 5 5 6 5 5 5 5 5 6 5 6 5 5 5 5 6 5 6 5 6 6 5 5 5 5 5 5 5 6 6 5 5 5 5 5 5 6 6 6 5 6 6 5 5 5 6 5 5 5 5 5 6 6 6 5 6 5 5 5 6 5 6 6 5 5 5 5 5 5 5 6 6 5 5 6 6 6 5 5 5 5 5 5 5 5 5 5 5 5 5 5 5 5 5 5 5 5 5 5 5 5 5 5 5 5 5 5 5 5 5 5 5 5 5 5 5 5 6 5 5 5 5 5 5 5 5 5 5 6 5 5 5 5 5 5 6 5 5 6 5 5 5 5 5 5 5 5 5 5 5 5 5 6 5 6 5 5 5 5 6 5 5 5 6 5 5 6 5 5 5 6 5 5 6 5 5 5 5 5 6 5 5 5 5 5 5 5 6 5 5 5 5 5 5 5 6 5 5 6 5 5 5 5 6 5 6 5 5 5 5 5 6 5 5 5 5 6 5 5 5 5 5 5 6 6 5 5 5 5 5 6 5 5 6 5 5 5 5 5 5 5 5 5 5 6 5 5 5 5 5 5 5 5 5 5 5 5 5 5 5 5 5 5 6 5 5 5 5 5 5 6 5 5 5 5 5 5 5 6 6 5 5 5 5 6 5 5 5 5 5 5 5 6 5 5 6 5 6 6 6 5 5 5 5 5 5 6 5 5 5 5 5 6 5 5 5 5 6 5 5 5 6 5 5 5 6 5 5 5 5 5 5 5 5 5 5 5 5 5 5 5 5 5 5 5 5 5 5 5 5 5 6 5 5 5 5 5 5 5 6 5 6 5 5 5 5 5 5 6 5 5 6 5 5 5 6 5 5 6 5 5 5 5 5 6 5 5 5 6 6 5 5 5 5 5 5 5 5 5 5 5 5 6 5 5 5 5 5 5 5 5 5 6 5 5 5 5 5 6 6 5 5 5 5 5 5 5 5 5 6 5 5 5 5 5 5 5 5 6 5 5 5 5 5 5 5 5 5 5 5 5 5 5 5 5 5 5 6 5 5 5 5 6 5 6 5 6 5 5 5 5 5 5 5 5 5 5 5 5 5 5 5 5 5 6 5 5 5 5 5 6 5 5 5 6 6 5 5 5 5 5 6 5 5 5 5 6 5 5 5 5 5 5 5 5 6 5 5 5 5 5 5 5 6 5 5 5 5 5 5 5 5 5 6 5 5 5 5 5 5 5 5 5 5 5 5 5 5 5 5 5 5 6 5 5 5 5 5 5 5 5 5 5 5 5 5 6 5 5 5 5 5 5 6 5 5 6 5 5 6 5 5 5 5 5 5 5 5 5 5 5 5 5 5 5 5 5 5 5 5 5 5 5 5 5 5 6 5 6 5 6 6 5 5 5 6 5 5 5 5 5 5 5 5 5 6 6 5 6 5 5 5 5 5 5 5 5 5 5 5 5 5 5 6 5 6 6 5 6 5 5 5 5 5 5 5 5 5 6 6 5 5 5 5 5 5 5 5 5 5 5 5 5 5 5 5 5 5 5 5 5 5 6 5 5 5 5 5 6 5 5 5 5 5 6 5 5 5 6 5 5 5 5 5 5 5 5 5 6 5 5 5 5 6 5 5 5 5 5 5 6 5 5 5 5 5 5 5 6 5 5 5 5 6 5 5 5 5 5 5 5 5 5 5 6 5 5 5 5 6 5 5 5 6 5 5 5 5 5 6 5 5 5 5 5 5 5 5 5 5 5 5 5 5 6 6 5 5 6 5 5 5 5 5 5 5 6 5 5 5 5 5 5 6 5 5 5 5 5 5 5 5 5 5 5 5 5 5 5 5 5 5 5 5 5 5 5 6 5 5 5 5 5 5 5 5 6 5 5 5 5 6 5 5 5 5 5 6 5 6 5 6 5 5 5 5 5 5 5 6 5 5 5 6 5 5 5 5 5 6 5 5 5 5 5 6 5 6 5 5 6 5 6 5 5 5 5 5 6 5 5 5 6 5 5 5 5 5 5 5 5 5 5 6 5 5 5 5 5 5 5 5 5 5 5 5 5 5 5 5 5 5 5 5 5 5 6 5 5 5 5 5 5 5 5 5 5 5 5 5 5 5 5 5 5 6 5 5 5 6 5 5 5 5 5 5 6 5 5 5 6 6 5 6 5 6 6 5 6 5 5 6 5 5 6 6 5 5 5 5 5 5 5 5 6 5 6 5 5 5 5 5 5 5 5 5 5 5 5 5 5 5 5 5 5 5 5 5 5 6 5 5 5 5 5 5 5 5 6 5 5 6 5 5 6 6 5 5 6 5 5 5 5 5 5 5 5 5 5 5 5 5 5 5 5 5 5 5 5 5 5 5 5 5 5 5 5 5 5 5 5 5 5 5 5 5 5 5 6 5 6 5 5 5 5 5 5 5 5 5 5 5 5 5 5 5 5 5 5 5 5 5 5 5 5 5 5 5 5 5 5 5 5 5 5 5 5 5 5 5 5 6 5 5 6 5 5 5 5 5 6 5 6 5 5 6 5 5 5 5 5 5 6 5 5 5 5 5 5 5 5 5 5 5 6 5 5 6 6 5 6 5 5 6 5 5 5 5 6 5 5 5 5 5 5 5 5 5 6 5 6 5 5 5 5 5 5 5 6 5 6 5 5 5 5 5 5 5 5 5 6 5 6 5 5 5 5 5 5 5 5 5 5 6 5 5 5 6 5 5 6 5 5 6 5 5 5 5 6 5 5 5 6 5 5 5 5 5 5 5 5 5 5 5 5 5 5 6 5 5 5 5 5 5 6 5 6 5 6 5 5 5 6 5 5 5 5 5 5 5 5 6 5 5 5 5 5 6 5 5 6 5 5 5 5 5 5 5 5 5 6 5 5 5 6 5 5 5 5 5 5 6 5 5 5 5 5 5 5 5 5 5 5 5 5 5 5 5 5 5 5 5 5 5 5 5 5 5 5 5 5 5 5 6 5 5 5 5 5 6 5 5 6 6 5 5 5 5 6 5 5 5 5 5 6 5 5 5 5 5 5 5 5 5 5 5 5 5 5 5 5 6 5 5 5 5 5 5 5 5 6 6 5 5 5 5 5 5 6 5 5 5 5 6 5 5 5 5 5 5 5 5 5 5 5 5 5 5 5 5 5 5 5 5 5 5 5 5 6 5 5 6 5 5 5 5 5 5 5 5 5 5 5 5 5 5 5 5 5 5 5 5 5 5 5 5 5 5 5 6 5 6 5 5 5 5 5 6 5 5 5 5 5 5 5 5 5 5 5 5 5 5 5 5 5 5 5 5 6 6 5 6 5 5 5 5 5 5 5 5 5 5 5 5 5 5 5 5 6 5 5 5 6 5 5 5 5 5 5 5 5 5 5 5 5 5 6 5 5 5 5 5 5 5 5 5 5 5 5 5 5 5 5 5 5 5 5 5 5 6 5 5 5 5 5 5 5 5 5 5 5 5 5 6 5 6 5 5 6 6 5 5 5 5 5 5 5 5 5 5 5 5 5 5 5 5 5 5 5 5 6 5 5 6 5 5 5 6 5 5 5 5 5 5 6 5 5 5 6 5 5 5 5 5 5 5 5 6 5 5 6 5 5 6 5 6 5 5 5 5 6 6 5 5 6 6 5 5 6 5 5 5 5 6 5 5 6 6 5 6 5 5 5 5 5 5 5 5 5 5 5 5 5 5 5 5 5 5 5 5 6 5 5 5 5 6 5 5 5 5 6 6 5 5 5 5 5 5 5 5 5 5 5 5 6 5 5 5 6 5 5 5 5 5 5 5 6 5 5 5 6 5 5 6 6 5 5 5 6 5 5 5 6 5 5 5 5 5 5 5 5 5 5 5 5 5 5 5 5 5 5 6 5 5 5 5 5 5 5 5 5 5 5 5 5 5 5 5 5 5 6 6 5 5 5 5 5 6 6 5 6 5 5 5 5 5 5 5 5 5 6 5 5 5 6 5 5 5 5 5 5 5 5 5 5 5 5 5 5 6 5 5 5 5 5 5 5 6 5 5 6 5 5 5 5 5 5 6 5 5 5 5 6 5 5 5 5 5 5 6 5 5 5 5 5 5 5 5 6 6 5 5 5 6 6 5 5 5 5 5 6 5 5 5 5 5 5 6 5 5 5 5 6 5 5 5 5 5 6 5 5 5 5 6 5 5 5 5 5 5 5 5 5 5 5 5 5 5 5 5 5 5 5 5 5 5 5 5 5 6 5 5 5 5 6 5 6 5 6 5 5 6 5 5 6 5 5 6 5 5 5 5 5 5 6 5 5 6 5 6 6 6 5 5 6 5 6 6 5 5 5 6 5 6 5 5 5 5 5 5 6 5 5 5 6 5 5 5 5 5 5 5 6 5 5 5 6 5 6 6 5 5 5 5 5 5 5 6 5 5 5 5 5 5 5 5 6 6 5 5 5 5 6 5 5 6 5 5 5 6 5 5 5 6 6 5 5 5 5 6 5 5 5 5 5 6 6 5 5 5 5 5 5 5 5 5 5 5 5 5 5 5 5 5 5 5 5 5 5 5 5 5 5 5 5 5 5 5 6 5 5 5 6 5 5 5 5 5 5 5 5 5 5 5 5 5 5 5 6 5 6 6 5 5 6 5 5 5 5 5 5 5 5 5 5 5 5 5 5 5 5 5 5 5 5 5 5 5 6 5 5 6 6 5 5 5 5 5 5 5 6 5 5 5 6 5 5 5 5 6 6 5 5 5 5 5 5 5 6 5 5 5 5 6 5 5 5 5 6 5 5 5 5 5 5 5 5 5 5 5 5 5 5 5 5 5 5 5 6 5 5 5 5 5 5 5 5 5 5 5 5 5 5 5 5 6 5 5 5 6 5 5 5 5 5 5 5 5 5 6 5 5 5 5 5 5 5 5 5 5 5 5 5 5 5 5 5 5 5 5 5 6 5 5 5 5 5 5 5 5 5 5 5 5 5 5 5 5 5 6 5 5 5 5 5 6 5 5 5 5 5 5 5 5 5 5 5 5 5 5 5 5 5 5 5 5 5 5 5 5 5 5 5 6 5 5 6 5 5 5 6 5 5 5 5 5 5 5 5 5 5 5 5 5 5 5 6 5 6 5 5 5 5 5 5 5 5 5 6 5 5 5 5 5 5 5 5 5 6 6 5 5 5 5 5 5 5 5 5 5 5 5 5 5 5 5 5 5 5 5 5 5 5 5 5 5 5 5 5 5 5 5 5 5 5 5 5 5 5 5 5 5 5 5 5 5 5 5 5 5 5 5 5 5 5 5 5 5 5 5 5 5 5 5 5 5 5 5 5 5 5 6 5 5 5 5 5 5 6 5 5 5 5 5 5 5 5 5 6 5 6 5 5 5 5 5 5 5 5 5 5 5 5 5 5 5 5 5 5 5 5 5 5 5 5 5 5 5 5 5 5 5 5 5 5 6 5 5 5 6 6 5 5 5 5 5 5 5 5 5 5 5 5 5 5 5 5 5 5 5 5 5 5 6 6 5 5 5 5 5 5 5 5 6 5 5 5 5 5 5 6 5 5 5 5 5 6 5 5 5 5 6 5 5 5 6 5 5 5 6 5 5 6 5 5 5 5 5 5 5 5 5 5 5 5 5 6 5 5 5 5 5 5 5 5 6 5 5 5 5 5 5 5 5 5 5 5 6 5 5 5 6 5 5 5 5 6 5 5 5 5 5 5 5 5 6 5 6 5 5 6 5 5 5 5 5 6 5 5 5 5 5 5 5 5 5 5 5 5 6 5 5 5 5 5 5 5 5 5 6 5 5 5 5 5 5 6 5 5 5 5 5 5 5 6 5 5 5 5 5 6 5 5 5 5 5 5 5 5 5 5 5 5 5 5 5 5 5 5 5 5 5 5 5 5 5 5 5 5 5 5 5 5 5 5 5 5 5 5 5 5 5 5 5 5 5 5 5 6 5 6 5 5 5 5 5 5 5 5 5 5 5 5 5 5 6 5 5 5 5 5 5 5 5 5 5 5 5 5 5 5 6 5 5 6 5 6 5 5 5 5 5 6 5 5 5 5 5 5 5 5 5 5 5 5 5 5 5 5 5 5 5 5 6 5 5 5 5 5 5 5 5 5 5 5 6 5 6 5 5 6 5 6 5 5 5 5 5 5 5 6 5 6 5 5 5 5 6 5 5 5 5 6 6 5 5 6 5 5 5 5 5 5 5 5 5 5 5 5 5 5 5 5 6 5 5 5 5 5 5 5 5 5 5 5 5 5 5 6 5 6 5 5 5 5 5 5 5 6 5 6 5 5 5 5 5 5 5 5 5 6 6 5 5 5 6 5 5 5 5 6 5 6 5 5 6 5 6 6 6 5 5 6 5 5 5 6 6 6 5 5 5 5 5 5 5 5 5 5 5 6 5 5 5 5 5 5 6 5 5 5 6 5 5 5 5 5 5 5 5 6 5 5 5 6 5 5 5 5 5 5 5 5 5 5 5 5 5 5 5 5 5 5 5 5 5 5 5 5 5 5 5 5 5 5 5 5 5 5 5 5 5 5 5 5 5 5 5 5 5 5 5 5 5 5 5 5 5 5 5 5 5 5 5 5 6 5 5 5 5 5 6 5 5 5 5 6 5 5 5 6 5 5 5 5 5 5 5 5 5 5 5 5 5 5 5 5 5 5 5 5 5 5 5 5 5 5 5 5 5 5 5 5 5 5 5 5 5 5 5 5 6 5 5 6 5 5 5 5 5 5 5 6 5 5 5 5 5 5 5 5 5 5 5 6 5 5 6 5 6 5 5 5 6 5 5 5 5 5 5 5 5 6 5 5 5 5 6 5 5 5 5 6 5 6 5 5 5 5 5 5 5 5 5 5 5 5 6 5 6 5 5 5 5 5 5 5 5 5 5 5 5 5 6 5 5 5 5 5 5 5 5 5 6 5 5 5 6 5 5 5 5 5 5 5 5 5 5 5 5 5 5 5 5 5 5 5 5 5 5 5 5 5 5 5 5 5 5 5 5 5 5 5 6 5 5 6 5 5 5 5 6 5 5 5 5 5 5 5 5 5 5 5 5 5 5 5 6 5 5 5 5 5 5 5 5 5 6 5 6 5 5 5 5 5 5 5 6 5 5 5 5 5 5 5 5 5 5 5 5 5 5 6 5 5 5 5 5 5 5 5 5 5 5 6 5 5 5 5 5 5 5 5 5 5 5 5 5 5 5 5 5 5 5 5 5 5 5 6 5 6 5 5 5 5 5 5 6 5 6 5 5 5 6 5 5 5 6 5 5 5 6 5 5 6 5 5 5 5 5 5 5 6 5 5 5 5 5 5 5 6 5 5 5 5 5 5 5 5 5 5 5 5 5 6 5 5 5 5 5 5 5 5 6 5 5 5 5 5 5 5 5 5 5 5 5 5 5 5 5 5 5 5 5 6 5 5 5 5 5 5 5 5 5 5 5 5 5 5 5 5 5 5 5 5 5 5 5 5 5 5 5 5 5 5 5 5 5 5 5 5 5 5 5 5 5 5 5 5 5 5 5 5 5 5 6 5 6 5 5 5 6 5 5 6 6 5 6 5 5 5 5 5 5 5 5 5 5 5 5 5 5 5 5 5 5 5 5 5 5 5 5 5 5 5 5 5 5 5 5 5 5 5 6 5 5 5 5 6 5 5 6 5 5 5 6 5 5 5 5 6 5 6 6 5 5 5 5 6 5 5 5 6 5 5 5 6 5 5 5 5 5 5 6 5 5 5 5 5 5 5 5 5 5 5 5 5 5 5 5 5 5 5 5 6 5 5 5 5 5 5 5 5 5 5 5 5 5 5 5 5 5 5 6 5 5 6 5 5 6 5 5 5 5 5 5 5 5 5 5 5 6 5 5 5 5 6 5 5 5 5 6 5 5 5 6 5 5 5 5 5 5 5 5 5 5 5 5 5 5 5 5 5 5 5 5 5 5 5 5 5 6 5 5 5 5 5 5 5 5 6 5 5 5 6 5 5 5 5 5 5 5 5 5 5 5 5 5 5 5 5 5 5 5 5 5 5 5 5 6 5 5 5 6 5 5 5 5 5 5 5 5 6 5 5 6 5 5 5 5 6 5 5 5 5 5 5 5 6 5 6 5 5 6 5 5 6 6 5 5 5 5 5 5 5 5 5 5 5 5 5 5 5 5 5 5 5 5 5 6 5 5 5 5 6 5 5 5 5 5 5 5 5 5 5 5 5 5 6 5 5 6 5 5 5 5 5 5 5 5 5 5 5 5 5 5 5 5 5 5 5 5 5 5 5 5 5 5 5 5 5 5 5 5 5 5 5 5 5 5 5 5 5 5 5 5 5 5 5 5 5 5 5 5 5 5 5 5 5 5 5 5 5 5 5 5 5 5 5 5 5 5 5 5 5 5 5 5 5 5 5 5 5 5 5 5 5 5 5 5 5 5 5 5 5 5 5 5 5 5 5 5 5 5 5 5 5 5 5 5 5 5 5 5 5 5 5 5 5 5 5 5 5 5 5 5 5 5 5 5 6 5 5 5 5 5 5 5 6 5 5 5 5 5 5 5 5 5 6 5 6 5 5 5 6 5 5 6 5 5 5 5 5 5 5 5 5 5 5 5 5 5 5 5 5 5 5 5 5 5 5 5 5 5 5 5 5 5 5 5 5 5 5 5 5 6 5 5 6 6 5 5 6 5 5 6 5 5 5 6 5 5 5 5 5 5 5 5 5 6 5 5 5 5 5 5 6 5 5 5 5 5 5 5 5 5 5 5 5 5 5 5 5 5 5 5 5 5 5 5 5 5 5 5 5 5 5 5 6 5 5 5 5 5 5 5 5 5 5 5 5 5 5 5 5 5 5 5 5 5 5 5 5 5 5 5 5 5 5 5 5 5 5 5 5 5 5 5 5 5 5 5 5 5 5 6 5 6 5 5 5 5 6 5 5 5 5 6 5 5 5 5 6 5 5 5 5 5 5 5 5 6 5 5 6 5 6 5 5 5 5 6 5 5 6 6 5 5 5 5 5 5 6 5 5 5 5 5 5 5 5 5 5 6 6 5 5 5 5 5 6 5 5 6 5 5 5 5 6 5 5 6 5 5 5 5 5 5 5 5 5 5 5 5 5 5 5 5 5 5 5 5 5 5 5 5 5 5 5 5 5 6 5 6 5 5 5 5 5 5 5 5 5 5 5 5 5 6 5 5 5 5 6 6 5 5 5 5 5 5 5 5 5 5 5 5 5 5 5 5 5 5 5 5 5 5 5 5 5 5 5 5 5 5 5 5 5 5 5 5 5 5 5 5 5 5 6 5 5 5 6 5 5 5 5 5 5 5 5 5 5 5 5 5 5 5 5 5 5 5 5 6 5 5 6 5 5 5 5 5 5 5 5 5 6 5 5 5 5 5 6 5 5 5 5 5 6 5 6 5 5 5 5 5 5 5 5 5 5 5 5 5 6 5 5 5 6 6 5 5 5 5 5 5 5 5 6 5 5 6 5 5 6 6 5 5 5 5 5 6 5 5 5 5 5 5 5 6 5 5 6 6 5 5 5 5 5 5 6 6 5 5 5 6 5 5 5 5 5 5 5 6 5 5 5 5 5 5 5 5 5 5 5 5 5 5 5 5 5 5 5 5 5 5 5 5 5 5 6 5 5 5 5 5 5 5 6 5 5 5 5 5 5 5 5 5 5 5 6 5 5 5 5 5 5 5 5 6 5 5 5 5 5 5 5 5 5 5 5 5 5 5 5 5 6 5 5 5 6 5 5 5 5 5 6 5 5 5 5 5 5 5 5 5 5 5 5 5 5 6 5 5 5 5 6 5 5 6 5 5 5 5 5 6 5 5 5 5 5 5 5 5 5 5 5 5 5 5 6 5 6 5 5 5 6 5 6 5 6 5 5 5 5 5 5 6 6 5 5 5 5 5 5 6 5 6 5 5 5 5 5 5 5 5 5 5 5 5 5 5 5 5 5 6 5 5 5 6 6 5 5 5 5 5 6 5 5 6 6 5 5 5 5 5 5 5 5 5 5 5 5 5 5 5 5 5 5 5 5 5 5 5 5 5 5 5 5 5 5 5 5 5 5 5 5 5 5 5 5 5 5 5 5 6 5 5 6 6 6 5 5 5 5 5 5 6 5 5 5 5 5 5 5 5 5 6 5 5 5 6 5 5 5 5 5 5 5 5 5 5 5 5 5 5 5 5 5 5 5 5 6 5 5 5 5 6 5 5 5 5 5 5 5 5 5 5 5 5 5 5 5 5 5 5 5 5 5 5 5 5 5 5 5 5 5 5 5 5 5 5 6 5 6 5 5 5 5 5 5 5 5 6 5 5 5 6 5 6 5 5 5 5 5 5 5 5 6 5 5 5 5 6 5 5 5 5 6 5 5 5 5 5 5 5 6 5 5 5 5 6 5 5 5 5 5 5 5 5 5 5 5 5 5 5 5 5 5 5 5 5 5 5 5 5 5 5 5 5 5 5 5 5 5 5 5 5 5 5 5 5 5 5 5 5 5 5 6 5 5 5 5 6 6 5 5 6 6 5 5 5 5 5 5 5 5 5 5 5 5 5 5 5 5 5 5 5 6 5 5 5 6 6 5 5 5 5 5 5 5 5 5 5 5 5 5 5 5 5 5 5 5 5 5 5 5 5 5 5 5 6 5 5 5 5 5 5 5 6 5 5 5 5 5 5 5 5 5 5 5 5 5 5 5 6 5 5 5 5 5 5 5 5 6 5 6 6 5 5 5 5 5 5 5 5 5 5 5 5 6 5 5 5 5 5 5 5 5 5 5 5 5 5 5 5 5 5 5 6 5 5 5 6 5 5 5 5 5 5 5 5 6 5 5 5 5 5 5 5 5 5 5 5 5 5 5 5 6 5 5 5 6 5 5 5 5 5 5 5 5 5 5 5 5 5 5 5 5 5 5 5 5 5 5 5 5 5 5 5 5 5 5 5 5 5 6 5 6 5 5 5 5 5 5 5 5 6 5 5 5 5 5 5 5 5 5 6 5 5 6 5 5 5 5 5 6 5 5 5 5 6 5 5 5 5 6 5 5 5 6 5 6 5 5 6 5 5 5 5 5 5 5 5 5 5 5 5 5 5 6 5 5 6 5 6 5 5 5 6 5 5 6 5 5 5 5 6 5 6 5 5 5 5 5 5 6 5 6 5 5 5 5 5 6 5 5 5 5 6 5 5 5 5 5 5 6 5 5 5 5 5 5 5 5 5 5 5 5 5 5 5 5 5 5 5 5 5 5 5 5 5 5 5 5 5 5 5 5 5 6 6 5 5 5 5 5 5 5 5 5 5 6 5 5 6 6 5 6 5 5 5 5 5 5 5 6 5 5 5 5 5 5 5 5 5 5 5 5 6 5 5 5 5 6 5 5 5 5 5 5 5 5 5 5 5 5 6 5 5 5 5 5 5 5 5 5 5 5 5 5 5 5 5 5 6 5 5 5 5 5 6 5 5 5 6 5 5 5 5 5 5 6 5 6 5 5 5 6 5 5 5 5 5 5 5 5 5 6 5 5 6 5 5 5 5 5 5 5 6 5 5 5 5 5 5 5 5 5 5 5 5 5 6 5 5 6 5 5 5 5 5 5 6 5 5 5 5 5 5 6 5 5 5 5 5 5 5 6 5 5 5 5 5 5 5 5 5 5 5 5 5 5 5 5 5 5 5 5 5 5 6 5 5 5 5 5 5 5 5 5 5 6 5 5 5 5 6 6 5 5 5 5 6 5 5 5 5 5 5 5 5 5 6 5 5 5 5 5 5 5 5 5 5 5 6 5 5 5 6 5 5 5 6 5 5 5 5 5 5 5 5 5 5 5 5 6 5 5 5 5 5 6 5 5 6 5 5 5 5 5 5 5 5 5 5 5 5 5 5 6 5 5 5 5 5 5 5 6 5 5 5 6 5 5 5 5 5 6 5 5 5 5 5 5 5 5 5 6 5 5 5 5 5 5 5 5 6 5 5 5 5 5 6 5 5 5 5 5 5 5 6 5 5 5 5 5 5 5 5 5 5 5 5 5 5 5 5 5 5 5 5 5 5 5 5 5 5 5 5 5 5 5 5 5 5 5 5 5 5 5 5 5 5 5 5 5 5 5 5 6 5 5 5 5 5 5 5 6 5 5 5 5 5 5 5 5 5 5 5 5 5 5 5 5 5 5 5 5 5 5 6 6 5 5 6 6 5 5 5 5 5 5 5 6 5 5 5 5 5 5 5 5 5 5 5 5 5 5 6 5 5 5 5 5 5 5 5 6 5 5 6 5 5 5 6 5 5 5 5 5 5 5 5 5 5 5 5 5 5 5 5 5 5 5 5 5 5 5 5 5 5 5 5 6 5 5 5 5 5 5 5 5 6 5 5 5 5 5 5 6 6 5 5 5 5 6 5 5 6 5 5 6 5 5 5 5 5 5 6 5 5 5 5 5 5 5 5 6 5 5 5 5 5 5 5 5 5 5 5 6 5 5 6 5 5 5 5 5 5 5 6 5 5 5 6 5 6 5 6 5 5 5 5 5 5 5 5 5 5 5 5 5 5 5 5 5 6 5 6 5 5 5 5 5 5 5 5 5 5 6 5 5 5 5 5 5 5 6 5 5 5 6 5 6 6 5 5 6 5 5 5 5 6 5 5 5 6 5 5 5 6 5 6 6 5 5 5 5 5 5 6 5 5 5 5 5 5 5 5 6 6 6 5 6 5 5 6 6 5 5 6 5 5 5 5 5 5 5 5 5 5 5 6 5 5 5 5 5 5 5 5 5 5 5 5 5 6 6 5 5 5 5 6 5 5 5 6 5 5 5 5 5 6 6 5 5 5 6 5 5 5 5 5 5 5 5 5 5 5 5 5 5 5 6 5 5 5 6 5 5 5 6 5 5 5 5 5 5 6 5 5 5 5 5 6 5 5 5 5 5 5 5 5 6 5 5 5 5 5 5 5 5 5 6 5 5 5 5 6 5 6 5 5 6 5 6 5 5 5 5 5 5 6 5 6 6 5 5 5 5 5 5 5 5 6 5 6 5 6 5 6 5 5 5 5 5 5 5 5 5 5 5 6 5 5 5 6 5 5 5 5 5 5 5 5 6 5 5 5 5 5 5 5 5 5 6 5 5 5 5 6 5 5 6 5 5 5 5 5 5 5 5 5 6 5 5 5 6 5 5 5 5 5 5 5 5 5 5 5 5 5 5 5 5 5 5 5 6 5 5 5 5 5 5 5 5 5 5 6 5 5 5 5 5 5 5 5 5 5 5 5 5 5 5 5 5 5 5 5 5 5 5 5 5 5 5 5 5 5 5 5 5 5 5 5 5 5 5 5 5 5 5 5 5 6 6 5 5 5 5 5 5 5 5 5 5 5 5 5 6 6 5 5 5 6 5 5 6 5 5 5 6 5 5 5 6 5 5 5 5 5 5 5 5 6 5 5 6 5 6 6 5 5 5 5 5 5 6 5 6 6 6 5 5 6 5 5 6 6 5 5 5 5 5 5 5 5 5 5 5 5 5 5 5 5 5 5 5 5 5 6 5 5 5 5 5 5 5 5 5 6 5 5 5 5 5 5 5 6 6 5 5 5 5 5 5 5 5 5 5 5 5 5 5 5 5 5 5 5 5 5 5 5 6 5 6 5 5 5 5 5 5 5 6 5 5 5 6 6 5 5 6 5 5 5 5 6 5 5 5 6 5 5 5 6 5 5 5 5 5 5 5 5 5 6 6 5 5 5 5 5 6 5 5 6 6 6 5 5 5 5 5 6 5 5 5 5 5 5 5 5 5 6 5 6 5 5 5 5 5 5 5 5 5 5 5 5 5 5 5 5 5 5 5 5 5 5 5 5 6 5 5 5 5 6 6 5 5 5 6 5 5 5 5 5 5 5 5 5 5 5 5 5 5 5 5 6 5 5 5 6 5 5 6 5 5 5 5 5 5 5 5 5 5 5 5 5 6 5 5 6 5 5 5 6 5 6 5 6 5 6 6 6 5 5 5 5 5 5 5 5 6 5 5 5 5 5 5 5 5 6 5 5 6 5 5 5 5 5 5 5 5 5 5 5 5 5 5 5 5 5 5 5 5 5 6 5 5 5 5 5 5 5 5 5 5 6 5 6 5 5 6 5 6 5 6 5 5 6 5 6 5 5 6 5 5 5 6 5 5 5 5 5 5 5 5 5 5 5 5 5 5 5 5 5 5 5 5 5 5 5 5 5 5 5 5 5 5 5 5 5 5 5 5 5 5 5 5 5 5 5 5 5 5 5 5 5 5 5 5 5 5 5 5 5 5 5 5 5 6 5 5 6 5 5 5 5 5 5 6 6 5 5 5 5 5 5 5 5 5 5 5 5 5 5 5 5 5 5 6 5 5 5 6 5 5 5 5 5 5 5 5 5 5 5 5 5 5 5 5 6 5 5 5 5 5 5 5 6 5 5 5 5 5 5 5 5 6 5 6 5 5 5 5 5 5 5 5 5 5 5 5 5 5 5 5 6 5 5 5 5 5 5 5 6 5 5 5 5 6 5 5 5 5 5 5 5 6 5 5 6 6 5 5 6 5 5 5 5 5 5 6 5 5 5 5 5 5 5 5 5 6 5 5 6 5 5 6 5 5 6 5 5 5 5 5 6 5 5 5 5 5 5 5 5 6 5 5 5 5 5 5 5 6 5 5 5 5 5 5 5 5 5 5 5 5 6 5 5 5 5 5 5 5 6 6 5 6 5 6 5 5 5 5 5 5 5 5 5 5 5 5 5 5 5 6 5 6 5 5 5 5 5 5 5 5 6 5 6 5 6 5 6 5 6 5 5 6 5 5 5 5 5 6 5 5 5 5 5 5 5 5 6 5 5 5 5 5 6 5 5 6 5 6 6 5 5 5 5 5 5 5 5 6 5 5 5 5 5 5 5 5 5 5 5 5 5 6 5 5 5 5 5 5 5 6 5 5 5 6 5 5 5 5 5 5 5 5 5 5 5 5 5 5 5 5 5 6 5 5 5 5 5 5 5 6 5 5 6 5 5 5 5 5 5 5 5 5 5 5 5 5 5 5 6 5 5 5 5 6 5 5 5 5 5 5 5 5 5 5 5 5 5 5 5 5 5 5 5 5 5 5 5 5 5 6 5 5 5 5 5 5 6 5 5 5 5 5 5 5 5 5 6 6 5 5 5 6 5 6 5 5 5 5 5 5 5 5 5 5 5 5 5 5 5 6 5 5 5 5 5 5 5 5 5 5 5 5 6 6 5 5 5 5 5 5 5 5 6 5 5 6 5 5 6 6 5 5 5 5 5 5 5 6 5 5 5 5 5 5 5 5 5 6 5 5 5 6 5 5 5 5 5 6 5 5 5 5 5 5 5 5 5 5 5 5 6 5 5 5 6 5 5 5 6 5 5 5 5 5 5 5 5 5 5 5 5 5 5 5 5 5 5 5 5 5 5 5 5 5 5 5 5 5 5 5 5 6 5 5 5 5 5 5 5 5 5 5 5 5 5 5 5 5 5 5 5 5 5 5 5 5 6 5 6 5 5 6 5 5 5 5 5 5 5 5 5 6 5 5 5 5 5 5 5 5 5 5 5 5 5 5 6 5 5 5 5 6 5 5 5 6 5 5 5 5 5 5 5 5 5 5 5 5 5 5 5 5 5 5 5 5 5 5 5 5 5 5 5 5 5 5 5 5 5 5 5 5 5 5 5 5 5 5 5 5 5 5 5 5 5 5 5 5 5 5 5 5 5 5 5 5 5 5 5 5 5 5 5 5 5 5 5 5 5 5 5 5 5 5 5 5 5 5 5 5 5 5 5 5 5 5 5 5 5 5 5 5 5 5 5 5 5 5 5 5 5 5 5 5 5 5 5 5 5 5 5 5 5 5 5 5 5 5 5 5 5 5 5 5 5 5 5 5 5 5 5 5 5 5 5 5 5 5 5 5 5 5 5 5 5 5 5 5 5 5 5 5 5 5 5 5 5 5 5 5 5 5 5 5 5 5 5 5 5 5 5 5 5 5 5 5 5 5 5 5 5 5 5 5 5 6 5 5 5 5 5 5 5 5 5 5 5 5 5 5 5 5 6 5 5 5 5 5 5 5 5 6 5 5 5 5 6 5 5 5 5 5 5 5 5 5 5 5 5 5 5 5 5 5 5 5 5 5 5 6 5 5 5 5 5 5 5 5 5 5 5 5 5 6 6 5 5 5 5 5 6 5 6 5 5 5 5 5 5 5 5 5 5 5 6 5 5 5 5 5 5 5 6 5 5 5 5 5 5 5 5 5 5 5 5 5 5 5 6 6 5 5 5 5 5 5 5 5 5 5 5 5 6 5 5 5 5 5 5 5 5 5 5 5 5 5 5 5 5 6 5 5 5 5 5 5 5 6 5 5 5 5 5 5 5 5 5 5 6 6 5 5 5 5 5 5 5 5 5 5 5 5 5 5 5 5 5 5 5 5 5 5 5 5 5 5 5 5 5 5 6 5 5 5 5 5 6 5 5 5 5 5 5 5 5 5 5 6 5 5 5 5 6 5 5 5 5 5 5 5 5 5 5 6 5 6 5 5 5 5 5 5 5 5 5 5 5 5 5 5 5 5 5 5 5 5 5 5 5 5 5 5 5 5 5 5 5 6 5 5 5 5 5 6 5 5 5 5 5 5 5 5 5 5 5 5 5 5 5 5 5 5 6 5 5 6 5 5 5 6 5 5 5 5 5 6 5 5 5 5 5 5 5 5 5 5 6 5 5 5 5 5 5 6 5 5 5 5 5 6 6 5 5 6 5 5 6 5 5 5 5 5 5 5 5 5 5 6 5 5 6 5 5 6 5 5 6 5 5 6 5 5 6 5 5 5 5 5 5 6 5 5 5 5 5 5 5 5 5 5 5 6 5 5 5 5 5 5 5 6 5 5 5 5 6 5 5 5 6 5 5 5 5 5 5 5 5 5 5 5 6 5 5 5 5 5 5 5 5 5 5 5 5 5 5 5 5 5 5 5 5 5 5 5 5 6 5 5 5 5 5 6 5 5 5 5 5 5 5 5 5 5 5 5 5 5 6 5 5 6 5 6 5 5 5 5 6 5 6 6 5 6 5 5 5 5 5 5 5 6 5 6 5 5 5 5 5 5 6 5 5 5 5 5 5 6 5 5 5 5 6 5 5 5 5 5 6 5 5 6 5 5 5 5 6 5 5 5 5 6 5 5 5 5 5 5 6 5 5 5 5 5 5 5 5 5 6 5 5 5 5 5 5 6 5 5 5 5 6 5 5 5 5 5 5 5 5 5 5 5 5 5 5 5 5 6 5 5 5 6 5 5 6 5 5 5 5 5 5 5 5 5 5 5 5 5 5 5 5 6 5 6 5 5 5 5 5 5 5 5 5 5 5 5 5 5 5 5 5 5 5 5 5 5 5 5 5 5 6 5 5 6 5 5 5 5 5 5 5 5 5 5 6 5 5 5 5 6 5 5 5 5 6 5 5 5 5 5 5 5 5 5 6 5 5 5 5 5 5 5 5 5 5 5 5 5 5 5 5 5 5 5 5 5 5 5 5 5 5 5 5 
</DataArray>
<DataArray type="Float64" Name="stress" NumberOfComponents="9" format="ascii">
-1169079350.4825745 117387523.88446909 0 117387523.88446909 189635.099453929 0 0 0 0 -1973606191.2071037 228429265.75252914 0 228429265.75252914 75572024.743004471 0 0 0 0 -2202049636.7133904 347832055.24579191 0 347832055.24579191 179387429.41745573 0 0 0 0 -1871611299.541317 422529861.8852663 0 422529861.8852663 -64717771.466837183 0 0 0 0 -1508742279.1642609 621300300.54669118 0 621300300.54669118 -60217925.233141355 0 0 0 0 -1435149.5777987689 3804.7799521731213 0 3804.7799521731213 -12166.68742453272 0 0 0 0 -24817149.692970276 -99192387.267378837 0 -99192387.267378837 -185626433.46819109 0 0 0 0 -496259930.86611938 -174388965.68829966 0 -174388965.68829966 -82273000.950004935 0 0 0 0 -1325208347.9552383 92923601.47013998 0 92923601.47013998 17728769.987610757 0 0 0 0 -1006729393.4588223 558137619.76152217 0 558137619.76152217 -292029419.83737862 0 0 0 0 -105921157.89772797 52549649.437117547 0 52549649.437117547 -181943008.40064371 0 0 0 0 -500253938.8399353 332668429.10792059 0 332668429.10792059 -107143110.07124195 0 0 0 0 -2451517.354888916 348855.64752450486 0 348855.64752450486 734.86513465395592 0 0 0 0 -1379612.7304778025 -510034.4213128686 0 -510034.4213128686 -206603.764266652 0 0 0 0 -2728461.11419487 894958.96353231522 0 894958.96353231522 1108425.260479534 0 0 0 0 -1473161.2722320557 1249116.9055449094 0 1249116.9055449094 1556.7169229269809 0 0 0 0 -2541555.2927398682 474005.77582777204 0 474005.77582777204 398195.40460483637 0 0 0 0 -3617417.467590332 17564.776732709375 0 17564.776732709375 520930.36363672494 0 0 0 0 -2106403.4023630023 -617218.66986007243 0 -617218.66986007243 81830.990953465633 0 0 0 0 -2772877.3667831421 617012.28729792091 0 617012.28729792091 269564.5534374991 0 0 0 0 -2327394.0538330078 205982.07646908844 0 205982.07646908844 646848.23784843541 0 0 0 0 -2432436.8453693092 286774.49521860387 0 286774.49521860387 184253.92712201353 0 0 0 0 10496114.428962708 -11997424.183329165 0 -11997424.183329165 9500777.4634776115 0 0 0 0 24427335.904594421 -11810502.586685777 0 -11810502.586685777 -6861471.2115695477 0 0 0 0 9228458.2737579346 -2963723.6273192167 0 -2963723.6273192167 2331529.9926018715 0 0 0 0 -3553843.8767356873 -5124411.461745128 0 -5124411.461745128 -19157715.762454391 0 0 0 0 -2922816.2035556994 -118349.27037708089 0 -118349.27037708089 -447445.34486822225 0 0 0 0 19755263.238479614 -15586696.325592726 0 -15586696.325592726 -15723739.182678059 0 0 0 0 -2242802.5997161865 5300286.0962791443 0 5300286.0962791443 -2037857.8158142567 0 0 0 0 12632995.562995911 4127577.296480909 0 4127577.296480909 -12945187.985394597 0 0 0 0 -3033575.6553039551 7595034.3839357495 0 7595034.3839357495 14365696.776230484 0 0 0 0 -3389172.2845110893 -142457.55981220212 0 -142457.55981220212 88557.320746890997 0 0 0 0 -123261668.95404053 84572353.728671804 0 84572353.728671804 -60470533.372282445 0 0 0 0 65182166.489852905 28342966.170031369 0 28342966.170031369 -102039505.52330256 0 0 0 0 26756587.822616577 -18228679.652407214 0 -18228679.652407214 -29541374.429990947 0 0 0 0 -65997962.993377686 65587474.545427069 0 65587474.545427069 -25390641.948727712 0 0 0 0 -2120213.3256827593 3234763.7957302602 0 3234763.7957302602 -111401786.90465474 0 0 0 0 -9947799.9689788818 -130514054.44807923 0 -130514054.44807923 -119704613.75645897 0 0 0 0 42239430.968017578 -102290111.86544061 0 -102290111.86544061 -17755786.557843052 0 0 0 0 52757284.452148438 -23890338.162699193 0 -23890338.162699193 -32219240.874714792 0 0 0 0 -2228438.7090416551 -22367820.999468941 0 -22367820.999468941 -14395641.393245101 0 0 0 0 79481614.496276855 -28465402.068798542 0 -28465402.068798542 -85346403.315263644 0 0 0 0 67903150.217758179 -2589684.8938389719 0 -2589684.8938389719 -11627682.5346421 0 0 0 0 86961545.911169052 -58825640.264650486 0 -58825640.264650486 -16164428.298627138 0 0 0 0 -3770219.9133911133 -37406980.154206142 0 -37406980.154206142 48044932.717002615 0 0 0 0 -707952.24932476692 -257253.88812980428 0 -257253.88812980428 -23213.675854085537 0 0 0 0 85428879.81022644 -100377167.24962789 0 -100377167.24962789 79661033.359671056 0 0 0 0 -32019631.946403503 -627819.82038742676 0 -627819.82038742676 18369614.405386478 0 0 0 0 -722455.52419462427 -120723.93813701719 0 -120723.93813701719 187924.83485876059 0 0 0 0 199425619.30549622 -66347599.872401848 0 -66347599.872401848 -2766683.9571771324 0 0 0 0 52391786.504257202 -9142232.4147908613 0 -9142232.4147908613 72920479.444971919 0 0 0 0 195458539.68286133 -63944568.708614677 0 -63944568.708614677 13544800.0311746 0 0 0 0 41984475.482849121 -98906318.187680781 0 -98906318.187680781 69394540.004034579 0 0 0 0 18641041.107666016 -34292886.337572753 0 -34292886.337572753 -7024009.6798475608 0 0 0 0 -1306435.68292154 -2650656.5001603179 0 -2650656.5001603179 -1061844.8189741038 0 0 0 0 14262642.214645386 -32373676.880655959 0 -32373676.880655959 4033704.3287051618 0 0 0 0 -43532296.11530304 -49345970.958029225 0 -49345970.958029225 24569054.700143516 0 0 0 0 -46575437.770832062 -22107345.970589098 0 -22107345.970589098 136754323.43029869 0 0 0 0 29537150.383275986 -80962613.767962798 0 -80962613.767962798 37174738.135461926 0 0 0 0 -3503758.3237304688 -99594980.215355217 0 -99594980.215355217 26957800.496513546 0 0 0 0 -27073446.943817139 -17634465.995541714 0 -17634465.995541714 933596.08639059216 0 0 0 0 2496769.9632644653 12530206.692621827 0 12530206.692621827 -2710393.3487894535 0 0 0 0 -2660487.9736626074 216337.7312822789 0 216337.7312822789 -1264042.1249817153 0 0 0 0 -22049653.137466431 -7036968.5676526129 0 -7036968.5676526129 -3130303.9957385138 0 0 0 0 -22138770.690189362 -8195637.4053818583 0 -8195637.4053818583 3288431.2552195191 0 0 0 0 -3648221.3021087646 -15063419.153052608 0 -15063419.153052608 1664799.3308960348 0 0 0 0 -7537014.0530395508 -2928024.7902532816 0 -2928024.7902532816 -6124140.4279310703 0 0 0 0 -4154212.97299679 1542682.7921707332 0 1542682.7921707332 1212571.6367337459 0 0 0 0 -12646155.7762146 -3420604.4915791452 0 -3420604.4915791452 4767530.1139629036 0 0 0 0 -5457746.2317047119 -8589773.1067123413 0 -8589773.1067123413 -1069032.6399862468 0 0 0 0 -16549473.96156311 -10773258.974876456 0 -10773258.974876456 -5302814.6590285301 0 0 0 0 -23435236.775611877 -11323937.98667714 0 -11323937.98667714 -4934605.6337360144 0 0 0 0 -23358287.193206787 3954515.3000003695 0 3954515.3000003695 -5119563.4038640857 0 0 0 0 -27314872.815467834 -8262643.0391029418 0 -8262643.0391029418 -2348834.7490878701 0 0 0 0 -23471795.592189789 9575644.4412939399 0 9575644.4412939399 993799.98996269703 0 0 0 0 -32137226.164638519 -3174060.3961237967 0 -3174060.3961237967 2005468.1316561699 0 0 0 0 -8144392.0591812134 -7862961.7481396794 0 -7862961.7481396794 -13365603.465330601 0 0 0 0 -6498360.2112913169 852050.68416915275 0 852050.68416915275 1101053.2115130436 0 0 0 0 -4112298.528093338 -384869.17904675007 0 -384869.17904675007 -673689.56388545036 0 0 0 0 -4314245.6679420471 -734866.34437304735 0 -734866.34437304735 -560034.12530422211 0 0 0 0 -3167974.3807464093 -173512.93738246179 0 -173512.93738246179 -2308269.2019246076 0 0 0 0 -14546859.098945618 -1128415.7880465388 0 -1128415.7880465388 8185071.1865799427 0 0 0 0 -12473897.272761345 -2419791.0152969882 0 -2419791.0152969882 1436834.3470802307 0 0 0 0 -7569037.806582123 1962439.1968949309 0 1962439.1968949309 296700.20714944915 0 0 0 0 -11033561.14389801 9135456.0547283888 0 9135456.0547283888 -858007.71646767855 0 0 0 0 -6235958.2793426514 -1153881.1697019339 0 -1153881.1697019339 -571765.86004686356 0 0 0 0 -4598472.2914581299 -23687807.497065008 0 -23687807.497065008 7049321.7149975896 0 0 0 0 -18988769.64630127 -4323065.8045143783 0 -4323065.8045143783 10299003.717845351 0 0 0 0 -3630603.6377493478 -2788274.7562605292 0 -2788274.7562605292 -552785.86038090056 0 0 0 0 -9611472.3855895996 -3646762.9885092974 0 -3646762.9885092974 1810245.9247562289 0 0 0 0 -12548260.794509888 -6102734.653490603 0 -6102734.653490603 16430772.586265147 0 0 0 0 -18956568.170570374 2433431.0277484804 0 2433431.0277484804 5707064.5263593197 0 0 0 0 -28610929.203071594 19734600.947115093 0 19734600.947115093 25338301.454271033 0 0 0 0 -25131068.03188324 26645865.327952325 0 26645865.327952325 -14298735.665926248 0 0 0 0 -1025460020.2677231 678747967.8608017 0 678747967.8608017 -386118779.72612679 0 0 0 0 -19294858.683649063 -5226954.2486813664 0 -5226954.2486813664 27356507.412711859 0 0 0 0 -8153034.8654639982 -1566575.6000410253 0 -1566575.6000410253 783680.69749177084 0 0 0 0 -209220.99816155806 83799.068936564028 0 83799.068936564028 -3442.0780537317041 0 0 0 0 -294122.11679565907 4152981.9758665655 0 4152981.9758665655 2108471.0860772282 0 0 0 0 -20416501.158294678 12964994.949580908 0 12964994.949580908 8304764.3366740346 0 0 0 0 -14807368.998794556 2966762.4024106562 0 2966762.4024106562 2736194.2444194257 0 0 0 0 -632819.65799326077 4290343.3686359599 0 4290343.3686359599 902494.13468047837 0 0 0 0 -13208854.744628906 14911027.470087364 0 14911027.470087364 3279261.1723316535 0 0 0 0 -9983509.1039352417 26143223.10122624 0 26143223.10122624 -50377.886197991669 0 0 0 0 -8556964.8172912598 20575413.468423069 0 20575413.468423069 -92808481.472510457 0 0 0 0 -7325058.6245956421 20129356.373949792 0 20129356.373949792 -27849671.825042799 0 0 0 0 -18876589.96672821 25034918.453044176 0 25034918.453044176 15633029.167725563 0 0 0 0 -3563248.1494766548 10698.504920939915 0 10698.504920939915 6155.1244529121905 0 0 0 0 -654102041.5687561 -758282526.82156134 0 -758282526.82156134 -785602095.83093071 0 0 0 0 -2201621232.7081947 1650665093.2874146 0 1650665093.2874146 -1087047531.6642931 0 0 0 0 -1042257240.1678829 686279939.74633014 0 686279939.74633014 -284905428.59157544 0 0 0 0 -1465077175.4650116 959240583.44226658 0 959240583.44226658 -245799851.16533798 0 0 0 0 -2206311863.9205112 845274119.01795697 0 845274119.01795697 95162389.128555477 0 0 0 0 -1019407443.5992775 489319610.94306666 0 489319610.94306666 -97488545.351005778 0 0 0 0 -1118982205.747612 766705043.77256024 0 766705043.77256024 -175944881.48431858 0 0 0 0 -1205898439.0350914 309182961.37560409 0 309182961.37560409 26029960.214959577 0 0 0 0 -327890760.1388855 73262182.861484408 0 73262182.861484408 24469430.299119916 0 0 0 0 -117719652.07336712 180722762.62666744 0 180722762.62666744 53592488.871605456 0 0 0 0 -151345815.83727264 -175098324.52956146 0 -175098324.52956146 60803150.233573884 0 0 0 0 27816270.081481934 -99044839.463451385 0 -99044839.463451385 266003403.64475727 0 0 0 0 -383697130.04789734 -72434346.530265599 0 -72434346.530265599 345879679.37057567 0 0 0 0 -1513388.5011045337 1575277.3261867464 0 1575277.3261867464 919409.77104148502 0 0 0 0 -123747934.71446228 324522703.81475025 0 324522703.81475025 -187767131.79389599 0 0 0 0 -249130481.92901611 105542884.42202091 0 105542884.42202091 35723443.587918758 0 0 0 0 -970474235.26854706 568653913.5478946 0 568653913.5478946 31122804.382381439 0 0 0 0 -4216393.6810691282 -1650512.6723835021 0 -1650512.6723835021 1056526.600401632 0 0 0 0 181939144.83833313 108035339.66512814 0 108035339.66512814 -256679315.12340975 0 0 0 0 4223208.5833206177 -21576308.788855076 0 -21576308.788855076 12235980.195029646 0 0 0 0 -12390434.783742905 -13901342.827449592 0 -13901342.827449592 10042876.108894497 0 0 0 0 -12369640.718086243 -14866077.24567987 0 -14866077.24567987 39783207.604670674 0 0 0 0 -11820885.582828522 -47171229.414098419 0 -47171229.414098419 3248800.5419485718 0 0 0 0 8041889.8603286743 -21579546.530045498 0 -21579546.530045498 11769125.506899655 0 0 0 0 -1264320.9591468917 -263201.96762731671 0 -263201.96762731671 239324.28248207102 0 0 0 0 93691782.38533783 -34002839.743254244 0 -34002839.743254244 -32334265.957579195 0 0 0 0 -93535643.264229774 -162928626.37042364 0 -162928626.37042364 -197193539.22249335 0 0 0 0 -166366675.51406097 -82934375.430107936 0 -82934375.430107936 -15261631.538502559 0 0 0 0 -194297738.09600163 -264369784.987719 0 -264369784.987719 -73445498.107799947 0 0 0 0 -79319913.704109192 -34234746.941933677 0 -34234746.941933677 -134961.03852389558 0 0 0 0 9819788.0200195312 -82442010.125830472 0 -82442010.125830472 -31791068.339689367 0 0 0 0 -35055042.76222229 -23466295.691836912 0 -23466295.691836912 -2896605.0925013721 0 0 0 0 -56225284.872268677 -18296979.453814875 0 -18296979.453814875 -14795529.942372903 0 0 0 0 -34211767.699806213 -33429743.4146594 0 -33429743.4146594 -37461455.206672117 0 0 0 0 -79773889.65512085 -11457277.696895272 0 -11457277.696895272 15479.262648450791 0 0 0 0 -79569218.475036621 -22149553.680297848 0 -22149553.680297848 -39561478.617718741 0 0 0 0 -101979766.87420654 22615229.287079081 0 22615229.287079081 -37634535.03642305 0 0 0 0 -156611657.1967926 16334696.452347983 0 16334696.452347983 -9243308.5147797838 0 0 0 0 -62245932.924911499 -36009479.844495095 0 -36009479.844495095 -62897111.782509938 0 0 0 0 -49231925.743034363 348961.1649431996 0 348961.1649431996 -8547336.5393143073 0 0 0 0 -48123852.598884583 20256897.857692361 0 20256897.857692361 47795284.655278981 0 0 0 0 -36612930.278823853 -3682188.0940769315 0 -3682188.0940769315 28851569.742037788 0 0 0 0 -77445637.768730164 -2009434.1372259855 0 -2009434.1372259855 31532466.872400731 0 0 0 0 -34412839.137744904 -22551643.592256121 0 -22551643.592256121 21650061.886597455 0 0 0 0 -44055420.816543579 -40451240.475600496 0 -40451240.475600496 -7818092.4726036116 0 0 0 0 -24010779.719711304 -31019672.155748665 0 -31019672.155748665 26654211.715878502 0 0 0 0 -24769156.067171216 9663306.6945204772 0 9663306.6945204772 43133423.532536268 0 0 0 0 -21780394.020401001 15158.125987410545 0 15158.125987410545 52882539.994705737 0 0 0 0 -21086639.930160522 5323668.7383003831 0 5323668.7383003831 26236384.435001373 0 0 0 0 -1453593.6611785889 21081202.879447818 0 21081202.879447818 36836623.008278519 0 0 0 0 -732326.49289283529 -373236.81589814648 0 -373236.81589814648 -178737.00624197477 0 0 0 0 -9521745.206413269 -14816424.043286815 0 -14816424.043286815 -96005.295576941222 0 0 0 0 26291302.000640869 58678047.760373428 0 58678047.760373428 35981056.390185893 0 0 0 0 -567557.94699478149 -6956450.7787223049 0 -6956450.7787223049 5064944.9941794276 0 0 0 0 -1396359.6600996256 -560774.19680488668 0 -560774.19680488668 -155497.01387951762 0 0 0 0 -1710552.6330947876 -4394707.659619987 0 -4394707.659619987 1431993.3081429005 0 0 0 0 -6112024.3218383789 -10838431.068345606 0 -10838431.068345606 11014343.772946358 0 0 0 0 -1369422.2933758404 -511267.14806600288 0 -511267.14806600288 760533.37236289633 0 0 0 0 41680344.479652405 34164740.867238462 0 34164740.867238462 1516764.6846669912 0 0 0 0 -4206384.6714782715 -3348871.4094600379 0 -3348871.4094600379 7039626.7461333275 0 0 0 0 -3964762.7177352905 -4623056.0009975135 0 -4623056.0009975135 13757807.463451624 0 0 0 0 -17714577.557601929 8726219.3417563438 0 8726219.3417563438 15306062.952395678 0 0 0 0 -14181167.831016541 -414430.66932234168 0 -414430.66932234168 38880995.485829949 0 0 0 0 -45094487.188858032 67064975.854116663 0 67064975.854116663 60146006.007489301 0 0 0 0 29706116.231822968 62480856.762877718 0 62480856.762877718 36777153.649322271 0 0 0 0 -16760604.493927002 33826041.473337069 0 33826041.473337069 37184910.189198643 0 0 0 0 -31907915.859405518 50417193.389596194 0 50417193.389596194 49042611.327065423 0 0 0 0 -83690257.890579224 4356210.3129629567 0 4356210.3129629567 43593364.827248111 0 0 0 0 -2175074.8735275269 46548736.983811758 0 46548736.983811758 -163781149.21490261 0 0 0 0 -241956.15320379287 106420.97125605587 0 106420.97125605587 34562.305409723624 0 0 0 0 -34660455.355819702 -22544152.385900684 0 -22544152.385900684 5101968.3225497808 0 0 0 0 17103953.861160278 -117349274.06032577 0 -117349274.06032577 -38476949.378018141 0 0 0 0 -10807809.222579956 1977003.5923598444 0 1977003.5923598444 -15271.652561227094 0 0 0 0 -45968865.644638062 -6286113.6034960095 0 -6286113.6034960095 1055282.3088263278 0 0 0 0 -76506843.257976532 -25505714.95820269 0 -25505714.95820269 12096018.19275319 0 0 0 0 9081410.5906524658 -5125474.4182727057 0 -5125474.4182727057 -4300328.9733001543 0 0 0 0 9189724.6936946213 9644752.3774258941 0 9644752.3774258941 2013448.6582690962 0 0 0 0 -3460827.7698516846 -1004980.8425447878 0 -1004980.8425447878 -1498228.6927437866 0 0 0 0 -912455.59953638911 222478.40346815251 0 222478.40346815251 105861.50211156055 0 0 0 0 -1664198.6018066406 2328683.0197615619 0 2328683.0197615619 12348386.576348448 0 0 0 0 5939389.8040161133 59083634.153979816 0 59083634.153979816 -51733319.946601234 0 0 0 0 -29614832.334884644 105912892.19781047 0 105912892.19781047 174653440.45255786 0 0 0 0 -22380692.88420105 78825372.148325652 0 78825372.148325652 18100950.984587722 0 0 0 0 -1141483.6434440613 1241836.5038576885 0 1241836.5038576885 2019879.4688408133 0 0 0 0 1769759.7343597412 3288473.8021984515 0 3288473.8021984515 2032.2362565797002 0 0 0 0 -894434.5817565918 2548752.5668876097 0 2548752.5668876097 2336110.8521658895 0 0 0 0 -1907252.3536376953 1159653.1938082883 0 1159653.1938082883 2445866.8720684196 0 0 0 0 -1697266.8765017018 176686.07759344112 0 176686.07759344112 124975.25196545098 0 0 0 0 11270833.99279213 31707753.984364048 0 31707753.984364048 -18423218.991080403 0 0 0 0 -85366417.548995972 -18784192.219781637 0 -18784192.219781637 30202616.894376129 0 0 0 0 -66029634.908508301 16413582.888735652 0 16413582.888735652 -2340711.1048585176 0 0 0 0 8525309.6458587646 11123601.111740172 0 11123601.111740172 -13405090.683220744 0 0 0 0 3974223.6374664307 22415606.694686532 0 22415606.694686532 2170720.734164238 0 0 0 0 -11257092.996643066 12907001.305254579 0 12907001.305254579 -2938435.0001920462 0 0 0 0 -3907118.8134460449 4481832.9444051981 0 4481832.9444051981 5513006.4359321594 0 0 0 0 -72604179.627151489 -33442448.006119728 0 -33442448.006119728 -15645139.424542427 0 0 0 0 -1390923.7933959961 -471522.38360643387 0 -471522.38360643387 -11409130.208595306 0 0 0 0 -256184.99304209277 -141714.56731281057 0 -141714.56731281057 -227585.26307114947 0 0 0 0 -21706393.628341675 -12673298.729260683 0 -12673298.729260683 -18418152.097231865 0 0 0 0 -6304036.2373352051 916958.40803921223 0 916958.40803921223 367846.77842736244 0 0 0 0 -22581427.564239502 -1125825.9423358142 0 -1125825.9423358142 -2621492.5612010956 0 0 0 0 -14984575.749542236 -17061462.6734128 0 -17061462.6734128 4711190.0265955925 0 0 0 0 -13670883.200820923 -13634117.659819841 0 -13634117.659819841 -997431.72509241104 0 0 0 0 -20965438.997634888 -16218894.341248274 0 -16218894.341248274 165841.59884095192 0 0 0 0 -30774205.934906006 -9253545.0426787138 0 -9253545.0426787138 5611394.253839016 0 0 0 0 -19982018.305374146 4206091.9644911289 0 4206091.9644911289 4005325.5553915501 0 0 0 0 -11146217.816921234 20608976.129925579 0 20608976.129925579 -6473573.4928379059 0 0 0 0 -52202941.282073975 -3576098.6933217049 0 -3576098.6933217049 2129795.0990486145 0 0 0 0 -9228338.429649353 -1044411.2632502317 0 -1044411.2632502317 2340063.019920826 0 0 0 0 -11893155.455932617 1299094.0871026516 0 1299094.0871026516 6127817.1632988453 0 0 0 0 -12993741.564430237 -4498008.3854213953 0 -4498008.3854213953 698077.73172998428 0 0 0 0 -10551998.586334229 -7228717.8107215166 0 -7228717.8107215166 -639839.06459760666 0 0 0 0 -21258831.971099854 -6546291.0218138695 0 -6546291.0218138695 5024924.9112427235 0 0 0 0 -15791177.48841095 -6223136.89529109 0 -6223136.89529109 1267491.9996643066 0 0 0 0 -16738281.314582825 -4524913.4735491276 0 -4524913.4735491276 -1708050.4441862106 0 0 0 0 -14959554.66027832 -4590512.15563941 0 -4590512.15563941 4442605.2994898558 0 0 0 0 -10561120.817214966 -446370.32088804245 0 -446370.32088804245 3377124.6102371216 0 0 0 0 -10209258.227737427 -278665.22236323357 0 -278665.22236323357 3404198.1106278896 0 0 0 0 -11764416.941329956 -5123197.4720742702 0 -5123197.4720742702 -5515690.0378336906 0 0 0 0 -22212325.798522949 -6112652.4650416374 0 -6112652.4650416374 1311340.2266990542 0 0 0 0 -18750974.609909058 803850.75430488586 0 803850.75430488586 -203337.29439926147 0 0 0 0 295863.08361295611 -786862.47464101482 0 -786862.47464101482 -295042.58505735197 0 0 0 0 -10330529.960662842 1213069.8880410194 0 1213069.8880410194 1178970.4075908661 0 0 0 0 -4502753.0917663574 -8691339.5106734037 0 -8691339.5106734037 -4019794.3539795876 0 0 0 0 -3207810.0932388306 5429231.6460664272 0 5429231.6460664272 2730011.3508778811 0 0 0 0 -3342505.5080716312 323069.94078255445 0 323069.94078255445 -2043933.5294123197 0 0 0 0 -5784174.8895721436 -485720.14969182014 0 -485720.14969182014 361218.30289959908 0 0 0 0 -39975.808155834675 -201136.58394469015 0 -201136.58394469015 -468439.96664311562 0 0 0 0 -15607063.707794189 -15502831.989968538 0 -15502831.989968538 -17256508.372124609 0 0 0 0 -3637812.3586085699 -1322392.4211792424 0 -1322392.4211792424 -1526800.4843165088 0 0 0 0 -7994216.9300079346 -5276918.7126428187 0 -5276918.7126428187 -5124100.1443419456 0 0 0 0 -8916707.2005081177 -6089863.5566899776 0 -6089863.5566899776 -5050859.4107757211 0 0 0 0 -6129956.2784943283 254995.70205637021 0 254995.70205637021 -653623.79031660443 0 0 0 0 -9203939.0374145508 -4790741.0100449324 0 -4790741.0100449324 -559841.33844518661 0 0 0 0 -4262097.7310752869 -647665.06254017353 0 -647665.06254017353 154205.27971482277 0 0 0 0 -3490851.1846923828 -426668.87243068218 0 -426668.87243068218 -684225.72359466553 0 0 0 0 -5101038.1751358164 287821.82255172729 0 287821.82255172729 -527611.22611443093 0 0 0 0 193190.26214599609 -1254355.3376102448 0 -1254355.3376102448 694671.82431107759 0 0 0 0 -1237299.5234278813 -1008237.059032346 0 -1008237.059032346 -3174237.7905341438 0 0 0 0 -688934.98004150391 -93873.4371509552 0 -93873.4371509552 177223.61516422033 0 0 0 0 -1944629.7774556205 -322563.60997231834 0 -322563.60997231834 -2797269.6469927565 0 0 0 0 -4796608.4301147461 -172651.50233078003 0 -172651.50233078003 -82601.864154815674 0 0 0 0 -3911694.0559338666 -1801382.4656358212 0 -1801382.4656358212 -2183161.5112671191 0 0 0 0 -4997083.9736486152 -540354.68480073242 0 -540354.68480073242 -422284.59871039697 0 0 0 0 -3896602.3410606384 -415755.39404034615 0 -415755.39404034615 285280.1335670948 0 0 0 0 -2144960.8842136636 -879151.57312394236 0 -879151.57312394236 -1732638.7433255513 0 0 0 0 -2924762.604801178 -539745.09127867222 0 -539745.09127867222 -882543.91188621521 0 0 0 0 -3116644.5413360596 -765842.68776631355 0 -765842.68776631355 -1074381.6237813234 0 0 0 0 -3638098.2688703313 186843.87704825564 0 186843.87704825564 -2756667.6165033318 0 0 0 0 -3134808.4718589783 -649470.96662020683 0 -649470.96662020683 -812990.32014989853 0 0 0 0 -1958607.6018975079 533841.98664681427 0 533841.98664681427 -1918554.4153513876 0 0 0 0 -2695878.1573944092 2078.6033725738525 0 2078.6033725738525 -607084.11325645447 0 0 0 0 -774384.9383392334 162305.79521942139 0 162305.79521942139 -1448327.9403786361 0 0 0 0 -1314527.7232437134 -114320.21544027328 0 -114320.21544027328 -1514751.4004230499 0 0 0 0 -4539542.881716527 -1953074.9601549357 0 -1953074.9601549357 -2128642.5367216659 0 0 0 0 -1921795.5661430359 -167332.59263640642 0 -167332.59263640642 -635867.71788930893 0 0 0 0 -4545933.2157997731 -1552296.0537913069 0 -1552296.0537913069 -1236033.5822154093 0 0 0 0 -1629668.5585487038 -344526.40912391176 0 -344526.40912391176 -1241647.6823419929 0 0 0 0 -2205111.3796157837 -525775.99347090721 0 -525775.99347090721 -744333.52263188362 0 0 0 0 -2429384.251159668 -358484.1729798317 0 -358484.1729798317 -219039.22755432129 0 0 0 0 -1657549.6837435588 -69407.247882321477 0 -69407.247882321477 -336955.18369698315 0 0 0 0 -2496392.9121856689 -550972.9942355752 0 -550972.9942355752 -299496.40288448334 0 0 0 0 -1647148.2895050049 -329462.68988609314 0 -329462.68988609314 -330885.86123275757 0 0 0 0 -1945001.5887069702 -639256.54884886742 0 -639256.54884886742 -223003.42048081756 0 0 0 0 -4123667.0636694804 -1230004.9415650368 0 -1230004.9415650368 -649138.37146582594 0 0 0 0 -1991566.1979446411 -220304.83986163139 0 -220304.83986163139 -378448.19328022003 0 0 0 0 -4584286.3807688951 -1273772.4189717285 0 -1273772.4189717285 -529002.06918429653 0 0 0 0 -2811301.353015326 -1448990.0545475669 0 -1448990.0545475669 -555223.0480644526 0 0 0 0 -3420232.5931182448 -1118104.1945109405 0 -1118104.1945109405 -80202.092256709468 0 0 0 0 -591789.68206787109 -502537.04814910889 0 -502537.04814910889 21290.800377130508 0 0 0 0 -788330.5834967941 -732999.92443574313 0 -732999.92443574313 -860222.42579634511 0 0 0 0 -11903821.882698059 -4882142.571431756 0 -4882142.571431756 -5587582.6097871065 0 0 0 0 -1574587.8093490601 -541428.18449315429 0 -541428.18449315429 2398.360876083374 0 0 0 0 -1516623.2270278931 -212411.65058380365 0 -212411.65058380365 -38864.701757669449 0 0 0 0 -985797.67522297427 -302329.07065218687 0 -302329.07065218687 -51477.024161139503 0 0 0 0 -5199296.1135864258 -2760789.4501209259 0 -2760789.4501209259 -1518508.0198707581 0 0 0 0 -3612132.4518400058 -1632870.0142036043 0 -1632870.0142036043 -281873.32113371254 0 0 0 0 -3653617.312381573 -677984.95204038173 0 -677984.95204038173 -189399.89757990651 0 0 0 0 -2447817.2006905302 -1181399.9739577025 0 -1181399.9739577025 -545419.85078601143 0 0 0 0 -11311929.744087219 -1640668.3113685846 0 -1640668.3113685846 1384126.0271501355 0 0 0 0 -9616486.6288948059 -6956373.5472352207 0 -6956373.5472352207 -3134594.2629797459 0 0 0 0 -3985000.0978845656 -1239261.5138599579 0 -1239261.5138599579 279943.25345604541 0 0 0 0 -4440657.5412741899 -1756503.6015435578 0 -1756503.6015435578 115589.87969857884 0 0 0 0 -8264444.804725647 4182951.7548690736 0 4182951.7548690736 25466324.189431548 0 0 0 0 -2063405.2675170898 -1094532.4125304222 0 -1094532.4125304222 234888.2893640995 0 0 0 0 -5507323.1516494751 -1228801.715621829 0 -1228801.715621829 -1052634.495876193 0 0 0 0 -2608464.0842285156 -19841572.626303285 0 -19841572.626303285 26789797.467516303 0 0 0 0 -5956811.8671253473 -2046648.0341045801 0 -2046648.0341045801 -211426.88221007658 0 0 0 0 -3132464.8540725708 -3314273.6954689026 0 -3314273.6954689026 -94556.991614341736 0 0 0 0 -1182525.8701349879 -792138.07069288567 0 -792138.07069288567 200974.72279819075 0 0 0 0 -8576467.4971981049 4434536.8900761846 0 4434536.8900761846 16376142.351304054 0 0 0 0 -2765482.9792098999 -3097332.1421620846 0 -3097332.1421620846 -853883.36377286911 0 0 0 0 -3764140.6759478441 -1388706.3030253239 0 -1388706.3030253239 -653346.82635398814 0 0 0 0 -2594444.0415554047 -3294157.7985523939 0 -3294157.7985523939 -1307965.6779460907 0 0 0 0 -2875330.648109436 -2051393.9590716362 0 -2051393.9590716362 -929009.70074462891 0 0 0 0 -2298803.4612884521 -1324348.5980618 0 -1324348.5980618 11736.808084011078 0 0 0 0 -2604741.5579689704 -1514049.1591627747 0 -1514049.1591627747 -552747.77678735321 0 0 0 0 -2263316.7228164673 -761757.57810330391 0 -761757.57810330391 -432666.06702232361 0 0 0 0 -4045938.872787714 -2069566.7131455764 0 -2069566.7131455764 -1108069.2151438948 0 0 0 0 -2939804.9226878025 -1516340.0457045734 0 -1516340.0457045734 -836747.96080875373 0 0 0 0 -4110995.2437204309 -2076818.3011509553 0 -2076818.3011509553 -563295.07438857388 0 0 0 0 -1555305.6041259766 -624472.14581537247 0 -624472.14581537247 204311.90419340134 0 0 0 0 -1371344.498626709 63825.467973709106 0 63825.467973709106 -632871.45417404175 0 0 0 0 -2553126.4118652344 -1626573.8197660446 0 -1626573.8197660446 -414366.38906669617 0 0 0 0 -888180.05075291544 -1026053.068665319 0 -1026053.068665319 -1829707.9063651778 0 0 0 0 -1163507.5992279053 -925524.92980861664 0 -925524.92980861664 -243970.76647949219 0 0 0 0 -3591647.999884624 -1699119.0545031205 0 -1699119.0545031205 -1345990.7323305123 0 0 0 0 -3687569.8498823093 -1513943.7508659437 0 -1513943.7508659437 -2115884.2697265353 0 0 0 0 -850117.06976381689 -157436.77486232528 0 -157436.77486232528 -4705225.255334748 0 0 0 0 -2060327.8243657872 141963.32864762284 0 141963.32864762284 -1277420.3185058148 0 0 0 0 -2102336.6930541992 -1483972.5512208939 0 -1483972.5512208939 -1482894.9145393372 0 0 0 0 -782656.08815002441 -769981.92153167725 0 -769981.92153167725 -2218815.838801384 0 0 0 0 -3195322.1269226074 -2871714.6413869858 0 -2871714.6413869858 -972368.7592048645 0 0 0 0 -5529934.0340286857 -2738501.3000791445 0 -2738501.3000791445 -432539.92475409992 0 0 0 0 104875.41350171715 -156105.42605848983 0 -156105.42605848983 -174751.50032995129 0 0 0 0 -860539.02111816406 -581215.40843963623 0 -581215.40843963623 -2579320.1122589111 0 0 0 0 319034.80815887451 -890156.33125829697 0 -890156.33125829697 -603562.49955749512 0 0 0 0 -2182654.469920421 -2105233.3024249449 0 -2105233.3024249449 -1232428.8498121444 0 0 0 0 -2308399.0965728238 -871150.41236767918 0 -871150.41236767918 -1382328.5454656361 0 0 0 0 -663036.73729210347 -570140.08886252623 0 -570140.08886252623 -4897431.0218789568 0 0 0 0 -1113135.8391723633 -3999639.9869499207 0 -3999639.9869499207 -4698828.3589706421 0 0 0 0 -455112.28447662294 -2118553.3787502954 0 -2118553.3787502954 -4282041.0814834135 0 0 0 0 -1431743.1937866211 -2733632.8424701691 0 -2733632.8424701691 -3375096.1889533997 0 0 0 0 -887253.57489776611 -1821821.8368844986 0 -1821821.8368844986 725362.5526638031 0 0 0 0 -2681783.0336761475 -5213483.9210309982 0 -5213483.9210309982 -5603352.1002922058 0 0 0 0 -5928745.1900119781 -6684762.3009185791 0 -6684762.3009185791 -3944265.4462013245 0 0 0 0 -56618.063108419999 -423129.02611610293 0 -423129.02611610293 -379438.30391084682 0 0 0 0 3241259.446647644 -2610766.3030023575 0 -2610766.3030023575 -4857941.3058853149 0 0 0 0 2105272.3408813477 -4087937.1648292542 0 -4087937.1648292542 -5341792.6748428345 0 0 0 0 1324087.2649230957 -2678042.3057432175 0 -2678042.3057432175 -7333817.0700759888 0 0 0 0 -179137.88179016113 -2100014.775144577 0 -2100014.775144577 -8431594.7613201141 0 0 0 0 -255269.9337310791 -2860178.2404870987 0 -2860178.2404870987 -5180351.4039993286 0 0 0 0 -3394734.1708221436 -8087998.4105815887 0 -8087998.4105815887 1089277.1409568787 0 0 0 0 1226584.6533432007 -5128139.5424747467 0 -5128139.5424747467 -13051241.853839874 0 0 0 0 -2257720.1321706697 -3190046.2722154469 0 -3190046.2722154469 -2576469.6570842555 0 0 0 0 -136583.34104919434 -3088853.9423627853 0 -3088853.9423627853 -1122862.9758462906 0 0 0 0 881251.3356552124 -5349775.7961387634 0 -5349775.7961387634 -5728696.3984565735 0 0 0 0 624611.3772277832 -4341796.6935362816 0 -4341796.6935362816 -3784075.4374408722 0 0 0 0 -833374.52114868164 -3213550.4078731537 0 -3213550.4078731537 -4122682.1803731918 0 0 0 0 649973.1501159668 -3540299.7429933548 0 -3540299.7429933548 -1351280.5737829208 0 0 0 0 -4070875.3210754395 -473644.97857284546 0 -473644.97857284546 1409169.6718044281 0 0 0 0 -6493340.9860014683 -2554491.4291948266 0 -2554491.4291948266 134843.2315445547 0 0 0 0 -47969.93691373989 -24460.64875384979 0 -24460.64875384979 11322.636023346335 0 0 0 0 -2789331.1363830566 -3818534.2214632034 0 -3818534.2214632034 -877369.90532445908 0 0 0 0 -2350082.2173194885 -6838532.7228446007 0 -6838532.7228446007 -2291105.2993850708 0 0 0 0 -3810716.1910333633 2077814.0656359792 0 2077814.0656359792 4011396.7047157288 0 0 0 0 -2274598.0107337981 -3562824.919139626 0 -3562824.919139626 -2577309.6083059665 0 0 0 0 -3409450.440826416 -4067061.1815199852 0 -4067061.1815199852 -2031167.9868276119 0 0 0 0 -5496823.4312896729 -14928798.802892685 0 -14928798.802892685 -7654518.1674404144 0 0 0 0 -6993341.1787261963 -2732362.5486068726 0 -2732362.5486068726 3413317.5751266479 0 0 0 0 -99075.297977648675 -1033561.7740741111 0 -1033561.7740741111 -395310.45585699193 0 0 0 0 -492086.52285385132 -2313412.4367055893 0 -2313412.4367055893 -6143171.1893386841 0 0 0 0 -705157.876756154 -2570845.3373858868 0 -2570845.3373858868 -3262720.336717953 0 0 0 0 8296421.243850708 6214078.5891160965 0 6214078.5891160965 930543.49156284332 0 0 0 0 3247455.9469066299 -1310586.8570978777 0 -1310586.8570978777 -2515300.3197256653 0 0 0 0 -3693107.8064947762 -5485709.8284802195 0 -5485709.8284802195 -883289.97177815158 0 0 0 0 44232524.326019287 895190.21815299988 0 895190.21815299988 -20965715.691789627 0 0 0 0 79304536.091972351 -10027473.702756882 0 -10027473.702756882 -20610570.568477631 0 0 0 0 14199661.725067139 -28241784.757539749 0 -28241784.757539749 14948732.718481064 0 0 0 0 20921802.066680908 56804613.030971527 0 56804613.030971527 75163436.65314579 0 0 0 0 -151306.530077748 -1529931.4272539467 0 -1529931.4272539467 -1310518.4731930909 0 0 0 0 15081857.177635193 -87402128.809290886 0 -87402128.809290886 103507097.00231743 0 0 0 0 -18835913.666656494 -18051560.599756241 0 -18051560.599756241 35514886.972912788 0 0 0 0 -5751831.2992644608 -5320592.1303780582 0 -5320592.1303780582 -281121.59051836655 0 0 0 0 -5183710.366065979 -3690562.8148423433 0 -3690562.8148423433 -611699.84036207199 0 0 0 0 -3755310.3939971924 -3641179.693880558 0 -3641179.693880558 -610124.36157160997 0 0 0 0 153070694.71573257 15778792.967450649 0 15778792.967450649 2564383.2855865955 0 0 0 0 191543333.37498474 77191972.007420897 0 77191972.007420897 -57985072.837089539 0 0 0 0 -965667.8831390324 -682585.05689279363 0 -682585.05689279363 -122958.71057176962 0 0 0 0 391879140.96139526 41565721.628549576 0 41565721.628549576 -30406350.534065247 0 0 0 0 477425.1434085574 95099.824050897732 0 95099.824050897732 -171543.99213567795 0 0 0 0 -3483789.4157867432 -3749866.2878012657 0 -3749866.2878012657 -607235.68803167343 0 0 0 0 -3387095.464263916 -3652983.6013090611 0 -3652983.6013090611 -731811.13464593887 0 0 0 0 -2656708.2872257233 -3534847.9007636309 0 -3534847.9007636309 -778002.86006164551 0 0 0 0 -3793083.1252326965 -3186119.3798966408 0 -3186119.3798966408 641087.09851646423 0 0 0 0 -4512120.6286468506 -3726015.573533535 0 -3726015.573533535 1704693.8629150391 0 0 0 0 -6888573.4074357692 -6228922.3971068487 0 -6228922.3971068487 378312.4982327004 0 0 0 0 -5755816.5027607754 -3663439.7282938394 0 -3663439.7282938394 -618774.69839614676 0 0 0 0 -4400397.9960861206 -4045271.84298563 0 -4045271.84298563 659404.13962602615 0 0 0 0 180289861.69997406 -55761665.567636728 0 -55761665.567636728 -68485629.994997025 0 0 0 0 688135262.89105225 158289105.17955685 0 158289105.17955685 -293740307.07419586 0 0 0 0 204779323.52003479 52359842.461535454 0 52359842.461535454 -192578384.03758621 0 0 0 0 467779908.36990356 39819047.575162888 0 39819047.575162888 -230216196.65515518 0 0 0 0 127789689.55970001 131591417.77781391 0 131591417.77781391 -84648928.855682373 0 0 0 0 630882683.75004578 -120732300.96540546 0 -120732300.96540546 -209369087.94984818 0 0 0 0 -7816648.9854278564 409222.06346225739 0 409222.06346225739 -10029894.635520935 0 0 0 0 -47744.981637625024 -263954.41267735139 0 -263954.41267735139 -10678.193990606815 0 0 0 0 315766025.53277588 -66394126.590606689 0 -66394126.590606689 -370401317.48522186 0 0 0 0 -7415044.6313461065 -45988476.868413761 0 -45988476.868413761 -15700744.540355682 0 0 0 0 12416736.033462524 17695658.381912231 0 17695658.381912231 108927537.88990164 0 0 0 0 368736.2635355033 -1361735.2919848077 0 -1361735.2919848077 -677835.38788701221 0 0 0 0 -2087438.0600662231 33949018.972442627 0 33949018.972442627 98999443.839355469 0 0 0 0 54719242.090278625 18311283.17239666 0 18311283.17239666 -58758695.593492508 0 0 0 0 634088.87814310007 483165.35869533196 0 483165.35869533196 -4651010.3021575864 0 0 0 0 44899212.40423584 52767943.500728607 0 52767943.500728607 40234223.199126244 0 0 0 0 38448.379200294614 -79656.052838995587 0 -79656.052838995587 -148447.62787113758 0 0 0 0 287977656.82626343 134548752.45189857 0 134548752.45189857 202300621.02512741 0 0 0 0 538150445.44629669 280224335.35294151 0 280224335.35294151 -67473159.817558289 0 0 0 0 505679394.10314369 157197137.76587629 0 157197137.76587629 -242619131.15232086 0 0 0 0 202445334.33456421 -32154474.299310684 0 -32154474.299310684 -40932657.993091583 0 0 0 0 147437354.53831482 67863242.770049572 0 67863242.770049572 -188597150.07846832 0 0 0 0 267025746.48703003 -183944966.83706284 0 -183944966.83706284 23247122.030299187 0 0 0 0 97501970.146892548 -246535326.44273281 0 -246535326.44273281 -160400250.79483414 0 0 0 0 210406461.11851501 -101462048.59076595 0 -101462048.59076595 -45701147.374134064 0 0 0 0 85494236.646820068 -143470534.81427765 0 -143470534.81427765 236215219.13691139 0 0 0 0 73432709.734588623 -233615947.20717907 0 -233615947.20717907 134908481.44904518 0 0 0 0 204440778.25413513 -190638849.34010506 0 -190638849.34010506 -66074957.696353436 0 0 0 0 1140414.5059282202 -1756513.8126407899 0 -1756513.8126407899 -4688159.1506956583 0 0 0 0 765674.17892456055 -2816832.135099411 0 -2816832.135099411 212262.87869954109 0 0 0 0 -227376.90046975389 -3765116.8731911518 0 -3765116.8731911518 -1651668.8902088283 0 0 0 0 -6051804.1538391113 4592952.0241413116 0 4592952.0241413116 49687552.916950226 0 0 0 0 458215.61554667912 -3921249.6008580979 0 -3921249.6008580979 -1617495.80307981 0 0 0 0 235731849.02296257 -94276017.644432545 0 -94276017.644432545 78077361.545845032 0 0 0 0 334864568.5399704 -103726318.74901772 0 -103726318.74901772 -39077181.649635315 0 0 0 0 -8035599.8336791992 -22224985.566654205 0 -22224985.566654205 -629842.40632247925 0 0 0 0 181036.28096966073 -2887486.8815307915 0 -2887486.8815307915 -307065.58609443344 0 0 0 0 -1582834.3882751465 -554308.52320384979 0 -554308.52320384979 -2891830.9484710693 0 0 0 0 151587.65476599522 261799.25214627571 0 261799.25214627571 -298829.11833620071 0 0 0 0 1300415.167137146 -2503298.4061717987 0 -2503298.4061717987 -2723421.0181224346 0 0 0 0 -632778.84525974467 -1966856.0618482567 0 -1966856.0618482567 -2315626.2369183796 0 0 0 0 1660215.1836242676 -1604548.4072093964 0 -1604548.4072093964 -3201116.4541673064 0 0 0 0 -692544.55706787109 -2104268.774954319 0 -2104268.774954319 -1501279.6658267975 0 0 0 0 -415131.936668396 -1361641.241689682 0 -1361641.241689682 -2046211.5441586971 0 0 0 0 -759219.23997497559 -634021.4603729248 0 -634021.4603729248 -2168088.2183899879 0 0 0 0 -1437664.9494476318 -644237.09642505646 0 -644237.09642505646 -1847974.5370292664 0 0 0 0 -296050.18391418457 -356614.63219356537 0 -356614.63219356537 -2225655.4432487488 0 0 0 0 -1754160.1302351085 -786808.16697975621 0 -786808.16697975621 -1747698.5419332972 0 0 0 0 -852973.95423126221 36871.278875350952 0 36871.278875350952 -1600491.7082920074 0 0 0 0 -1670930.4340993427 -593849.00244127586 0 -593849.00244127586 -2949762.2248644345 0 0 0 0 4240598.8930587769 3745767.1797566414 0 3745767.1797566414 -8233820.3089408875 0 0 0 0 2436607.6055355072 -2979426.0916545391 0 -2979426.0916545391 -4924061.7481918335 0 0 0 0 -831565.14189147949 -1632710.572373867 0 -1632710.572373867 -1648847.2518598288 0 0 0 0 -1766150.3732019882 -512048.26166990399 0 -512048.26166990399 -1865834.8658572081 0 0 0 0 718414.92161560059 -624869.62066650391 0 -624869.62066650391 -2552131.2791905403 0 0 0 0 1483779.2817230225 -2738265.1164464951 0 -2738265.1164464951 -4013397.2162971497 0 0 0 0 -2670690.6492118835 -1565602.1050212383 0 -1565602.1050212383 -266940.57320022583 0 0 0 0 -2370536.5401924243 -483010.62466581911 0 -483010.62466581911 -2147773.5764500974 0 0 0 0 376415.32213592529 -833821.65288448334 0 -833821.65288448334 -1108093.7766075134 0 0 0 0 -383161.75061994419 -1477373.0122847073 0 -1477373.0122847073 -2657859.2212233115 0 0 0 0 590824.75309401751 -826619.92863699724 0 -826619.92863699724 -4447608.1621760149 0 0 0 0 -3480951.5319061279 -73534.701723098755 0 -73534.701723098755 -612730.15940856934 0 0 0 0 1414003.7435302734 2156312.1303157806 0 2156312.1303157806 -5138107.1006507874 0 0 0 0 3146990.5069694519 3089733.1767754555 0 3089733.1767754555 -4520528.6629734039 0 0 0 0 2614985.7148590088 1665704.0023784637 0 1665704.0023784637 -14049487.690738678 0 0 0 0 1302558.0156562347 242434.00218648463 0 242434.00218648463 -5843519.0848542983 0 0 0 0 -185901.40182495117 4170563.5897464752 0 4170563.5897464752 -16103852.343980789 0 0 0 0 1859838.7334442139 5630896.5237255096 0 5630896.5237255096 -6083701.9958572388 0 0 0 0 4110781.875629425 -4172100.8874931335 0 -4172100.8874931335 -11941175.234275818 0 0 0 0 -7696588.7827262878 3644893.8673129082 0 3644893.8673129082 -4205456.7325181961 0 0 0 0 367916.80953416973 2896046.0991769079 0 2896046.0991769079 -3869423.0772102419 0 0 0 0 -538854.84288546443 3683402.9849624722 0 3683402.9849624722 -4968247.965384433 0 0 0 0 1782252.1304779053 1184797.7791481018 0 1184797.7791481018 -1474123.5184440613 0 0 0 0 3677419.5149536133 1185021.8261704445 0 1185021.8261704445 -2808154.9174766541 0 0 0 0 -167640.4531712085 2606105.1259779185 0 2606105.1259779185 -5898869.3507995242 0 0 0 0 313276.93556213379 215822.24927139282 0 215822.24927139282 -179510.00212860107 0 0 0 0 -1213783.7904186775 -68086.936024153605 0 -68086.936024153605 -889435.82982918806 0 0 0 0 -5226682.6800727844 5560931.2061641216 0 5560931.2061641216 -3824585.7596549988 0 0 0 0 -5670191.5026475713 3219600.1514542755 0 3219600.1514542755 -2540732.1807818487 0 0 0 0 -5658743.7224967405 4892492.9906676421 0 4892492.9906676421 -1957262.2873323606 0 0 0 0 -10162100.368026733 5547762.2221267223 0 5547762.2221267223 -1183099.1023540497 0 0 0 0 -9281873.8008356094 7185092.4382977486 0 7185092.4382977486 -8758893.5598039627 0 0 0 0 -1260657.1864109039 -5257134.4356909394 0 -5257134.4356909394 -7092937.2532482147 0 0 0 0 644357.36952274293 -383215.83680227958 0 -383215.83680227958 -1189893.9030780257 0 0 0 0 -12477252.03452301 -584544.47537851334 0 -584544.47537851334 -1111572.810611248 0 0 0 0 1507625.5105381012 -2158130.3263645172 0 -2158130.3263645172 -11835093.731934547 0 0 0 0 3697373.1475601196 1900214.7331804037 0 1900214.7331804037 -12408590.202530861 0 0 0 0 -18799843.965232849 1008534.8659214973 0 1008534.8659214973 -1968873.0710148811 0 0 0 0 -2869837.6378952265 107677.92855635844 0 107677.92855635844 -2539599.8077623839 0 0 0 0 -2093831.8168792725 2693572.0207204819 0 2693572.0207204819 -1831732.3322944641 0 0 0 0 -9710001.5084457397 4114065.6784563065 0 4114065.6784563065 -1484114.2066931725 0 0 0 0 -11263856.721893311 1136434.9351963997 0 1136434.9351963997 1467346.0788138509 0 0 0 0 -5767675.7148742676 667318.56979256868 0 667318.56979256868 -899126.24231433868 0 0 0 0 -13917653.181182861 -3671320.0343408585 0 -3671320.0343408585 -3738697.4154400826 0 0 0 0 -12121944.379714966 189910.35084533691 0 189910.35084533691 -670179.84968471527 0 0 0 0 -10095304.235416412 -3400454.0295379162 0 -3400454.0295379162 -10305047.694799423 0 0 0 0 -11550748.543930054 -1762011.8104014397 0 -1762011.8104014397 -6228504.1733112335 0 0 0 0 -10565697.646247864 2140708.9709771872 0 2140708.9709771872 -2566190.6100978851 0 0 0 0 -6849288.3422851562 1799774.131673336 0 1799774.131673336 -4428862.8971481323 0 0 0 0 -10008868.694396973 1263577.7701230049 0 1263577.7701230049 -1825000.4232301712 0 0 0 0 -1171658.6685027964 -247776.89569260366 0 -247776.89569260366 197043.35998243373 0 0 0 0 -8613103.4930725098 1247928.3272509575 0 1247928.3272509575 -3138503.0806417465 0 0 0 0 -4048572.796295166 2445899.9836320877 0 2445899.9836320877 2832853.8220701516 0 0 0 0 -8573161.0093231201 667944.04452228546 0 667944.04452228546 -2957080.6701364517 0 0 0 0 -8353216.37566185 -7586246.6856468916 0 -7586246.6856468916 -782031.84111022949 0 0 0 0 -4075669.2116565779 -629144.27543676086 0 -629144.27543676086 -2194168.2728905785 0 0 0 0 25305.242553710938 -1181871.3241157532 0 -1181871.3241157532 740609.51415157318 0 0 0 0 -3062458.9588012695 412304.3027305603 0 412304.3027305603 -964563.78527832031 0 0 0 0 -13221685.429244041 -7438285.8870780468 0 -7438285.8870780468 -48013.783531188965 0 0 0 0 -5028721.1962495707 -859863.04906022362 0 -859863.04906022362 -1277946.1041836306 0 0 0 0 -9729605.7466430664 -113305.52492713928 0 -113305.52492713928 1082723.5827331543 0 0 0 0 -4679817.5681121647 936432.99315747246 0 936432.99315747246 -101607.71080541704 0 0 0 0 -9830881.3049062714 -355469.72024480253 0 -355469.72024480253 689837.44172971044 0 0 0 0 -250954.27731097676 -119471.44530953281 0 -119471.44530953281 69565.609134923667 0 0 0 0 -4222500.9212646484 3513432.2952821255 0 3513432.2952821255 2433098.6065420508 0 0 0 0 -8029510.9305267334 1825310.3253492117 0 1825310.3253492117 -501223.8464679718 0 0 0 0 -8288748.7604780197 2270755.9360074997 0 2270755.9360074997 -174526.86656904221 0 0 0 0 -5953312.5779855698 3722249.8477471089 0 3722249.8477471089 -890860.5899073527 0 0 0 0 -11601169.789708771 2840720.5152955595 0 2840720.5152955595 -741390.14705793513 0 0 0 0 -5373065.3009223938 3990700.6135517359 0 3990700.6135517359 -2196979.3119330406 0 0 0 0 -9729967.5113594811 4298348.9924656358 0 4298348.9924656358 -1817681.7846109299 0 0 0 0 -397443.49856185913 17330089.487942934 0 17330089.487942934 -5734602.9559221268 0 0 0 0 -10227234.748241425 5271778.2960734367 0 5271778.2960734367 -2318542.5223267078 0 0 0 0 -2190997.6993500888 5381242.546044128 0 5381242.546044128 -308441.04287881439 0 0 0 0 -5297934.4443054199 17579932.518740654 0 17579932.518740654 -4793368.7573595047 0 0 0 0 -8771555.0385837555 31959065.801354766 0 31959065.801354766 12759496.17724824 0 0 0 0 -9625304.7296409607 20614860.819250107 0 20614860.819250107 40245803.010197282 0 0 0 0 2586953.3589515686 28735986.995090187 0 28735986.995090187 8970895.6297187805 0 0 0 0 -6876823.7628192231 5490987.596918622 0 5490987.596918622 -1549363.7591939438 0 0 0 0 -7848811.9969978333 36564205.842769712 0 36564205.842769712 5544169.0466537476 0 0 0 0 -16468419.404767036 18752479.445167005 0 18752479.445167005 5096158.3914279938 0 0 0 0 11574933.667801857 20840232.808187291 0 20840232.808187291 -22751138.47393322 0 0 0 0 -2012738.3690881729 73198700.561021566 0 73198700.561021566 -46738245.545947313 0 0 0 0 67055192.456268311 74694575.753131986 0 74694575.753131986 -55851165.855698347 0 0 0 0 -44414666.671897888 22303435.737755895 0 22303435.737755895 -41918101.9575122 0 0 0 0 82138518.146259308 11151734.321933746 0 11151734.321933746 -50119353.30449903 0 0 0 0 38756786.852319717 -25175862.61006698 0 -25175862.61006698 3901226.3782353401 0 0 0 0 25758688.339761734 19282485.747681618 0 19282485.747681618 -26205982.966721177 0 0 0 0 -3175115.1520175934 8578009.7956295013 0 8578009.7956295013 -263341.24793195724 0 0 0 0 20809545.379392624 15322016.685361266 0 15322016.685361266 -5401565.014148891 0 0 0 0 -4974202.3744528983 6021640.4163484722 0 6021640.4163484722 -2763775.0978359613 0 0 0 0 -3099523.3352257404 3980830.6324912813 0 3980830.6324912813 -1493841.5821298761 0 0 0 0 16078457.432621002 -2511100.5401812196 0 -2511100.5401812196 -9097211.1817955077 0 0 0 0 -1759640.7706565857 5284747.9213991165 0 5284747.9213991165 -2081460.0864839554 0 0 0 0 3878114.7327588201 2869287.990019897 0 2869287.990019897 -4041822.9438081481 0 0 0 0 4124175.5701065063 5234956.0635247231 0 5234956.0635247231 -4074420.5420304537 0 0 0 0 -1805852.3866271973 5680573.2240573764 0 5680573.2240573764 -1746724.5770196915 0 0 0 0 10558592.649768829 4423402.2035460472 0 4423402.2035460472 -4328850.6100111008 0 0 0 0 -712181.46887506917 316341.02541625686 0 316341.02541625686 -90122.323710474651 0 0 0 0 -2161555.2641854286 6848286.4787592292 0 6848286.4787592292 -4037801.169760704 0 0 0 0 -2430217.5353283882 8657775.7510004044 0 8657775.7510004044 -1004297.8697490692 0 0 0 0 -2297137.5690879822 4801547.3419597149 0 4801547.3419597149 -4136743.0224833488 0 0 0 0 -851373.96640777588 7837089.2176375389 0 7837089.2176375389 -1818478.0110647678 0 0 0 0 -4212662.6749038696 5232440.8729183078 0 5232440.8729183078 -1452091.649058342 0 0 0 0 -4729711.4376487732 3108557.4408591986 0 3108557.4408591986 -4424649.7383213043 0 0 0 0 -1405191.2940283511 4337456.0603883788 0 4337456.0603883788 -5664432.8149419632 0 0 0 0 -7448565.6643981934 4821183.8317675591 0 4821183.8317675591 -3119526.9378056526 0 0 0 0 20501417.926673889 -17501834.197187901 0 -17501834.197187901 -9050403.1093006134 0 0 0 0 18386395.121902466 -16749723.475263596 0 -16749723.475263596 -3534259.3394927979 0 0 0 0 3852255.9868339971 -2280691.6157430038 0 -2280691.6157430038 -445443.4993192479 0 0 0 0 18518512.734176636 -15023063.866718292 0 -15023063.866718292 -11348796.393989563 0 0 0 0 3802812.4792480469 282152.60791397095 0 282152.60791397095 -1933464.8262863159 0 0 0 0 -1204342.1475830078 949053.04518890381 0 949053.04518890381 -773434.1775970459 0 0 0 0 239113.49302320555 767032.42962317914 0 767032.42962317914 -3125150.7263401393 0 0 0 0 1113892.0267524719 9419231.4667634964 0 9419231.4667634964 13574708.102928162 0 0 0 0 17331502.003143311 -13299663.993801117 0 -13299663.993801117 -14665643.967285156 0 0 0 0 12573745.878204346 -9475224.0013885498 0 -9475224.0013885498 -16110401.355796814 0 0 0 0 7886497.1180419922 -8495303.0817756653 0 -8495303.0817756653 -7968622.011089325 0 0 0 0 3309129.5569458008 -327324.23151397705 0 -327324.23151397705 -18563395.561965942 0 0 0 0 -7960028.8276824951 -8319415.3957643509 0 -8319415.3957643509 -5294137.5466880798 0 0 0 0 13249776.102630615 -4563973.7077827454 0 -4563973.7077827454 -15912186.201087952 0 0 0 0 -19524081.077819824 2575776.4586868286 0 2575776.4586868286 -6278399.5045547485 0 0 0 0 20429630.8881073 -9099718.4115352631 0 -9099718.4115352631 -15768628.139865875 0 0 0 0 21985118.001876831 9960947.5471153259 0 9960947.5471153259 -4103895.1581478119 0 0 0 0 56064219.132152557 -5282306.2435569763 0 -5282306.2435569763 -19389578.48002243 0 0 0 0 -1990713.5420090733 5652629.4999993984 0 5652629.4999993984 -3906756.4011117425 0 0 0 0 12958707.616725922 -4227928.446308136 0 -4227928.446308136 4078055.5473632812 0 0 0 0 -7085061.8147087097 4743205.8477053642 0 4743205.8477053642 673918.56005477905 0 0 0 0 21501094.467529297 589161.26696109772 0 589161.26696109772 6460739.3710870743 0 0 0 0 -4481019.6352102291 6200511.2853186112 0 6200511.2853186112 -1915731.6061000759 0 0 0 0 50388936.406242371 15860795.403611183 0 15860795.403611183 -20171917.033341885 0 0 0 0 2909635.9574165344 -7242895.475962162 0 -7242895.475962162 -23068414.874836922 0 0 0 0 29864007.332939148 17400857.156663418 0 17400857.156663418 -48214195.859431744 0 0 0 0 21733906.849685669 658503.06257152557 0 658503.06257152557 -26965581.194328308 0 0 0 0 -2152358.3577251434 -6570904.7203738689 0 -6570904.7203738689 -3037113.3629722595 0 0 0 0 -3440492.6974868774 276010.25390052795 0 276010.25390052795 -25067106.519287586 0 0 0 0 1439504.7387447357 -14731754.173732996 0 -14731754.173732996 -34983911.36730957 0 0 0 0 -852445.34476800263 167488.15684263967 0 167488.15684263967 724424.44868293125 0 0 0 0 -20183134.792268753 -37933267.335639477 0 -37933267.335639477 -106511076.06622601 0 0 0 0 -60951769.65562439 180262394.67861986 0 180262394.67861986 3773877.1604918242 0 0 0 0 -76259911.191959381 15004262.350702286 0 15004262.350702286 44404273.929067612 0 0 0 0 152649465.07514191 84169871.232356071 0 84169871.232356071 -30300908.005779266 0 0 0 0 -22802455.302004814 -29101467.066065848 0 -29101467.066065848 -13576005.061569214 0 0 0 0 -521445.88710542768 81202.947672586888 0 81202.947672586888 272689.59191221651 0 0 0 0 125840170.92570496 24290198.452301502 0 24290198.452301502 -30474883.721496582 0 0 0 0 116928202.94220734 35766041.966051102 0 35766041.966051102 6834968.9148864746 0 0 0 0 185511624.02548218 -9625972.5535392761 0 -9625972.5535392761 -12030004.310218811 0 0 0 0 113560811.9263916 -19434312.810531616 0 -19434312.810531616 -11853733.986660004 0 0 0 0 95036662.094848633 -20993110.061851501 0 -20993110.061851501 -8387097.3387031555 0 0 0 0 179276873.02297974 -59988506.945226669 0 -59988506.945226669 -32588046.658058167 0 0 0 0 25549246.053100586 15389376.068275452 0 15389376.068275452 3973803.9738359451 0 0 0 0 82114622.640609741 2547197.87038517 0 2547197.87038517 -2673072.0108566284 0 0 0 0 20627443.027641296 1552644.6911659241 0 1552644.6911659241 -9956960.1574783325 0 0 0 0 25047180.589904785 8842817.6371536255 0 8842817.6371536255 -595423.15344619751 0 0 0 0 41732054.838981628 -31683211.712906837 0 -31683211.712906837 -7624729.2286300659 0 0 0 0 102355325.51255798 -53259851.932426453 0 -53259851.932426453 -31773074.712265015 0 0 0 0 276671741.82902527 -99092389.174921036 0 -99092389.174921036 19208595.083576202 0 0 0 0 37881656.060668945 27553921.015490532 0 27553921.015490532 26135658.13896656 0 0 0 0 305899040.42142296 -130767469.52910185 0 -130767469.52910185 39310564.513511658 0 0 0 0 234166517.42930603 -32946855.894001007 0 -32946855.894001007 -45392509.220207214 0 0 0 0 198719982.79905987 215241830.19736087 0 215241830.19736087 216017482.5954628 0 0 0 0 20891215.491962433 14418045.356797278 0 14418045.356797278 -20785696.719865918 0 0 0 0 -8172086.5467681885 -86103459.704000443 0 -86103459.704000443 77754660.692368239 0 0 0 0 -10059120.518286996 -3546945.8043999821 0 -3546945.8043999821 -1927831.0113766412 0 0 0 0 11337553.000536919 -18254465.153991196 0 -18254465.153991196 6123585.5803916454 0 0 0 0 -1529684.3236455917 186165042.15160888 0 186165042.15160888 -146805034.06847715 0 0 0 0 153878215.82026672 -140239189.06384158 0 -140239189.06384158 -246951086.9664011 0 0 0 0 173030743.39092255 -84290302.552922249 0 -84290302.552922249 -192022868.93654251 0 0 0 0 -7351242.3689152226 -3160888.5625737826 0 -3160888.5625737826 -2180986.3256445657 0 0 0 0 19699538.914081573 -250421574.12728906 0 -250421574.12728906 -50239550.530946732 0 0 0 0 -128968783.67636108 319850335.5751611 0 319850335.5751611 -226608808.18490171 0 0 0 0 -2742292.9979620539 -1387639.6475065993 0 -1387639.6475065993 -2009181.8197215544 0 0 0 0 -2200766865.1648521 632500289.77873385 0 632500289.77873385 109955961.52103502 0 0 0 0 -1414544415.7706375 964515894.52846181 0 964515894.52846181 -546069631.70033026 0 0 0 0 -1428987354.4328041 292407286.45219105 0 292407286.45219105 253601856.96907812 0 0 0 0 -67409315.164253235 56500317.648554623 0 56500317.648554623 -2547691.9972916842 0 0 0 0 -729258584.94050598 41564499.300545111 0 41564499.300545111 -34995322.029720068 0 0 0 0 -1380687848.344058 574808053.39788866 0 574808053.39788866 -94690981.933662221 0 0 0 0 100457613.63899994 -113008701.79509452 0 -113008701.79509452 -263768771.2108863 0 0 0 0 -900628.45675255172 80893.929270820692 0 80893.929270820692 68022.881110634829 0 0 0 0 -1309440370.2820511 60301425.788212866 0 60301425.788212866 167114635.12455603 0 0 0 0 -1371214014.4685516 -266534703.47075269 0 -266534703.47075269 402260974.64068556 0 0 0 0 -2206100604.541153 150076865.27536058 0 150076865.27536058 449026213.70373726 0 0 0 0 -2200442063.1596193 -820211377.9940871 0 -820211377.9940871 391715545.81629997 0 0 0 0 -1482398751.630867 -293870787.0293951 0 -293870787.0293951 396343218.62158394 0 0 0 0 -259862649.64942932 -61702520.12802317 0 -61702520.12802317 -54577440.709064215 0 0 0 0 -262405967.4064045 -61377250.515350983 0 -61377250.515350983 -17639147.132991739 0 0 0 0 -1013250006.5534973 -816742210.14203095 0 -816742210.14203095 -305099595.28862768 0 0 0 0 258113.01424885541 1039317.700894065 0 1039317.700894065 -181935.00187504053 0 0 0 0 -14780268.279476166 13533957.950250477 0 13533957.950250477 -11963289.441695094 0 0 0 0 -2554762.6000090027 922404.49571201764 0 922404.49571201764 227285.6029741026 0 0 0 0 -13834001.255712509 2095655.3088435233 0 2095655.3088435233 -13128932.009396911 0 0 0 0 -583813.49753189087 4148366.0905297995 0 4148366.0905297995 -9887436.0503098965 0 0 0 0 -9604153.9803276733 1900281.5213243756 0 1900281.5213243756 909245.00132381287 0 0 0 0 -7806425.0070724487 -962891.64848586917 0 -962891.64848586917 -5664489.1230134964 0 0 0 0 -3805944.0687713623 -2002983.1057118177 0 -2002983.1057118177 -7107306.4040915817 0 0 0 0 -6326960.5244369507 -1598573.4657618999 0 -1598573.4657618999 -3956211.2899768353 0 0 0 0 -8879143.889988251 -1066511.2541143359 0 -1066511.2541143359 -249800.91300242819 0 0 0 0 -5343885.4830055237 -5544780.665743202 0 -5544780.665743202 -86165.386478453875 0 0 0 0 -9441521.4250922203 -38949489.276898086 0 -38949489.276898086 119777269.19494295 0 0 0 0 -13244227.268875316 -2310165.2873066659 0 -2310165.2873066659 -861951.75090945081 0 0 0 0 -2831008.4749984741 -2622099.424474597 0 -2622099.424474597 -6982867.228716135 0 0 0 0 -4857252.155248642 -359651.42589461803 0 -359651.42589461803 -12552.108046174049 0 0 0 0 -6494117.0761032104 2321069.4760746956 0 2321069.4760746956 4548575.3453743756 0 0 0 0 -10290137.889002997 -2692626.7483155616 0 -2692626.7483155616 -417255.83705109078 0 0 0 0 -4989281.8255462646 -539781.66713678837 0 -539781.66713678837 -252678.98011189699 0 0 0 0 -8623423.7864240594 -1645412.2976012453 0 -1645412.2976012453 -2104872.1092051147 0 0 0 0 -26686214.868423462 10367058.986296654 0 10367058.986296654 29909150.388195038 0 0 0 0 -48014933.907867432 -29763859.702307582 0 -29763859.702307582 130643638.29217911 0 0 0 0 -577176.65889361594 -214260.48137300089 0 -214260.48137300089 -41804.090272950009 0 0 0 0 -19583571.257223129 4860883.3070318699 0 4860883.3070318699 18596892.367161751 0 0 0 0 -12190731.973177601 -3348029.4617565833 0 -3348029.4617565833 -1454479.55106443 0 0 0 0 -25554338.252311707 2611609.0193147659 0 2611609.0193147659 34215321.828953266 0 0 0 0 -11913058.064105988 15607678.839981794 0 15607678.839981794 9737901.9626488686 0 0 0 0 -19339552.707790375 25999332.189199924 0 25999332.189199924 -4145593.4102983475 0 0 0 0 -23316736.294284821 19835256.030848265 0 19835256.030848265 36780642.53761673 0 0 0 0 -10305568.859313965 11501478.692372561 0 11501478.692372561 17333511.401976585 0 0 0 0 -21920829.93396759 22315007.11602211 0 22315007.11602211 13229321.267498016 0 0 0 0 -31769461.193382263 39459601.124475002 0 39459601.124475002 -2581463.6829223633 0 0 0 0 -19081687.746574402 31973964.531636715 0 31973964.531636715 37385106.362680435 0 0 0 0 -34660127.443641663 12231326.496846735 0 12231326.496846735 22193529.841394424 0 0 0 0 -12710361.71428299 30555790.830632687 0 30555790.830632687 -17276000.842411041 0 0 0 0 -16153148.996631622 51712261.723368168 0 51712261.723368168 -122123006.26697254 0 0 0 0 -8818294.2887077332 32637024.472117424 0 32637024.472117424 -37689379.002395153 0 0 0 0 -5303802.482896585 14454056.008970957 0 14454056.008970957 -2183237.0468950272 0 0 0 0 14969612.414287567 46155660.636104345 0 46155660.636104345 5541123.0015487671 0 0 0 0 -85857865.174125671 -113391920.74837756 0 -113391920.74837756 196835460.21876121 0 0 0 0 -70009091.436412811 -7387134.1075344086 0 -7387134.1075344086 143004469.29119706 0 0 0 0 -119889541.01211929 -54749446.64120841 0 -54749446.64120841 -57089754.028494835 0 0 0 0 -73214655.479400635 69409768.656395197 0 69409768.656395197 -22812947.878046274 0 0 0 0 -132465308.92199516 -41323000.391152024 0 -41323000.391152024 -71223872.536043167 0 0 0 0 -145162523.69649363 -44466896.130996048 0 -44466896.130996048 27058582.903361797 0 0 0 0 -141266572.10770869 -62843853.197128296 0 -62843853.197128296 -89520589.174410343 0 0 0 0 -192713027.84983063 -118287183.57194912 0 -118287183.57194912 -36083116.206981063 0 0 0 0 -668438.63389596995 484107.32764506526 0 484107.32764506526 -152432.05884381011 0 0 0 0 -40991124.314348221 -184664300.36644685 0 -184664300.36644685 -289309888.12912381 0 0 0 0 -621868.70324203372 1147638.5033561536 0 1147638.5033561536 -695114.88204026967 0 0 0 0 -38577976.763629913 5927589.1711711884 0 5927589.1711711884 90008438.268683255 0 0 0 0 -117783.02057418227 51222.324458834366 0 51222.324458834366 -317896.0315228838 0 0 0 0 -70389289.258789062 -91720654.43149972 0 -91720654.43149972 56373636.465619683 0 0 0 0 10305045.031658173 3161981.2938756347 0 3161981.2938756347 2927010.2468094826 0 0 0 0 -64762702.296142578 -69429880.458662033 0 -69429880.458662033 -32242982.31518507 0 0 0 0 -105891412.29288101 -12837001.10943222 0 -12837001.10943222 11328288.214974225 0 0 0 0 -62060153.232032776 48019712.307820797 0 48019712.307820797 -8902237.0822997093 0 0 0 0 -66884688.810453176 -22088740.647477821 0 -22088740.647477821 -29388034.539515972 0 0 0 0 -62250527.218322754 14252668.883362293 0 14252668.883362293 -39532069.513711572 0 0 0 0 -188359418.23751831 -79726101.198512912 0 -79726101.198512912 -11367005.290612876 0 0 0 0 -126693784.59778976 2213618.3698456287 0 2213618.3698456287 -26456006.457202315 0 0 0 0 -325670164.85335541 3643954.6717594862 0 3643954.6717594862 -45480748.769888997 0 0 0 0 -224391376.95146942 -216024800.32475674 0 -216024800.32475674 -251071967.77050608 0 0 0 0 -176948432.84320068 -46265818.740458548 0 -46265818.740458548 -51493715.89194262 0 0 0 0 -152574664.20123386 75763645.301313311 0 75763645.301313311 -17151838.643233299 0 0 0 0 -70824414.157485962 69987125.084904552 0 69987125.084904552 -83080582.031194925 0 0 0 0 -154962003.83983803 -101190695.7340638 0 -101190695.7340638 -56621653.288503647 0 0 0 0 -360408.10004589148 203647.11319268309 0 203647.11319268309 -63972.445877306396 0 0 0 0 -116616984.11627197 -78941074.886238277 0 -78941074.886238277 -76864134.231263518 0 0 0 0 -452424719.13818359 -448888566.84901381 0 -448888566.84901381 -373393885.81332964 0 0 0 0 -843179560.99281693 -400003850.95881695 0 -400003850.95881695 -193898368.73785624 0 0 0 0 -365874243.32554626 -527533770.83316916 0 -527533770.83316916 -384327912.11462569 0 0 0 0 -376045701.43490219 -282545897.61520708 0 -282545897.61520708 -171370329.90410453 0 0 0 0 -280085178.28588295 -352004774.00454158 0 -352004774.00454158 -114412085.02991652 0 0 0 0 -328978192.08239746 -250146921.63115811 0 -250146921.63115811 -301054006.99305665 0 0 0 0 -70270279.702623367 74600196.818348169 0 74600196.818348169 -210351195.82979584 0 0 0 0 -226025798.87760544 -182423145.71270239 0 -182423145.71270239 -69042117.17595768 0 0 0 0 -472583.60034164041 391402.3901928477 0 391402.3901928477 45818.48598363786 0 0 0 0 -215812402.09196091 -234968248.57574546 0 -234968248.57574546 -150106279.20927668 0 0 0 0 222780488.37619781 77718050.509335041 0 77718050.509335041 -294756459.25277042 0 0 0 0 120116678.43444824 99088388.780363083 0 99088388.780363083 -257773262.45886743 0 0 0 0 -519214194.78121185 -1196630883.2777672 0 -1196630883.2777672 -1938216270.5655587 0 0 0 0 -94863186.930480957 -158048332.58644575 0 -158048332.58644575 -460981774.98635459 0 0 0 0 -546590982.95045757 -865362764.72679889 0 -865362764.72679889 -817461250.87809157 0 0 0 0 -1365207116.0606079 -912663962.74726355 0 -912663962.74726355 -74101735.926325262 0 0 0 0 -2200204155.1087151 -1353370633.3758223 0 -1353370633.3758223 -294406138.76541889 0 0 0 0 -2205694430.4867134 -756045201.59358668 0 -756045201.59358668 199121598.8382518 0 0 0 0 -1317598223.5768204 -700018325.82112682 0 -700018325.82112682 -148109622.22678012 0 0 0 0 -1005227124.2208672 -686495230.19934869 0 -686495230.19934869 -170554563.9886331 0 0 0 0 -1573316479.2513142 -432172612.53267413 0 -432172612.53267413 198017410.75347316 0 0 0 0 -2204079262.9544868 14336518.191115689 0 14336518.191115689 385651758.82800215 0 0 0 0 -1403098400.6375923 -346908958.53399915 0 -346908958.53399915 194654650.87224674 0 0 0 0 -1229458748.0917187 -64828617.368942931 0 -64828617.368942931 97222520.82597512 0 0 0 0 -1115905801.709816 -56771883.792822182 0 -56771883.792822182 96568356.799900949 0 0 0 0 -1229739662.8581123 162395858.32274276 0 162395858.32274276 401948689.5846839 0 0 0 0 -438667716.04354095 -165249444.54917878 0 -165249444.54917878 -268846481.96613419 0 0 0 0 -689240995.35095596 -351608746.27522284 0 -351608746.27522284 -185386230.72247535 0 0 0 0 -806345488.22817993 219886167.65530682 0 219886167.65530682 65079023.002024412 0 0 0 0 -277288128.32794571 -167734601.98008305 0 -167734601.98008305 -270901216.64015043 0 0 0 0 -94856809.809467554 -382911560.9961974 0 -382911560.9961974 282707483.52909511 0 0 0 0 -169620772.55382633 172388727.21714646 0 172388727.21714646 -26946382.887649834 0 0 0 0 -499953277.69680023 -425323.90930512547 0 -425323.90930512547 235905995.3930968 0 0 0 0 -2204813292.2532578 479427687.15493792 0 479427687.15493792 452292169.85273832 0 0 0 0 -756773871.11513138 806036652.02071607 0 806036652.02071607 -248780167.88241777 0 0 0 0 -1192082084.4724731 495881194.99069583 0 495881194.99069583 338798040.3686403 0 0 0 0 -2201785220.3344116 1278703612.2997692 0 1278703612.2997692 -53843751.485920623 0 0 0 0 -57343056.808551788 1111412253.0894144 0 1111412253.0894144 -1791019949.1559196 0 0 0 0 -1158515.3033364303 225051.82880029362 0 225051.82880029362 -552187.51985017315 0 0 0 0 -2195346115.2881775 44144.53250138439 0 44144.53250138439 1303707.8391550467 0 0 0 0 -51080267.618457794 -1106171280.8813486 0 -1106171280.8813486 -1384570665.0358303 0 0 0 0 -3290157.8180632889 1436856.2102377906 0 1436856.2102377906 -491716.49007194076 0 0 0 0 35084341.80664444 -2492338.7637071609 0 -2492338.7637071609 -488006.2131415531 0 0 0 0 36026317.497653961 14260492.233195782 0 14260492.233195782 108943.41916810349 0 0 0 0 -200793972.81274736 173745059.57369149 0 173745059.57369149 -200496414.88118184 0 0 0 0 -5582136.7213706225 1497811.2084900816 0 1497811.2084900816 -561123.20838749385 0 0 0 0 -2126497.2356200144 1759844.2330249008 0 1759844.2330249008 -56733.530533388141 0 0 0 0 -641682264.0350008 277985490.21116948 0 277985490.21116948 -96248671.317182779 0 0 0 0 -2150247.6578652188 -488072.14694802277 0 -488072.14694802277 -1017232.6782258264 0 0 0 0 134410707.12238693 -79023149.29269886 0 -79023149.29269886 25687082.649924994 0 0 0 0 168787502.80950832 -31658227.153428435 0 -31658227.153428435 -111459681.45648432 0 0 0 0 130509920.14926529 26170824.773037791 0 26170824.773037791 -46619795.075752735 0 0 0 0 36163767.668430328 13441546.583818436 0 13441546.583818436 -21920346.440263018 0 0 0 0 34647815.75145483 -5648134.9795439988 0 -5648134.9795439988 -22955087.912265301 0 0 0 0 -6059376.7612248827 1503210.5896508615 0 1503210.5896508615 -323734.69155207311 0 0 0 0 -87817677.613897324 221196331.86232996 0 221196331.86232996 -48475415.134323463 0 0 0 0 108505904.16991091 72413236.81476441 0 72413236.81476441 25093476.127288342 0 0 0 0 95038067.246501923 104026754.55745089 0 104026754.55745089 106765600.38228408 0 0 0 0 115462686.27622795 56967639.343629017 0 56967639.343629017 -70208449.98860383 0 0 0 0 115350641.93967438 221053544.35360086 0 221053544.35360086 125681579.95695505 0 0 0 0 -6241178.837989198 680225.71527266456 0 680225.71527266456 122075.99276674684 0 0 0 0 96374801.749259949 -57215467.648044795 0 -57215467.648044795 -110505169.23452508 0 0 0 0 -1873779905.0464325 -160750227.76308584 0 -160750227.76308584 192197829.72128069 0 0 0 0 -334255685.19918633 162488787.89487532 0 162488787.89487532 86273024.787431061 0 0 0 0 -1717963850.3105736 -843769536.06068575 0 -843769536.06068575 -240582584.42648971 0 0 0 0 -2202074675.5534968 -1015546059.6049564 0 -1015546059.6049564 180320341.09111458 0 0 0 0 -923737283.41996765 -1521559558.9753389 0 -1521559558.9753389 -789308840.81512451 0 0 0 0 -1283444802.5104637 -375958270.61299008 0 -375958270.61299008 46205649.946655042 0 0 0 0 -156815336.39147377 -387903364.2942906 0 -387903364.2942906 -106644910.2331527 0 0 0 0 -137979914.70274734 132068352.40027899 0 132068352.40027899 -293973764.71059442 0 0 0 0 -385550250.08122635 111176718.09149484 0 111176718.09149484 35010796.888726234 0 0 0 0 -146455716.32777023 79775131.861706913 0 79775131.861706913 -12242280.459962606 0 0 0 0 -302054028.49071503 -186105508.64620069 0 -186105508.64620069 -71945124.367913485 0 0 0 0 -682101211.81380272 26286860.787523404 0 26286860.787523404 -184301339.34657195 0 0 0 0 -41842224.869400024 -44325369.680317849 0 -44325369.680317849 -29334042.918378234 0 0 0 0 -239236330.468256 49274708.861119866 0 49274708.861119866 249062139.09480166 0 0 0 0 -117999305.31111145 41375691.346627802 0 41375691.346627802 53220986.346801817 0 0 0 0 -70050233.202167511 168631983.89125741 0 168631983.89125741 -11870861.449391305 0 0 0 0 -172046218.98689079 122523955.78075138 0 122523955.78075138 190450549.16258287 0 0 0 0 -72031241.740211487 78942682.910776138 0 78942682.910776138 206299002.92951453 0 0 0 0 -18331299.677474976 156853004.17604089 0 156853004.17604089 160290603.8044847 0 0 0 0 -40727116.46023941 150462458.96067691 0 150462458.96067691 243664739.8484776 0 0 0 0 26580338.118011475 108536768.60838437 0 108536768.60838437 177967572.70335007 0 0 0 0 -1676168.9001998901 174077583.7285465 0 174077583.7285465 186464512.57746527 0 0 0 0 -16723219.805461884 187115004.01126328 0 187115004.01126328 50961460.799539149 0 0 0 0 -74915955.323707581 122130701.17783743 0 122130701.17783743 160547158.63450649 0 0 0 0 152729534.86009979 102365940.03219664 0 102365940.03219664 144496872.95765829 0 0 0 0 73812132.358861923 185271233.30629337 0 185271233.30629337 59228724.637024283 0 0 0 0 108025801.05570984 85683995.157083333 0 85683995.157083333 -124060572.77004778 0 0 0 0 16437089.197555542 152464817.31943953 0 152464817.31943953 65225593.246308401 0 0 0 0 -49998632.647769928 180672461.72110248 0 180672461.72110248 -129716332.11532426 0 0 0 0 12916449.709869385 87440200.128001273 0 87440200.128001273 -6048716.5029731989 0 0 0 0 -25387957.381507874 -6000728.6138180494 0 -6000728.6138180494 -239590764.56887692 0 0 0 0 10417474.794192314 101206692.09072576 0 101206692.09072576 -113014452.25407481 0 0 0 0 132435428.19959641 34775729.500681996 0 34775729.500681996 -245656376.35913205 0 0 0 0 97507402.706474304 -14048429.787718534 0 -14048429.787718534 -5019113.5789513588 0 0 0 0 37037340.050918579 -113498028.14684451 0 -113498028.14684451 -151451991.15722239 0 0 0 0 -38706051.927984238 22792721.493415236 0 22792721.493415236 -241463064.63996053 0 0 0 0 -470624981.40895081 -93785371.628215313 0 -93785371.628215313 -455744949.62924814 0 0 0 0 -399883111.15482903 -203707054.39306414 0 -203707054.39306414 -312276059.87781906 0 0 0 0 -792457126.50945282 -432500919.76795721 0 -432500919.76795721 -258991614.81487215 0 0 0 0 -112523657.62959862 98015461.023693979 0 98015461.023693979 -353168512.15346551 0 0 0 0 -395778763.30847549 -45733672.799699545 0 -45733672.799699545 -240477838.93650091 0 0 0 0 -629449332.51998901 -567301492.90942502 0 -567301492.90942502 -1428611647.8310986 0 0 0 0 -765166901.26954269 -316254993.67598891 0 -316254993.67598891 -407404396.34565377 0 0 0 0 -303668663.67532825 -205398695.46232164 0 -205398695.46232164 -705100123.00260973 0 0 0 0 -1293229803.3136559 -886424177.55423975 0 -886424177.55423975 -395882953.29967499 0 0 0 0 -652299957.80332184 -422785618.1939106 0 -422785618.1939106 -588281665.74603128 0 0 0 0 -1344479698.5582199 -303178419.90328908 0 -303178419.90328908 -340262961.07003641 0 0 0 0 -1481962581.3741426 -756139125.33866119 0 -756139125.33866119 182663829.45200634 0 0 0 0 -132558.6216778513 -421616.12825136259 0 -421616.12825136259 -1172345.8738400056 0 0 0 0 -84071129.591388702 -251338569.07458878 0 -251338569.07458878 -543766773.33065224 0 0 0 0 -1397354409.010479 -107140276.06661057 0 -107140276.06661057 93405177.380790234 0 0 0 0 -827249631.01096725 28729215.716712087 0 28729215.716712087 125656706.46332359 0 0 0 0 -871039961.728405 -423461079.68110478 0 -423461079.68110478 -51405448.876616955 0 0 0 0 -1169398835.2043648 -644256443.08560467 0 -644256443.08560467 -207459077.33363342 0 0 0 0 -817833238.42497253 -321186592.59130955 0 -321186592.59130955 -569559991.64587903 0 0 0 0 -481293417.09908295 -261661849.29727542 0 -261661849.29727542 -181369599.11943746 0 0 0 0 -868529563.43889332 -458284154.29126257 0 -458284154.29126257 139571790.73679733 0 0 0 0 -809451029.05109787 -593445451.36725068 0 -593445451.36725068 -129633612.07434332 0 0 0 0 -903573692.75053406 -589337048.32209802 0 -589337048.32209802 71610379.69799909 0 0 0 0 -707749127.69268799 -291563318.07595432 0 -291563318.07595432 34080859.516179562 0 0 0 0 -305074981.58023643 -113973754.949503 0 -113973754.949503 -16630261.223858595 0 0 0 0 -174462982.7459259 -40076903.243374467 0 -40076903.243374467 4906760.3018296957 0 0 0 0 -627817025.69093704 -375754874.77253139 0 -375754874.77253139 103987817.65613556 0 0 0 0 -941288290.01763916 -490942749.76901555 0 -490942749.76901555 89172524.652199745 0 0 0 0 -2165573.3428890184 -1436917.3845633469 0 -1436917.3845633469 -1208411.9765128391 0 0 0 0 203911822.20518875 -335655178.75477946 0 -335655178.75477946 115268191.95717597 0 0 0 0 77681076.227077484 44258514.797357917 0 44258514.797357917 37483716.19097662 0 0 0 0 -478414638.65093994 -277569236.69291389 0 -277569236.69291389 -111751948.4305554 0 0 0 0 -805134122.81266785 -263579972.18797174 0 -263579972.18797174 402491254.42352623 0 0 0 0 -1023995.564421948 -796850.31873527355 0 -796850.31873527355 -596068.62424063124 0 0 0 0 -188681120.19626236 27827592.673135862 0 27827592.673135862 52019045.383703209 0 0 0 0 231150735.26411819 -392317781.62451094 0 -392317781.62451094 -520703270.68481326 0 0 0 0 -502978211.15118027 -510243870.29366201 0 -510243870.29366201 -410677652.01941741 0 0 0 0 -178258885.31260109 -396406143.09173012 0 -396406143.09173012 -434458080.40260673 0 0 0 0 -368690594.67749786 -120729365.51973781 0 -120729365.51973781 -62274278.946378946 0 0 0 0 -210533818.31343842 -169012551.42013466 0 -169012551.42013466 -53809933.728101254 0 0 0 0 -20723406.944366455 -55826311.602602124 0 -55826311.602602124 -105057532.39510441 0 0 0 0 -556937519.353302 -59494814.627992168 0 -59494814.627992168 -151885322.5785327 0 0 0 0 -525665940.55179596 -444556569.10158145 0 -444556569.10158145 -365600028.92515951 0 0 0 0 -313379221.04399872 -124418954.51896888 0 -124418954.51896888 -356550047.4432835 0 0 0 0 -702960076.23880005 -372607160.82205462 0 -372607160.82205462 -177569719.44771588 0 0 0 0 -282462645.64416504 -135808115.79797947 0 -135808115.79797947 -190551464.89217073 0 0 0 0 -245827932.44637108 32460615.987502962 0 32460615.987502962 -37434228.763245821 0 0 0 0 -106628086.31336975 -45146417.782324076 0 -45146417.782324076 -167404597.7501173 0 0 0 0 -152486442.64685059 -26458106.241118312 0 -26458106.241118312 -47893140.126924992 0 0 0 0 -17689879.058876038 -18119350.034056902 0 -18119350.034056902 28840731.796791434 0 0 0 0 -54985988.128334045 51395056.210893095 0 51395056.210893095 -60294580.898519516 0 0 0 0 57675665.040846348 2997029.555151172 0 2997029.555151172 31344559.234327316 0 0 0 0 264387146.09221649 -62015165.331191778 0 -62015165.331191778 7977369.4343559742 0 0 0 0 82434557.362792969 -18966102.065866947 0 -18966102.065866947 68008251.444104671 0 0 0 0 274802250.57607269 67890631.732904673 0 67890631.732904673 45174262.629988194 0 0 0 0 72491700.768899918 47095259.907656863 0 47095259.907656863 24641754.067559719 0 0 0 0 106861451.97142029 -69065393.070554972 0 -69065393.070554972 -7022999.2566340566 0 0 0 0 96664557.771881104 -8663524.0708504468 0 -8663524.0708504468 130793823.76080322 0 0 0 0 -93009187.407302856 -97872300.379418254 0 -97872300.379418254 5302847.9314987659 0 0 0 0 196245607.02746964 769209.82417070866 0 769209.82417070866 -119024715.85844183 0 0 0 0 29290831.964492798 -137948409.13000226 0 -137948409.13000226 -95150301.611987233 0 0 0 0 -857342.7286905339 -1221895.9643451972 0 -1221895.9643451972 -2313994.5925409333 0 0 0 0 -32943593.160945892 -17918509.260624945 0 -17918509.260624945 21324424.552477837 0 0 0 0 218691799.3393364 -122669432.80399901 0 -122669432.80399901 -62820540.340812683 0 0 0 0 -3128602.4832475446 -1358534.2797884932 0 -1358534.2797884932 -693887.61043287953 0 0 0 0 862598.9946308136 -377019.71968364716 0 -377019.71968364716 -730219.71710634232 0 0 0 0 -3025445.7825958394 1714501.3931277134 0 1714501.3931277134 -1190064.7793569118 0 0 0 0 -1931894.9115278237 962985.42144821677 0 962985.42144821677 -1158288.1287618377 0 0 0 0 1255171.0656728204 -1603563.269953656 0 -1603563.269953656 -627820.09255212697 0 0 0 0 -3097042.1361547951 2539699.7129271124 0 2539699.7129271124 -1535515.1350019672 0 0 0 0 -1994102.393661499 -1674431.6577655077 0 -1674431.6577655077 2963798.4016094208 0 0 0 0 900759.74398136139 -7584356.145393014 0 -7584356.145393014 8859675.3920389414 0 0 0 0 -322679.98053519661 -653355.9540500585 0 -653355.9540500585 276009.85039464518 0 0 0 0 401626331.45220184 -23562789.147098899 0 -23562789.147098899 -35210698.388333797 0 0 0 0 -7260067.7289237976 6163058.1315410137 0 6163058.1315410137 761708.91637134552 0 0 0 0 -6100287.8333129883 3896496.0358448029 0 3896496.0358448029 -734586.29738616943 0 0 0 0 1346092.2113876343 6702257.1648237705 0 6702257.1648237705 -1034340.0657815933 0 0 0 0 -3250786.3633232117 6274830.3875100613 0 6274830.3875100613 895695.96218299866 0 0 0 0 -3323638.0458183289 6042769.2468208075 0 6042769.2468208075 667456.45158576965 0 0 0 0 -810634.00960159302 5111554.9442455769 0 5111554.9442455769 -1784647.6847963333 0 0 0 0 -1594703.1259078979 7313208.4115786552 0 7313208.4115786552 761512.43377590179 0 0 0 0 -1801409.1874160767 8063555.9136419296 0 8063555.9136419296 2121141.7984962463 0 0 0 0 -3418234.0575637817 5861493.8282938004 0 5861493.8282938004 578032.67403411865 0 0 0 0 -3561881.0537414551 6016040.9615764618 0 6016040.9615764618 813558.28610754013 0 0 0 0 -3811423.7912254333 6321018.2348425388 0 6321018.2348425388 1915126.8745861053 0 0 0 0 -3853423.1870040894 6317435.4638242722 0 6317435.4638242722 2268301.0231420398 0 0 0 0 -5743953.6082000732 5022659.9991393089 0 5022659.9991393089 257541.86235642433 0 0 0 0 1053200.9359130859 3410472.3015537262 0 3410472.3015537262 2965772.4935970306 0 0 0 0 -6388574.9696655273 4874223.6725530624 0 4874223.6725530624 1704541.8522372246 0 0 0 0 -6279149.4179115295 4701849.064643383 0 4701849.064643383 1967802.1540317535 0 0 0 0 -5438188.031233266 1513764.7644113591 0 1513764.7644113591 -530945.91227595601 0 0 0 0 -7538520.5782623291 3971845.3900785446 0 3971845.3900785446 1729705.6450428963 0 0 0 0 602160.5683631897 3834018.4812247753 0 3834018.4812247753 3995289.1200122833 0 0 0 0 -6424531.8516552188 3326025.0807301709 0 3326025.0807301709 14267.286899856059 0 0 0 0 -3722238.363319397 13380266.236323357 0 13380266.236323357 6881398.0785866976 0 0 0 0 -3239521.184699513 6629113.4341219999 0 6629113.4341219999 87309.605077852204 0 0 0 0 -14267488.851264954 -13999440.992119789 0 -13999440.992119789 -6647435.5886386037 0 0 0 0 -4321354.3040847778 7977287.1078667641 0 7977287.1078667641 1666686.5895357132 0 0 0 0 -8028139.3995361328 6139675.6781454086 0 6139675.6781454086 2406211.5897836685 0 0 0 0 -31075753.178436279 -10038950.402145386 0 -10038950.402145386 -11373469.401092529 0 0 0 0 -11403819.202503305 1303671.8463523844 0 1303671.8463523844 1998970.6860641045 0 0 0 0 -30337828.014011383 3912973.8502969742 0 3912973.8502969742 -2821016.3376998901 0 0 0 0 -2611632.3831191324 -2221794.1225929586 0 -2221794.1225929586 -1483733.2812412246 0 0 0 0 -9150398.8055648804 1217467.1562337875 0 1217467.1562337875 1642706.4192047119 0 0 0 0 4904623.2869415283 -21823738.403067589 0 -21823738.403067589 -10237578.760837555 0 0 0 0 -3708150.3214578629 -563432.63476586342 0 -563432.63476586342 -628339.14206886292 0 0 0 0 -4675156.4643440247 -3802094.7225570679 0 -3802094.7225570679 -3476616.4978065491 0 0 0 0 -2079447.6714055818 -204377.80040662084 0 -204377.80040662084 1040129.2929691249 0 0 0 0 -1987747.7852096558 1465760.7851667404 0 1465760.7851667404 -3691281.2642669082 0 0 0 0 -3838103.5668830872 -1610001.4033250809 0 -1610001.4033250809 4059344.0711555481 0 0 0 0 -1332774.9517669678 -983911.58560657501 0 -983911.58560657501 -578344.64770537615 0 0 0 0 -2709133.1427773614 -104656.99182149582 0 -104656.99182149582 -956950.9949909593 0 0 0 0 -2421903.060874939 -1310925.0837359428 0 -1310925.0837359428 -220615.02790403366 0 0 0 0 -13301333.507225037 6103835.7852768898 0 6103835.7852768898 -3277642.9782457352 0 0 0 0 -9595894.5006599426 -2013613.1675624847 0 -2013613.1675624847 211555.53528237343 0 0 0 0 -572905.96514892578 8987.3169555664062 0 8987.3169555664062 -2748485.6190872192 0 0 0 0 -14456.540725708008 -965526.81219387054 0 -965526.81219387054 524237.12167684734 0 0 0 0 -711888.39954125509 -1492863.7440731437 0 -1492863.7440731437 -1498655.7775156435 0 0 0 0 -105357085.99209213 -170909318.7851783 0 -170909318.7851783 124154315.29089975 0 0 0 0 -106364.38988699764 -939025.500349815 0 -939025.500349815 -2928998.5575142326 0 0 0 0 141022133.25257111 -175442298.59562194 0 -175442298.59562194 27498119.10309577 0 0 0 0 -55355479.253303528 17841704.864525318 0 17841704.864525318 55932079.22593379 0 0 0 0 -2661627.4576675072 -374933.03270621505 0 -374933.03270621505 -50441.7821153556 0 0 0 0 -1803176.594573807 -1291877.4051626716 0 -1291877.4051626716 -1695133.3638709404 0 0 0 0 -1762034.4951457977 -610988.8074221611 0 -610988.8074221611 -2338456.357790947 0 0 0 0 -1834240.6516987514 -924566.49402746418 0 -924566.49402746418 -1547618.1883838531 0 0 0 0 -1039225.4469909668 -632326.56969165802 0 -632326.56969165802 -635165.94394922256 0 0 0 0 -1701583.971124649 -738884.69768238068 0 -738884.69768238068 -579829.31660461426 0 0 0 0 -26830064.60608387 20493618.458055198 0 20493618.458055198 -1748341.868522644 0 0 0 0 -48978438.965560913 63530902.488663435 0 63530902.488663435 144464629.51473999 0 0 0 0 -27469674.57604599 77436182.646394968 0 77436182.646394968 -95022907.905081749 0 0 0 0 -6538086.8788146973 29388793.701543093 0 29388793.701543093 -3038473.4579696655 0 0 0 0 6275962.0857315063 49755951.359109879 0 49755951.359109879 1523620.759765625 0 0 0 0 -62625.044116973877 43852586.854156733 0 43852586.854156733 56792248.450294495 0 0 0 0 19443178.98991394 30125673.280476093 0 30125673.280476093 12867441.498140335 0 0 0 0 7151931.6313934326 39128397.682555199 0 39128397.682555199 15385764.64233315 0 0 0 0 8951887.7458953857 48095326.791925669 0 48095326.791925669 -13903199.599826813 0 0 0 0 -7183660.6396394428 7616382.8730919808 0 7616382.8730919808 -779620.37162304204 0 0 0 0 30072214.062004089 36860978.996068001 0 36860978.996068001 -892485.676209867 0 0 0 0 29783637.094563484 19056913.04475069 0 19056913.04475069 1183646.4873037338 0 0 0 0 2154603.6881580353 10844973.700627327 0 10844973.700627327 2309080.4613323212 0 0 0 0 -8994629.3873208966 6562403.4742585812 0 6562403.4742585812 1363326.3592528226 0 0 0 0 -1556290.1948928833 7100798.9047703743 0 7100798.9047703743 1935822.3735951781 0 0 0 0 1408792.0025138855 10464023.69833374 0 10464023.69833374 2546773.682472229 0 0 0 0 -406483.24911499023 8107179.6291311979 0 8107179.6291311979 -2705990.7834510803 0 0 0 0 -4642940.7788970433 7390188.9618846932 0 7390188.9618846932 598976.65367499413 0 0 0 0 -12387572.890579224 1228728.0883398056 0 1228728.0883398056 6277991.505117774 0 0 0 0 10780550.700515747 25194076.853859663 0 25194076.853859663 -4124877.1681294441 0 0 0 0 -13505388.296931922 6116443.9268930033 0 6116443.9268930033 2293969.2606740184 0 0 0 0 -541031.92442159355 7007422.619398132 0 7007422.619398132 935302.78068607964 0 0 0 0 -45530.758170589805 1208038.5605980344 0 1208038.5605980344 171833.0313913663 0 0 0 0 -59371.884527206421 13181171.845251977 0 13181171.845251977 4321390.3360607624 0 0 0 0 -6648249.3927841187 34256678.214584887 0 34256678.214584887 9274565.8181852847 0 0 0 0 -64974069.604988098 44299361.899687469 0 44299361.899687469 14775475.71810174 0 0 0 0 -35841054.285175323 36999493.919812322 0 36999493.919812322 14202348.470339775 0 0 0 0 -5883872.8070869446 57089178.737920403 0 57089178.737920403 13203868.054706573 0 0 0 0 -13187809.080924988 36898608.435802937 0 36898608.435802937 -34820185.441019058 0 0 0 0 -37526680.489013672 22223219.659996659 0 22223219.659996659 18184025.776315928 0 0 0 0 -15811171.875091553 31623580.741719246 0 31623580.741719246 21852881.188392639 0 0 0 0 -42688843.01802063 29561371.72819519 0 29561371.72819519 34646396.955439568 0 0 0 0 -45382318.267713547 17766349.705089152 0 17766349.705089152 29423300.5834589 0 0 0 0 -80094808.58391571 -25119473.412944794 0 -25119473.412944794 5718648.4612197876 0 0 0 0 -3725569.1915048808 -787284.16552276351 0 -787284.16552276351 -163317.54907805193 0 0 0 0 -46352296.098974705 22940180.892758414 0 22940180.892758414 24457078.273513556 0 0 0 0 -46480475.498306274 23987227.19006741 0 23987227.19006741 30117206.190181136 0 0 0 0 -50092180.39802742 28350209.558495373 0 28350209.558495373 25354319.006231308 0 0 0 0 -22383604.22315979 20759684.512517065 0 20759684.512517065 16536833.033704877 0 0 0 0 -40440290.775352478 28344288.904417157 0 28344288.904417157 24381764.046132088 0 0 0 0 -43673748.68334198 23851971.223916799 0 23851971.223916799 24105003.314830065 0 0 0 0 -58221500.765846252 38610536.542471826 0 38610536.542471826 23458168.101847887 0 0 0 0 -8262201.075504303 -3194973.2089874744 0 -3194973.2089874744 7179617.7588205338 0 0 0 0 -15891941.116385248 5144121.1206722185 0 5144121.1206722185 3381401.9357474698 0 0 0 0 -8866544.4491302967 5615129.2831686828 0 5615129.2831686828 658008.36508890125 0 0 0 0 -21279582.200881694 3702624.5679237451 0 3702624.5679237451 4936753.1247618562 0 0 0 0 -6449035.6809654236 11828679.941375494 0 11828679.941375494 9074729.121711731 0 0 0 0 -45398385.095518112 121840968.5420208 0 121840968.5420208 43265581.643624067 0 0 0 0 -233244522.80536461 -107247001.8414979 0 -107247001.8414979 -32430357.575276017 0 0 0 0 105427793.31792831 8873661.7364778519 0 8873661.7364778519 58213035.96448493 0 0 0 0 -101838903.25215912 -127082929.3067832 0 -127082929.3067832 36063969.062602997 0 0 0 0 82870146.651670456 -26256806.190460205 0 -26256806.190460205 -75611382.089431524 0 0 0 0 -6471031.1559829712 15674364.437559843 0 15674364.437559843 8083462.6957090199 0 0 0 0 -116696888.11356163 51969230.165671349 0 51969230.165671349 74360928.99352169 0 0 0 0 -11246074.675756851 3354893.0143854376 0 3354893.0143854376 2174641.2455119914 0 0 0 0 -325795.70726217516 -861391.82113899896 0 -861391.82113899896 -1878.4982611231972 0 0 0 0 -26523.557487487793 -52887527.739089966 0 -52887527.739089966 -3867148.2911992893 0 0 0 0 -7654436.6412029266 -7711528.6705274582 0 -7711528.6705274582 -43481841.152891159 0 0 0 0 -32125837.162979126 -1487892.4368095398 0 -1487892.4368095398 4179069.2312736511 0 0 0 0 -1278916.5423161406 -2323395.3606099235 0 -2323395.3606099235 160399.30271731643 0 0 0 0 30082127.720487833 7823867.4696400762 0 7823867.4696400762 52435826.277008057 0 0 0 0 41474893.08473587 142606137.36450553 0 142606137.36450553 118409571.81780386 0 0 0 0 -3604900.9555361606 -628268.4188449569 0 -628268.4188449569 1333258.2493632212 0 0 0 0 -138905924.2832222 -34182186.741953135 0 -34182186.741953135 -6954696.5162715912 0 0 0 0 -259556809.76078987 -50905448.919833213 0 -50905448.919833213 -29725659.682273775 0 0 0 0 -43648690.473360538 -63340191.275983334 0 -63340191.275983334 -81099507.422689915 0 0 0 0 -96084740.522892952 80652680.704534292 0 80652680.704534292 54935021.811905384 0 0 0 0 -121482510.65578818 -83210300.719148427 0 -83210300.719148427 -216090776.63836759 0 0 0 0 -413837622.50238037 -274215976.26477772 0 -274215976.26477772 -147942387.69122508 0 0 0 0 -135687212.60435677 -123068377.11855835 0 -123068377.11855835 -110761412.90201074 0 0 0 0 -159053108.16977453 15998991.411972702 0 15998991.411972702 22814654.266136527 0 0 0 0 -50185083.954525948 110820485.44709575 0 110820485.44709575 78309725.353702068 0 0 0 0 35276326.393363953 45312120.449130297 0 45312120.449130297 -46134250.444849253 0 0 0 0 101428660.17846955 204321952.41639555 0 204321952.41639555 49721183.037149429 0 0 0 0 -1373962.9230808271 -153160.16730124317 0 -153160.16730124317 648626.33483519219 0 0 0 0 -42636170.957897186 13499499.208397865 0 13499499.208397865 72566142.06229949 0 0 0 0 -132724180.86987162 101939294.77381527 0 101939294.77381527 4783095.1532459259 0 0 0 0 115126842.77335167 10135360.647987366 0 10135360.647987366 -19167558.818437576 0 0 0 0 13512009.746283054 -2528071.9962416887 0 -2528071.9962416887 8753422.4412841797 0 0 0 0 -3966121.3473110199 34154189.350506425 0 34154189.350506425 -45819520.41054678 0 0 0 0 -42928591.958007812 3414891.6899149418 0 3414891.6899149418 -16357232.561974943 0 0 0 0 -83148107.597924232 46519251.837638736 0 46519251.837638736 -40876500.289356709 0 0 0 0 -24841509.253038406 7795972.9150291085 0 7795972.9150291085 -90575948.917527556 0 0 0 0 -654971.03206419991 -32156.596215224359 0 -32156.596215224359 423005.38045219064 0 0 0 0 -57753594.50496769 -65326995.439598262 0 -65326995.439598262 -40082041.241251051 0 0 0 0 23171113.5096035 -23879392.40689265 0 -23879392.40689265 -23201532.741541885 0 0 0 0 -50868418.015499115 -14161871.729156733 0 -14161871.729156733 5330164.8667373657 0 0 0 0 13004980.154285431 14566141.805738688 0 14566141.805738688 -11048678.477264404 0 0 0 0 -12812754.02495575 -23215799.866407633 0 -23215799.866407633 -17950970.468425274 0 0 0 0 35388283.440391541 1271286.8470968008 0 1271286.8470968008 -15900424.504613876 0 0 0 0 87197215.533041 38616574.882176459 0 38616574.882176459 -453429.23230290413 0 0 0 0 45463714.564068794 -24100246.931821823 0 -24100246.931821823 -14518261.810991645 0 0 0 0 17477986.467627287 537253.12716535479 0 537253.12716535479 35787553.418742895 0 0 0 0 62836924.494041443 40804170.3780545 0 40804170.3780545 16044389.0582726 0 0 0 0 -566744.50879309326 700573.02522202511 0 700573.02522202511 295264.62332446902 0 0 0 0 -7398024.6007022858 -1064082.5388368368 0 -1064082.5388368368 578760.1934928894 0 0 0 0 -13125423.716001322 2431680.6369819446 0 2431680.6369819446 -740342.78826237493 0 0 0 0 -9784939.0796061456 -1596164.3888181476 0 -1596164.3888181476 569366.5721724513 0 0 0 0 -10685137.184858231 -2664660.7341098711 0 -2664660.7341098711 888241.17882834747 0 0 0 0 90171966.221421242 23318503.139791489 0 23318503.139791489 -16660458.322605133 0 0 0 0 121050575.67830563 1019983.4000024796 0 1019983.4000024796 -942641.18273115158 0 0 0 0 -4358398.6744189262 2217689.4352780096 0 2217689.4352780096 3462519.9128893316 0 0 0 0 76791103.149717331 31905571.660041332 0 31905571.660041332 -28491165.634506106 0 0 0 0 78106071.52841568 20803439.208507061 0 20803439.208507061 16734781.337158203 0 0 0 0 -5647804.2660675049 196256.30702209473 0 196256.30702209473 1453109.7817649841 0 0 0 0 130818740.39507294 74278054.956648827 0 74278054.956648827 1192248.5732631683 0 0 0 0 -14059999.351590624 2806635.7184100496 0 2806635.7184100496 459363.74584084656 0 0 0 0 -17586557.50216566 3960656.9159533549 0 3960656.9159533549 4563112.1208374072 0 0 0 0 -31245966.505561829 17410933.361560345 0 17410933.361560345 11376888.680562019 0 0 0 0 -15014254.333938416 -1179835.234474767 0 -1179835.234474767 915454.09852291807 0 0 0 0 -66367138.429843903 -326425503.37723601 0 -326425503.37723601 -389300931.9898243 0 0 0 0 -7449436.4306049347 -313504181.16412354 0 -313504181.16412354 -503116049.54223156 0 0 0 0 -262803302.58518982 -825689672.34977984 0 -825689672.34977984 -1258098564.7572176 0 0 0 0 -1394799228.8240814 -264608230.28485048 0 -264608230.28485048 -410849779.73456597 0 0 0 0 115086662.81207275 59110344.752659798 0 59110344.752659798 -569613286.03188562 0 0 0 0 36773.403200683184 -133258.78904799279 0 -133258.78904799279 -1881360.668803897 0 0 0 0 -1525989663.2272739 -279576152.40559697 0 -279576152.40559697 -53514971.152391434 0 0 0 0 118802.91312228516 -292524.93031630898 0 -292524.93031630898 -117101.46958214784 0 0 0 0 -2577433.175134778 -2992857.5645375433 0 -2992857.5645375433 179408.40975559386 0 0 0 0 -2306828.1632957458 -3901.0980916023254 0 -3901.0980916023254 1505142.6357917786 0 0 0 0 -160805242.78398514 24884260.024979353 0 24884260.024979353 171709920.94655609 0 0 0 0 -113524475.60429955 -102666599.21975589 0 -102666599.21975589 87353962.169848561 0 0 0 0 -4421812.7857280374 -2510698.0689110691 0 -2510698.0689110691 702434.83404666441 0 0 0 0 -4417831.2822685242 3035474.421754837 0 3035474.421754837 7579493.2096185684 0 0 0 0 -5785910.1973927878 -2206805.0444581909 0 -2206805.0444581909 1168989.9597990075 0 0 0 0 -29760180.609169006 -2565486.4106421471 0 -2565486.4106421471 4604693.6311388016 0 0 0 0 -87444499.181667328 49383140.831206799 0 49383140.831206799 188850270.39360499 0 0 0 0 -7872006.6993865967 -7612744.4199943542 0 -7612744.4199943542 4417178.9685993195 0 0 0 0 -4455658.7930145264 -8221056.9054327011 0 -8221056.9054327011 4214831.377872467 0 0 0 0 -741194.96881119907 -42449.742068652064 0 -42449.742068652064 430835.06709001074 0 0 0 0 2812793.4878158569 -1031877.0850286484 0 -1031877.0850286484 1905809.5219860077 0 0 0 0 5961654.5251102448 49009069.186336756 0 49009069.186336756 -3354099.7228655815 0 0 0 0 -119230885.02594757 -126837789.97934675 0 -126837789.97934675 -68663551.259213567 0 0 0 0 -105594228.98304558 37292991.425662994 0 37292991.425662994 59218255.579129457 0 0 0 0 8765412.121052146 -89035896.578627869 0 -89035896.578627869 -124439042.68546438 0 0 0 0 -290959481.98509026 -403411359.19226325 0 -403411359.19226325 -287393644.64286321 0 0 0 0 -214161410.31599998 -247188615.49596828 0 -247188615.49596828 -228926595.46774027 0 0 0 0 -207583036.68012428 -81961702.931343913 0 -81961702.931343913 -86227270.549794674 0 0 0 0 -498394670.62512589 -100267260.11856562 0 -100267260.11856562 -295160943.03884178 0 0 0 0 -707664074.84148216 -612183924.30154276 0 -612183924.30154276 -224070359.32941914 0 0 0 0 -192372351.4821701 -705830921.87364089 0 -705830921.87364089 -471338747.61839545 0 0 0 0 -258352099.84875774 -654487014.85662293 0 -654487014.85662293 -513903872.40199327 0 0 0 0 -193701314.95068169 -496335503.5627408 0 -496335503.5627408 -199047408.8972134 0 0 0 0 -547895019.47197723 -562780739.8272419 0 -562780739.8272419 -213583088.2750991 0 0 0 0 -376153669.64318466 -487756228.98815632 0 -487756228.98815632 -366967740.48100293 0 0 0 0 -344292553.1249609 -127108725.58397061 0 -127108725.58397061 382796101.24961352 0 0 0 0 104231021.61566162 -252402975.45505118 0 -252402975.45505118 -189520807.94867903 0 0 0 0 -3011348.4718291163 -1192750.2173496361 0 -1192750.2173496361 -455719.97755923623 0 0 0 0 56130708.334047318 1349901.2899283171 0 1349901.2899283171 -9179207.0723659992 0 0 0 0 -47147021.045372009 -319892821.9691577 0 -319892821.9691577 464062971.35956466 0 0 0 0 27178660.423038483 52025468.020426512 0 52025468.020426512 56532446.55975318 0 0 0 0 -6986406.7851780318 19301.339631969284 0 19301.339631969284 658488.52102931868 0 0 0 0 18542381.69408226 -113320058.79937136 0 -113320058.79937136 314536370.96595138 0 0 0 0 -298932312.45442677 -101660945.38561523 0 -101660945.38561523 61630816.585250378 0 0 0 0 61855846.209356308 78490810.86378473 0 78490810.86378473 -82180073.252087831 0 0 0 0 46900069.554422379 -27492111.371339917 0 -27492111.371339917 -94779823.155857086 0 0 0 0 -378009111.25351143 67122062.635880232 0 67122062.635880232 -2284489.1780080795 0 0 0 0 -975719.20356011391 -970793.30648129806 0 -970793.30648129806 -476933.34330280358 0 0 0 0 -842702333.39700031 -443050462.11232901 0 -443050462.11232901 -109715228.03024483 0 0 0 0 -452527560.05711937 -557496812.11088276 0 -557496812.11088276 -545735201.89149642 0 0 0 0 -346715631.75732422 -357026536.19290477 0 -357026536.19290477 -166401727.30171871 0 0 0 0 -669452796.17675495 -526646463.02640629 0 -526646463.02640629 -230933300.19985354 0 0 0 0 -376220526.07184982 -529722934.00628996 0 -529722934.00628996 -445082081.82959914 0 0 0 0 -200956150.89075089 -121295698.99048805 0 -121295698.99048805 -59765593.431926936 0 0 0 0 -5129735.068809418 -38740.9305596177 0 -38740.9305596177 479338.38199455896 0 0 0 0 -169848867.28970909 38857692.67245841 0 38857692.67245841 548698508.66532898 0 0 0 0 -2038530.1881893482 -116871.92730587104 0 -116871.92730587104 176652.66692306614 0 0 0 0 15114535.380951643 298797003.38444507 0 298797003.38444507 248384387.74198246 0 0 0 0 -660181829.0830574 -782459548.5888958 0 -782459548.5888958 -651084677.85827088 0 0 0 0 -366469512.45167255 275290504.24748963 0 275290504.24748963 289065399.15494204 0 0 0 0 -161997787.92576504 100489746.31086206 0 100489746.31086206 322047781.27194828 0 0 0 0 -37486213.179317951 -24514745.702678084 0 -24514745.702678084 238878877.93424606 0 0 0 0 33783591.683475494 61665422.232884228 0 61665422.232884228 327466532.87417233 0 0 0 0 -67171008.563506603 -22040651.159673631 0 -22040651.159673631 434069861.26518583 0 0 0 0 -38630293.263892174 51427091.948612988 0 51427091.948612988 334498560.9370997 0 0 0 0 -1077622.5908575798 -650569.04260855215 0 -650569.04260855215 481548.31521087582 0 0 0 0 -4670834.1306519434 4584560.7932638805 0 4584560.7932638805 18056390.000101089 0 0 0 0 44485439.535914898 9266597.141287744 0 9266597.141287744 -27526161.87238884 0 0 0 0 -5425176.8384359032 -35874413.590929851 0 -35874413.590929851 -32290340.898044825 0 0 0 0 -8428996.6199538913 -212814.61179925653 0 -212814.61179925653 -1283742.3188156239 0 0 0 0 15422810.620681763 1668353.9513524771 0 1668353.9513524771 -24713622.486815691 0 0 0 0 36512713.36382103 78759351.1016047 0 78759351.1016047 34811095.790555 0 0 0 0 46869355.839840889 -37521143.061929941 0 -37521143.061929941 -263620734.88232589 0 0 0 0 -721148293.35473061 -3287632.9920442104 0 -3287632.9920442104 -207085139.64991009 0 0 0 0 -199735976.48775911 -40970120.953300118 0 -40970120.953300118 -275662669.13856626 0 0 0 0 11490904.414648056 175312822.71130306 0 175312822.71130306 12848232.088622451 0 0 0 0 -168209972.39703465 -136104778.88944653 0 -136104778.88944653 11197635.79331398 0 0 0 0 -524128575.38085747 -258555639.04938602 0 -258555639.04938602 -75804773.194335312 0 0 0 0 -229434274.2759409 -77416300.069406807 0 -77416300.069406807 -44870275.450963497 0 0 0 0 -1070575411.0359373 -472977082.12105536 0 -472977082.12105536 -202755875.61032128 0 0 0 0 -472181275.62669516 -266366319.17570144 0 -266366319.17570144 -156084825.1807189 0 0 0 0 -525440782.89725447 -493662548.1692 0 -493662548.1692 -254021497.85184097 0 0 0 0 -756096185.80446076 -47167684.538379848 0 -47167684.538379848 173305209.94505239 0 0 0 0 -283236217.65778065 -241667589.03409493 0 -241667589.03409493 3136169.9387891293 0 0 0 0 -267802292.76198006 -387955413.03404832 0 -387955413.03404832 -70694814.713878632 0 0 0 0 -223929846.08200741 -170044549.67888737 0 -170044549.67888737 -532783817.14665055 0 0 0 0 -246171639.82636285 -177439400.00829485 0 -177439400.00829485 -84279122.363014698 0 0 0 0 -125502751.74952602 -222209444.76931024 0 -222209444.76931024 -211396009.0228107 0 0 0 0 -112353842.70808899 -150085705.5583263 0 -150085705.5583263 -41598707.383966446 0 0 0 0 -326648060.1508131 -230945553.2636528 0 -230945553.2636528 26674035.921520948 0 0 0 0 -112101835.58862305 -164173963.21273327 0 -164173963.21273327 -61916006.564909816 0 0 0 0 -140229825.6794467 -66533965.009801 0 -66533965.009801 1511523.0643610954 0 0 0 0 -57020909.8138237 -49926826.319142222 0 -49926826.319142222 -19922345.490339041 0 0 0 0 52078568.743018031 19458828.303178132 0 19458828.303178132 -41160016.2199893 0 0 0 0 7226943.8443527222 -131140273.69932938 0 -131140273.69932938 -183930727.76352715 0 0 0 0 -726658.59219063632 -2141666.3854974271 0 -2141666.3854974271 -412280.88620107877 0 0 0 0 -1456449.2620241339 -726052.43955819844 0 -726052.43955819844 698771.83646064624 0 0 0 0 -2287422.7263528332 -3853436.3296808335 0 -3853436.3296808335 -7045449.9492402971 0 0 0 0 -5965471.3377776146 -16019629.642221451 0 -16019629.642221451 -41151056.539272308 0 0 0 0 -12065413.531731606 661468.33321809769 0 661468.33321809769 1021121.8280487061 0 0 0 0 -366133445.50965595 3562080.7966192514 0 3562080.7966192514 -84330286.610904694 0 0 0 0 -27334207.826742172 48968384.61319828 0 48968384.61319828 166510306.92297935 0 0 0 0 -631749.47644499503 1276822.8456741124 0 1276822.8456741124 2121158.7667059014 0 0 0 0 -1035116156.344121 66667701.821654439 0 66667701.821654439 162402768.32336605 0 0 0 0 -958046696.71610546 -75082381.209482074 0 -75082381.209482074 190200363.59354877 0 0 0 0 -407769400.91744041 508636772.43847632 0 508636772.43847632 -719129265.90164495 0 0 0 0 -494438658.16720343 39866804.331261024 0 39866804.331261024 98107034.901230812 0 0 0 0 -1813953.5621219992 -28109.198810875823 0 -28109.198810875823 4736037.4869560264 0 0 0 0 -303224295.44768512 13533895.480018705 0 13533895.480018705 98557734.414300919 0 0 0 0 -284067330.51851058 -172825153.43946123 0 -172825153.43946123 105363704.1925087 0 0 0 0 -471248105.87240291 -159902718.75597584 0 -159902718.75597584 112021913.04885626 0 0 0 0 -581917872.59662247 -142156001.02317858 0 -142156001.02317858 145435449.8370738 0 0 0 0 -449748146.44146156 -396617838.99454808 0 -396617838.99454808 145950510.07919168 0 0 0 0 -301109366.38030815 -304916244.4526751 0 -304916244.4526751 77967824.194779873 0 0 0 0 -279024319.25740409 -325048808.37565768 0 -325048808.37565768 80812442.337922096 0 0 0 0 -1650123.2258049934 -61084.106923648622 0 -61084.106923648622 206105.96256874638 0 0 0 0 -922716431.83392429 278740577.20956004 0 278740577.20956004 524579100.97121376 0 0 0 0 -394075138.67278767 -427342371.80485737 0 -427342371.80485737 187388379.82040346 0 0 0 0 -760361189.70855141 -312834724.15666008 0 -312834724.15666008 180664842.14365673 0 0 0 0 -56937268.451084137 -405751684.03003442 0 -405751684.03003442 34202823.718039036 0 0 0 0 27010592.649852157 4038129.5480204374 0 4038129.5480204374 264345594.70313859 0 0 0 0 -257552251.94776142 145713004.34162188 0 145713004.34162188 240676500.1862011 0 0 0 0 -397764250.52111149 -284402516.66454041 0 -284402516.66454041 100547989.61670792 0 0 0 0 -235923317.87325573 -1446646.0438002646 0 -1446646.0438002646 564091862.98848689 0 0 0 0 -2891227.9311973313 -313776.35226906312 0 -313776.35226906312 324641.32379762753 0 0 0 0 -195821159.8064667 -355541274.81143802 0 -355541274.81143802 548068633.08836079 0 0 0 0 -44180832.545565844 -72804353.680978715 0 -72804353.680978715 165204346.66025332 0 0 0 0 31719423.871495724 -310499062.93523407 0 -310499062.93523407 -264229231.65530342 0 0 0 0 -219950987.6140914 -95074939.653983831 0 -95074939.653983831 -307031651.79565382 0 0 0 0 -408943446.78703237 80005947.36579667 0 80005947.36579667 -89420911.088531792 0 0 0 0 -643625941.90854883 77081028.451902583 0 77081028.451902583 -416163461.54910815 0 0 0 0 -754434099.11612749 -145508701.53694409 0 -145508701.53694409 -231535215.1132884 0 0 0 0 220274159.2864728 -153607439.64839762 0 -153607439.64839762 -26734300.412947714 0 0 0 0 -541119823.37332582 415942440.29445595 0 415942440.29445595 336869966.93105078 0 0 0 0 -899768885.78409719 153455280.00831205 0 153455280.00831205 -64630558.373337746 0 0 0 0 -977640638.00918961 135575671.85609996 0 135575671.85609996 157235209.33317912 0 0 0 0 -931721577.09521961 455868323.73478585 0 455868323.73478585 -131709722.02206433 0 0 0 0 -470226.3332331659 -581616.51396313007 0 -581616.51396313007 -1902611.4141098829 0 0 0 0 -1649150566.6686709 301714559.22794116 0 301714559.22794116 -175111425.67112413 0 0 0 0 -946342090.13918114 336156342.50071013 0 336156342.50071013 93821333.852992147 0 0 0 0 -867355764.06084681 488506230.0566479 0 488506230.0566479 -328868767.53933179 0 0 0 0 -876571613.9494462 302022102.19208729 0 302022102.19208729 -310757745.92993677 0 0 0 0 -161511291.07481325 205374819.03845704 0 205374819.03845704 -280266389.1582222 0 0 0 0 -108907623.12785244 264185705.10086787 0 264185705.10086787 167173091.2363888 0 0 0 0 -6978.6097828235361 605216.30901845265 0 605216.30901845265 -554996.46181727573 0 0 0 0 -115471752.27350569 198435932.33911598 0 198435932.33911598 -437784619.22274733 0 0 0 0 -56618660.227143288 98309916.013424397 0 98309916.013424397 -175507377.8341217 0 0 0 0 -83844363.705980778 174809207.4314816 0 174809207.4314816 -300457392.12826729 0 0 0 0 -112573325.06322098 144480028.09119797 0 144480028.09119797 -230089357.3002758 0 0 0 0 -150298009.55572891 186011945.14304161 0 186011945.14304161 -179791845.65564728 0 0 0 0 -146960249.75788784 130975856.00971222 0 130975856.00971222 -45691111.016641617 0 0 0 0 -184701273.98353386 170592204.24379063 0 170592204.24379063 -24257437.373918533 0 0 0 0 -166499846.55746651 198678500.52271223 0 198678500.52271223 -84257918.691951752 0 0 0 0 -1576543.9936105213 1000953.6672404015 0 1000953.6672404015 1222414.4008904975 0 0 0 0 76254386.272737026 -99248334.255298615 0 -99248334.255298615 -92645708.091560364 0 0 0 0 -3762472.1011952162 -3918281.0798788071 0 -3918281.0798788071 3534877.0990233421 0 0 0 0 -909356927.03382921 201098602.45512354 0 201098602.45512354 304816917.71253514 0 0 0 0 -1497639.8531804448 -2303449.0486737723 0 -2303449.0486737723 -5016648.7943781987 0 0 0 0 -157141865.09260178 -213085794.63112164 0 -213085794.63112164 11124247.630380392 0 0 0 0 -515671912.66763496 -77718295.954074085 0 -77718295.954074085 135279654.51526737 0 0 0 0 -143578155.96904278 -133871068.86899343 0 -133871068.86899343 -269693482.7991752 0 0 0 0 -120617646.67581296 -43456423.042572975 0 -43456423.042572975 20856074.980811596 0 0 0 0 -14381540.486304283 -70202233.325152755 0 -70202233.325152755 20841211.827609658 0 0 0 0 -212802958.32088661 -16036825.558598638 0 -16036825.558598638 239525213.8976174 0 0 0 0 -136949017.42534733 65116073.573139489 0 65116073.573139489 171925657.85287774 0 0 0 0 -195360008.29581261 42921181.325494885 0 42921181.325494885 266414250.27111506 0 0 0 0 -139811283.36416745 235692642.79857057 0 235692642.79857057 159433945.90238214 0 0 0 0 -121162714.93920994 230069341.49003702 0 230069341.49003702 144859365.11955261 0 0 0 0 -51014928.260277748 42104228.612814307 0 42104228.612814307 291710272.16909081 0 0 0 0 -340196469.02363014 287170390.52305269 0 287170390.52305269 202954340.97495073 0 0 0 0 -1257130.5546099539 -174601.63158586141 0 -174601.63158586141 114630.2331281676 0 0 0 0 -118754207.55940771 -357490147.67933273 0 -357490147.67933273 -175603819.53704029 0 0 0 0 70601153.748317361 -198680101.28241953 0 -198680101.28241953 -218921834.40319681 0 0 0 0 4236063.2085037231 -225515465.48993725 0 -225515465.48993725 -228772558.4470523 0 0 0 0 -430866178.37095928 -57517966.061536878 0 -57517966.061536878 -84893633.516252875 0 0 0 0 -210823357.04657173 136960523.12358004 0 136960523.12358004 -215208934.45243126 0 0 0 0 -143919990.01389909 29433931.764572442 0 29433931.764572442 -45040309.256201625 0 0 0 0 -73384207.268827438 -78585696.659232914 0 -78585696.659232914 41603431.160408266 0 0 0 0 -242428172.50718975 28282440.979844809 0 28282440.979844809 28908822.180963725 0 0 0 0 -58115490.264947414 -94182851.311134994 0 -94182851.311134994 -27130333.728336692 0 0 0 0 -145676526.46246123 18206949.932447582 0 18206949.932447582 -77711099.7385391 0 0 0 0 -42746284.991919518 -86089535.938549057 0 -86089535.938549057 16401023.163540483 0 0 0 0 -34338966.66023159 -111582874.04985178 0 -111582874.04985178 -76861937.630120978 0 0 0 0 -18359708.9133358 -130837380.32060565 0 -130837380.32060565 -16003940.889847636 0 0 0 0 -18122056.272674561 -128197862.10014766 0 -128197862.10014766 163723530.57888258 0 0 0 0 28227716.889698029 -102974968.24791932 0 -102974968.24791932 18325971.823388219 0 0 0 0 -39305541.848731041 -100166740.81922647 0 -100166740.81922647 165403761.01052892 0 0 0 0 -186757194.21995497 -210617673.86861253 0 -210617673.86861253 13930595.625606179 0 0 0 0 -54481620.330846786 -99063396.283520103 0 -99063396.283520103 -24931820.438497931 0 0 0 0 -100312859.5168848 -93622430.440655306 0 -93622430.440655306 -42028032.79698161 0 0 0 0 -55286638.707081318 -111951114.80253619 0 -111951114.80253619 120799275.49332058 0 0 0 0 -5528979.3962526321 -108833026.2936973 0 -108833026.2936973 18655141.442348782 0 0 0 0 -54813134.562601089 -139688282.51465863 0 -139688282.51465863 18877079.019626688 0 0 0 0 -57263621.553635597 -131533009.64359468 0 -131533009.64359468 -6742722.1116820574 0 0 0 0 -141678563.46343231 -141554805.72825181 0 -141554805.72825181 17917546.416423619 0 0 0 0 -174624107.6580739 -50073023.763432503 0 -50073023.763432503 80531494.296028137 0 0 0 0 -98545048.930794239 -140881872.23197725 0 -140881872.23197725 3578414.1358373165 0 0 0 0 -59905664.519395828 -101277417.42650419 0 -101277417.42650419 43632544.675016999 0 0 0 0 22578816.904163837 -121001733.99627024 0 -121001733.99627024 45425242.538553357 0 0 0 0 -26108801.157818317 19131424.00750792 0 19131424.00750792 117492082.75498044 0 0 0 0 -475496807.05708027 211412211.51141953 0 211412211.51141953 131665835.55346191 0 0 0 0 -487546462.63963342 195821624.21981329 0 195821624.21981329 245242345.8025223 0 0 0 0 -364109815.46438599 146366914.85443795 0 146366914.85443795 168740603.0897935 0 0 0 0 -587594947.77082801 146609221.06737632 0 146609221.06737632 347581193.30566382 0 0 0 0 -548651862.86447072 40126650.848000377 0 40126650.848000377 233723549.01241422 0 0 0 0 -186936477.90232468 -63768625.120891452 0 -63768625.120891452 80731163.736661613 0 0 0 0 -195960556.69796181 -53194109.66662991 0 -53194109.66662991 86706296.486583471 0 0 0 0 -207636456.22149611 -66261979.80848968 0 -66261979.80848968 87628679.940877676 0 0 0 0 -2087352043.4539082 -277766402.03889805 0 -277766402.03889805 -56450905.6119477 0 0 0 0 -674085744.04716587 -13187808.062819362 0 -13187808.062819362 97176183.756044865 0 0 0 0 -201604459.69738865 157842042.46634334 0 157842042.46634334 147765821.93359157 0 0 0 0 -558077237.83018398 257385217.25848818 0 257385217.25848818 193527909.46948391 0 0 0 0 -589343542.82689285 208070131.62344313 0 208070131.62344313 257173495.5420793 0 0 0 0 -556252688.08487701 207369560.77677518 0 207369560.77677518 354221987.73184615 0 0 0 0 -584775463.29883504 286020733.35699403 0 286020733.35699403 418043192.63645172 0 0 0 0 -2806206714.9772463 -318481231.36612123 0 -318481231.36612123 -34475029.951406606 0 0 0 0 192890470.4916358 602321644.80561256 0 602321644.80561256 158395921.8702774 0 0 0 0 -2205987778.9197907 742270613.74296057 0 742270613.74296057 152503176.09472093 0 0 0 0 -997902.92491964996 557801.05739521864 0 557801.05739521864 171822.82386187103 0 0 0 0 -555939054.30507851 799604203.22854912 0 799604203.22854912 568633252.71783137 0 0 0 0 -1657297082.2173252 506461158.20970428 0 506461158.20970428 501621506.68377066 0 0 0 0 -1896928188.9330959 405680981.73222297 0 405680981.73222297 508272156.66899306 0 0 0 0 -1527579375.830759 709017200.48430872 0 709017200.48430872 574995111.76015663 0 0 0 0 -1634462513.6750679 261475956.96043652 0 261475956.96043652 393955717.31162483 0 0 0 0 -870304463.80759811 234648485.51972312 0 234648485.51972312 393624480.81054598 0 0 0 0 -812676010.22697687 278009885.7083649 0 278009885.7083649 418504064.58375311 0 0 0 0 -778450473.23615074 47071400.31149441 0 47071400.31149441 296102968.99874556 0 0 0 0 -1042012634.8850069 18964269.900023222 0 18964269.900023222 246106236.65898502 0 0 0 0 -1079204254.3748355 -21693987.715777494 0 -21693987.715777494 288521599.6366964 0 0 0 0 -1510747668.03619 80042033.559822977 0 80042033.559822977 291721162.73077154 0 0 0 0 -2204321933.2856498 159642619.29837462 0 159642619.29837462 600994504.58630562 0 0 0 0 -425218691.13995552 -108146641.68550074 0 -108146641.68550074 84071317.244930148 0 0 0 0 -312314677.17995262 -97469651.149006784 0 -97469651.149006784 60082965.525688827 0 0 0 0 -432849520.82449055 -115079590.51640472 0 -115079590.51640472 116232445.29607391 0 0 0 0 -644551194.05778313 15909502.559279919 0 15909502.559279919 244907895.04878709 0 0 0 0 -642453961.43684483 19384283.589653611 0 19384283.589653611 242435365.31909943 0 0 0 0 -598785376.71242523 -96398191.44649893 0 -96398191.44649893 117779912.62870395 0 0 0 0 -607028257.14988899 -170434665.63619438 0 -170434665.63619438 103837314.50383967 0 0 0 0 -691639097.34248829 -213963882.71721375 0 -213963882.71721375 113835092.54329813 0 0 0 0 -606843441.26287937 -193511353.96938884 0 -193511353.96938884 92051171.4783158 0 0 0 0 -424509192.99639225 -221313461.14715868 0 -221313461.14715868 84961995.100080252 0 0 0 0 -260822884.76280069 -313415190.50968498 0 -313415190.50968498 -105499481.68303382 0 0 0 0 -397480522.86491776 -709421065.57954216 0 -709421065.57954216 -245003605.47422814 0 0 0 0 -1220597.7612507865 -449933.79081158887 0 -449933.79081158887 -131372.2225093309 0 0 0 0 -63639457.27561903 19421132.536324061 0 19421132.536324061 57571236.77741158 0 0 0 0 -103674453.38925743 -115991369.76738971 0 -115991369.76738971 357883972.46193749 0 0 0 0 -1738947917.7197227 -52348400.336979464 0 -52348400.336979464 284223963.15413231 0 0 0 0 -977115317.05859375 -336900865.97359955 0 -336900865.97359955 212405727.1358096 0 0 0 0 -1734729334.3998251 -350355193.71886802 0 -350355193.71886802 229046040.74145743 0 0 0 0 -1574945750.6157055 20865779.348701417 0 20865779.348701417 268038029.07647601 0 0 0 0 -2204176392.2916622 -381025453.68732119 0 -381025453.68732119 11615457.008170418 0 0 0 0 -1783456217.4210854 -533865707.88983351 0 -533865707.88983351 61284245.685059361 0 0 0 0 -1806498687.2360654 -472808048.25229889 0 -472808048.25229889 117257265.9068712 0 0 0 0 -1500074330.5227089 -886129587.6852479 0 -886129587.6852479 -336613251.48739064 0 0 0 0 -1809617.4539633505 -16809.036223495146 0 -16809.036223495146 115153.06662250342 0 0 0 0 -2124670281.0876427 -415762162.86068523 0 -415762162.86068523 184876113.85441697 0 0 0 0 -2205471139.5882282 -623446615.24628019 0 -623446615.24628019 -323967153.58645242 0 0 0 0 -2902755.5485499986 -462289.1377317569 0 -462289.1377317569 37460.326731488298 0 0 0 0 32466683.015533447 -7055537.6845931485 0 -7055537.6845931485 -16934000.330366284 0 0 0 0 117523499.86317444 -73099756.206746951 0 -73099756.206746951 16599310.093474008 0 0 0 0 -822249700.61378479 211215383.38465196 0 211215383.38465196 9679727.9799839705 0 0 0 0 175500673.63768816 -5951811.1936840527 0 -5951811.1936840527 -243422967.90998811 0 0 0 0 -265514125.1873951 -311371733.6344254 0 -311371733.6344254 -173364531.15817222 0 0 0 0 -111894671.79887581 263093014.33174616 0 263093014.33174616 -110843313.77179681 0 0 0 0 45009387.650465012 -44746574.05401101 0 -44746574.05401101 46905203.521908253 0 0 0 0 10206872.135641098 92226474.534182757 0 92226474.534182757 114825370.08560133 0 0 0 0 9803166.1167678833 547817.096611619 0 547817.096611619 -9834614.9999349713 0 0 0 0 -3786924.6242755465 336919.58763212163 0 336919.58763212163 282399.81691126653 0 0 0 0 -12260149.660028458 -6884383.6729149371 0 -6884383.6729149371 18786103.289921612 0 0 0 0 -4334909.1763800923 520017.81268124329 0 520017.81268124329 590662.88312102214 0 0 0 0 6429779.369392395 125775308.15258312 0 125775308.15258312 290404515.24968457 0 0 0 0 7177586.0405974388 15837971.793711241 0 15837971.793711241 13660194.20568689 0 0 0 0 -37147060.836642265 10234940.594157428 0 10234940.594157428 276468640.31329405 0 0 0 0 1252311.4878082275 2534975.877379179 0 2534975.877379179 3725254.4848314822 0 0 0 0 -4327449.9807719309 1405033.7159404263 0 1405033.7159404263 1122683.1859340095 0 0 0 0 8255381.820813179 33704604.498228893 0 33704604.498228893 245973554.73215052 0 0 0 0 118216567.19422913 19763948.410141468 0 19763948.410141468 178815110.49970627 0 0 0 0 -8221048.1395686157 -635436.55690937827 0 -635436.55690937827 2449796.9683548613 0 0 0 0 -1630449.8690185547 1253220.4318180084 0 1253220.4318180084 10831445.625058174 0 0 0 0 -7622035.324616286 -3728792.8372028694 0 -3728792.8372028694 2757069.0762490663 0 0 0 0 -15347837.442932129 184921320.17142892 0 184921320.17142892 295745939.5493573 0 0 0 0 116154314.42774963 105297000.95046324 0 105297000.95046324 263855232.27673626 0 0 0 0 34748968.644592285 87732325.109583378 0 87732325.109583378 285682032.46116257 0 0 0 0 27210487.347137451 191082487.1767478 0 191082487.1767478 284979123.45307112 0 0 0 0 103790972.79139328 70669404.222591162 0 70669404.222591162 260088449.1861763 0 0 0 0 -8300089.2835181896 -1435731.9136977652 0 -1435731.9136977652 1967368.3393867444 0 0 0 0 82321543.371643066 105499688.4767909 0 105499688.4767909 286682842.23752975 0 0 0 0 6101779.7049102783 117486767.60019779 0 117486767.60019779 260431134.35669303 0 0 0 0 -19318303.582954407 136598077.22349703 0 136598077.22349703 278327726.7457943 0 0 0 0 25772773.953704834 165330691.74358368 0 165330691.74358368 240956423.6395731 0 0 0 0 -77131140.910331726 120522142.76158929 0 120522142.76158929 263495924.35863066 0 0 0 0 -88190919.035751343 -72640881.145998001 0 -72640881.145998001 518923474.01577771 0 0 0 0 -82890523.024246216 149996216.76900899 0 149996216.76900899 254628772.46415424 0 0 0 0 -152379054.66398621 12535561.548142672 0 12535561.548142672 527097070.12200022 0 0 0 0 -5461776.4904529713 1553300.1496832208 0 1553300.1496832208 1050409.4105496469 0 0 0 0 -34237626.087890625 44109424.236119509 0 44109424.236119509 341992658.37102795 0 0 0 0 -140976151.21916962 71275348.638389826 0 71275348.638389826 386492057.28837633 0 0 0 0 -46151464.308082581 -20357839.304965496 0 -20357839.304965496 406647755.26018345 0 0 0 0 131137194.52420044 -19930260.395627975 0 -19930260.395627975 275096471.30761385 0 0 0 0 8892034.6927185059 35468100.617660999 0 35468100.617660999 324202195.35099888 0 0 0 0 54665995.211105347 -22123724.217607021 0 -22123724.217607021 374753162.13967228 0 0 0 0 110590774.18377686 -69828163.752500534 0 -69828163.752500534 339521467.86881208 0 0 0 0 -55970828.726724625 42180660.051113546 0 42180660.051113546 349253409.43461561 0 0 0 0 -31502952.74615097 123622840.26703095 0 123622840.26703095 408808594.14346075 0 0 0 0 -71810891.999465942 7303857.6980984211 0 7303857.6980984211 254544950.57150599 0 0 0 0 -7322473.6893417835 16389055.099380925 0 16389055.099380925 12941047.853039742 0 0 0 0 12441152.990790367 -59214536.452344418 0 -59214536.452344418 -29893361.349273801 0 0 0 0 3083977.0914955139 -13711073.101359129 0 -13711073.101359129 4695986.5154525042 0 0 0 0 -37513251.052484512 -6441171.659255743 0 -6441171.659255743 35572335.197255731 0 0 0 0 -8817325.6393723283 -719594.93102892814 0 -719594.93102892814 1184347.2009218752 0 0 0 0 5631153.3323554993 -6188360.5950026512 0 -6188360.5950026512 2963650.2115538716 0 0 0 0 -7835447.9919312242 3256267.2041224237 0 3256267.2041224237 1390475.3763828182 0 0 0 0 -3772464.4943472403 -3081563.2411451982 0 -3081563.2411451982 2539341.6616057875 0 0 0 0 903116.39781093597 53356234.562843561 0 53356234.562843561 252752423.60576668 0 0 0 0 -17323904.254915237 44005235.241561532 0 44005235.241561532 266948616.16748178 0 0 0 0 -17424989.355753899 49657091.231447339 0 49657091.231447339 252013265.4502869 0 0 0 0 30075194.947832108 180502257.02742872 0 180502257.02742872 589906749.99816096 0 0 0 0 -11428568.355636597 -140334226.63752687 0 -140334226.63752687 473301000.24932516 0 0 0 0 -861418.85306378361 -860971.27443999448 0 -860971.27443999448 571242.45763418335 0 0 0 0 -17322165.610733986 -53089364.686584353 0 -53089364.686584353 370399565.83915591 0 0 0 0 89069630.23701334 -135854142.14520594 0 -135854142.14520594 296693145.70803881 0 0 0 0 82074421.159072876 -54934787.997836471 0 -54934787.997836471 168011910.41498429 0 0 0 0 -40211609.247633934 -65427433.380581051 0 -65427433.380581051 277896787.06766278 0 0 0 0 7776723.7861840725 -58139373.323514938 0 -58139373.323514938 164612792.36399436 0 0 0 0 -56161729.476817846 -46344133.998297155 0 -46344133.998297155 207177716.27793032 0 0 0 0 -32519002.03174305 -47363535.280352533 0 -47363535.280352533 117063459.28292051 0 0 0 0 -41477392.317364693 -86163114.470302507 0 -86163114.470302507 60018058.543781012 0 0 0 0 -109712596.98225594 -95927275.504956692 0 -95927275.504956692 121859925.66519839 0 0 0 0 -25301933.876284599 19693612.047139414 0 19693612.047139414 183585709.89838213 0 0 0 0 -48734081.327777863 33068375.312096 0 33068375.312096 258269851.92062211 0 0 0 0 -26075431.077513695 13535076.230703354 0 13535076.230703354 179014463.42952949 0 0 0 0 -38826327.208518028 20480511.779040873 0 20480511.779040873 247267483.50575945 0 0 0 0 -126039259.89935637 48586193.097039759 0 48586193.097039759 623865478.60253286 0 0 0 0 -37586715.278934479 -30438286.59258461 0 -30438286.59258461 379592428.98499346 0 0 0 0 -2099524.5433529969 1433705.8385593728 0 1433705.8385593728 -883246.85669421637 0 0 0 0 440184938.62517548 288239674.12333643 0 288239674.12333643 296327400.33904439 0 0 0 0 227470219.84614944 727617472.29602921 0 727617472.29602921 622944704.05567741 0 0 0 0 -175026874.72426605 157469428.27521276 0 157469428.27521276 387877716.27170563 0 0 0 0 -68114814.873607635 125191545.3149786 0 125191545.3149786 282399474.84133816 0 0 0 0 -40978099.218679428 378846955.12009764 0 378846955.12009764 340959285.97803688 0 0 0 0 -264494459.48435593 335145479.33882141 0 335145479.33882141 535279498.49394321 0 0 0 0 -265225490.79330826 204839603.73862362 0 204839603.73862362 253908325.93332767 0 0 0 0 -113536687.14593506 218013788.25359917 0 218013788.25359917 147143957.87123871 0 0 0 0 -199751395.74474335 57504606.604867935 0 57504606.604867935 44189471.83380127 0 0 0 0 -67908424.679298639 56070300.809560418 0 56070300.809560418 -98206417.990215302 0 0 0 0 -168342688.03205109 190387691.91944218 0 190387691.91944218 318032641.06908035 0 0 0 0 71354166.928154945 -135590837.4618758 0 -135590837.4618758 -60270873.668716133 0 0 0 0 -165665650.15047646 -96308175.002083778 0 -96308175.002083778 -65252869.695754051 0 0 0 0 14548797.831057906 -131034483.18301725 0 -131034483.18301725 -143682030.12289333 0 0 0 0 -99045142.06464076 -134712786.66293201 0 -134712786.66293201 354998392.975945 0 0 0 0 -30095786.783876419 -260926238.1805259 0 -260926238.1805259 78451610.636521578 0 0 0 0 379374.35920537659 -1530788.8216753181 0 -1530788.8216753181 -189012.22731562005 0 0 0 0 -481988740.02522039 92169329.068348289 0 92169329.068348289 420255267.99312592 0 0 0 0 49579297.610530853 82893805.691618711 0 82893805.691618711 210391475.34585643 0 0 0 0 81077892.992390633 163009303.43128979 0 163009303.43128979 414148748.14400768 0 0 0 0 -74661587.238809824 83713.250565648079 0 83713.250565648079 371979720.59921932 0 0 0 0 -1873885.5870270729 56761106.307064354 0 56761106.307064354 201631019.90330252 0 0 0 0 -7639736.7265441399 5022612.0467086807 0 5022612.0467086807 -2970945.3838069765 0 0 0 0 -1018642.8190021273 183341.06403217278 0 183341.06403217278 -212477.42298278399 0 0 0 0 -7060243.0689926147 -159184958.89154959 0 -159184958.89154959 -11141296.772661062 0 0 0 0 -523024808.22558975 220726396.00872064 0 220726396.00872064 -13500566.886210918 0 0 0 0 -5728072.2123683011 3618050.3952186676 0 3618050.3952186676 -1878941.588013988 0 0 0 0 -15462840.751675606 237667600.41720748 0 237667600.41720748 604779698.68228436 0 0 0 0 -359540122.69791603 -501787677.47397232 0 -501787677.47397232 -308278431.30078316 0 0 0 0 -573431886.60319519 -727490526.62763071 0 -727490526.62763071 -533605221.6988883 0 0 0 0 -464280086.30302048 -446162324.63701105 0 -446162324.63701105 -324888636.18562126 0 0 0 0 -1035234160.798502 -540325055.96728015 0 -540325055.96728015 -339839465.21730995 0 0 0 0 -233993584.96256256 -169784600.33719301 0 -169784600.33719301 -146468441.9211154 0 0 0 0 -206570278.17511749 -160229631.12669134 0 -160229631.12669134 -147575682.32085383 0 0 0 0 123409328.29940152 20272329.935554981 0 20272329.935554981 -28710594.708498955 0 0 0 0 -221545057.01588821 -114991908.8349905 0 -114991908.8349905 -126619117.53989792 0 0 0 0 178053087.05137157 -115914611.91021967 0 -115914611.91021967 167899543.50280762 0 0 0 0 -456176.56761436071 -63098.831158443354 0 -63098.831158443354 342265.05681695277 0 0 0 0 132061513.17242432 -61529403.813232422 0 -61529403.813232422 -3303193.7319726944 0 0 0 0 -293312080.0763092 -117755316.25667477 0 -117755316.25667477 -113605274.40429211 0 0 0 0 141806124.03979492 24787284.088936806 0 24787284.088936806 -297755727.17014313 0 0 0 0 193105940.19200516 -68015304.432775021 0 -68015304.432775021 -143307309.60454178 0 0 0 0 -263355646.61478519 65539744.965027839 0 65539744.965027839 -111481438.91784573 0 0 0 0 -279462164.80198288 -229898867.16462851 0 -229898867.16462851 -78477334.637778759 0 0 0 0 -395013176.61213875 -327334373.94700849 0 -327334373.94700849 -209881260.56464195 0 0 0 0 -528599541.52310181 -156195519.51614571 0 -156195519.51614571 67002265.76849556 0 0 0 0 -672885348.35692596 -440934751.23190451 0 -440934751.23190451 182514902.89319825 0 0 0 0 -1685643.9760756772 265215.83616375644 0 265215.83616375644 612168.23054310353 0 0 0 0 -852199328.25837708 -535059054.89422798 0 -535059054.89422798 -16179552.70889163 0 0 0 0 -12819433.144908309 -13620181.162303766 0 -13620181.162303766 -4753070.5421391372 0 0 0 0 -10729507.473962784 -17616203.705351949 0 -17616203.705351949 2468284.0651912689 0 0 0 0 -11501484.71391201 -16752864.281939149 0 -16752864.281939149 7778634.7543315887 0 0 0 0 -22268820.710422516 -22783531.238460064 0 -22783531.238460064 21366450.91237545 0 0 0 0 -19786550.385433197 -86323214.439529896 0 -86323214.439529896 33944390.17727375 0 0 0 0 -7576431.8397750854 -37431902.787138939 0 -37431902.787138939 17248668.683862686 0 0 0 0 -3464118.0340898898 -767615.32603076007 0 -767615.32603076007 65006.797338803299 0 0 0 0 -43651004.547870636 -552887.24979162216 0 -552887.24979162216 -5667571.7829742432 0 0 0 0 -80613434.408435822 -62202639.907973528 0 -62202639.907973528 27914973.71678257 0 0 0 0 -77984772.366840363 -28222777.42005825 0 -28222777.42005825 16091960.338647902 0 0 0 0 79850551.018530846 -66140421.456911683 0 -66140421.456911683 -14771523.059568405 0 0 0 0 -12498486.564914361 -14555649.663330534 0 -14555649.663330534 -4914106.8862706786 0 0 0 0 72844358.081645966 -43550016.03180337 0 -43550016.03180337 -22825376.204345703 0 0 0 0 68207915.220010757 -62608999.404124022 0 -62608999.404124022 -30058655.028434753 0 0 0 0 75391137.246955872 -36544985.125610352 0 -36544985.125610352 15676425.915842056 0 0 0 0 -11382552.551552676 -2811679.1410016036 0 -2811679.1410016036 297965.11679324997 0 0 0 0 -483628407.05568314 178277962.26478148 0 178277962.26478148 209563880.88089371 0 0 0 0 -35443919.506504059 -17410141.219714165 0 -17410141.219714165 -15997057.910119355 0 0 0 0 -42841666.687063217 -15676469.402593136 0 -15676469.402593136 3807046.8597679138 0 0 0 0 -11443624.182472367 -16735363.148144625 0 -16735363.148144625 -1860295.7477535531 0 0 0 0 24848487.337228775 -62367591.752593994 0 -62367591.752593994 205315713.998842 0 0 0 0 -74392206.466049194 -240624173.29947042 0 -240624173.29947042 -70676085.527693033 0 0 0 0 -12612386.909720376 -2172590.8100132011 0 -2172590.8100132011 1755297.9390210379 0 0 0 0 147093272.73441696 -3579299.7190876007 0 -3579299.7190876007 -16459070.178829193 0 0 0 0 106536532.19063377 -54964984.454618454 0 -54964984.454618454 -16844396.922725677 0 0 0 0 11199220.312286377 -50776484.323846817 0 -50776484.323846817 4198786.4701576233 0 0 0 0 -1097017157.2055931 -1017625397.5061092 0 -1017625397.5061092 -307178786.38955045 0 0 0 0 -176971075.7959671 836996658.48844862 0 836996658.48844862 1005968599.5053883 0 0 0 0 -1780902199.1450882 -635717816.14174366 0 -635717816.14174366 188111381.18768501 0 0 0 0 -1677452749.5406876 -88154779.103430748 0 -88154779.103430748 -29479091.341035843 0 0 0 0 -875309724.77523804 -113079422.77780342 0 -113079422.77780342 -252252296.64679718 0 0 0 0 -1751016975.5833206 734590878.36956215 0 734590878.36956215 -462106254.40989304 0 0 0 0 -2254883536.1384277 155271963.5995388 0 155271963.5995388 101796770.95952797 0 0 0 0 -638444028.16431046 -201399584.03886032 0 -201399584.03886032 -41063618.031588554 0 0 0 0 -1428343812.9743919 -685754748.40186214 0 -685754748.40186214 -10392714.180415154 0 0 0 0 -693732986.81571579 -363444955.53486228 0 -363444955.53486228 13364358.541507721 0 0 0 0 238998227.99306011 223372116.39173996 0 223372116.39173996 -283257823.10075378 0 0 0 0 -243236955.48090744 -421769729.06874776 0 -421769729.06874776 -156210711.06826958 0 0 0 0 91547355.565391541 354883754.25745392 0 354883754.25745392 6971898.3168716431 0 0 0 0 -646101.59613987245 167242.9962511342 0 167242.9962511342 83884.74626668985 0 0 0 0 -657223075.1210556 -175153114.4355011 0 -175153114.4355011 -51757856.044762135 0 0 0 0 100511587.00669861 -249004395.69950914 0 -249004395.69950914 -126802494.8293314 0 0 0 0 -53691989.582176208 83915722.784347534 0 83915722.784347534 284516541.80694294 0 0 0 0 -130702556.60614395 25437076.386590958 0 25437076.386590958 -187284798.60344172 0 0 0 0 -250682307.46453094 319071919.59208298 0 319071919.59208298 -137991210.50523663 0 0 0 0 -351724387.05189276 162236465.55418074 0 162236465.55418074 -107661870.96624756 0 0 0 0 -350036009.16082001 177487881.31413364 0 177487881.31413364 -558130456.85939789 0 0 0 0 -5254953.5252222838 -2872251.9999356596 0 -2872251.9999356596 742824.92152956314 0 0 0 0 -589520648.15886688 -105858495.11107445 0 -105858495.11107445 261819376.52764893 0 0 0 0 25900550.421245575 -39659583.510865688 0 -39659583.510865688 129981742.2737827 0 0 0 0 -634282344.96782303 -173851390.2956965 0 -173851390.2956965 110439845.626194 0 0 0 0 -81939856.234588623 93604469.685648441 0 93604469.685648441 231706119.04355669 0 0 0 0 -85479619.633827209 149341674.63546491 0 149341674.63546491 150453167.15327263 0 0 0 0 -690984362.52522278 -11966322.631803989 0 -11966322.631803989 375385340.59212875 0 0 0 0 -711194012.50706983 166807762.73101252 0 166807762.73101252 527579495.57107925 0 0 0 0 -704217675.07068896 7876013.3801311851 0 7876013.3801311851 595197504.53644562 0 0 0 0 -543410240.3253479 325962775.70830345 0 325962775.70830345 678401741.88356781 0 0 0 0 -992866846.43135834 85171630.51326561 0 85171630.51326561 843712119.16767502 0 0 0 0 -402766306.31788635 267639128.75654602 0 267639128.75654602 -1575108521.1999855 0 0 0 0 -1372199667.4320526 -626021608.40864372 0 -626021608.40864372 6406609.1029586792 0 0 0 0 -613886339.30319214 -428932664.98109436 0 -428932664.98109436 -242289312.25886345 0 0 0 0 -280848268.28411484 452920245.12634563 0 452920245.12634563 666842157.58361244 0 0 0 0 -746252082.35862732 391166362.34934616 0 391166362.34934616 1138940793.4425478 0 0 0 0 -489414035.06589508 214834704.29896164 0 214834704.29896164 437576104.01281357 0 0 0 0 -232272848.75992203 236716422.80927992 0 236716422.80927992 187943854.76855469 0 0 0 0 -368765390.73947906 290777453.26465797 0 290777453.26465797 424077468.63785696 0 0 0 0 -462222202.57025528 130102389.10397148 0 130102389.10397148 181092069.781147 0 0 0 0 -325326179.27898502 173206761.68557835 0 173206761.68557835 147122143.6495285 0 0 0 0 -341138036.31028748 219307123.30739212 0 219307123.30739212 217568462.48045063 0 0 0 0 -264654822.73566031 211552309.14964819 0 211552309.14964819 32523384.185049057 0 0 0 0 -269478360.60331917 187904862.68029976 0 187904862.68029976 -8929074.0723991394 0 0 0 0 -328495281.77872467 149521563.82047367 0 149521563.82047367 92119310.865800858 0 0 0 0 -418086641.72020531 95051047.502773762 0 95051047.502773762 59261169.847743988 0 0 0 0 -388178135.10136843 -29032542.555704594 0 -29032542.555704594 -81351508.743759155 0 0 0 0 -157275651.12209702 47187175.492247581 0 47187175.492247581 -56269258.320332527 0 0 0 0 -6717293.8042027112 -14907518.704189589 0 -14907518.704189589 -8624022.6803296879 0 0 0 0 -12040735.079364777 -36990828.872455597 0 -36990828.872455597 -9482326.614490509 0 0 0 0 -211010668.14277267 174905128.57346153 0 174905128.57346153 -80914851.97687912 0 0 0 0 -175643735.44085312 116531629.35366154 0 116531629.35366154 -18095779.843887329 0 0 0 0 15505953.52223587 10586615.907878876 0 10586615.907878876 11397453.459162831 0 0 0 0 -3722836.7015505815 -616287.11901330948 0 -616287.11901330948 563223.33887967188 0 0 0 0 131741.64799499512 -62694567.630961418 0 -62694567.630961418 14200167.190676689 0 0 0 0 -75202520.831645966 -22303389.999479771 0 -22303389.999479771 2512012.3375329971 0 0 0 0 -12330215.833265305 -34760764.131689072 0 -34760764.131689072 -21918443.229679108 0 0 0 0 -7313514.5611028904 -12762345.926635893 0 -12762345.926635893 10013178.084866621 0 0 0 0 -62220856.104125023 9032609.3738236427 0 9032609.3738236427 22457632.473287582 0 0 0 0 320213482.95070457 -49577264.584698915 0 -49577264.584698915 -62373832.116060257 0 0 0 0 234312518.61193085 -145569622.24243641 0 -145569622.24243641 -26553738.023367405 0 0 0 0 227085972.41625214 51755272.755469322 0 51755272.755469322 -37431286.619556427 0 0 0 0 64292528.744316101 118865419.1442728 0 118865419.1442728 68204766.512004852 0 0 0 0 -27644309.602073669 20259456.352014542 0 20259456.352014542 114014002.25307608 0 0 0 0 -85062008.144958496 -64184203.35333252 0 -64184203.35333252 -23627183.49987793 0 0 0 0 70459778.677490234 -102256722.6000433 0 -102256722.6000433 -21320611.194671631 0 0 0 0 -50994279.500831604 -76704370.871494293 0 -76704370.871494293 -56440062.482711792 0 0 0 0 -3266208.7540922668 -9541436.1506508663 0 -9541436.1506508663 10451450.458177418 0 0 0 0 -103653360.73264313 -139513538.94420624 0 -139513538.94420624 -169727805.49947357 0 0 0 0 -250219.13108569011 -100129.54642285034 0 -100129.54642285034 463361.81081300974 0 0 0 0 16376987.22574234 42173532.965500355 0 42173532.965500355 2315350.8726158142 0 0 0 0 23206730.992347717 52939628.218770981 0 52939628.218770981 -13042644.676010132 0 0 0 0 18299010.400844574 43420526.663090229 0 43420526.663090229 -14298308.782344818 0 0 0 0 24827320.97354126 49729649.836577415 0 49729649.836577415 -36789117.839073181 0 0 0 0 -21095542.640861511 -38005564.39396286 0 -38005564.39396286 -63990370.878825188 0 0 0 0 -36668566.926413536 -26841862.729578972 0 -26841862.729578972 -11396297.148109436 0 0 0 0 -3632111.2942047119 -33688610.592105865 0 -33688610.592105865 -42193377.579017639 0 0 0 0 -3346463.6183605194 -543483.61473655701 0 -543483.61473655701 10446019.285758972 0 0 0 0 21039778.083688736 -8907443.631444931 0 -8907443.631444931 -22932685.598520279 0 0 0 0 8430695.0227427483 -1367570.2799613476 0 -1367570.2799613476 -27437921.616088867 0 0 0 0 -267760.93855857849 -41630887.46647954 0 -41630887.46647954 -71289911.663284302 0 0 0 0 712340.54371833801 -66498504.321613312 0 -66498504.321613312 -61321314.2603302 0 0 0 0 46451377.010242462 20603676.952541351 0 20603676.952541351 -41324215.467679977 0 0 0 0 -48508376.973457336 -48405885.447776794 0 -48405885.447776794 -18581216.826061249 0 0 0 0 -34851240.965927124 -95886830.275115967 0 -95886830.275115967 -186840842.35621643 0 0 0 0 -84873472.882133484 -47294422.726882935 0 -47294422.726882935 -57255780.18044281 0 0 0 0 -105401074.65337372 -129273767.4831543 0 -129273767.4831543 -137418503.68945312 0 0 0 0 -138329288.41915894 -198851568.56327057 0 -198851568.56327057 -192223621.1701355 0 0 0 0 939621.63000676408 -482384.70792470872 0 -482384.70792470872 -1303428.9080753736 0 0 0 0 -6117390.1593765775 -9180888.2071599904 0 -9180888.2071599904 -5792932.2185344305 0 0 0 0 -54713694.446401596 22983025.352041245 0 22983025.352041245 -99670177.427386284 0 0 0 0 11609976.178667068 -6886973.7232341766 0 -6886973.7232341766 -14600377.386946201 0 0 0 0 19684304.757481575 -14036311.194419861 0 -14036311.194419861 -16788309.947154999 0 0 0 0 -2659279.8888839316 -5683406.6272718189 0 -5683406.6272718189 -100376.70735081937 0 0 0 0 15510073.664892197 5528556.205198288 0 5528556.205198288 -3886036.9999427795 0 0 0 0 -63622612.884270668 47035105.835773468 0 47035105.835773468 21780365.844100952 0 0 0 0 -1073653.9050511466 -3012138.0786293955 0 -3012138.0786293955 -5595820.5056218859 0 0 0 0 -403792325.57804775 -160323646.98477745 0 -160323646.98477745 -90393129.869974136 0 0 0 0 -580556917.82750797 -342913466.75610733 0 -342913466.75610733 9713499.4573278427 0 0 0 0 -6838332.0840470828 -784839.6711930139 0 -784839.6711930139 -912087.48874631524 0 0 0 0 -552908969.86192513 -95105717.160383224 0 -95105717.160383224 -26966827.92960453 0 0 0 0 -1310108675.7928147 -165128955.37885666 0 -165128955.37885666 -316929576.09162903 0 0 0 0 -1237388204.1805592 -335267277.87153244 0 -335267277.87153244 60515649.392922401 0 0 0 0 102404.95885837439 -1158909.0873883222 0 -1158909.0873883222 -478115.90208395943 0 0 0 0 -1333060221.1728728 -904162876.82878256 0 -904162876.82878256 -324646002.94998932 0 0 0 0 -752722158.96767259 245037579.47948551 0 245037579.47948551 -1586423787.1210976 0 0 0 0 -2011349.3124669949 141002.34341057669 0 141002.34341057669 -749384.69565590099 0 0 0 0 -123489997.27816391 505343161.87506962 0 505343161.87506962 -999744293.07793808 0 0 0 0 -122104929.79115677 92515779.506588936 0 92515779.506588936 -120037378.11882591 0 0 0 0 -92190204.928290367 112358242.6503377 0 112358242.6503377 -109821945.01306152 0 0 0 0 -142445489.0051868 199089276.05306673 0 199089276.05306673 -266896263.99168777 0 0 0 0 -361807659.49262238 324834457.2991848 0 324834457.2991848 -91036850.126401901 0 0 0 0 -446847059.27253532 172958093.96538639 0 172958093.96538639 104201089.10799217 0 0 0 0 -1224306126.2008915 706772786.75941277 0 706772786.75941277 36747718.962799072 0 0 0 0 -1439283737.3435376 190168804.22630906 0 190168804.22630906 471795632.94939804 0 0 0 0 -837587006.86808074 -206614100.60235286 0 -206614100.60235286 567421849.50750351 0 0 0 0 -680667439.74186707 330990985.05196095 0 330990985.05196095 112784866.77680564 0 0 0 0 -353588100.19917965 -202778510.01290798 0 -202778510.01290798 -31009405.425390244 0 0 0 0 -467954612.15218925 -265783824.31921959 0 -265783824.31921959 187950804.06245422 0 0 0 0 -336587300.08243179 71010031.488821924 0 71010031.488821924 99547087.016956329 0 0 0 0 -266447465.26267052 231815968.58873463 0 231815968.58873463 56739776.218457222 0 0 0 0 -317148952.42359161 139289083.51849079 0 139289083.51849079 86017185.922668457 0 0 0 0 -135921808.79075336 212362561.78922391 0 212362561.78922391 114632000.97684097 0 0 0 0 -276037421.26653862 103824329.08098221 0 103824329.08098221 96721859.183235168 0 0 0 0 -78151062.847968668 -295692071.18342733 0 -295692071.18342733 -310750982.03940678 0 0 0 0 9610165.9866696596 77414577.088579178 0 77414577.088579178 -500560709.3515358 0 0 0 0 -491240670.0282259 -269525471.68967104 0 -269525471.68967104 -68574510.414570808 0 0 0 0 472188.42307408527 -2521609.1596960607 0 -2521609.1596960607 -601629.63121722825 0 0 0 0 116051123.42398834 -514543517.90625763 0 -514543517.90625763 -194919481.85257149 0 0 0 0 -947335.25331602269 75410.845273202751 0 75410.845273202751 277504.71334178653 0 0 0 0 99388176.969151765 -750054642.09858978 0 -750054642.09858978 301685099.95828438 0 0 0 0 503345878.78860402 -143359383.89039612 0 -143359383.89039612 -201993783.19940281 0 0 0 0 -210599388.26711056 -245711141.3789348 0 -245711141.3789348 459930211.4782238 0 0 0 0 -959199491.21256495 -433463685.81515479 0 -433463685.81515479 -75114914.759853363 0 0 0 0 -218633904.56104565 6518291.7577838898 0 6518291.7577838898 -70274900.656451464 0 0 0 0 -50536457.406389475 -142172643.88187599 0 -142172643.88187599 -494117328.01481247 0 0 0 0 -253416471.99492216 48161235.69241333 0 48161235.69241333 -536704800.68628216 0 0 0 0 -2028595.9962425232 30118620.804022789 0 30118620.804022789 -63506453.167411327 0 0 0 0 264351036.71213996 -95271518.901733875 0 -95271518.901733875 -239134953.70571327 0 0 0 0 -4607473.3490402699 13063358.770475388 0 13063358.770475388 -60392708.486236572 0 0 0 0 211398843.34094763 -154857474.29768848 0 -154857474.29768848 148809737.36614561 0 0 0 0 -1252044.5108187967 1371207.5721873445 0 1371207.5721873445 -222083.65591244679 0 0 0 0 556203732.57058454 -509294930.74695778 0 -509294930.74695778 98641162.431730509 0 0 0 0 -1693699.0524899478 4552845.3524816297 0 4552845.3524816297 -1053268.153934544 0 0 0 0 -5403643.398109436 13511072.731675148 0 13511072.731675148 -2053126.6378774643 0 0 0 0 -31526035.491373062 -84306120.171903133 0 -84306120.171903133 -114069086.35373783 0 0 0 0 -207488060.25238419 -172095384.12248325 0 -172095384.12248325 -153441954.70279264 0 0 0 0 -3655892.756587395 3146800.9530402427 0 3146800.9530402427 -4535467.0269500203 0 0 0 0 7866959.6856770515 21804130.670125008 0 21804130.670125008 -13050001.853689194 0 0 0 0 -16453330.035846233 1269447.1333413124 0 1269447.1333413124 -4374070.8905335665 0 0 0 0 3748450.1357345581 -16784748.216762543 0 -16784748.216762543 -34038677.095295906 0 0 0 0 -29959363.109853268 -33166327.82209444 0 -33166327.82209444 -10699091.458961487 0 0 0 0 -14376391.494787693 -13541511.250254154 0 -13541511.250254154 1324615.2407073975 0 0 0 0 -106470.8532123426 80749.769945494831 0 80749.769945494831 -830465.73085732013 0 0 0 0 -7767038.3906314373 -51417154.377764225 0 -51417154.377764225 -129723572.03867912 0 0 0 0 26496131.84631753 -78725709.448862076 0 -78725709.448862076 -114280735.34670782 0 0 0 0 26618626.431755304 -83131985.731743813 0 -83131985.731743813 -230177581.70521784 0 0 0 0 -11321015.736005306 -23817940.511219501 0 -23817940.511219501 -58705663.172370911 0 0 0 0 13585765.740421295 12632086.083740711 0 12632086.083740711 -151053685.29839325 0 0 0 0 -5424204.850263834 1336864.47042799 0 1336864.47042799 2184173.8572194576 0 0 0 0 -1691607.977035654 -2388716.9821051364 0 -2388716.9821051364 -1586867.6748310532 0 0 0 0 -108473326.15571785 19204524.464625359 0 19204524.464625359 31090201.666223526 0 0 0 0 12061923.561201692 75942474.537729204 0 75942474.537729204 -175808095.88947487 0 0 0 0 3941685.2820234299 31286471.427387238 0 31286471.427387238 -115292026.34536743 0 0 0 0 -58488794.25481236 131413299.5386284 0 131413299.5386284 -194779424.54619026 0 0 0 0 -3566713.3426914215 60812482.465347767 0 60812482.465347767 -268393133.97038126 0 0 0 0 18824290.189160347 90360714.034860611 0 90360714.034860611 -294468294.7681303 0 0 0 0 34431642.031972885 42490956.123354435 0 42490956.123354435 -192434164.47733998 0 0 0 0 48582527.550525665 25191874.393255711 0 25191874.393255711 -188885771.28662968 0 0 0 0 48641062.504591942 55271780.978811026 0 55271780.978811026 -237812019.75377035 0 0 0 0 6815110.0130796432 57861882.934451103 0 57861882.934451103 -97200926.621127129 0 0 0 0 -3564763.1418685913 6561145.7794952393 0 6561145.7794952393 -67684324.378022671 0 0 0 0 -3991365.9418801605 -3788462.2420043349 0 -3788462.2420043349 -2164113.438553554 0 0 0 0 -1798501.5123519897 20206424.777979851 0 20206424.777979851 -62197339.170743942 0 0 0 0 1126465.4720745087 -27271436.571454525 0 -27271436.571454525 -119684895.9609046 0 0 0 0 47928135.66519469 9635516.0244282931 0 9635516.0244282931 -174286354.08377171 0 0 0 0 91423831.865783691 -9246021.1318693161 0 -9246021.1318693161 -223226531.28071809 0 0 0 0 80350870.042854309 -41641287.641494274 0 -41641287.641494274 -203042905.69575226 0 0 0 0 -28563969.956787109 -77046758.633615494 0 -77046758.633615494 -140050421.87547255 0 0 0 0 2298692.3197133541 -15329435.488920331 0 -15329435.488920331 -53248986.020187378 0 0 0 0 24432522.046095848 9599948.3428964615 0 9599948.3428964615 -10911999.227539062 0 0 0 0 -3714017.5396565972 81417.987675994635 0 81417.987675994635 -2381365.0087325722 0 0 0 0 -8774705.3603935242 -10628851.388581276 0 -10628851.388581276 -53248161.887724794 0 0 0 0 2105886.9940061569 -3858583.4160733223 0 -3858583.4160733223 -55209745.394422531 0 0 0 0 -654177.73063373566 -16198706.837031364 0 -16198706.837031364 -110101576.30589104 0 0 0 0 652641.72646631091 -4060019.4606820135 0 -4060019.4606820135 -4048746.6022522636 0 0 0 0 2221832.1365656853 -7745168.6854889393 0 -7745168.6854889393 -6861264.3065397739 0 0 0 0 -3110635.178552866 -14048364.478975534 0 -14048364.478975534 -781006.46828603745 0 0 0 0 -5946926.6363826133 -5372120.2452618573 0 -5372120.2452618573 -2673530.3200444723 0 0 0 0 -13930058.936126232 -12761516.675618887 0 -12761516.675618887 -21971017.110265732 0 0 0 0 -4343795.8383412361 -6693612.9023244381 0 -6693612.9023244381 2808369.6334762573 0 0 0 0 -8725536.2895905972 -9940281.1249229908 0 -9940281.1249229908 9267954.7115879059 0 0 0 0 -18716089.504934311 -15168539.188365936 0 -15168539.188365936 -1231375.7489314079 0 0 0 0 -5465207.6038618088 1848774.8022127151 0 1848774.8022127151 -6476002.1109704971 0 0 0 0 -1639011.2899836889 -1057491.5002634651 0 -1057491.5002634651 68789.446207178524 0 0 0 0 -8960493.6050709784 -510073.06422896683 0 -510073.06422896683 323053.75907707214 0 0 0 0 -19602540.867500655 2710776.8247717619 0 2710776.8247717619 1754576.4438271523 0 0 0 0 -9228393.2437443733 3990550.2320408821 0 3990550.2320408821 -1110706.9183349609 0 0 0 0 -7073914.9766926765 -1981429.6338763237 0 -1981429.6338763237 3511893.4347791672 0 0 0 0 -3108933.7694718838 -1594794.8666386604 0 -1594794.8666386604 1971300.4134082794 0 0 0 0 -9139508.4232079983 712122.84202623367 0 712122.84202623367 3971692.2798690796 0 0 0 0 -6827497.3185920715 -10819168.08643055 0 -10819168.08643055 -721521.0144534111 0 0 0 0 -52858013.205587626 -28624232.002861977 0 -28624232.002861977 -12640383.124313414 0 0 0 0 -54799532.60706389 -8901221.1284306645 0 -8901221.1284306645 -1531436.7837123871 0 0 0 0 383521.96470262599 359374.2447424694 0 359374.2447424694 -271105.09062779089 0 0 0 0 -131621.54308414459 2774961.602244854 0 2774961.602244854 1191249.1183891296 0 0 0 0 15911247.970048428 14796055.172527313 0 14796055.172527313 -3642746.3658938408 0 0 0 0 -3247665.8566682893 -1885634.327652972 0 -1885634.327652972 -3964032.1764124045 0 0 0 0 -1022802.8216576576 -1201640.5865619183 0 -1201640.5865619183 501637.78462219238 0 0 0 0 -2333130.862970165 -2453079.4807371171 0 -2453079.4807371171 -2267335.2825599872 0 0 0 0 -731002.76589298248 -1684052.5610628128 0 -1684052.5610628128 -212443.41500473022 0 0 0 0 -2371953.9759925804 -2798586.9504780294 0 -2798586.9504780294 -3006248.7879310241 0 0 0 0 -3117733.0261031291 -2221114.9816900985 0 -2221114.9816900985 228837.17949201353 0 0 0 0 -1246084.1739893379 -801291.57128698309 0 -801291.57128698309 394778.86692052707 0 0 0 0 -4094310.9993858337 -2040367.4705982208 0 -2040367.4705982208 47116.826650619507 0 0 0 0 -89871.792858189321 -246626.62218459509 0 -246626.62218459509 -344056.01677218825 0 0 0 0 6525867.4421540499 2812905.0807731152 0 2812905.0807731152 -14876243.242511272 0 0 0 0 -17328132.237017393 29454.619114160538 0 29454.619114160538 -17749982.742886543 0 0 0 0 -9310180.9151564837 -13800372.145397902 0 -13800372.145397902 -238636.52747154236 0 0 0 0 -40126547.708414078 -23194702.720131636 0 -23194702.720131636 -195882.18880605698 0 0 0 0 -13044254.519204378 -35321515.025560617 0 -35321515.025560617 -1942405.0361571312 0 0 0 0 -60469936.654818296 5148379.4564023018 0 5148379.4564023018 8330309.8451035619 0 0 0 0 1579343.6329185392 -5089310.9373236233 0 -5089310.9373236233 -3246394.5059174923 0 0 0 0 -56688525.793135643 -31690995.986657143 0 -31690995.986657143 -14453852.148583651 0 0 0 0 -39605928.771905899 -36891940.725959301 0 -36891940.725959301 -12904357.543770313 0 0 0 0 -48339236.973506927 -54729823.831604242 0 -54729823.831604242 -1022335.3087539673 0 0 0 0 -19377016.429028511 -59124990.677052021 0 -59124990.677052021 -20277486.080323219 0 0 0 0 -65535203.388198853 -62814488.271433949 0 -62814488.271433949 33329119.465858459 0 0 0 0 -71777775.951786995 -47670375.299552441 0 -47670375.299552441 -3130057.2036939859 0 0 0 0 -1554457.7970559555 420321.99203031952 0 420321.99203031952 827783.34547289915 0 0 0 0 -47719001.070644379 15067336.107764482 0 15067336.107764482 -11234920.275860131 0 0 0 0 -158362097.64018393 78903390.427121416 0 78903390.427121416 -35145956.022833109 0 0 0 0 -59222619.529413223 -9167121.9428156018 0 -9167121.9428156018 -3954296.9073288441 0 0 0 0 -38154173.849796295 -21088254.648444176 0 -21088254.648444176 -5840044.3606220782 0 0 0 0 -51051578.053115845 -37761151.732527018 0 -37761151.732527018 -20583681.892906785 0 0 0 0 -112651056.15825558 -38548970.550405085 0 -38548970.550405085 -4592303.6653738022 0 0 0 0 182235.56353640556 13036373.615160942 0 13036373.615160942 -28867659.71028614 0 0 0 0 -404541.2912690565 -6364744.1889281543 0 -6364744.1889281543 -1625526.0595254151 0 0 0 0 -41206659.322916985 -22440471.937035024 0 -22440471.937035024 -20637381.787503719 0 0 0 0 -23125763.473089218 -25448766.209673107 0 -25448766.209673107 -7685363.129457891 0 0 0 0 -42534354.615309715 -36614884.992089808 0 -36614884.992089808 -14101470.882257223 0 0 0 0 -37877268.524049997 -4860691.2439165115 0 -4860691.2439165115 12098040.411894798 0 0 0 0 -8441153.4969725497 -7112245.1077880086 0 -7112245.1077880086 2739838.1028722101 0 0 0 0 -28487993.337181091 1580270.3283965588 0 1580270.3283965588 9627052.8247461319 0 0 0 0 -30558522.048153877 -31196742.840086579 0 -31196742.840086579 11515829.873191416 0 0 0 0 -36486947.0237782 850200.91249370575 0 850200.91249370575 18956864.067991734 0 0 0 0 15410392.789787292 -825519.98135089874 0 -825519.98135089874 -22918377.478576779 0 0 0 0 -13912039.660351753 -20045266.318651199 0 -20045266.318651199 -25933602.236088753 0 0 0 0 -4748662.7566705775 -976170.38611374493 0 -976170.38611374493 -3254506.7030992191 0 0 0 0 -30876446.725801945 -25813565.113458872 0 -25813565.113458872 10536305.301163554 0 0 0 0 642281.63751149108 637611.51099133887 0 637611.51099133887 -313751.48414787999 0 0 0 0 -53276584.212164402 -110804884.82658494 0 -110804884.82658494 48490580.354236603 0 0 0 0 -103189564.13206583 -169874246.14153919 0 -169874246.14153919 198648004.35534191 0 0 0 0 -40039654.158591032 -95702026.403985739 0 -95702026.403985739 -13484102.251556873 0 0 0 0 -34593807.315292656 -190298448.27701271 0 -190298448.27701271 -52457859.063351631 0 0 0 0 -32179800.682731152 -42381230.176272869 0 -42381230.176272869 -58736848.540486097 0 0 0 0 -26859239.806205273 -108970837.6803422 0 -108970837.6803422 -20478954.198082447 0 0 0 0 -20118796.003119469 -68802754.540953636 0 -68802754.540953636 -97975302.994640112 0 0 0 0 -28226675.301964164 -35703212.22104001 0 -35703212.22104001 79901648.303746462 0 0 0 0 35369139.956999302 -127214973.56925011 0 -127214973.56925011 66269418.612105668 0 0 0 0 -32725009.482907176 -33747094.858134031 0 -33747094.858134031 100285747.53032231 0 0 0 0 -3818413.4617834995 1340185.6624936669 0 1340185.6624936669 1374019.4793102171 0 0 0 0 -11214960.741429806 -62105601.957291842 0 -62105601.957291842 112142975.77553844 0 0 0 0 -19320660.500415802 -26453277.3198964 0 -26453277.3198964 96370379.590304732 0 0 0 0 -66147388.494769812 -34314547.121747255 0 -34314547.121747255 102232950.78487062 0 0 0 0 -67647033.056934774 -112403.15871143341 0 -112403.15871143341 183067311.61394811 0 0 0 0 -68058166.445529938 -22066097.569040775 0 -22066097.569040775 156380547.43492603 0 0 0 0 -4570509.7255923748 39465097.327165544 0 39465097.327165544 92192315.266766071 0 0 0 0 -12103331.941172406 6579009.3320827037 0 6579009.3320827037 64055846.43517375 0 0 0 0 -8414288.1084020268 6321719.14853351 0 6321719.14853351 -4755517.2753736889 0 0 0 0 7815977.1719932556 28007977.686480403 0 28007977.686480403 16012313.656308413 0 0 0 0 14564509.873167038 29842685.692773581 0 29842685.692773581 6754236.2468959093 0 0 0 0 598787.36782073975 2875407.0561676025 0 2875407.0561676025 -7414163.400103569 0 0 0 0 -11388072.280457497 8426013.5284436941 0 8426013.5284436941 5923558.4880714417 0 0 0 0 7667017.1504020691 11616880.427129507 0 11616880.427129507 -3589285.0785331726 0 0 0 0 5913410.0771255493 17651795.41319561 0 17651795.41319561 1959242.010383606 0 0 0 0 -15041822.046524048 20842363.066187859 0 20842363.066187859 31087953.787918091 0 0 0 0 -605019.7235062737 283526.00475367345 0 283526.00475367345 154961.15526165557 0 0 0 0 -12172023.328103185 7443137.1572840773 0 7443137.1572840773 56196362.20278573 0 0 0 0 -7369873.1256115418 2998391.9410624956 0 2998391.9410624956 2053408.4695266858 0 0 0 0 -28759657.906906128 14638587.643832207 0 14638587.643832207 -5543934.5778226852 0 0 0 0 -65817447.188077927 40946912.270985484 0 40946912.270985484 -11222750.963862896 0 0 0 0 -36455904.777458191 1122739.979213953 0 1122739.979213953 29304649.877838612 0 0 0 0 -43675676.666560173 18329063.117786646 0 18329063.117786646 16343520.574163437 0 0 0 0 -24656859.876854897 6374684.5149793625 0 6374684.5149793625 5579834.9889019132 0 0 0 0 -32467055.198266983 17517103.455713987 0 17517103.455713987 1462344.6469922066 0 0 0 0 -26936805.853404999 12145309.639122009 0 12145309.639122009 1556037.8822323084 0 0 0 0 -32454233.179481506 11835993.389569998 0 11835993.389569998 6506409.2786636353 0 0 0 0 -13889085.8303669 531967.02391452342 0 531967.02391452342 -1528536.5032547256 0 0 0 0 -8089243.9632835388 5759058.7726602554 0 5759058.7726602554 3298664.8435935974 0 0 0 0 -38113413.070259094 -35298362.164426565 0 -35298362.164426565 20928079.748227119 0 0 0 0 -19368323.187461853 -18543609.670755386 0 -18543609.670755386 16173751.590091228 0 0 0 0 -27789631.355583809 -4403787.8651829623 0 -4403787.8651829623 -1419259.6725468738 0 0 0 0 -5797169.5067240298 -2674209.2295649489 0 -2674209.2295649489 2907835.6429003994 0 0 0 0 -40490254.438362122 3617450.2968310118 0 3617450.2968310118 58929876.859918237 0 0 0 0 -27531816.425945282 -1577513.7171270549 0 -1577513.7171270549 51900164.878873348 0 0 0 0 -29048005.217061996 -8768347.2249038219 0 -8768347.2249038219 24821851.857923746 0 0 0 0 -15587794.430366516 -39325469.152829498 0 -39325469.152829498 65661725.922014296 0 0 0 0 1542457.916595459 -17181370.016251683 0 -17181370.016251683 3067163.7810819447 0 0 0 0 -9859245.7218074035 -1797830.3770446717 0 -1797830.3770446717 -3002293.2540614679 0 0 0 0 -2364600.2767951582 -681188.07675165031 0 -681188.07675165031 998873.28163697571 0 0 0 0 -80554406.998630524 -128766008.43909706 0 -128766008.43909706 -98732460.99640052 0 0 0 0 -6183880.4845171385 -2033909.8122963854 0 -2033909.8122963854 -808940.74285991199 0 0 0 0 16217779.600048065 -2344200.5040712357 0 -2344200.5040712357 -27722326.305464745 0 0 0 0 -10694638.38609314 -13025490.776534557 0 -13025490.776534557 -17042696.961437225 0 0 0 0 -2619390.4157671295 -1165327.8012866974 0 -1165327.8012866974 -1407000.0529195722 0 0 0 0 -6995532.4898300171 -375316.2287979126 0 -375316.2287979126 -5501117.7523956299 0 0 0 0 -4974390.6795158386 6959180.8056885004 0 6959180.8056885004 -4518905.3457202911 0 0 0 0 -18989049.917548984 2198795.9919455787 0 2198795.9919455787 -1981201.8750641185 0 0 0 0 -8429027.6813430786 7754368.9430141449 0 7754368.9430141449 1627263.8113136292 0 0 0 0 292206.5357208252 6704027.3300580978 0 6704027.3300580978 -6219478.2747507095 0 0 0 0 -4329223.0485992432 11557856.945978165 0 11557856.945978165 -1181970.2769842148 0 0 0 0 -4441864.9670639038 10999483.853882074 0 10999483.853882074 -1310337.9938087463 0 0 0 0 -8115271.0106010437 5234235.1433820724 0 5234235.1433820724 -2407793.2337881923 0 0 0 0 -4494639.3168182373 3024968.5363141894 0 3024968.5363141894 -8266234.9433326721 0 0 0 0 -4472917.6943702698 3787835.7087030411 0 3787835.7087030411 -9194079.4800796509 0 0 0 0 -38450676.465164185 2418836.0821137428 0 2418836.0821137428 12979536.829441726 0 0 0 0 -18178143.957279772 4023802.2181162545 0 4023802.2181162545 3972014.3775532609 0 0 0 0 -39715029.150899887 -4134800.889214009 0 -4134800.889214009 28362641.827886581 0 0 0 0 -46362912.993331909 10446793.384816647 0 10446793.384816647 23950458.113893867 0 0 0 0 -40411280.429191589 1333321.7944998741 0 1333321.7944998741 22512828.972979903 0 0 0 0 -6052227.8864364624 2334550.8358115181 0 2334550.8358115181 3709417.5598356724 0 0 0 0 -19544748.459844589 -30893223.853886545 0 -30893223.853886545 10235779.635779649 0 0 0 0 -25375276.080261968 4234922.8740521297 0 4234922.8740521297 2788683.3961421801 0 0 0 0 -23366492.332258701 -9476989.9501986504 0 -9476989.9501986504 -11381231.32351017 0 0 0 0 -13929922.635072708 -33769178.435037076 0 -33769178.435037076 16459992.03912282 0 0 0 0 -32836594.653579712 -42076708.015099883 0 -42076708.015099883 57448609.396700621 0 0 0 0 -47493437.941518784 -29095741.954633653 0 -29095741.954633653 20754980.715006828 0 0 0 0 -35637187.853221454 -9715735.3351721819 0 -9715735.3351721819 2270819.1573490486 0 0 0 0 -30503115.497402191 -17423782.09036684 0 -17423782.09036684 30442644.613079071 0 0 0 0 -38884330.418273926 -6792943.5406956673 0 -6792943.5406956673 17599415.794979572 0 0 0 0 -32227144.377143305 -7279413.6384515762 0 -7279413.6384515762 486295.08907578792 0 0 0 0 -58947945.785620689 -26020042.63266325 0 -26020042.63266325 64928965.903685093 0 0 0 0 -34459225.468139648 -23247673.121434689 0 -23247673.121434689 31160860.893340111 0 0 0 0 -34748026.545581818 -2461818.2923650742 0 -2461818.2923650742 39412820.345446527 0 0 0 0 -74926363.939696342 -25669084.549050279 0 -25669084.549050279 26041341.563542843 0 0 0 0 -75866480.075543344 18927127.238624662 0 18927127.238624662 15777361.6029284 0 0 0 0 -27019163.28652668 -14383795.709806442 0 -14383795.709806442 24064704.994542062 0 0 0 0 -2274083.983997345 -26161996.713039756 0 -26161996.713039756 28035815.376789093 0 0 0 0 -20970861.774256706 -24511740.479412496 0 -24511740.479412496 29635012.502889156 0 0 0 0 -19692370.068504333 -17801168.789203167 0 -17801168.789203167 34359257.098707557 0 0 0 0 -15773858.103736877 -35729459.532488585 0 -35729459.532488585 41571401.128009677 0 0 0 0 -47022174.602081299 -44994277.963720798 0 -44994277.963720798 45445254.106268167 0 0 0 0 -2207645.7262268066 -54072884.16778636 0 -54072884.16778636 79085430.961386919 0 0 0 0 -693817.5657043457 -41605746.70511961 0 -41605746.70511961 45660246.662508011 0 0 0 0 -101519642.41760826 -82138388.43417576 0 -82138388.43417576 113654728.43825269 0 0 0 0 -53963258.909034729 -18299891.421477556 0 -18299891.421477556 42425686.202689648 0 0 0 0 -49778380.677932739 -6186301.9283815622 0 -6186301.9283815622 38664700.183398247 0 0 0 0 -52783284.145736694 -254700.71451950073 0 -254700.71451950073 29003600.549379647 0 0 0 0 -80888997.1144104 -4408331.316565156 0 -4408331.316565156 49715508.186443329 0 0 0 0 -53384668.500375748 -20740060.282939285 0 -20740060.282939285 44469646.697660446 0 0 0 0 -66966368.3253479 -19978160.759972334 0 -19978160.759972334 62822469.503236771 0 0 0 0 -134471366.28274536 2223256.2174315453 0 2223256.2174315453 64822796.586290926 0 0 0 0 -102538043.32046509 25808852.22932899 0 25808852.22932899 41096201.709003747 0 0 0 0 -71003702.764297485 15564296.338276863 0 15564296.338276863 44308047.152232885 0 0 0 0 -64600120.826156616 27500968.855381727 0 27500968.855381727 30849596.027953506 0 0 0 0 -66330968.503036499 28326149.250578403 0 28326149.250578403 31797820.780822992 0 0 0 0 -52398149.414117813 21035006.707296789 0 21035006.707296789 32752831.209791183 0 0 0 0 -53000948.83265686 20479716.97090435 0 20479716.97090435 32490074.740503311 0 0 0 0 -68112421.60647583 13251357.416387081 0 13251357.416387081 39824451.684328079 0 0 0 0 -58332777.025466919 10863468.714838028 0 10863468.714838028 36674649.541613579 0 0 0 0 -48239425.582794189 7001205.3053174019 0 7001205.3053174019 33265690.031580925 0 0 0 0 -44368956.115921021 16413005.941216469 0 16413005.941216469 29112663.662347794 0 0 0 0 -128552727.07013702 42634501.390678883 0 42634501.390678883 53943999.555293083 0 0 0 0 -120492371.63492966 44347223.881855249 0 44347223.881855249 78455479.56222105 0 0 0 0 -138465222.645401 -438981.91417264938 0 -438981.91417264938 17442495.542413712 0 0 0 0 -72191804.200622559 28744689.289199561 0 28744689.289199561 13302260.262661934 0 0 0 0 -79194499.506893158 40075307.969608843 0 40075307.969608843 23066294.904038191 0 0 0 0 -98835436.147776604 12542206.908228844 0 12542206.908228844 36133753.311595201 0 0 0 0 -217072092.71883392 6972426.2009410858 0 6972426.2009410858 41608125.678759694 0 0 0 0 -195371238.10474014 12079692.456693411 0 12079692.456693411 34205309.193316936 0 0 0 0 -140408478.3032341 10222171.486453414 0 10222171.486453414 251364.80675125122 0 0 0 0 -2085213.21251297 3311967.2372500896 0 3311967.2372500896 22636844.467164993 0 0 0 0 -1583461.5148403505 1772490.5017289966 0 1772490.5017289966 1828909.1072865878 0 0 0 0 -187068881.75010681 19244457.840813637 0 19244457.840813637 4631652.9027172327 0 0 0 0 -219875129.64158893 75985964.139413685 0 75985964.139413685 -19964716.957494736 0 0 0 0 337901.389084775 -36842.438680248335 0 -36842.438680248335 -632098.31101023837 0 0 0 0 42704575.328125 -139042416.19510341 0 -139042416.19510341 133097741.06821895 0 0 0 0 60835739.439031601 -44664924.969948098 0 -44664924.969948098 77437795.003715515 0 0 0 0 12166885.42691803 -13333079.496004507 0 -13333079.496004507 58814336.76711154 0 0 0 0 21543000.160385132 -39266935.19036293 0 -39266935.19036293 112755850.98664808 0 0 0 0 29020768.43844986 -41704248.706914514 0 -41704248.706914514 65620832.278915644 0 0 0 0 757070.14802371711 -1772695.3223026032 0 -1772695.3223026032 -1736675.8554561152 0 0 0 0 64238132.546627045 -55759332.079164028 0 -55759332.079164028 65034016.207111359 0 0 0 0 39389227.048202515 -84693326.035285473 0 -84693326.035285473 110555198.96986184 0 0 0 0 -32298154.761938095 17999758.614933491 0 17999758.614933491 15496625.834937096 0 0 0 0 -35242247.317192078 49293990.289741516 0 49293990.289741516 -5966309.3730010986 0 0 0 0 -1499315.7704928964 2390935.1847264972 0 2390935.1847264972 1675985.562978629 0 0 0 0 35867427.680198669 20634205.897454262 0 20634205.897454262 -2940946.8599700928 0 0 0 0 -155210309.47776031 16499360.40427494 0 16499360.40427494 12351098.812686443 0 0 0 0 -260454532.34492493 -17677313.46541357 0 -17677313.46541357 18594034.398458183 0 0 0 0 -143565707.65357018 21869115.29963398 0 21869115.29963398 -35382242.499102592 0 0 0 0 -143259308.99613953 12839251.55432272 0 12839251.55432272 7602833.4137074947 0 0 0 0 -175275950.78783679 -213872056.50212786 0 -213872056.50212786 -128575683.91688061 0 0 0 0 -146386022.45336914 -130306403.03133869 0 -130306403.03133869 -22678012.381301403 0 0 0 0 -124202485.90493345 -256781620.04929346 0 -256781620.04929346 -219305784.94785357 0 0 0 0 -43853793.794026375 -6407645.5120830238 0 -6407645.5120830238 90108318.203625321 0 0 0 0 -90923771.764791489 4705421.3597833216 0 4705421.3597833216 82299336.653072596 0 0 0 0 -13523492.759544373 -119594227.58558592 0 -119594227.58558592 -61534637.522505999 0 0 0 0 -64946017.935375214 20186690.360542059 0 20186690.360542059 49370500.670995712 0 0 0 0 -67899359.873794556 -14592761.43210125 0 -14592761.43210125 92763905.344069719 0 0 0 0 -42566720.018737793 287648.46126389503 0 287648.46126389503 62909127.836684704 0 0 0 0 -39028079.566404343 -5629234.8276104331 0 -5629234.8276104331 66350456.166364431 0 0 0 0 -5251524.7554321289 -5660540.5052323341 0 -5660540.5052323341 55934067.881165981 0 0 0 0 -13473139.093933105 -23784632.671168089 0 -23784632.671168089 76233000.13072443 0 0 0 0 9906768.4844856262 -11723782.058205843 0 -11723782.058205843 48048680.179285049 0 0 0 0 -33853333.158164978 -15842899.895750999 0 -15842899.895750999 69528870.146256208 0 0 0 0 -189639128.5169487 -35887957.403613091 0 -35887957.403613091 46865488.545987844 0 0 0 0 -33794430.423103333 -14292643.370495319 0 -14292643.370495319 12923998.305559158 0 0 0 0 -428872982.63411331 -100982586.93858719 0 -100982586.93858719 53342664.338132858 0 0 0 0 -23082381.368195534 2361200.6300095916 0 2361200.6300095916 14644156.419388771 0 0 0 0 7707723.5550842285 -74454096.290890217 0 -74454096.290890217 60382685.241957068 0 0 0 0 1136852.8269162737 -1401852.7599654216 0 -1401852.7599654216 -2210394.8292383943 0 0 0 0 980970.37887382507 -40452273.807910919 0 -40452273.807910919 31724882.60726738 0 0 0 0 -111465137.29389572 -29824978.699855804 0 -29824978.699855804 33459726.2966187 0 0 0 0 -27666426.459022522 -59866394.587641716 0 -59866394.587641716 -98073887.610099792 0 0 0 0 706854.266700048 -614782.00448771846 0 -614782.00448771846 -1219786.0668151514 0 0 0 0 -116196704.0682106 -344102275.30560684 0 -344102275.30560684 -339611255.81934261 0 0 0 0 -278791617.56200695 -373889841.4752748 0 -373889841.4752748 -286383620.51738644 0 0 0 0 -187637063.64546967 -238100633.83760166 0 -238100633.83760166 -108145952.76725101 0 0 0 0 -185695136.88768482 -266260597.41119704 0 -266260597.41119704 -148251733.57813644 0 0 0 0 -270895468.75312424 -211892944.25034046 0 -211892944.25034046 -179975904.49465919 0 0 0 0 -259600464.76411057 -174952498.91687918 0 -174952498.91687918 -75425875.844435692 0 0 0 0 943716.28624526039 203062.54402505979 0 203062.54402505979 -1177380.3191568907 0 0 0 0 -392455219.87826538 4312909.0241951942 0 4312909.0241951942 -30986184.848625183 0 0 0 0 -431842666.83998108 -198032130.15342081 0 -198032130.15342081 112256299.47675514 0 0 0 0 -529878905.00785828 -49784443.316166878 0 -49784443.316166878 113952802.62731552 0 0 0 0 -434455355.60060501 -231052337.7020216 0 -231052337.7020216 -76691836.383087322 0 0 0 0 -335107731.39592552 -318616654.06848288 0 -318616654.06848288 -140830967.36210394 0 0 0 0 -100671478.49290085 35416448.886353493 0 35416448.886353493 -27364187.51887989 0 0 0 0 -94377195.117511749 56885123.60448122 0 56885123.60448122 40744341.123960495 0 0 0 0 -5160461.4792747498 -68190069.386428356 0 -68190069.386428356 -14451487.367981315 0 0 0 0 -243937741.29781723 -73258428.244393349 0 -73258428.244393349 -12442246.057540894 0 0 0 0 -88213079.002914429 31347505.980343342 0 31347505.980343342 -33541030.832461357 0 0 0 0 -82401551.753469467 46936116.167606115 0 46936116.167606115 -20220983.820123672 0 0 0 0 -976913.98335374892 -138582.59139951319 0 -138582.59139951319 -2788281.3605410075 0 0 0 0 -101643965.62170219 79303065.569255054 0 79303065.569255054 -70979481.243588448 0 0 0 0 1504039.6599090919 161750.97143022437 0 161750.97143022437 -776601.29796685209 0 0 0 0 -1268834.9722328559 -2313264.2973246113 0 -2313264.2973246113 -1122922.167742392 0 0 0 0 -236392.57011127472 -743961.73223304749 0 -743961.73223304749 66895.240246772766 0 0 0 0 -119487085.77279663 99004826.530753136 0 99004826.530753136 -81335773.118523598 0 0 0 0 -1053073.8428317914 -153679.85848150402 0 -153679.85848150402 -1389595.7477964014 0 0 0 0 -6672820.6400547028 9799883.7174417973 0 9799883.7174417973 9907177.7980670929 0 0 0 0 -263620756.70986176 420072879.26641273 0 420072879.26641273 191530026.45172596 0 0 0 0 -215208057.3295517 77225485.252902985 0 77225485.252902985 -37289190.138410509 0 0 0 0 -249288895.09120941 115552425.62041557 0 115552425.62041557 210773370.19426727 0 0 0 0 -140171384.06640911 -32169996.117753804 0 -32169996.117753804 -11788424.047985077 0 0 0 0 -882760172.87154388 28967626.96133709 0 28967626.96133709 361954483.44472742 0 0 0 0 -329944725.76445675 14899107.373021007 0 14899107.373021007 94871145.296515942 0 0 0 0 -476104023.41065979 -529490904.88935733 0 -529490904.88935733 -1249058995.4789293 0 0 0 0 -1090610662.3135948 420916142.69649363 0 420916142.69649363 -190591518.96806073 0 0 0 0 270024839.61176682 -164139639.9776926 0 -164139639.9776926 -274125542.54389834 0 0 0 0 712826.31568431854 -2810694.2150607109 0 -2810694.2150607109 -3569788.9263038635 0 0 0 0 535894.58434506459 -946820.82805318851 0 -946820.82805318851 -4780779.3893256905 0 0 0 0 -669874521.05132294 -322657121.83573961 0 -322657121.83573961 48844355.502540588 0 0 0 0 -1251646893.8311157 -413019008.71447599 0 -413019008.71447599 175437270.48494971 0 0 0 0 -2132841.8118410967 -929128.43011810025 0 -929128.43011810025 -482461.82877992489 0 0 0 0 -339974266.15006256 -647486376.63492286 0 -647486376.63492286 -841096760.56530237 0 0 0 0 -115463144.74919128 -125103142.82262222 0 -125103142.82262222 -81852096.149122328 0 0 0 0 27655547.740325928 -24880490.541752338 0 -24880490.541752338 -127773682.54874659 0 0 0 0 27185778.517284393 -5682038.0268759727 0 -5682038.0268759727 -2303944.6182522774 0 0 0 0 -538270499.56758618 -325219391.08915126 0 -325219391.08915126 28132743.605512619 0 0 0 0 -810080503.40392303 -421494974.77879143 0 -421494974.77879143 -37070786.310254097 0 0 0 0 -544941318.98281336 -278872886.2993353 0 -278872886.2993353 29192337.919866562 0 0 0 0 -885380080.20537567 -316577327.88596535 0 -316577327.88596535 225007516.04478073 0 0 0 0 -964464025.49700546 212276586.14153838 0 212276586.14153838 87135760.98769784 0 0 0 0 -1330178875.3903599 -470657749.58295178 0 -470657749.58295178 184026130.23821449 0 0 0 0 -498637094.61323547 -511008302.10141182 0 -511008302.10141182 -95689654.642179847 0 0 0 0 -866829883.12371826 -277515152.59501052 0 -277515152.59501052 217962187.77103615 0 0 0 0 3768102.4892158508 -1075940.4608972073 0 -1075940.4608972073 -2466721.0369682312 0 0 0 0 35499141.742912292 -24533458.246467829 0 -24533458.246467829 9411358.763967514 0 0 0 0 2831227.2145462036 -1902191.4308652878 0 -1902191.4308652878 -3253514.3107032776 0 0 0 0 -264097.94900280237 -1394991.169467764 0 -1394991.169467764 -3147471.0178326396 0 0 0 0 4727829.7293510437 -2151647.5269966125 0 -2151647.5269966125 -4150414.6756668091 0 0 0 0 7524013.8830718994 2669400.9159913063 0 2669400.9159913063 -2012377.5381820202 0 0 0 0 6170112.181016922 -592769.95534420013 0 -592769.95534420013 -3663403.8825721741 0 0 0 0 4698572.7473602295 341629.16181659698 0 341629.16181659698 -951130.58361244202 0 0 0 0 -1922676621.1961555 -138782066.91927147 0 -138782066.91927147 90395962.234811783 0 0 0 0 -1244450186.1320343 -375828450.60197067 0 -375828450.60197067 195536198.16543007 0 0 0 0 -1134100042.3181 -267461289.54320192 0 -267461289.54320192 -122855926.51462746 0 0 0 0 -250406.38085238636 -109612.27082537301 0 -109612.27082537301 -62946.616892319638 0 0 0 0 -816798560.46555328 -386406570.00356293 0 -386406570.00356293 -110054342.67864037 0 0 0 0 106616.78562733391 -254141.78268397972 0 -254141.78268397972 -1015119.5340685225 0 0 0 0 -1052749389.6651154 -93283069.823054075 0 -93283069.823054075 -457157227.01873112 0 0 0 0 -882026881.68471909 -746969679.30532265 0 -746969679.30532265 -406870918.38231277 0 0 0 0 -1659911423.520668 -593085574.26251507 0 -593085574.26251507 -25076748.272927761 0 0 0 0 -4012102.3406224251 -37197565.080479145 0 -37197565.080479145 -300911812.76388073 0 0 0 0 -889589.10721388087 -657886.01729804743 0 -657886.01729804743 103584.25624521123 0 0 0 0 -908159266.44868374 -553221856.94336224 0 -553221856.94336224 -173902721.58795452 0 0 0 0 -1068814.1611264367 79735.706878826953 0 79735.706878826953 519984.03693695227 0 0 0 0 -182990951.2113533 -96592844.244285583 0 -96592844.244285583 -27669462.677305222 0 0 0 0 -239563422.08378983 -184317165.23631668 0 -184317165.23631668 16307719.452628613 0 0 0 0 -1090686699.4180565 -240166506.73088294 0 -240166506.73088294 -62021762.005908012 0 0 0 0 -397131847.28236771 -591077229.23495436 0 -591077229.23495436 -85811554.358192623 0 0 0 0 31664410.421132565 100387908.09227577 0 100387908.09227577 5328553.2188835144 0 0 0 0 -1966513.1875190735 -42547023.787090063 0 -42547023.787090063 -36972148.680502653 0 0 0 0 23604559.608869553 21708584.622528791 0 21708584.622528791 -20687483.961661339 0 0 0 0 -137507566.75229645 258336904.18725634 0 258336904.18725634 -214866293.21044064 0 0 0 0 -547251609.55257034 -163465187.39568281 0 -163465187.39568281 124736932.51892686 0 0 0 0 -1740330.5471630543 88101.685821012594 0 88101.685821012594 -1128360.7223162367 0 0 0 0 -418753353.71395874 -175332704.45540524 0 -175332704.45540524 -243653099.66563988 0 0 0 0 -5423192.7599143982 -1621205.2280263901 0 -1621205.2280263901 -10201644.182378769 0 0 0 0 20464347.249889374 -11081269.701536179 0 -11081269.701536179 -8409621.8241024017 0 0 0 0 -1652853.9620819092 -12001732.097234726 0 -12001732.097234726 -6301724.8169488907 0 0 0 0 -13443988.106093407 -27721032.783676863 0 -27721032.783676863 8497467.0579147339 0 0 0 0 -9311436.243850708 -21632856.302173615 0 -21632856.302173615 -2145338.3279857635 0 0 0 0 -15824312.656423569 -16021221.170898438 0 -16021221.170898438 2350486.1583805084 0 0 0 0 -4653386.8524532318 -22993664.26717639 0 -22993664.26717639 4901152.4295053482 0 0 0 0 4152211.5328044891 -27158797.970709801 0 -27158797.970709801 2831385.8114337921 0 0 0 0 -5837597.8560905457 -24716867.94008255 0 -24716867.94008255 5548022.5697231293 0 0 0 0 5631126.8874740601 -37479864.688797474 0 -37479864.688797474 17235134.078183532 0 0 0 0 4088006.1313705444 -22754866.695845604 0 -22754866.695845604 4587564.5694379807 0 0 0 0 3537257.2200922966 -18300585.022953451 0 -18300585.022953451 -5366950.9196586609 0 0 0 0 31383551.428302765 -39682969.476348877 0 -39682969.476348877 -6170744.6016225815 0 0 0 0 19896625.288421631 -26765282.195091724 0 -26765282.195091724 -4797914.2725105286 0 0 0 0 82447749.833535194 23885729.378980398 0 23885729.378980398 -28364708.096059799 0 0 0 0 4226169.8723449707 22179451.225757599 0 22179451.225757599 -17361518.154096603 0 0 0 0 -909754.01882260107 -245789.85830992088 0 -245789.85830992088 457419.13676037826 0 0 0 0 -2898487.5678749084 12026004.656198978 0 12026004.656198978 724418.5469455719 0 0 0 0 -238130893.06791687 -227660301.73551416 0 -227660301.73551416 -87872324.038162231 0 0 0 0 -171321600.41500902 -134721956.8882792 0 -134721956.8882792 -131641044.2094717 0 0 0 0 4494349.3992958069 1344580.2027797699 0 1344580.2027797699 350699.90432363749 0 0 0 0 7779164.4866197109 869972.87428069115 0 869972.87428069115 -4804210.2204246521 0 0 0 0 4968215.8873825073 3942064.5950288773 0 3942064.5950288773 -13612517.72638607 0 0 0 0 20353470.485955551 10657384.036907317 0 10657384.036907317 -10688871.889186859 0 0 0 0 4775468.7537379265 3404209.6169401407 0 3404209.6169401407 -4466215.2847042084 0 0 0 0 7312211.2737426758 4131656.3363895416 0 4131656.3363895416 -18120124.110291481 0 0 0 0 3428262.4044685364 -5613592.5190792084 0 -5613592.5190792084 -14850071.891927719 0 0 0 0 7077365.2175216675 -1058237.9350190163 0 -1058237.9350190163 -10783338.10036087 0 0 0 0 5905598.8329200745 -761200.13148784637 0 -761200.13148784637 -3313281.6823620796 0 0 0 0 5762250.8880844116 -6025307.0935335159 0 -6025307.0935335159 -5877855.0066699982 0 0 0 0 2783814.6855354309 -5139733.1774873734 0 -5139733.1774873734 -3410969.0350112915 0 0 0 0 6870755.7197360992 -20260060.979305267 0 -20260060.979305267 -527240.13608551025 0 0 0 0 5799298.1126294136 -5367353.4561294317 0 -5367353.4561294317 -16489328.059204102 0 0 0 0 19637171.203048706 -7147431.6919660568 0 -7147431.6919660568 -31272808.886481762 0 0 0 0 -55695765.410610199 -11498640.26440239 0 -11498640.26440239 -10552185.532261372 0 0 0 0 -13516832.968281746 15038656.767884016 0 15038656.767884016 -26982740.839616776 0 0 0 0 -22300894.735374451 -2657166.3319740295 0 -2657166.3319740295 -8387892.586648941 0 0 0 0 -16065754.455796242 -31902190.738256991 0 -31902190.738256991 -11286873.893362045 0 0 0 0 -15199250.306907654 -21301369.947880745 0 -21301369.947880745 -20382846.017907143 0 0 0 0 -28489327.107006073 -29203193.635601997 0 -29203193.635601997 -5108259.3852338791 0 0 0 0 -43733971.088195801 -42715121.016047478 0 -42715121.016047478 -32622763.791455746 0 0 0 0 -67059932.897312164 10900877.986797333 0 10900877.986797333 74345168.930969238 0 0 0 0 -326356.67951303907 -397016.82957337052 0 -397016.82957337052 104418.3955603647 0 0 0 0 -58793.010796699673 -2185656.0650845505 0 -2185656.0650845505 -414252.62385028403 0 0 0 0 -50864403.073200226 -10159596.085475922 0 -10159596.085475922 47122836.621101379 0 0 0 0 -1325940.2204208374 -31678822.407079697 0 -31678822.407079697 -69886807.412194252 0 0 0 0 -58146717.041157961 -36965593.028065145 0 -36965593.028065145 29299186.646270752 0 0 0 0 -60254507.282934427 -17846703.915589392 0 -17846703.915589392 7333123.5966186523 0 0 0 0 -40488694.346041679 -48983662.876517057 0 -48983662.876517057 27484834.337686539 0 0 0 0 -41975003.387665749 -37781050.884659767 0 -37781050.884659767 -13552246.291233063 0 0 0 0 -20744392.040206909 -38184798.812522888 0 -38184798.812522888 -32176761.961955547 0 0 0 0 -38361416.941583633 -90360535.792250156 0 -90360535.792250156 -52383706.617109299 0 0 0 0 -45488094.561141968 -87671741.75138092 0 -87671741.75138092 -14960538.642589569 0 0 0 0 -20726428.112449646 -77276869.153012276 0 -77276869.153012276 -97390347.846220016 0 0 0 0 -112954386.87114716 42837623.731697083 0 42837623.731697083 72413875.104602814 0 0 0 0 -138647.37922089733 -568368.68498443533 0 -568368.68498443533 -277137.06974478951 0 0 0 0 -160934201.44094276 28711302.980482578 0 28711302.980482578 84585017.283678055 0 0 0 0 4407051.5305709839 -22055049.78745842 0 -22055049.78745842 -120893816.05745506 0 0 0 0 -16424360.069915771 -38127937.050356388 0 -38127937.050356388 -49447004.311624527 0 0 0 0 2208007.1275367737 3793776.323348999 0 3793776.323348999 -47136006.805328369 0 0 0 0 -456393.8030348774 -1545914.6074487772 0 -1545914.6074487772 -556102.7632149593 0 0 0 0 1166718.4621372223 -3205785.6116437912 0 -3205785.6116437912 -3469399.9912776947 0 0 0 0 28437523.278305054 11099529.149568558 0 11099529.149568558 8414180.6800460815 0 0 0 0 -2402378.6794815063 -4396626.0068244934 0 -4396626.0068244934 -3037471.1357822418 0 0 0 0 -1460031.0601844788 -8178553.1465492249 0 -8178553.1465492249 11205013.516273022 0 0 0 0 -519026.32387772575 -914729.28799868748 0 -914729.28799868748 -59680.803876416758 0 0 0 0 -90078895.971658707 72583876.509362221 0 72583876.509362221 48533620.857816696 0 0 0 0 70129500.392280579 -74144403.984913826 0 -74144403.984913826 -84037400.771450639 0 0 0 0 51064619.924507141 24620845.027870178 0 24620845.027870178 -95892188.846734047 0 0 0 0 26346624.780208588 -46012108.895644188 0 -46012108.895644188 23101996.687607288 0 0 0 0 23297293.098815918 -697939.99570274353 0 -697939.99570274353 -521549.18133735657 0 0 0 0 54202245.96847105 4088932.9424506426 0 4088932.9424506426 -2743346.1865615845 0 0 0 0 6127037.9693069458 633042.58700370789 0 633042.58700370789 -1889946.7209005356 0 0 0 0 1861074.9738254547 653201.98776340485 0 653201.98776340485 2691838.2001724243 0 0 0 0 -31489.823426686227 -1447044.7165004821 0 -1447044.7165004821 -1260135.5462036878 0 0 0 0 -1263356.6996002197 3465342.356505394 0 3465342.356505394 1113372.508441925 0 0 0 0 2421879.0704631805 562349.63911771774 0 562349.63911771774 -10829370.009597778 0 0 0 0 -10681996.925704956 -16576427.154296875 0 -16576427.154296875 -15881386.667340994 0 0 0 0 -5474512.8843021393 -3634221.0446996689 0 -3634221.0446996689 -439634.30334854126 0 0 0 0 5029289.0421047211 2970316.5943603516 0 2970316.5943603516 -6373658.4433364868 0 0 0 0 -23870225.428398132 44971944.57540226 0 44971944.57540226 -54281182.677910328 0 0 0 0 26287292.83005619 -88363996.519974232 0 -88363996.519974232 -37713685.580869675 0 0 0 0 -82355574.375801086 45815738.312508583 0 45815738.312508583 70659598.368982315 0 0 0 0 -121981616.89710236 29257766.887001038 0 29257766.887001038 83103312.416390419 0 0 0 0 -137534.11965160631 -422907.42943308013 0 -422907.42943308013 -339571.08302273974 0 0 0 0 -23187386.052436829 -28904756.326152802 0 -28904756.326152802 -34201961.319880962 0 0 0 0 -93255782.356563568 -31718988.317564964 0 -31718988.317564964 1795475.2737541199 0 0 0 0 -39291798.065670013 -17366348.600846291 0 -17366348.600846291 4811610.4912340641 0 0 0 0 -120254300.3632555 26706291.171269417 0 26706291.171269417 24368953.501499176 0 0 0 0 -31719338.627447128 28042994.014669418 0 28042994.014669418 16330149.409704208 0 0 0 0 -30234532.682985306 5975798.1868457794 0 5975798.1868457794 7002997.5748643875 0 0 0 0 -63279406.102241516 9047202.6060700417 0 9047202.6060700417 11210413.515436172 0 0 0 0 -25202611.560142517 -9515503.5207190514 0 -9515503.5207190514 2499822.4890136719 0 0 0 0 -32039304.251489639 -9419756.3290171623 0 -9419756.3290171623 2598779.1809997559 0 0 0 0 -32444338.067749023 -4663406.3218193054 0 -4663406.3218193054 5543276.6449317932 0 0 0 0 -25950073.577098846 -5372626.4919748306 0 -5372626.4919748306 3229662.3404064178 0 0 0 0 -23368922.827846527 -2181932.194437027 0 -2181932.194437027 1446999.5092945099 0 0 0 0 -30804341.796514034 420597.32951641083 0 420597.32951641083 1106356.1681098938 0 0 0 0 -26501157.159894943 -4881728.8453578949 0 -4881728.8453578949 -854806.49543380737 0 0 0 0 -26582446.468036652 -5361589.9152917862 0 -5361589.9152917862 3312090.6752967834 0 0 0 0 -24869261.342536926 -6398728.3630962372 0 -6398728.3630962372 328039.51914596558 0 0 0 0 -26883680.029319763 -6003367.8301651478 0 -6003367.8301651478 518034.13386917114 0 0 0 0 -25342275.17162323 -6986941.958026886 0 -6986941.958026886 -3502559.9833418727 0 0 0 0 -15410754.499416351 7181642.2869000435 0 7181642.2869000435 23832167.28801322 0 0 0 0 -26770632.457433701 -7401123.7895212173 0 -7401123.7895212173 -541962.5978076458 0 0 0 0 -13903440.023136333 3332213.5771268457 0 3332213.5771268457 7819436.1024183631 0 0 0 0 -210218624.62176514 61970640.23015213 0 61970640.23015213 51794493.980174065 0 0 0 0 -64496387.752861023 -26932910.881586075 0 -26932910.881586075 25151929.147697449 0 0 0 0 -79717122.070114136 -35588092.177848816 0 -35588092.177848816 37102034.721279144 0 0 0 0 -180072662.42361546 -61716489.179782867 0 -61716489.179782867 33839535.745521545 0 0 0 0 -78512845.979652405 -26699248.237609863 0 -26699248.237609863 25221281.642338276 0 0 0 0 -87225409.218193054 55245236.108219147 0 55245236.108219147 51099700.28040123 0 0 0 0 -76136795.758995056 2746489.1963005066 0 2746489.1963005066 43598990.32964325 0 0 0 0 -142643274.302948 -14620755.263114929 0 -14620755.263114929 43347091.839504242 0 0 0 0 -27457902.019100189 -3656751.1528654099 0 -3656751.1528654099 1261751.7328510284 0 0 0 0 -20460516.00831604 -2552484.65467453 0 -2552484.65467453 550595.19849300385 0 0 0 0 -25102283.55815506 -4485164.8089923859 0 -4485164.8089923859 2368194.9820575714 0 0 0 0 -17985520.037456512 -3789464.2964792252 0 -3789464.2964792252 -457609.3878326416 0 0 0 0 -21146957.806781769 -6335983.6622753143 0 -6335983.6622753143 1935973.8273086548 0 0 0 0 -17248467.848300934 -5578433.447501421 0 -5578433.447501421 1213926.7577266693 0 0 0 0 -3724999.1778421151 976180.27754072938 0 976180.27754072938 748579.98106612451 0 0 0 0 -226425701.04265726 90309384.68269974 0 90309384.68269974 -30809833.810911179 0 0 0 0 961413.31844546087 217059.80956006609 0 217059.80956006609 -1159076.0078153936 0 0 0 0 -234700662.34948921 -3931468.1544952393 0 -3931468.1544952393 -49174131.007534981 0 0 0 0 -21480982.217287064 -84862108.912725925 0 -84862108.912725925 36983775.639815092 0 0 0 0 -17365947.679203033 -4736825.4763383865 0 -4736825.4763383865 2108258.7955350876 0 0 0 0 -17453721.374237061 -1244891.9427947998 0 -1244891.9427947998 4895305.0866496265 0 0 0 0 -19707372.950584412 -4790861.4425868988 0 -4790861.4425868988 1904486.8506892323 0 0 0 0 -24243112.85817337 -7434626.234205246 0 -7434626.234205246 2643791.5188941956 0 0 0 0 -19895023.067409515 -5062490.8195228577 0 -5062490.8195228577 4792878.5297927856 0 0 0 0 -155064334.01602459 50034481.644489288 0 50034481.644489288 23974014.463443756 0 0 0 0 -1506056.0031391829 781221.23627556209 0 781221.23627556209 -1207886.3365030475 0 0 0 0 550454.71061372757 -6220594.6556544304 0 -6220594.6556544304 -6024003.1160163879 0 0 0 0 -86052291.145275116 -1803670.4164733887 0 -1803670.4164733887 2891418.6865038872 0 0 0 0 1529323.7787872721 311449.45848615468 0 311449.45848615468 -1947794.3642242244 0 0 0 0 -81013426.478902578 15332424.606241822 0 15332424.606241822 -4587288.4790420532 0 0 0 0 -114400807.9104538 47597839.305692673 0 47597839.305692673 16959117.151626587 0 0 0 0 -81298360.770166874 12971794.76323843 0 12971794.76323843 23794931.365123749 0 0 0 0 -80730963.831260681 57010524.386975288 0 57010524.386975288 -25240445.948497772 0 0 0 0 -69735235.582435608 35092470.765293121 0 35092470.765293121 28379283.197602749 0 0 0 0 -115884902.8315773 -97584537.042736053 0 -97584537.042736053 -129194355.7348876 0 0 0 0 -252094571.56624222 -68759046.569121361 0 -68759046.569121361 -30602687.713453293 0 0 0 0 -136047737.68034363 53552003.778203011 0 53552003.778203011 -22496900.015779972 0 0 0 0 -148534566.02132607 36530787.941770554 0 36530787.941770554 67067740.15871048 0 0 0 0 -130976550.45328712 -601896.65615558624 0 -601896.65615558624 57894567.634126663 0 0 0 0 -98358507.26360321 12512401.041185379 0 12512401.041185379 -6163371.6938507557 0 0 0 0 37595406.348033905 -18333561.583398819 0 -18333561.583398819 46968406.175995111 0 0 0 0 -132021638.14838409 21588549.317889214 0 21588549.317889214 71000007.707817078 0 0 0 0 -147559631.9308548 49471625.88439846 0 49471625.88439846 75229737.89424324 0 0 0 0 -406009689.68171692 -11947574.457618713 0 -11947574.457618713 70630785.918100119 0 0 0 0 -82802100.475271225 23820498.469402313 0 23820498.469402313 56942241.277545929 0 0 0 0 -84197409.179388046 30320735.000499725 0 30320735.000499725 101739294.99846077 0 0 0 0 6416841.7633399963 -46331827.124207497 0 -46331827.124207497 4608668.3700065613 0 0 0 0 -6301186.4505186081 9261960.9437029362 0 9261960.9437029362 14971270.702831268 0 0 0 0 -88872751.842700958 -40281144.290841103 0 -40281144.290841103 25124602.804401398 0 0 0 0 -93545572.868732452 17582873.885767937 0 17582873.885767937 52767682.249324799 0 0 0 0 -128882458.98652077 15382768.181828022 0 15382768.181828022 77853253.848747253 0 0 0 0 -113549168.59499741 18564261.787218094 0 18564261.787218094 52948271.272942305 0 0 0 0 -130356368.48275375 -90958877.116941452 0 -90958877.116941452 8833141.4554977417 0 0 0 0 -232187868.65660858 -7631211.292345047 0 -7631211.292345047 75295474.395669222 0 0 0 0 -6942294.8610076904 -76582456.972898483 0 -76582456.972898483 2912445.0372266769 0 0 0 0 -32720442.217205048 -21071328.570547104 0 -21071328.570547104 22813196.708824158 0 0 0 0 -44851743.201026917 -38153906.501806259 0 -38153906.501806259 20717395.230740547 0 0 0 0 -44218160.123476028 -37595276.923136711 0 -37595276.923136711 7765732.8744010925 0 0 0 0 -51202927.766220093 -41293469.725439072 0 -41293469.725439072 15931859.620639801 0 0 0 0 -37094910.75743866 -29109291.247280121 0 -29109291.247280121 8777191.7126493454 0 0 0 0 -54380475.407239914 -21566080.541315079 0 -21566080.541315079 26095132.495346069 0 0 0 0 -28768186.352088928 -19132644.458591461 0 -19132644.458591461 24766666.976741791 0 0 0 0 -44607361.277248383 -7827143.0906238556 0 -7827143.0906238556 28958844.004089355 0 0 0 0 -257212.45972442627 -24979107.47171402 0 -24979107.47171402 20251139.686067581 0 0 0 0 -33611949.506565094 -32998940.666182041 0 -32998940.666182041 30204190.785324097 0 0 0 0 -1399085.8537376421 41637.351111812517 0 41637.351111812517 -47912.473594235256 0 0 0 0 -304529203.97143555 -112541094.55480766 0 -112541094.55480766 -43109141.185352325 0 0 0 0 70948369.361732483 -51370723.815217972 0 -51370723.815217972 -5510717.4934196472 0 0 0 0 -1311176.5126875248 252813.4953586217 0 252813.4953586217 720741.92358747497 0 0 0 0 948151.95513153076 -20666908.713428497 0 -20666908.713428497 30222292.082359314 0 0 0 0 -314008115.01561737 176007078.17565727 0 176007078.17565727 137095368.58447266 0 0 0 0 -169555930.61930466 -151620789.05816555 0 -151620789.05816555 -367520433.67492676 0 0 0 0 -13391261.597335815 -1669029.372461319 0 -1669029.372461319 7843169.2320613861 0 0 0 0 -4520218.2513883496 2846356.9946686383 0 2846356.9946686383 3680712.1973896436 0 0 0 0 -24847159.483596802 -14446521.579994202 0 -14446521.579994202 20698951.179473877 0 0 0 0 -12973669.726271046 -5120188.8320143092 0 -5120188.8320143092 3887103.7989180237 0 0 0 0 -18253454.431879997 -11954470.830201626 0 -11954470.830201626 20235873.947399139 0 0 0 0 -5302200.7947921753 -30595076.701303482 0 -30595076.701303482 30478533.790712655 0 0 0 0 -7426898.9198374227 -4366026.9804737493 0 -4366026.9804737493 1244966.77049868 0 0 0 0 -6912165.4535827637 -33871879.690683365 0 -33871879.690683365 25815673.46737957 0 0 0 0 920408.01768626645 -1512222.9096401245 0 -1512222.9096401245 -2474040.0849541482 0 0 0 0 43771001.040956497 -108945425.62115622 0 -108945425.62115622 114345136.1672802 0 0 0 0 43872984.124517441 -105552261.17950153 0 -105552261.17950153 158275493.47230625 0 0 0 0 -50614247.027805328 109712558.40218449 0 109712558.40218449 -19976654.551193237 0 0 0 0 57796480.759056091 -142897737.55744362 0 -142897737.55744362 -84332083.024036407 0 0 0 0 -392253347.50789356 -8494731.2955539227 0 -8494731.2955539227 78590991.609062195 0 0 0 0 623337.48491112329 -714897.85168274306 0 -714897.85168274306 -1311105.5994803458 0 0 0 0 94393342.87275219 -37245405.755010605 0 -37245405.755010605 -49879037.278884888 0 0 0 0 43695798.908652306 6109553.3670830727 0 6109553.3670830727 -35360742.992736816 0 0 0 0 -9179619.4699745178 -58805046.603826523 0 -58805046.603826523 -21301105.767242432 0 0 0 0 66604024.000049591 -54715538.677427292 0 -54715538.677427292 -60554260.746120453 0 0 0 0 -10356266.672607899 -111517555.56895328 0 -111517555.56895328 12334941.192958832 0 0 0 0 -158766714.58810425 -215221813.03280258 0 -215221813.03280258 -60110998.1191082 0 0 0 0 -146963855.98527527 -66172635.051364899 0 -66172635.051364899 23374330.88993454 0 0 0 0 -40683970.797690392 -35879356.975862026 0 -35879356.975862026 -2455082.6519966125 0 0 0 0 -45499396.61293602 -43001686.377108574 0 -43001686.377108574 28046534.871173859 0 0 0 0 5141268.4620437622 -21982920.691289425 0 -21982920.691289425 -10788333.432395935 0 0 0 0 -4904529.9611473083 -46875802.452312469 0 -46875802.452312469 -14311753.364448547 0 0 0 0 -12619079.864849091 1693699.2409219742 0 1693699.2409219742 4058569.4083790779 0 0 0 0 -9328642.2628139816 315296.05999473669 0 315296.05999473669 4816432.6073347405 0 0 0 0 -10923710.263736725 -1114638.1816878319 0 -1114638.1816878319 5036423.3035697937 0 0 0 0 -6151577.9638905525 -5812948.0893048048 0 -5812948.0893048048 6134535.8068008423 0 0 0 0 -6691544.4627008438 -1614039.9502784014 0 -1614039.9502784014 886446.42016220093 0 0 0 0 -7836241.4438877441 1249353.8612876916 0 1249353.8612876916 7672759.1949216072 0 0 0 0 -36668534.263214111 20014865.57026577 0 20014865.57026577 37994114.548294067 0 0 0 0 -450587871.29501724 -75620140.923288345 0 -75620140.923288345 233226411.44692612 0 0 0 0 -113021097.65472412 28821680.862159729 0 28821680.862159729 153107038.61112595 0 0 0 0 -67727762.286716461 -19402481.667066574 0 -19402481.667066574 3641458.8957557678 0 0 0 0 -19800413.121658325 6410100.6958508492 0 6410100.6958508492 13471636.060778633 0 0 0 0 -11351992.621398926 3196171.6620025635 0 3196171.6620025635 13534295.969633177 0 0 0 0 -21115434.758508682 -7355027.2974180579 0 -7355027.2974180579 24248361.094524384 0 0 0 0 -69312301.274169922 -18321505.607852936 0 -18321505.607852936 14496095.781878471 0 0 0 0 -12572663.088180542 -4207096.4272303581 0 -4207096.4272303581 16640561.905561447 0 0 0 0 -11935316.686449621 -2263368.2579281032 0 -2263368.2579281032 5068309.52392135 0 0 0 0 -7416056.0806045532 -2774513.6019411087 0 -2774513.6019411087 7696695.5719761848 0 0 0 0 -22703975.583992004 3374158.1632900238 0 3374158.1632900238 4848838.4437539577 0 0 0 0 -13274436.406822205 2932762.7940769196 0 2932762.7940769196 5679245.8491926193 0 0 0 0 -6819795.337020874 1506439.4593744278 0 1506439.4593744278 -541242.37622070312 0 0 0 0 -8495936.6255260184 -2550584.307513115 0 -2550584.307513115 3119604.3108307696 0 0 0 0 -5007848.6177018173 2705712.5658523757 0 2705712.5658523757 2707968.5200625863 0 0 0 0 -14146644.221797943 -346407.26671886444 0 -346407.26671886444 7741670.5856080055 0 0 0 0 -11891629.286295533 -38352059.5113682 0 -38352059.5113682 15632001.103937149 0 0 0 0 12196090.995605469 2537267.9434452057 0 2537267.9434452057 -7366575.4284687042 0 0 0 0 10331465.691566467 9605733.1757674217 0 9605733.1757674217 -12803312.13515234 0 0 0 0 16020996.421737671 6090248.4844267368 0 6090248.4844267368 -14843638.605241299 0 0 0 0 -8637261.0571918488 23197803.091513157 0 23197803.091513157 11608031.330591202 0 0 0 0 13270190.471054077 92914.142943620682 0 92914.142943620682 -2241317.1920661926 0 0 0 0 13918454.905151367 14471392.418290615 0 14471392.418290615 -28867079.441753387 0 0 0 0 192249.48797396943 3917.122248429805 0 3917.122248429805 -186171.26925802277 0 0 0 0 -129814699.07063675 -49601610.589688063 0 -49601610.589688063 27609818.447209358 0 0 0 0 -6726725.7376251221 -18684687.661000729 0 -18684687.661000729 -1870829.0101337433 0 0 0 0 -99405135.355491638 31089571.900857449 0 31089571.900857449 30663397.71946907 0 0 0 0 -47983025.574554443 -26411428.129548073 0 -26411428.129548073 42398060.079712868 0 0 0 0 -26641038.142166138 -59397108.464528084 0 -59397108.464528084 -68477585.159183979 0 0 0 0 -4241919.6301832497 3375444.666261374 0 3375444.666261374 4097776.6756547913 0 0 0 0 -13438327.857383728 21917411.313225985 0 21917411.313225985 37357810.289959192 0 0 0 0 24775345.327079773 38805921.360946894 0 38805921.360946894 -17609156.218764305 0 0 0 0 -6191038.9635505676 12462697.94848454 0 12462697.94848454 18463676.826246262 0 0 0 0 -8423123.1000664011 5890970.9914604109 0 5890970.9914604109 9048553.7999260407 0 0 0 0 -3314142.42212677 9698452.7748827934 0 9698452.7748827934 3710672.4897527695 0 0 0 0 -7745132.5432929993 11043605.63553381 0 11043605.63553381 17949921.270600319 0 0 0 0 -7281963.0129852295 15944260.147522807 0 15944260.147522807 24050427.32323575 0 0 0 0 -14988037.379346151 2700815.5291646877 0 2700815.5291646877 10658632.022187494 0 0 0 0 -5690000.5776987076 13533854.276052266 0 13533854.276052266 17389678.150816441 0 0 0 0 -5897527.202170372 13998787.548892021 0 13998787.548892021 19986082.714262009 0 0 0 0 -30354648.085317612 -6352782.7427444458 0 -6352782.7427444458 -1149463.8101530075 0 0 0 0 -56502061.762512207 19729249.400885582 0 19729249.400885582 26576745.890232086 0 0 0 0 -10429295.605922308 -1923515.6714891223 0 -1923515.6714891223 4365921.183799128 0 0 0 0 -28762009.494398117 -8945597.1957912445 0 -8945597.1957912445 -3596196.277151227 0 0 0 0 -65524520.588372231 9731195.94316113 0 9731195.94316113 27460758.411384583 0 0 0 0 -65353171.079796553 5837390.1818951368 0 5837390.1818951368 36777657.845321655 0 0 0 0 -58166564.681365967 3530903.8351135254 0 3530903.8351135254 32067600.774230957 0 0 0 0 -44665724.549232483 -7890882.2398262024 0 -7890882.2398262024 28913133.620422363 0 0 0 0 -50392030.548038483 -11931754.399067879 0 -11931754.399067879 30203504.56464386 0 0 0 0 -68466611.16934967 -9599388.5026702881 0 -9599388.5026702881 30938256.000133514 0 0 0 0 -61088842.788553476 9290540.5998380184 0 9290540.5998380184 17139816.332206726 0 0 0 0 -57664705.421619415 3719858.5143699646 0 3719858.5143699646 25920920.874008179 0 0 0 0 -60524805.832626343 4287956.3669090271 0 4287956.3669090271 31830038.243980408 0 0 0 0 -46512894.033096313 -667755.06206512451 0 -667755.06206512451 26289824.223251343 0 0 0 0 -56897504.996017456 7336094.9896469116 0 7336094.9896469116 22636504.060256958 0 0 0 0 -9714726.0997695923 2020512.9264125824 0 2020512.9264125824 4905877.7374296188 0 0 0 0 -43609384.328857422 4189659.4236221313 0 4189659.4236221313 15786516.930496216 0 0 0 0 -11693007.963067714 1141917.9749066234 0 1141917.9749066234 8298082.523803615 0 0 0 0 -38966258.020072937 2490127.0099277496 0 2490127.0099277496 16063350.75718689 0 0 0 0 -24519456.320576787 -4116851.3130693734 0 -4116851.3130693734 18613395.775009155 0 0 0 0 -30539733.211284637 -17995155.925773621 0 -17995155.925773621 26901860.256855488 0 0 0 0 -31895416.084228516 -3674073.5945091248 0 -3674073.5945091248 17502473.884723663 0 0 0 0 -6946265.0786590576 -1612559.8826026917 0 -1612559.8826026917 -322588.52815246582 0 0 0 0 2497250.9423828125 6128173.0869960785 0 6128173.0869960785 20735971.680392742 0 0 0 0 -7352512.2083446933 2517603.1043657549 0 2517603.1043657549 3738740.74943964 0 0 0 0 -60054283.006916046 -671483.82197570801 0 -671483.82197570801 3139105.3527832031 0 0 0 0 -11189389.09094163 -352240.09426727146 0 -352240.09426727146 5916188.0771210073 0 0 0 0 -2380150.6775118131 1647184.1599535593 0 1647184.1599535593 2669591.7005728297 0 0 0 0 -21043445.868103027 -11057300.062789917 0 -11057300.062789917 -2533190.5689239502 0 0 0 0 -17529881.319325052 2126834.0246159583 0 2126834.0246159583 12010066.427935654 0 0 0 0 -7746810.2511749268 -561783.37847328186 0 -561783.37847328186 5580468.7245483398 0 0 0 0 -11331603.620963819 2982789.0143990954 0 2982789.0143990954 10513250.191083398 0 0 0 0 -23039341.986421585 244728135.36685681 0 244728135.36685681 -1803340.4112663269 0 0 0 0 -458486103.93569183 97562177.831636429 0 97562177.831636429 57594519.967625618 0 0 0 0 -150174345.46317673 117756077.43639278 0 117756077.43639278 -17518039.577882767 0 0 0 0 -4551547.063583374 15202749.738855362 0 15202749.738855362 41048511.752349854 0 0 0 0 -577415.87260332797 1067997.4467303716 0 1067997.4467303716 522645.62025896274 0 0 0 0 -587335865.26186752 -77106351.146990299 0 -77106351.146990299 37699489.083585739 0 0 0 0 80967007.334453583 90676712.014041662 0 90676712.014041662 9291445.0517578125 0 0 0 0 -295235430.47294617 200891719.56982803 0 200891719.56982803 70269713.292344093 0 0 0 0 -173679844.88654327 12160310.876335144 0 12160310.876335144 -32992422.165133476 0 0 0 0 -1212505.1372664813 2148228.7368029077 0 2148228.7368029077 1207747.1207179883 0 0 0 0 -395425905.09410858 54631757.001298904 0 54631757.001298904 69829656.376898885 0 0 0 0 20152792.399800301 28880443.615838528 0 28880443.615838528 -8250966.9236001968 0 0 0 0 -151878608.96887589 -97374977.313728333 0 -97374977.313728333 -36310248.104695559 0 0 0 0 -239729270.69095993 -178266609.51279593 0 -178266609.51279593 57838498.10908699 0 0 0 0 -649182542.73779297 -376002765.91609383 0 -376002765.91609383 -34379641.996786118 0 0 0 0 -734343942.67347336 55561497.056974411 0 55561497.056974411 112257369.3275404 0 0 0 0 -238031736.88942719 -153108826.76665306 0 -153108826.76665306 -27436618.501172543 0 0 0 0 -241069289.2555542 -169796544.06827259 0 -169796544.06827259 29512725.566468716 0 0 0 0 14956190.520965576 -17940554.168870926 0 -17940554.168870926 -53112008.940484047 0 0 0 0 619046.16114929318 -797290.32715666527 0 -797290.32715666527 -1398618.4978354331 0 0 0 0 -371185544.74777746 -27967097.373664141 0 -27967097.373664141 186566819.91869736 0 0 0 0 -304965666.02362919 -324008274.36353779 0 -324008274.36353779 -163621939.55413246 0 0 0 0 -426742918.71367645 -302019226.32098675 0 -302019226.32098675 -18666784.386479616 0 0 0 0 -148899423.06160927 -74269859.767726898 0 -74269859.767726898 -160563842.77629089 0 0 0 0 -392120105.9927063 -235046902.33059216 0 -235046902.33059216 -135427923.59885144 0 0 0 0 -342125582.00986099 -342565856.49147081 0 -342565856.49147081 -103513142.09661198 0 0 0 0 34164797.989131927 -325876562.72726536 0 -325876562.72726536 -239592101.46147442 0 0 0 0 -356929377.58341837 -365183284.42142534 0 -365183284.42142534 -122830120.85304832 0 0 0 0 -184659797.3470993 -126513784.71032429 0 -126513784.71032429 -293351755.11921012 0 0 0 0 -186898703.87184143 -170352251.29891038 0 -170352251.29891038 -137582030.76016331 0 0 0 0 -7508906.4219970703 -88265066.350931168 0 -88265066.350931168 -151477868.22334516 0 0 0 0 -5879827.3182754517 -160024784.51659775 0 -160024784.51659775 194738922.98020649 0 0 0 0 -10134091.382061005 -2544988.0985527039 0 -2544988.0985527039 39929855.875478745 0 0 0 0 19898573.108600616 -124916514.68273735 0 -124916514.68273735 149713523.78069019 0 0 0 0 884755.6465135403 -1584050.933814263 0 -1584050.933814263 -2533532.4773163665 0 0 0 0 66062223.828790665 -113355931.14847279 0 -113355931.14847279 -16885494.394054413 0 0 0 0 27266537.387950897 13468034.25463295 0 13468034.25463295 -3701259.4401540756 0 0 0 0 -14358895.897541046 -28902998.826229095 0 -28902998.826229095 -46471745.066856384 0 0 0 0 -2793856.2662157137 -165027.4958637543 0 -165027.4958637543 -76468.551669484004 0 0 0 0 26397160.176551819 -1119471.6682519913 0 -1119471.6682519913 -19800711.917324066 0 0 0 0 638186.94226837158 -19271756.399084091 0 -19271756.399084091 -6025499.627155304 0 0 0 0 7054605.8482322693 -16761498.873532295 0 -16761498.873532295 -11538294.980651855 0 0 0 0 -8222904.2713427041 -2843676.6229217462 0 -2843676.6229217462 -1362267.9436811917 0 0 0 0 -33280596.152492523 -16937574.203754425 0 -16937574.203754425 -2570985.1664876938 0 0 0 0 -5781396.258621946 -437204.24892255105 0 -437204.24892255105 4445469.7218903154 0 0 0 0 -62733464.805528641 5569221.7650856972 0 5569221.7650856972 14787620.38804245 0 0 0 0 -63106159.239266396 -33265117.28381443 0 -33265117.28381443 -37575597.29838562 0 0 0 0 -55124068.714076996 -12081360.597132683 0 -12081360.597132683 -3338572.1705055237 0 0 0 0 -55972263.969264984 -8379572.5985889435 0 -8379572.5985889435 -10155289.105571747 0 0 0 0 -53086150.632835388 -14646459.293457031 0 -14646459.293457031 15183267.794960022 0 0 0 0 -58109077.147251129 -3193242.7424764633 0 -3193242.7424764633 5252640.5924606323 0 0 0 0 -44674659.575126648 -14719065.983951569 0 -14719065.983951569 29807119.892513275 0 0 0 0 -44443223.126346588 -22728897.20856905 0 -22728897.20856905 -2585391.1799163818 0 0 0 0 -79343103.774330139 -8512546.9942722321 0 -8512546.9942722321 -1168657.6186925173 0 0 0 0 -30257167.070716858 -19149411.288694382 0 -19149411.288694382 -71159038.033359528 0 0 0 0 -144956189.13809967 -65171939.116532326 0 -65171939.116532326 -57712753.706666946 0 0 0 0 -22428495.847566605 3605663.2376568317 0 3605663.2376568317 -61222935.617702484 0 0 0 0 -66232767.480808258 13697025.963624954 0 13697025.963624954 -36184437.886808395 0 0 0 0 -132394296.4772644 -28499974.491234779 0 -28499974.491234779 24811320.402694702 0 0 0 0 -110164053.58902168 -104878183.74269247 0 -104878183.74269247 -147808800.38407898 0 0 0 0 -331749206.70164871 -449218657.94913793 0 -449218657.94913793 -295717191.73983002 0 0 0 0 -378337.04601007933 -283419.50832123682 0 -283419.50832123682 -1504539.4738486018 0 0 0 0 239441298.7317276 9451316.0126676559 0 9451316.0126676559 -229539557.13406372 0 0 0 0 -2196921952.9618444 -198135060.16581523 0 -198135060.16581523 -27255970.019699097 0 0 0 0 28496138.550880432 -221649889.85871315 0 -221649889.85871315 -415126021.08463383 0 0 0 0 19975590.099140167 -81978462.709035397 0 -81978462.709035397 24070201.591716766 0 0 0 0 -69795483.548591614 -27635757.823320866 0 -27635757.823320866 34087633.782300949 0 0 0 0 127191215.22904968 -38382293.42375946 0 -38382293.42375946 -6604034.807592392 0 0 0 0 -857355.24443355529 -1849400.6641473193 0 -1849400.6641473193 -4704847.6653263066 0 0 0 0 -1999584577.0209513 312573869.37238336 0 312573869.37238336 252188198.77147293 0 0 0 0 -894588771.34204102 254704138.20679283 0 254704138.20679283 -343046574.01353645 0 0 0 0 -824800412.9270401 80805024.067970276 0 80805024.067970276 -278500291.64538956 0 0 0 0 -1317391524.9691925 -193221155.52355194 0 -193221155.52355194 -21809023.499908447 0 0 0 0 -520297786.31262207 30713623.001033783 0 30713623.001033783 -62607712.040195465 0 0 0 0 -902433638.11346436 -375053991.15822601 0 -375053991.15822601 318636266.87043476 0 0 0 0 -490241530.24809074 148986900.17136168 0 148986900.17136168 402604895.14478683 0 0 0 0 144345180.09885406 -149143073.86284065 0 -149143073.86284065 -77042291.443657517 0 0 0 0 -710678410.01287079 -284436464.97563076 0 -284436464.97563076 -143883060.56230736 0 0 0 0 -188161132.04608917 40134521.900630951 0 40134521.900630951 -91546721.179401875 0 0 0 0 -113774839.7615509 -66108754.208683014 0 -66108754.208683014 -165114102.60084534 0 0 0 0 139377008.14015198 161391764.79002762 0 161391764.79002762 -252202039.41788387 0 0 0 0 -125782745.43697739 -5802459.8383388519 0 -5802459.8383388519 -466406359.38188171 0 0 0 0 -686693869.95703888 -305325467.27899551 0 -305325467.27899551 -558536101.40636635 0 0 0 0 -443579267.52831268 160333934.51847267 0 160333934.51847267 -217744581.32468033 0 0 0 0 -468486956.9306488 171533297.85825253 0 171533297.85825253 -305113603.27947426 0 0 0 0 -147978290.12997437 222034974.45216846 0 222034974.45216846 -179655746.71541977 0 0 0 0 -170867455.46315765 -37332419.150511742 0 -37332419.150511742 -194088752.02623367 0 0 0 0 -10797970.527579732 -2234948.6969061191 0 -2234948.6969061191 1856493.358610977 0 0 0 0 15869029.744232178 -154475788.13335568 0 -154475788.13335568 177744521.89679998 0 0 0 0 -122948432.1164093 97079033.705018044 0 97079033.705018044 -161208083.23627687 0 0 0 0 163274147.60375977 -41829795.981373787 0 -41829795.981373787 -60072487.636393547 0 0 0 0 85884209.087669373 -191446492.86808944 0 -191446492.86808944 -131455718.90587205 0 0 0 0 -65078435.148399353 293095282.46531546 0 293095282.46531546 -282619511.48822081 0 0 0 0 -1089956059.5347519 741653624.24322438 0 741653624.24322438 -305918733.65012169 0 0 0 0 -2215185237.9656372 495986999.03615832 0 495986999.03615832 296179013.02888918 0 0 0 0 -1879713534.0136871 -206862118.53661823 0 -206862118.53661823 198129003.7231102 0 0 0 0 -1184960984.9144592 324324900.45194054 0 324324900.45194054 274732029.50640148 0 0 0 0 -1002193195.12397 49510381.143366814 0 49510381.143366814 -3668002.0829410553 0 0 0 0 -525105625.09127808 140892334.86640739 0 140892334.86640739 -78444876.351635933 0 0 0 0 -985618490.74423218 10718596.895655632 0 10718596.895655632 83100058.425731659 0 0 0 0 -448967203.53820038 54560306.487652302 0 54560306.487652302 -34928843.779212952 0 0 0 0 -984711585.91074657 -108817081.89625554 0 -108817081.89625554 37515064.073293686 0 0 0 0 -1451358636.1125793 4918413.1821203232 0 4918413.1821203232 195440359.24987221 0 0 0 0 -965727403.49006653 -134241956.40090179 0 -134241956.40090179 114003566.56493378 0 0 0 0 -1184911059.5838928 -88280584.484886169 0 -88280584.484886169 146245699.25366211 0 0 0 0 -998611284.74251938 -50686343.744556189 0 -50686343.744556189 70236323.060535431 0 0 0 0 -514262126.75393677 -127355715.09522724 0 -127355715.09522724 191316.30180358887 0 0 0 0 -178381612.93205261 -130139554.5570116 0 -130139554.5570116 -81187608.613121033 0 0 0 0 -400023524.96529388 -83344624.527337074 0 -83344624.527337074 -46831639.32989502 0 0 0 0 -24582175.442329407 98630053.0914855 0 98630053.0914855 -70236331.087230682 0 0 0 0 92377667.004196167 -33094954.223564148 0 -33094954.223564148 -40542053.20943737 0 0 0 0 49755169.326660156 -103071859.33976126 0 -103071859.33976126 -108151619.63944054 0 0 0 0 133260330.44657135 -97491790.656396866 0 -97491790.656396866 -930053.41464614868 0 0 0 0 148788259.02220154 60577583.525388718 0 60577583.525388718 14890997.040815353 0 0 0 0 132837159.83319092 7414867.5346431732 0 7414867.5346431732 -84589519.776824951 0 0 0 0 123037564.87827301 77549126.416275978 0 77549126.416275978 60369449.134174347 0 0 0 0 93441985.932235718 135876580.2830658 0 135876580.2830658 -37644346.119008064 0 0 0 0 104512544.30993652 -18371744.401115417 0 -18371744.401115417 -140596278.33222389 0 0 0 0 76844899.892371655 -124445727.08116353 0 -124445727.08116353 -148669383.39489746 0 0 0 0 75324532.325866699 -146149058.41975594 0 -146149058.41975594 -2445385.3735198975 0 0 0 0 90854362.392654419 -14580656.2286129 0 -14580656.2286129 -102822765.86823463 0 0 0 0 104912451.00568008 -8578878.1835546494 0 -8578878.1835546494 -214632293.18469238 0 0 0 0 766827.35820251703 486998.97777195647 0 486998.97777195647 -626286.82440887345 0 0 0 0 -361892195.87283325 -167574178.62918091 0 -167574178.62918091 -188659144.06853431 0 0 0 0 -777235717.44569397 -96129325.08713913 0 -96129325.08713913 694941677.24511719 0 0 0 0 -1059757779.507309 -44642912.257902145 0 -44642912.257902145 55434042.602830887 0 0 0 0 -458216865.41941833 -237150790.10602379 0 -237150790.10602379 -38566368.099712372 0 0 0 0 -207343.50182576478 456154.38793581631 0 456154.38793581631 -437885.49136553495 0 0 0 0 -921223955.9048996 -220330974.47070122 0 -220330974.47070122 51257674.637153625 0 0 0 0 -485039351.11373138 119204931.45550823 0 119204931.45550823 206647558.19768333 0 0 0 0 -1028308963.4650269 -93509026.874638557 0 -93509026.874638557 8755253.1389369965 0 0 0 0 -1133542975.3072815 28722482.662298203 0 28722482.662298203 -25955835.14116478 0 0 0 0 -984024189.90106201 -128746477.34732056 0 -128746477.34732056 33495538.241329193 0 0 0 0 59249469.582437515 -31913526.386250257 0 -31913526.386250257 -13907524.376159668 0 0 0 0 -1714023641.2697048 -58203370.489715219 0 -58203370.489715219 248299905.63062286 0 0 0 0 -851113.78138301382 -4279339.6610284429 0 -4279339.6610284429 -9206474.6134245992 0 0 0 0 -1243579086.8394928 -419719418.19293022 0 -419719418.19293022 200150374.74315929 0 0 0 0 7160605.2370223999 -24375257.697776794 0 -24375257.697776794 5036395.190536499 0 0 0 0 17175817.509475708 -40836306.706409454 0 -40836306.706409454 5716348.2308712006 0 0 0 0 -275491.47525405884 -33402783.530021667 0 -33402783.530021667 6054664.5895385742 0 0 0 0 25508095.65813446 -7342051.7097492218 0 -7342051.7097492218 -8464558.0477523804 0 0 0 0 -1054015.17918396 -18522837.001163483 0 -18522837.001163483 -5125896.5252037048 0 0 0 0 -1608151.5309371948 -13156444.510725021 0 -13156444.510725021 -26464849.996101379 0 0 0 0 4598123.142868042 -26074504.206132889 0 -26074504.206132889 -22277934.739028931 0 0 0 0 -527876069.99629211 421820483.77138472 0 421820483.77138472 -65698363.061399877 0 0 0 0 -7456593.6994783171 -4457311.9109575674 0 -4457311.9109575674 7178736.1982480697 0 0 0 0 5761348.6376457214 -25316207.026521683 0 -25316207.026521683 -30538665.714622498 0 0 0 0 -867378022.53543472 -281354295.73903227 0 -281354295.73903227 -128225534.74058819 0 0 0 0 -371139.12988610007 -7829611.6936296839 0 -7829611.6936296839 -14766865.165471312 0 0 0 0 -1129181371.7611237 -232344845.01496887 0 -232344845.01496887 -29059649.294111252 0 0 0 0 -1249434007.8195801 -281662752.11785603 0 -281662752.11785603 69693411.073447227 0 0 0 0 -1291196627.7360687 -381950077.07882452 0 -381950077.07882452 -99722510.768888474 0 0 0 0 -1098818646.0824089 -491983380.64655995 0 -491983380.64655995 -314541867.64683151 0 0 0 0 664807601.11567688 -665730140.33684444 0 -665730140.33684444 -297961346.37193131 0 0 0 0 -759334.43547516037 -1300917.87522991 0 -1300917.87522991 235332.88883636706 0 0 0 0 76247469.257598877 219641696.98033857 0 219641696.98033857 591282606.98008156 0 0 0 0 -681445832.50552368 -64818247.87577793 0 -64818247.87577793 929274540.26447213 0 0 0 0 -1838152186.387146 -527106472.47697973 0 -527106472.47697973 59854014.580825806 0 0 0 0 -965235.54546554759 -1445410.4759523515 0 -1445410.4759523515 -2059603.5870678865 0 0 0 0 -1456269734.1128922 -748721154.80724478 0 -748721154.80724478 -276717952.97276783 0 0 0 0 -2910156500.1807251 -559431538.13711894 0 -559431538.13711894 820446658.09523046 0 0 0 0 -259708.75803999603 93326.697225112468 0 93326.697225112468 -1346571.4816866624 0 0 0 0 -227981415.96820831 175358534.21472657 0 175358534.21472657 -88243230.028830051 0 0 0 0 692154074.45974731 -384617513.81536889 0 -384617513.81536889 -49141609.649412274 0 0 0 0 -250750863.37347317 50268084.390476003 0 50268084.390476003 -21899476.517771244 0 0 0 0 732246016.1026001 -443890568.68827772 0 -443890568.68827772 -3599983.6661692262 0 0 0 0 46769513.900741577 -22413.180995941162 0 -22413.180995941162 -88811604.440670967 0 0 0 0 3291810.707901001 188031465.76723886 0 188031465.76723886 -349564083.26360178 0 0 0 0 -109428269.30101013 97340081.844244719 0 97340081.844244719 -78746008.990169525 0 0 0 0 -15442749.038879395 59512476.164762259 0 59512476.164762259 -135902905.85260248 0 0 0 0 -1846021.1192436218 9750811.7098668814 0 9750811.7098668814 -42739349.784632683 0 0 0 0 -19316172.913696289 71934877.812464714 0 71934877.812464714 -92926020.482120752 0 0 0 0 -14982956.920318604 42031829.52111721 0 42031829.52111721 40125.702643446624 0 0 0 0 31961878.085975647 -45155334.316403747 0 -45155334.316403747 -1603542.8733720779 0 0 0 0 7165750.3509674072 -2001476.6764667034 0 -2001476.6764667034 -73064561.835734367 0 0 0 0 30560969.920135498 -56644658.483800888 0 -56644658.483800888 -36339599.152029991 0 0 0 0 27937875.796543121 -47140483.75489676 0 -47140483.75489676 15214542.402653217 0 0 0 0 96284771.202651978 -194060558.53566027 0 -194060558.53566027 33395304.573839664 0 0 0 0 19259969.579536438 -26681866.942220688 0 -26681866.942220688 -114358650.71874619 0 0 0 0 180512819.70791626 -41712189.751501083 0 -41712189.751501083 -273625705.18366146 0 0 0 0 -32387764.064865112 -28331328.310815811 0 -28331328.310815811 -2264181.3987960815 0 0 0 0 -25474659.800199509 -38311029.58560276 0 -38311029.58560276 -5661596.5376358032 0 0 0 0 -11978674.327391058 -3296519.6998251043 0 -3296519.6998251043 8344868.9725103406 0 0 0 0 -5895582.0336151123 -40523190.999782562 0 -40523190.999782562 13862206.238031387 0 0 0 0 -29759564.562000275 -32839721.684019089 0 -32839721.684019089 14757735.666305542 0 0 0 0 -33824243.266534805 -23128772.453125954 0 -23128772.453125954 -3150903.0786323547 0 0 0 0 -4245556.2951049805 -26091322.690078735 0 -26091322.690078735 -4578649.8797569275 0 0 0 0 -31032980.371391296 -16740239.153928757 0 -16740239.153928757 11391663.746871948 0 0 0 0 -41447985.130144119 974651.45305204391 0 974651.45305204391 13148176.012290955 0 0 0 0 -25337249.062835693 -12625759.692396283 0 -12625759.692396283 1226306.589179039 0 0 0 0 -18346850.413879395 -43611351.113027096 0 -43611351.113027096 106442223.25423145 0 0 0 0 -22395833.959907532 -19678442.984304667 0 -19678442.984304667 -13030307.375538349 0 0 0 0 -37202185.132175446 -26307486.664465189 0 -26307486.664465189 3637288.1899981499 0 0 0 0 -7590873.3055586983 -7070146.7401638217 0 -7070146.7401638217 -3157680.3951688474 0 0 0 0 -14394751.488373064 -1809582.4918934256 0 -1809582.4918934256 7212528.7274466995 0 0 0 0 -10002906.355651855 -20096027.882801056 0 -20096027.882801056 -10817357.931529045 0 0 0 0 -11595493.821931874 -14124038.842408037 0 -14124038.842408037 -8553136.5071760267 0 0 0 0 -6692703.7883605957 -27882083.576183319 0 -27882083.576183319 -12249097.477089882 0 0 0 0 -3649001.7382736206 -14439156.541538239 0 -14439156.541538239 -9254386.5174789429 0 0 0 0 -9560669.7051591873 -21136840.22944212 0 -21136840.22944212 -12727012.237991333 0 0 0 0 -2974808.2595257759 -16838862.161094248 0 -16838862.161094248 -18872636.544132233 0 0 0 0 -5000243.9307785034 -30404693.545710146 0 -30404693.545710146 -8584306.7554302216 0 0 0 0 -15481369.686658274 -16798239.50520961 0 -16798239.50520961 -7261103.148476284 0 0 0 0 3861329.2562332153 -10567610.54929328 0 -10567610.54929328 1362286.3941059113 0 0 0 0 -41717499.026412964 -22058445.03088069 0 -22058445.03088069 -17808174.162039518 0 0 0 0 -38875108.703117371 -5066911.510219574 0 -5066911.510219574 -16575157.797492981 0 0 0 0 776726.01727676392 -19219073.358169317 0 -19219073.358169317 -20975074.671669006 0 0 0 0 -3300940.6086406149 -2598238.8252074607 0 -2598238.8252074607 -1497103.5952654989 0 0 0 0 44830254.453598022 -41894024.326039314 0 -41894024.326039314 -19898949.041759968 0 0 0 0 -55261007.497993469 -6895215.5757853985 0 -6895215.5757853985 -7747045.2335710526 0 0 0 0 -90444613.782722473 -73778738.107122183 0 -73778738.107122183 -275205.84974527359 0 0 0 0 -162945668.9026947 -2243832.9589643478 0 -2243832.9589643478 -7435374.2733008862 0 0 0 0 -21426980.102615356 -34106628.718601227 0 -34106628.718601227 -41304913.628333569 0 0 0 0 -2036904.1165854596 -1386236.2557097673 0 -1386236.2557097673 -499732.38789958414 0 0 0 0 -21866288.286483765 -37792393.781643391 0 -37792393.781643391 -11224984.376064301 0 0 0 0 -1864525.411469847 -1916236.032600062 0 -1916236.032600062 24142.883092059987 0 0 0 0 -54854104.254074097 10410288.475005627 0 10410288.475005627 -46362344.561595917 0 0 0 0 -23017379.477920532 -33285704.360048056 0 -33285704.360048056 -15645728.799958229 0 0 0 0 -4505322.1155364551 -3700158.9494275525 0 -3700158.9494275525 -635195.16059148056 0 0 0 0 -23383327.955307007 -26592472.902282715 0 -26592472.902282715 41013533.801564991 0 0 0 0 -5682855.6277294159 97035015.805199921 0 97035015.805199921 70141742.591273069 0 0 0 0 1337011.4494094849 -29838725.147549868 0 -29838725.147549868 -13949462.500416517 0 0 0 0 -6869998.2699432373 -34849096.983155727 0 -34849096.983155727 -14812437.32302022 0 0 0 0 -25166758.865362167 -45745605.013830289 0 -45745605.013830289 16245629.639455318 0 0 0 0 -61177292.611190796 -104209276.02933478 0 -104209276.02933478 -13374933.457009107 0 0 0 0 -136091397.80526733 -23650690.556599379 0 -23650690.556599379 8785813.0174751282 0 0 0 0 -325849741.01428223 21091042.855141878 0 21091042.855141878 120725774.70786512 0 0 0 0 -821441.03761595488 -1107742.1778179258 0 -1107742.1778179258 -553949.85749520594 0 0 0 0 -153187721.26511574 -73969227.671473742 0 -73969227.671473742 65151183.753300428 0 0 0 0 -21257322.911102295 -82265110.641576409 0 -82265110.641576409 16423562.800914437 0 0 0 0 19907022.219844818 119727369.4554771 0 119727369.4554771 -118639975.37825251 0 0 0 0 -104369622.9568634 -13108521.985062599 0 -13108521.985062599 -29045361.78127104 0 0 0 0 -155722576.33489037 -161032823.65304297 0 -161032823.65304297 66098117.34082365 0 0 0 0 1446452.9572219849 16556938.931587279 0 16556938.931587279 -67784278.968861341 0 0 0 0 -244795.97396406904 -207457.63848220743 0 -207457.63848220743 -19771.455734988092 0 0 0 0 20747567.854804993 -43691973.470803022 0 -43691973.470803022 -88791207.107329369 0 0 0 0 -298937650.04704285 -93483291.597818881 0 -93483291.597818881 125319739.77702413 0 0 0 0 -323068582.64170837 49868578.034391135 0 49868578.034391135 147172.67718314915 0 0 0 0 -11255198.678909302 116012866.71370143 0 116012866.71370143 -137664745.29045647 0 0 0 0 -138034934.48567963 -89314530.547237605 0 -89314530.547237605 24449996.007576965 0 0 0 0 -346175059.80149841 43978083.708269797 0 43978083.708269797 54449286.308815703 0 0 0 0 -569402.7847507745 31721.936793731526 0 31721.936793731526 78640.277934771962 0 0 0 0 -152110610.58849716 191706178.38708994 0 191706178.38708994 -210856372.56218839 0 0 0 0 -69476951.607299805 63194317.243667543 0 63194317.243667543 -48131006.043524027 0 0 0 0 -68533805.763778687 79007916.986046851 0 79007916.986046851 -58925363.803232074 0 0 0 0 -67263045.365463257 61562815.137900889 0 61562815.137900889 -58124575.795749158 0 0 0 0 -1489078.3775016665 -58978.347464899532 0 -58978.347464899532 161620.02601208407 0 0 0 0 -13440460.196781158 35134518.75583867 0 35134518.75583867 -112265.36003022762 0 0 0 0 14243807.898544312 12879192.611386528 0 12879192.611386528 10415179.170748852 0 0 0 0 -1574970.624950327 3013.3494492247701 0 3013.3494492247701 86028.874899367118 0 0 0 0 12217092.961784363 -8881314.9749821052 0 -8881314.9749821052 740139.16887036711 0 0 0 0 -2586655.2780510262 331164.34310416318 0 331164.34310416318 87109.272359936556 0 0 0 0 -807112.34042167664 3800932.3488819711 0 3800932.3488819711 4723608.2375422418 0 0 0 0 -90687733.974838257 55603710.034255266 0 55603710.034255266 -20755356.527684093 0 0 0 0 -912452.83852179535 -449406.9961450696 0 -449406.9961450696 -32438.161710196116 0 0 0 0 -53728566.921518326 46546415.7210446 0 46546415.7210446 -41523772.265141964 0 0 0 0 -92342798.434967041 77762319.896216154 0 77762319.896216154 -40891845.775399923 0 0 0 0 -89561742.776550293 95632121.893246531 0 95632121.893246531 -59416158.572933435 0 0 0 0 -87223431.612701416 65907254.432296753 0 65907254.432296753 -22256399.138721943 0 0 0 0 -19101523.341293335 28680211.027837276 0 28680211.027837276 -55884750.72952795 0 0 0 0 21529475.604560852 68043043.170753837 0 68043043.170753837 -68798553.87374258 0 0 0 0 -852653.25196139887 -901118.32255117223 0 -901118.32255117223 -528827.10407656326 0 0 0 0 -180678747.89772797 -44247953.925366908 0 -44247953.925366908 39152405.526588202 0 0 0 0 -52731347.9402771 62900596.276562095 0 62900596.276562095 -76208428.072581291 0 0 0 0 -109633738.17882657 90049048.595253989 0 90049048.595253989 -31633527.21310854 0 0 0 0 17679102.789731979 7225463.950454846 0 7225463.950454846 -3180595.0651876926 0 0 0 0 -323824.57070799638 -237361.55360373855 0 -237361.55360373855 14899.852424693992 0 0 0 0 -200873374.32017517 97809700.510294914 0 97809700.510294914 -22366771.188622952 0 0 0 0 -69650742.397922516 102549314.58454084 0 102549314.58454084 -88116221.205610275 0 0 0 0 -91834005.549621582 82865735.975673854 0 82865735.975673854 -53051185.194830179 0 0 0 0 -47401835.605636597 -35139866.110821128 0 -35139866.110821128 11462976.282411277 0 0 0 0 6491096.5581169128 -1406338.4743144512 0 -1406338.4743144512 -5988103.5591833591 0 0 0 0 729819610.71473694 267975161.03268 0 267975161.03268 -508885516.24788535 0 0 0 0 -426382328.55207825 -1397319887.0311508 0 -1397319887.0311508 -460908707.16469622 0 0 0 0 -1982508884.7817841 1128646494.2095828 0 1128646494.2095828 -394534767.96423924 0 0 0 0 -1730642.3764821682 302305.8409803547 0 302305.8409803547 -1048724.7012899343 0 0 0 0 -3260446.5114123672 145667.60536342021 0 145667.60536342021 104530.5474661724 0 0 0 0 -7700406.4743652344 -8253166.8083849847 0 -8253166.8083849847 5042069.5604484081 0 0 0 0 -10030162.023681641 8490175.489972353 0 8490175.489972353 2508494.1486784592 0 0 0 0 -5028898.7924804688 -7096168.6995986383 0 -7096168.6995986383 10107096.900568314 0 0 0 0 -3003389.2228469849 -2745051.5060194638 0 -2745051.5060194638 11060701.035172597 0 0 0 0 -23942881.033859253 -6663963.7456750125 0 -6663963.7456750125 11706336.442849241 0 0 0 0 -3947270.8609161377 -16243490.938994773 0 -16243490.938994773 -17825.537195278022 0 0 0 0 7282473.3386459351 17663208.222299531 0 17663208.222299531 -2146570.2278642366 0 0 0 0 -20101750.163777351 9642000.7232990693 0 9642000.7232990693 10029347.024735324 0 0 0 0 -1503679.7025965117 158985.27304007113 0 158985.27304007113 -75197.942252646302 0 0 0 0 -629908.95205307007 8176997.2612502798 0 8176997.2612502798 10137823.283635207 0 0 0 0 -8216389.4803924561 569367.47285701334 0 569367.47285701334 10732635.307727426 0 0 0 0 -410420535.14186096 254457337.81788063 0 254457337.81788063 -137196167.22987068 0 0 0 0 -864893226.25939178 -277869482.61741054 0 -277869482.61741054 107478893.31588212 0 0 0 0 -789532557.45697021 -211227042.95014426 0 -211227042.95014426 157895659.70244712 0 0 0 0 -1000397254.6323853 -266445290.35408059 0 -266445290.35408059 144131001.26662016 0 0 0 0 -538192.69250799716 84661.608349326998 0 84661.608349326998 -64652.99064532607 0 0 0 0 -954151115.832901 -191649487.08340383 0 -191649487.08340383 102257683.20667809 0 0 0 0 -628341174.07055664 -120549748.13835642 0 -120549748.13835642 6546963.9414726738 0 0 0 0 -765475002.89144897 -152718885.8120994 0 -152718885.8120994 104866496.63050888 0 0 0 0 -659790784.98163605 -329286432.94271165 0 -329286432.94271165 -2355714.6489954293 0 0 0 0 -390916701.75775909 -108771252.32328957 0 -108771252.32328957 78659325.826923728 0 0 0 0 -608315641.42494202 -663406294.780249 0 -663406294.780249 -909965724.96503806 0 0 0 0 -919648248.95179749 342776221.01383495 0 342776221.01383495 -123387392.28794949 0 0 0 0 -1621495.9618460238 -328546.78062762879 0 -328546.78062762879 -134469.32356182556 0 0 0 0 -1473649106.2878113 -137060740.43003744 0 -137060740.43003744 157821782.33815321 0 0 0 0 -1116593728.4161911 -911241010.16699326 0 -911241010.16699326 -29800586.478588253 0 0 0 0 -869486994.4868927 -903114488.11354351 0 -903114488.11354351 -65162259.63573575 0 0 0 0 -4230368.8254381791 -489671.35219245218 0 -489671.35219245218 628440.01345317555 0 0 0 0 -795944200.34757042 -1142573182.3793972 0 -1142573182.3793972 -578977516.09645486 0 0 0 0 -311659888.85169983 194913352.68495584 0 194913352.68495584 -61831117.284558296 0 0 0 0 -222794012.30268097 17631407.866960645 0 17631407.866960645 274035375.66837215 0 0 0 0 -8173718.7977905273 3516156.9351210594 0 3516156.9351210594 5342276.4304654598 0 0 0 0 -23282471.788299561 1605860.2768526077 0 1605860.2768526077 5157639.2582628727 0 0 0 0 -1150127.2883148193 2244925.6019697189 0 2244925.6019697189 3968557.8119249344 0 0 0 0 -1133057.0797538757 -14355218.661406398 0 -14355218.661406398 6803564.5726051331 0 0 0 0 -12458332.408475876 6485069.9312224388 0 6485069.9312224388 20658135.917748451 0 0 0 0 -5571018.7304077148 -13455807.346722126 0 -13455807.346722126 21498683.641468689 0 0 0 0 -7374911.3401184082 -15425718.443878412 0 -15425718.443878412 19348612.926196098 0 0 0 0 -9872367.0802536011 3540697.4020075798 0 3540697.4020075798 10701659.773976326 0 0 0 0 -5921866.4532394409 -7926132.246409893 0 -7926132.246409893 1240821.365884304 0 0 0 0 -2070342.5571139678 1082109.0199418273 0 1082109.0199418273 1499113.0519646681 0 0 0 0 4485151.7540664673 5307128.8318895102 0 5307128.8318895102 -141870.13822960854 0 0 0 0 -68044000.844146729 -10203789.424499989 0 -10203789.424499989 24903308.493758202 0 0 0 0 -72074685.383232117 9484803.2678129673 0 9484803.2678129673 4754922.7673609257 0 0 0 0 2544915.2975883484 4613848.2230453491 0 4613848.2230453491 2512446.5947027206 0 0 0 0 -6252343.4142756835 1375720.5437132698 0 1375720.5437132698 2769193.7696331851 0 0 0 0 17737321.064941406 15768418.485550404 0 15768418.485550404 11510853.709511757 0 0 0 0 3905106.0750083923 2663535.7564750612 0 2663535.7564750612 -2922290.6409487724 0 0 0 0 3616193.7973582745 2119500.0238990802 0 2119500.0238990802 -1123217.6980835204 0 0 0 0 5292660.7543869019 5393705.1396741867 0 5393705.1396741867 -3261020.2152969837 0 0 0 0 4158062.1071929932 4445678.230597496 0 4445678.230597496 1904837.9980065823 0 0 0 0 7067735.6112365723 9340998.4595907927 0 9340998.4595907927 6333653.4499163628 0 0 0 0 7719374.2183017731 442855.7399270311 0 442855.7399270311 3862601.8966240883 0 0 0 0 -1005170.1577057969 -69364.490267492831 0 -69364.490267492831 779367.88443401316 0 0 0 0 -7796035.7759475708 4017105.9633088112 0 4017105.9633088112 3629646.8533535004 0 0 0 0 -39180488.496047974 -21461947.811508179 0 -21461947.811508179 -12635346.770337105 0 0 0 0 -148532840.08309937 -12519890.061453819 0 -12519890.061453819 31732585.922049046 0 0 0 0 -211355.77014946472 -69403.217256167904 0 -69403.217256167904 14922.770696808584 0 0 0 0 -3323259.3461321266 -111658.60265989788 0 -111658.60265989788 1556679.5080546944 0 0 0 0 5007747.4129943848 5356324.8325811625 0 5356324.8325811625 -1332953.0798063278 0 0 0 0 15610673.147583008 -104628.48922777176 0 -104628.48922777176 -7613337.0704860687 0 0 0 0 -107055310.17178345 -14205344.58281064 0 -14205344.58281064 19421441.793169022 0 0 0 0 516682.82548897341 379138.69804707542 0 379138.69804707542 -468806.45557872392 0 0 0 0 -13835110.410072327 -40647109.927647352 0 -40647109.927647352 -23164801.101260662 0 0 0 0 25550260.623245239 5006637.2584370971 0 5006637.2584370971 4779086.4348905087 0 0 0 0 -10635854.143414021 35483284.585631497 0 35483284.585631497 -3902588.5397863388 0 0 0 0 -2198167.1512156557 1098878.6948721334 0 1098878.6948721334 1752594.952364576 0 0 0 0 29959727.623039246 -7732991.8563481569 0 -7732991.8563481569 6781774.0413513184 0 0 0 0 -64717754.7290802 16563624.102602005 0 16563624.102602005 48187747.776255608 0 0 0 0 -68033804.929885864 31951614.631794214 0 31951614.631794214 -8599037.7947998047 0 0 0 0 -32184866.656339645 -45840434.341117084 0 -45840434.341117084 -45798788.792748451 0 0 0 0 -58577696.466499329 -59315558.020534039 0 -59315558.020534039 -33490133.721800804 0 0 0 0 13142135.017288208 -57263287.626999378 0 -57263287.626999378 13510897.54229641 0 0 0 0 -24605890.480163574 -13536432.548506737 0 -13536432.548506737 -27769029.326808929 0 0 0 0 -72169189.436935425 -16931169.673588753 0 -16931169.673588753 7057029.3104343414 0 0 0 0 -9247168.4134597778 5636207.1322578192 0 5636207.1322578192 8273182.6098089218 0 0 0 0 -4976059.2606144994 -389500.03210728243 0 -389500.03210728243 1603620.1309560197 0 0 0 0 -3290016.2810821533 -1275828.4649953842 0 -1275828.4649953842 10923688.809423447 0 0 0 0 8449995.3693847656 1629118.35313797 0 1629118.35313797 10744801.077508926 0 0 0 0 9549083.0697631836 4279601.3227062225 0 4279601.3227062225 -6566847.8159971237 0 0 0 0 -1351190.1514515467 325046.62378432415 0 325046.62378432415 1007100.1308607007 0 0 0 0 -31749014.082794189 23970910.092259169 0 23970910.092259169 -17773137.401861191 0 0 0 0 2814294.4327545166 -2306300.4659605026 0 -2306300.4659605026 9110647.4829034805 0 0 0 0 29295583.773704529 -15168625.932951808 0 -15168625.932951808 -18765106.641895294 0 0 0 0 -8443357.3209838867 -26644772.974217415 0 -26644772.974217415 -42625607.610189438 0 0 0 0 -7260058.149646759 -3900575.6464545727 0 -3900575.6464545727 -6368888.9136724472 0 0 0 0 -883142.52504730225 8641303.8255634308 0 8641303.8255634308 10354754.391656876 0 0 0 0 -7653389.0371856689 13318887.821061611 0 13318887.821061611 -2278713.420750618 0 0 0 0 -63536560.044578552 -21012481.199337959 0 -21012481.199337959 -9628712.3873564005 0 0 0 0 -33517263.004272461 -17857668.796908617 0 -17857668.796908617 -4053613.7637557983 0 0 0 0 -18158499.396850586 1636588.1895720959 0 1636588.1895720959 -2675443.7858514786 0 0 0 0 -36446131.458576202 21598073.041237593 0 21598073.041237593 3520727.0141115189 0 0 0 0 -4903772.396484375 11121894.708162785 0 11121894.708162785 -23192.949741840363 0 0 0 0 -7999778.7728428971 -2133308.0424712226 0 -2133308.0424712226 2886149.4172466602 0 0 0 0 -34475852.380493164 -38219908.421452761 0 -38219908.421452761 -37152125.527968407 0 0 0 0 647883.05116113275 827495.4369422663 0 827495.4369422663 18968.222868333571 0 0 0 0 4309207.5236206055 3251195.5233263969 0 3251195.5233263969 -1686562.2753744125 0 0 0 0 -10204536.184956551 -9891378.7065605521 0 -9891378.7065605521 -4835399.4750003815 0 0 0 0 -11742581.900083076 -744907.39270488359 0 -744907.39270488359 9637315.1752248984 0 0 0 0 -47078301.579158783 -29384274.404018402 0 -29384274.404018402 6888330.6964836121 0 0 0 0 -15674756.036193848 4057574.7673931122 0 4057574.7673931122 -1840678.1334118843 0 0 0 0 -3571341.5549583659 -2515486.8276833165 0 -2515486.8276833165 1556961.8266201383 0 0 0 0 -8673618.3109283447 -8428524.7666816711 0 -8428524.7666816711 643335.61709928513 0 0 0 0 -6474100.8427581787 -16669097.003956795 0 -16669097.003956795 6402839.8951053619 0 0 0 0 -26401981.602172852 -30539137.256752968 0 -30539137.256752968 751075.15378379822 0 0 0 0 -30411676.521057129 -11151177.896004677 0 -11151177.896004677 -7600201.9835100174 0 0 0 0 -19800796.268386841 -19733973.565590858 0 -19733973.565590858 -32277108.946890116 0 0 0 0 -30960681.560836792 -24545886.046163559 0 -24545886.046163559 -30053208.852026463 0 0 0 0 -906048.3059387207 -4772273.9377470016 0 -4772273.9377470016 -32165605.716863632 0 0 0 0 -308741.96654754039 -321012.52393371798 0 -321012.52393371798 87856.919246853795 0 0 0 0 -22439456.485450745 -22292353.441806793 0 -22292353.441806793 -8826180.4487953186 0 0 0 0 -23167471.148277283 -35297241.325113297 0 -35297241.325113297 -2499232.3086395264 0 0 0 0 -43860545.816768646 -20158955.562959671 0 -20158955.562959671 -11582583.013206482 0 0 0 0 -8837322.4745903015 -12230671.881719112 0 -12230671.881719112 -12878916.676026344 0 0 0 0 -16073190.648018658 -16753051.673178822 0 -16753051.673178822 7532596.2594203949 0 0 0 0 -1175683.1612683237 -692438.54948092997 0 -692438.54948092997 -241465.76114641596 0 0 0 0 -32582799.462802887 -23062272.238492966 0 -23062272.238492966 -7022785.8135032654 0 0 0 0 -14768684.897644499 -4766458.0767832734 0 -4766458.0767832734 6775875.5476234611 0 0 0 0 -29920350.359783173 -34318718.032930374 0 -34318718.032930374 -10961052.091463685 0 0 0 0 -12588175.527740479 -8788892.5092697144 0 -8788892.5092697144 -6736174.8606033325 0 0 0 0 -5635303.0090026855 -1750420.5396938324 0 -1750420.5396938324 5182785.3768959045 0 0 0 0 -3461135.2440735437 -8064211.255409142 0 -8064211.255409142 -3392324.0415375689 0 0 0 0 -9944831.8404456191 -1312049.4891742244 0 -1312049.4891742244 4596361.6615348924 0 0 0 0 -16105493.520874023 173849.36669158936 0 173849.36669158936 -192277.42851257324 0 0 0 0 -14945730.579298373 -1379545.8541528806 0 -1379545.8541528806 7465353.4286763761 0 0 0 0 -7351976.3536563143 -5147777.9946368597 0 -5147777.9946368597 3434486.3795579905 0 0 0 0 132974649.89569855 -15050647.333620071 0 -15050647.333620071 8043261.8759870529 0 0 0 0 -2873240.2915215082 -4003825.1932421979 0 -4003825.1932421979 2159839.149649506 0 0 0 0 -31028856.131057739 -98022444.1288414 0 -98022444.1288414 12710499.290264919 0 0 0 0 -109960358.8928833 50019221.086343765 0 50019221.086343765 34339384.716127396 0 0 0 0 7630413.3008270264 -3972038.0987262726 0 -3972038.0987262726 -22411987.900586545 0 0 0 0 33397019.436256409 -18049894.322401047 0 -18049894.322401047 -20277599.925432205 0 0 0 0 -6447401.7262191772 -21815999.486886024 0 -21815999.486886024 6229867.7581246644 0 0 0 0 -32373095.661929816 58760899.147896118 0 58760899.147896118 3007935.0795621872 0 0 0 0 -848535.77951042354 99554.681010916829 0 99554.681010916829 265383.43252337957 0 0 0 0 -15213112.901069641 -4846839.8261535168 0 -4846839.8261535168 12149745.725090742 0 0 0 0 -9066622.9432204776 -5494182.1557467263 0 -5494182.1557467263 1981346.9653038965 0 0 0 0 -15802114.333572388 -3307168.9852298498 0 -3307168.9852298498 33938314.101752758 0 0 0 0 -10254444.306472778 -19459168.755289078 0 -19459168.755289078 14155182.850453645 0 0 0 0 -15382214.32068634 -25224578.836483121 0 -25224578.836483121 8558641.1449451447 0 0 0 0 -11697091.551879883 -17974696.725185871 0 -17974696.725185871 7465651.6757003069 0 0 0 0 -18773037.061134338 -15116860.704408169 0 -15116860.704408169 28430395.998601913 0 0 0 0 -23856090.643798828 -6460508.5893850327 0 -6460508.5893850327 4068986.5256853104 0 0 0 0 -17166991.582996368 -25238345.374013066 0 -25238345.374013066 -1913059.4297409058 0 0 0 0 -20416149.330848694 -22528894.335896492 0 -22528894.335896492 8439814.2820835114 0 0 0 0 1046293.5843505859 -17764439.592277527 0 -17764439.592277527 -1576922.6983582973 0 0 0 0 -2625449.2459335327 -26209574.221567631 0 -26209574.221567631 -4466519.0428876877 0 0 0 0 -5146223.7044219971 -30519598.62019062 0 -30519598.62019062 -2328032.6967215538 0 0 0 0 13986693.632766724 -39877634.344821453 0 -39877634.344821453 2796693.9776047468 0 0 0 0 -7966984.7910461426 -12637836.401036263 0 -12637836.401036263 14987189.571580887 0 0 0 0 -1246939.8047082052 -352284.07445465215 0 -352284.07445465215 50357.022450250573 0 0 0 0 -7848758.8510437012 -1243367.4618999958 0 -1243367.4618999958 7880508.7037158012 0 0 0 0 -6579284.3641662598 4219117.4534523487 0 4219117.4534523487 24898086.324244976 0 0 0 0 -4624839.4377329051 -1590306.8784511462 0 -1590306.8784511462 -450061.64469569293 0 0 0 0 -10077391.361457825 -1832141.9045417309 0 -1832141.9045417309 3615637.6781293824 0 0 0 0 -3181575.5718114078 388371.13550842553 0 388371.13550842553 1247417.3378539328 0 0 0 0 -22953260.443191528 9123868.1707046032 0 9123868.1707046032 3275453.7853217125 0 0 0 0 6156523.9851136208 -9867885.997608155 0 -9867885.997608155 758861.06445860863 0 0 0 0 -6159062.290844813 -4515587.3548841346 0 -4515587.3548841346 -118167.51422512322 0 0 0 0 3723225.968460083 -4341037.2670658827 0 -4341037.2670658827 -2849276.276468873 0 0 0 0 -3256054.6886863708 -1186077.6436239481 0 -1186077.6436239481 1209045.6859624386 0 0 0 0 -2614171.1971282959 -478943.9837372303 0 -478943.9837372303 1010838.1565904617 0 0 0 0 -3156355.3664566763 -169024.92290141806 0 -169024.92290141806 574729.22034736141 0 0 0 0 -6079561.9897879902 -857077.23089946806 0 -857077.23089946806 -466828.97120036464 0 0 0 0 -6394541.9944915771 -28666178.914214969 0 -28666178.914214969 9041461.4601545334 0 0 0 0 -4181901.5418624878 -25728722.442995548 0 -25728722.442995548 -6443978.5577640533 0 0 0 0 -7046449.6200552583 -4849471.2282547578 0 -4849471.2282547578 222031.17077514925 0 0 0 0 -1439307.2033691406 -19552862.269252062 0 -19552862.269252062 6199802.0897824764 0 0 0 0 -1447909.5567321777 -19338397.667149663 0 -19338397.667149663 4163610.1834282875 0 0 0 0 3834787.7046051025 -10292553.642224669 0 -10292553.642224669 1663998.3726785183 0 0 0 0 6183213.7921350002 -8886044.0617170259 0 -8886044.0617170259 -7743950.5047824383 0 0 0 0 4640660.3517456055 -4021740.0379731655 0 -4021740.0379731655 -2996546.3182594776 0 0 0 0 2671971.939743042 -1078742.3330653906 0 -1078742.3330653906 -15280273.718320236 0 0 0 0 3290207.9910850525 -13261028.656400979 0 -13261028.656400979 -13859622.725449562 0 0 0 0 -5050445.2462539673 7450717.3384488225 0 7450717.3384488225 -23039136.416665435 0 0 0 0 2837491.4087524414 -15101545.364718437 0 -15101545.364718437 -7541702.0538810939 0 0 0 0 3293683.0667572021 -22185597.534040928 0 -22185597.534040928 -39549878.357137918 0 0 0 0 -504925.65675354004 -1306076.1811705828 0 -1306076.1811705828 -2982015.3055566549 0 0 0 0 -1703436.786315918 -933912.40914005041 0 -933912.40914005041 -3085336.950581789 0 0 0 0 450268.48202514648 112990.01782548428 0 112990.01782548428 -1617439.7135864496 0 0 0 0 3945660.4933624268 -5005704.5096278787 0 -5005704.5096278787 -3193889.4998140335 0 0 0 0 7742019.5397338867 -4705408.9383935928 0 -4705408.9383935928 -3493529.4236280918 0 0 0 0 3614721.2125549316 -2694895.9549772739 0 -2694895.9549772739 -5057349.3720681667 0 0 0 0 4511227.5654296875 -5420123.0004731119 0 -5420123.0004731119 -90239.468827724457 0 0 0 0 874214.65637588501 -1548999.3623861372 0 -1548999.3623861372 223273.79503536224 0 0 0 0 4153548.3523864746 -3355086.8269498348 0 -3355086.8269498348 16923.461426258087 0 0 0 0 153073.1537322998 -61322.833433747292 0 -61322.833433747292 -1994152.8496705294 0 0 0 0 64472.959753036499 -1360901.6869577169 0 -1360901.6869577169 -770783.25168395042 0 0 0 0 251818.69256591797 -742154.15341037512 0 -742154.15341037512 797434.34000015259 0 0 0 0 -107961273.63723755 201301519.82839656 0 201301519.82839656 -378219641.81392342 0 0 0 0 -57184.376890912652 -201763.40037526772 0 -201763.40037526772 232946.93443883667 0 0 0 0 -4994787.006710887 -2897298.3451459855 0 -2897298.3451459855 -1629064.182020617 0 0 0 0 79860759.520341873 -106046936.53266908 0 -106046936.53266908 4525097.0922838692 0 0 0 0 -182179.76377618313 -364254.68131167069 0 -364254.68131167069 -133265.49387292116 0 0 0 0 -3220228.9017181396 -1746179.4029073715 0 -1746179.4029073715 137821.01008480787 0 0 0 0 -2559026.7275093645 -1677629.3908407793 0 -1677629.3908407793 560630.36507446878 0 0 0 0 -4487769.369720459 -1321009.6030316353 0 -1321009.6030316353 744580.94541847706 0 0 0 0 -3234894.0801544189 -2146086.3269155025 0 -2146086.3269155025 1236766.2123395205 0 0 0 0 -412877.18091389164 -13897.698559455574 0 -13897.698559455574 291303.30059867771 0 0 0 0 -3779819.0882569179 -3788080.4278783426 0 -3788080.4278783426 -323698.48162487312 0 0 0 0 -2736982.4817810059 -1222834.3144732714 0 -1222834.3144732714 1431488.0515187979 0 0 0 0 6438204.6792564392 -673702.60080081224 0 -673702.60080081224 -1477609.1807818413 0 0 0 0 -138650.18828259408 -616162.83939294424 0 -616162.83939294424 58809.122892130283 0 0 0 0 -2965028.5649261475 -1521498.9088107944 0 -1521498.9088107944 -324394.04104631394 0 0 0 0 -768845.9401473999 -677597.27462545363 0 -677597.27462545363 -272.23184855336058 0 0 0 0 -1889918.4163052589 -901643.9795091399 0 -901643.9795091399 129913.44527613584 0 0 0 0 -1173592.9981689453 -336090.74553756864 0 -336090.74553756864 54364.187354140704 0 0 0 0 -3289570.1871185303 -1788203.3409985602 0 -1788203.3409985602 112880.49046969414 0 0 0 0 -3821323.9769653529 -2820198.0921307504 0 -2820198.0921307504 -852386.88826270693 0 0 0 0 -1198801.8954925537 -299704.89973358472 0 -299704.89973358472 2731.2836099343049 0 0 0 0 -2289758.3548221514 -156259.65631800983 0 -156259.65631800983 341964.79794650263 0 0 0 0 -3773461.722038269 -469837.48962545395 0 -469837.48962545395 719391.9584980011 0 0 0 0 -2944671.7243680954 -889439.37087356672 0 -889439.37087356672 864984.93451094627 0 0 0 0 -1403117.4337463379 619057.35435391404 0 619057.35435391404 282785.54156797595 0 0 0 0 -3693429.1878051758 -346583.22085630894 0 -346583.22085630894 1794131.2618613243 0 0 0 0 -4086635.3177880198 -1679716.9746462777 0 -1679716.9746462777 335981.38523601263 0 0 0 0 -107827529.52191162 270344229.03263897 0 270344229.03263897 411959.03195382794 0 0 0 0 -3781195.7486877441 64169.009299814701 0 64169.009299814701 1470809.6616149545 0 0 0 0 -7105019.2549743652 -26472397.603477955 0 -26472397.603477955 14351222.147895515 0 0 0 0 -5821048.0903930664 -2372650.9268174767 0 -2372650.9268174767 -4409600.4332563877 0 0 0 0 -1343872.4555218145 -793467.21067910083 0 -793467.21067910083 159945.78542729834 0 0 0 0 -2176269.808380127 307891.00098467281 0 307891.00098467281 3489.2327213673734 0 0 0 0 -4568991.7367089391 -835809.29251044616 0 -835809.29251044616 259731.03610824764 0 0 0 0 -4136281.4512523413 701041.01454623602 0 701041.01454623602 908411.17647901643 0 0 0 0 -2548831.3794784546 -278773.93171334267 0 -278773.93171334267 1632407.473559916 0 0 0 0 -5569727.2394835949 2078676.7955040392 0 2078676.7955040392 2276169.8152946229 0 0 0 0 -1773736.1891326904 1392591.7150798142 0 1392591.7150798142 3210436.736189425 0 0 0 0 -138117250.24514771 33735527.17302227 0 33735527.17302227 111071459.78024101 0 0 0 0 -6246018.9977038577 1129116.5567749366 0 1129116.5567749366 2266445.3078703079 0 0 0 0 -2994537.7672594748 -915494.5941694472 0 -915494.5941694472 192211.03168405953 0 0 0 0 -2337269.8371276855 796139.9509613812 0 796139.9509613812 1912290.3042194247 0 0 0 0 -4286338.1385192871 -83476.185851201415 0 -83476.185851201415 2647767.507700026 0 0 0 0 -3864336.8466796875 132042.47589719296 0 132042.47589719296 2447547.7525997162 0 0 0 0 -2610900.6522532478 -196943.1944315345 0 -196943.1944315345 231966.50779710658 0 0 0 0 -4389973.6360206604 -603317.14874900877 0 -603317.14874900877 2182333.7597179413 0 0 0 0 -3026537.2943649292 -685638.80268788338 0 -685638.80268788338 2271843.445035398 0 0 0 0 -6744256.3211364746 5583361.4079566002 0 5583361.4079566002 -6647183.0025833845 0 0 0 0 -749019.8973236084 -13398924.475347519 0 -13398924.475347519 -1491239.2522382736 0 0 0 0 -6996402.8533563502 -1147319.84703831 0 -1147319.84703831 1123547.5577737754 0 0 0 0 459687.86982536875 450257.03805421107 0 450257.03805421107 4796.9907210264355 0 0 0 0 -94845609.372301579 -163950124.09374478 0 -163950124.09374478 109689862.29024696 0 0 0 0 15728661.622817993 -6062050.5396881104 0 -6062050.5396881104 7026014.6396560669 0 0 0 0 23543276.059150696 28455744.138184786 0 28455744.138184786 -119082628.86399841 0 0 0 0 56624880.236312866 17203120.120372772 0 17203120.120372772 -25099645.482312679 0 0 0 0 -108248191.90788269 38041961.892085075 0 38041961.892085075 12942185.074632645 0 0 0 0 -259428.93508892134 -82948.90867349878 0 -82948.90867349878 213690.06478950195 0 0 0 0 -20978827.285812378 -22398474.692786455 0 -22398474.692786455 53819433.031257629 0 0 0 0 7580955.6095733643 -16812799.085888386 0 -16812799.085888386 7088603.9379034042 0 0 0 0 -22419527.742674828 1933021.9522350132 0 1933021.9522350132 5213941.9407348633 0 0 0 0 -5128658.7911529541 -8591142.271818161 0 -8591142.271818161 -216112.80020332336 0 0 0 0 -6580781.5138702393 881154.45037984848 0 881154.45037984848 -856903.81667709351 0 0 0 0 5706382.6465682983 5490288.676979281 0 5490288.676979281 3862913.5724412575 0 0 0 0 16269687.00062561 18329798.533637807 0 18329798.533637807 4403517.2146918774 0 0 0 0 15360575.867515564 8203052.9801891679 0 8203052.9801891679 -2261767.425154984 0 0 0 0 11380593.487388611 8497024.43557024 0 8497024.43557024 12148177.702972412 0 0 0 0 -44315415.978767395 -11518654.667993069 0 -11518654.667993069 -42283230.684252739 0 0 0 0 22361788.940505981 19749988.967150211 0 19749988.967150211 5975386.7302765846 0 0 0 0 3440021.7177112512 1144543.6515688412 0 1144543.6515688412 -1006860.7040135901 0 0 0 0 5010946.1593475342 2191202.7825968266 0 2191202.7825968266 3191376.0564936399 0 0 0 0 -2119867.6375178993 944079.3316227328 0 944079.3316227328 1340644.9941023635 0 0 0 0 -130425485.8737793 48171029.972245216 0 48171029.972245216 -70606163.834432602 0 0 0 0 -6240203.8346442655 1248299.2176224329 0 1248299.2176224329 1756465.3707822431 0 0 0 0 6514229.5542907715 4987893.2840414643 0 4987893.2840414643 -4121576.2381531894 0 0 0 0 14266752.47088623 17681305.471135497 0 17681305.471135497 11409473.535105705 0 0 0 0 575730.32587026805 148370.50333091617 0 148370.50333091617 -197819.35841451865 0 0 0 0 14000800.740016937 12721790.599573731 0 12721790.599573731 16366874.213209152 0 0 0 0 -6594502.1564336494 1141004.1961373836 0 1141004.1961373836 1196192.7200501652 0 0 0 0 53882255.723373413 47072750.585841656 0 47072750.585841656 22965609.884380102 0 0 0 0 6726208.231552124 11198565.312996566 0 11198565.312996566 1202198.6571549773 0 0 0 0 1536981.617767334 9321609.9969144315 0 9321609.9969144315 5916054.8395959139 0 0 0 0 2531408.5771789551 -761809.60818730853 0 -761809.60818730853 -1410322.9182312489 0 0 0 0 592637.27547073364 2325997.8019058593 0 2325997.8019058593 729653.63821992278 0 0 0 0 -262000.84943771362 210639.88160125725 0 210639.88160125725 1871983.1020540744 0 0 0 0 274183.90205383301 -109667.52267564449 0 -109667.52267564449 -482538.26172525901 0 0 0 0 -1029763.5285949707 1924452.5540706515 0 1924452.5540706515 1918518.4686119398 0 0 0 0 -829355.40358020365 789187.62994953617 0 789187.62994953617 -471853.42734954861 0 0 0 0 -547658.41616821289 1465334.6333450973 0 1465334.6333450973 276706.10458271205 0 0 0 0 -1037484.9182434082 2516710.8312782678 0 2516710.8312782678 1262899.2689861555 0 0 0 0 1379435.7079528049 2077138.8314161869 0 2077138.8314161869 161512.83054060116 0 0 0 0 -1752908.5648498535 2059285.4570982754 0 2059285.4570982754 1328221.61997962 0 0 0 0 -580447.01620483398 1719830.4506524205 0 1719830.4506524205 1419527.556475848 0 0 0 0 -988731.52110290527 556168.57918149233 0 556168.57918149233 1914140.9012829633 0 0 0 0 -2056770.5739440918 876297.6052238493 0 876297.6052238493 2300417.5812849649 0 0 0 0 -216250.91330809891 63506.935466138646 0 63506.935466138646 115081.9563648445 0 0 0 0 -1983377.9828472137 719261.29457098676 0 719261.29457098676 815548.14477731427 0 0 0 0 -4328948.6316833496 557579.28052870976 0 557579.28052870976 754118.58622556669 0 0 0 0 -1618811.0320739746 1143600.9799064675 0 1143600.9799064675 -1650.271788913278 0 0 0 0 -530874.37657165527 2564133.3546232805 0 2564133.3546232805 784251.8569076003 0 0 0 0 -4740685.5765762329 -2381234.1199433729 0 -2381234.1199433729 -2075011.7272069589 0 0 0 0 -20584523.734115601 -1914877.8247208148 0 -1914877.8247208148 2203680.049788577 0 0 0 0 -11032809.531169891 674060.65277332033 0 674060.65277332033 -2820.9689687354148 0 0 0 0 -8136734.2043304443 -5309312.9356832104 0 -5309312.9356832104 -2975183.4118898129 0 0 0 0 -8027400.171661377 -1592095.3596907929 0 -1592095.3596907929 -2102005.3218486942 0 0 0 0 -2998554.7970275879 2599547.1045063548 0 2599547.1045063548 2770039.7462046901 0 0 0 0 675023.0030670166 824166.60101045668 0 824166.60101045668 -2466443.9125986882 0 0 0 0 -3726112.8046112061 -4309321.6799717806 0 -4309321.6799717806 -918125.75770794973 0 0 0 0 -845720.65132942051 365166.84522129223 0 365166.84522129223 -197904.90062681251 0 0 0 0 -7112791.9730005264 468299.99874951981 0 468299.99874951981 612130.65734988358 0 0 0 0 -17031199.674583435 9944910.5476277526 0 9944910.5476277526 1362803.2754037008 0 0 0 0 -21066368.83556366 -2742789.8194043851 0 -2742789.8194043851 3188491.922103948 0 0 0 0 -26534392.65524292 3039232.9819161589 0 3039232.9819161589 11200.596090027198 0 0 0 0 -41696662.786560059 -1873883.1961185988 0 -1873883.1961185988 3905378.3414004259 0 0 0 0 -34697000.986694336 8636666.1128251571 0 8636666.1128251571 1315728.7296458222 0 0 0 0 -9140552.3806686401 21772749.011181764 0 21772749.011181764 -10469219.598991949 0 0 0 0 -38497608.809761047 1320765.4819944841 0 1320765.4819944841 -10034756.193421321 0 0 0 0 -32598230.144382477 5607048.3525933269 0 5607048.3525933269 135506.50069108233 0 0 0 0 -69869043.606674194 14793496.337850422 0 14793496.337850422 -2128167.227220647 0 0 0 0 -57747411.267272949 -23255156.74433662 0 -23255156.74433662 -8676560.2629026696 0 0 0 0 40435.082674510777 147505.49210615084 0 147505.49210615084 -35382.295752578284 0 0 0 0 -39084995.394729614 -7026273.4226083867 0 -7026273.4226083867 -72875452.078106418 0 0 0 0 -45317745.399490356 35332311.427519746 0 35332311.427519746 -31641404.228230152 0 0 0 0 -77284578.103614807 -12370264.087124253 0 -12370264.087124253 -5365287.299563095 0 0 0 0 -45016647.735534668 4160544.8092934787 0 4160544.8092934787 658857.03623097017 0 0 0 0 -5035800.2331619263 -3782954.0891400129 0 -3782954.0891400129 -19505924.729691371 0 0 0 0 -18990309.108718872 -20638184.281057492 0 -20638184.281057492 -19420876.972306103 0 0 0 0 -32042.318791076541 -7587.802143201232 0 -7587.802143201232 3459.3017909172959 0 0 0 0 7349949.6733932495 1145367.8362710178 0 1145367.8362710178 -12733061.548884094 0 0 0 0 973361.67143835127 1049770.9490219625 0 1049770.9490219625 110836.57345741679 0 0 0 0 -2562766.7542572021 -1975532.7420124412 0 -1975532.7420124412 -8699055.9433074929 0 0 0 0 -9713397.9730682373 -3325401.082141865 0 -3325401.082141865 1384520.3972995114 0 0 0 0 185004.54705420136 478920.08811350167 0 478920.08811350167 -121092.99988574913 0 0 0 0 -12020187.942695618 -1187493.3920937181 0 -1187493.3920937181 909157.58745889366 0 0 0 0 -13088027.665969849 -10550379.548055552 0 -10550379.548055552 -7145203.1593653262 0 0 0 0 2161973.9919815063 -5791255.3984647021 0 -5791255.3984647021 -20224603.26283738 0 0 0 0 179056.19334411621 2605967.4507343564 0 2605967.4507343564 -16389315.331318479 0 0 0 0 -497828.65084838867 -3350678.470067516 0 -3350678.470067516 -61479447.310930058 0 0 0 0 459748.72554016113 8269730.9093111306 0 8269730.9093111306 -16639967.47358346 0 0 0 0 -6304551.6514587402 20375514.253667332 0 20375514.253667332 5349666.7891580462 0 0 0 0 6807672.4558105469 19839253.892970741 0 19839253.892970741 8996223.2597676255 0 0 0 0 10665588.872955322 13283886.308618881 0 13283886.308618881 -14920958.072575225 0 0 0 0 160192.08586120605 816160.05254552886 0 816160.05254552886 -12439233.827269964 0 0 0 0 9383253.5796813965 8649329.8325635642 0 8649329.8325635642 -8380474.1976645384 0 0 0 0 7334356.4514923096 19027232.89670904 0 19027232.89670904 9570943.303080827 0 0 0 0 -10663056.008529663 9410379.4293593764 0 9410379.4293593764 20473995.050627872 0 0 0 0 121972.08679199219 18554642.54093904 0 18554642.54093904 23460370.62952745 0 0 0 0 -800173.04349517822 4612641.568820715 0 4612641.568820715 3181027.3313045502 0 0 0 0 -8440506.1691741943 -4213754.7014248371 0 -4213754.7014248371 7339259.3332924843 0 0 0 0 -517982.24119567871 -4930886.7697335482 0 -4930886.7697335482 4703695.5089476109 0 0 0 0 -1499214.127096232 112031.46861176565 0 112031.46861176565 615239.76810834184 0 0 0 0 -2700946.33244849 3215084.8244417477 0 3215084.8244417477 1482949.189442846 0 0 0 0 4084232.3182525635 -1098975.4751205444 0 -1098975.4751205444 2911220.0944106579 0 0 0 0 11386384.923904419 2989046.0941581726 0 2989046.0941581726 5464376.3796303272 0 0 0 0 -17075463.886688232 -6873312.1527793109 0 -6873312.1527793109 4067760.3488550186 0 0 0 0 -1276892.4615453258 -189442.22467822582 0 -189442.22467822582 185135.9355788739 0 0 0 0 23622311.410311699 41665577.600128755 0 41665577.600128755 20533055.958646476 0 0 0 0 -3620296.1205291748 17294170.291556835 0 17294170.291556835 599669.97867798805 0 0 0 0 -3480455.9360327497 3100679.5263460968 0 3100679.5263460968 1387466.2470774781 0 0 0 0 -9819062.156288147 40698811.117487386 0 40698811.117487386 41757708.571718514 0 0 0 0 25925570.77897644 19317199.505725689 0 19317199.505725689 5378154.6881450266 0 0 0 0 -16755406.793395996 14610388.197281063 0 14610388.197281063 43081361.587786466 0 0 0 0 -11365748.056335449 17049543.823647104 0 17049543.823647104 11785501.572689563 0 0 0 0 -46425393.212947845 -2660497.3741926141 0 -2660497.3741926141 14211322.848301336 0 0 0 0 -23628875.298339844 5950020.1887087524 0 5950020.1887087524 13618998.213006157 0 0 0 0 -35669937.022216797 24909627.034612298 0 24909627.034612298 9296009.8391477764 0 0 0 0 -34927315.488128662 5982055.8368435949 0 5982055.8368435949 24341739.861648351 0 0 0 0 -35587665.516799927 15177600.858437777 0 15177600.858437777 28828480.531924397 0 0 0 0 -3096166.8097648621 19469272.329474062 0 19469272.329474062 20489265.248722196 0 0 0 0 -23773069.409454346 -9658294.5488536656 0 -9658294.5488536656 5443586.6249614805 0 0 0 0 -48479424.924951553 -20417791.891929019 0 -20417791.891929019 6179635.9263868034 0 0 0 0 -30444554.572875977 -10075894.226967946 0 -10075894.226967946 11857583.883334309 0 0 0 0 -18753686.363128662 -11637526.992626334 0 -11637526.992626334 -103890.67747417092 0 0 0 0 -20237319.915847778 -5843361.5689757168 0 -5843361.5689757168 9557108.3945637941 0 0 0 0 -16966075.505439758 1361984.6295134574 0 1361984.6295134574 14191113.869567335 0 0 0 0 -26433215.815139771 -5956918.7369592488 0 -5956918.7369592488 16084709.996116549 0 0 0 0 -18060023.430633545 808625.73022082448 0 808625.73022082448 14206355.58185634 0 0 0 0 -13969664.173339844 19915077.837998077 0 19915077.837998077 28263777.897061229 0 0 0 0 -12960061.550094604 6445737.7001228482 0 6445737.7001228482 16945436.878421679 0 0 0 0 -8264716.7645263672 12672971.795902014 0 12672971.795902014 15794559.990013927 0 0 0 0 -20168275.077800751 5764765.2289438471 0 5764765.2289438471 22570357.875083029 0 0 0 0 -4855266.0220184326 11090158.478889912 0 11090158.478889912 10728428.587219 0 0 0 0 -7056457.8315429688 9560682.7147467136 0 9560682.7147467136 24992948.006432891 0 0 0 0 18763581.061063766 9770715.3140304275 0 9770715.3140304275 13190742.820320904 0 0 0 0 576062.28623257577 290212.24899054505 0 290212.24899054505 -304471.88859621249 0 0 0 0 -4771731.2877507173 2750908.9745205157 0 2750908.9745205157 868875.98236997938 0 0 0 0 -3463156.6946105957 40280629.035480559 0 40280629.035480559 -14628902.30840826 0 0 0 0 -3465645.2063598633 7416361.341855973 0 7416361.341855973 1401286.9142591059 0 0 0 0 -7202292.0643310547 7104304.8587548435 0 7104304.8587548435 7547252.4592779279 0 0 0 0 -10012673.843429565 9073560.8840760291 0 9073560.8840760291 13298722.833439559 0 0 0 0 -3840340.0392303467 7719913.0576178133 0 7719913.0576178133 6074253.2352755666 0 0 0 0 -12552337.851676941 4182642.2078622654 0 4182642.2078622654 8307179.0517227352 0 0 0 0 -10476052.47668457 4360852.9769819677 0 4360852.9769819677 8317553.6333187148 0 0 0 0 -11464167.730690002 2304439.5279622972 0 2304439.5279622972 4068254.907151401 0 0 0 0 -8837611.6587524414 2652307.38055031 0 2652307.38055031 -452744.13743495941 0 0 0 0 -9244226.9445648193 2379169.4216312766 0 2379169.4216312766 4070703.9760572016 0 0 0 0 24430268.207919121 -1008565.1740726754 0 -1008565.1740726754 845446.10382127762 0 0 0 0 -5341945.8916548751 3009515.1216886006 0 3009515.1216886006 874524.67226802488 0 0 0 0 -9497781.5964202881 2584086.2860456109 0 2584086.2860456109 2760697.1471462846 0 0 0 0 3652195.6817855835 -9959244.2101509571 0 -9959244.2101509571 11375420.054044485 0 0 0 0 24030251.446731567 -4531518.7461762428 0 -4531518.7461762428 -7758054.9293224812 0 0 0 0 -7438835.7124786377 3787272.6036058962 0 3787272.6036058962 1994614.2840666771 0 0 0 0 19875695.72795105 -1924210.8144044876 0 -1924210.8144044876 6171993.5763909221 0 0 0 0 17334305.530441284 -4473882.875120461 0 -4473882.875120461 -4519754.966173172 0 0 0 0 16448613.746261597 -4894407.3292263746 0 -4894407.3292263746 4317313.6787080765 0 0 0 0 2448891.5072174072 8225118.4796119928 0 8225118.4796119928 -11785336.344866991 0 0 0 0 2106719.5929870605 21238065.520221114 0 21238065.520221114 -38618109.087910593 0 0 0 0 22962967.902877808 -6575355.6243590117 0 -6575355.6243590117 -4455645.1680772901 0 0 0 0 -4335485.741607666 18817083.701326489 0 18817083.701326489 -4230944.7865796089 0 0 0 0 -19017449.576293945 25760143.333079576 0 25760143.333079576 -6944324.5931551456 0 0 0 0 -17424649.534805298 6746734.6835112572 0 6746734.6835112572 4694768.7125811577 0 0 0 0 -14185870.724487305 31561877.973163247 0 31561877.973163247 1759.7529695034027 0 0 0 0 -2634695.8526306152 30136892.225730896 0 30136892.225730896 -19300366.184676766 0 0 0 0 -17871931.701782227 39390775.120954871 0 39390775.120954871 -12969616.046310902 0 0 0 0 -13146553.986755371 47702970.48925823 0 47702970.48925823 -39853258.714763284 0 0 0 0 -48270025.182632446 42866357.642016254 0 42866357.642016254 -64036954.827078164 0 0 0 0 -91493730.329223633 1711937.4678914547 0 1711937.4678914547 99210263.832456589 0 0 0 0 -12279212.793762207 -43790777.223166466 0 -43790777.223166466 57158136.950233579 0 0 0 0 -84948777.708972931 58188273.427497461 0 58188273.427497461 24993533.896996498 0 0 0 0 -40493152.424591064 65148801.055220842 0 65148801.055220842 -24985229.485475183 0 0 0 0 -30526376.348602295 6156749.3303296566 0 6156749.3303296566 49911663.819041133 0 0 0 0 -20101902.754360199 35152578.909696519 0 35152578.909696519 8600755.4658880234 0 0 0 0 -10157877.374481201 12355404.3333323 0 12355404.3333323 22341167.904271126 0 0 0 0 -34620968.271530151 31592497.690432787 0 31592497.690432787 8662622.6276345253 0 0 0 0 -4537127.6952514648 -9359882.0733029842 0 -9359882.0733029842 28533743.745533109 0 0 0 0 -12000881.42175293 5836535.0784108639 0 5836535.0784108639 14816672.37117672 0 0 0 0 26556211.398147583 -26831163.695077062 0 -26831163.695077062 20242550.989660263 0 0 0 0 -22172270.228942871 -660370.69976711273 0 -660370.69976711273 26467409.658361435 0 0 0 0 7191977.8226318359 -5946678.7790340781 0 -5946678.7790340781 10470774.98440218 0 0 0 0 3685042.0034332275 -3902836.2787768841 0 -3902836.2787768841 10676672.294868946 0 0 0 0 -1192110.8817749023 2729477.4815804958 0 2729477.4815804958 13887437.031553507 0 0 0 0 -446176.96584377065 33165.248793594539 0 33165.248793594539 185946.66463488201 0 0 0 0 -16504261.994018555 -17554893.104130149 0 -17554893.104130149 10037630.605245531 0 0 0 0 -3312877.1811676025 17825241.093440652 0 17825241.093440652 8110387.6385073662 0 0 0 0 -17270274.906967163 29432852.908190727 0 29432852.908190727 -298452.69230160117 0 0 0 0 -3490570.5662460327 4371191.5764057636 0 4371191.5764057636 -361915.94511717558 0 0 0 0 -6051060.809463501 -3982910.0416936874 0 -3982910.0416936874 1929661.8216695786 0 0 0 0 -524603.07094428688 1163682.4865753148 0 1163682.4865753148 324578.65176784946 0 0 0 0 3400957.3296203613 21955030.712385178 0 21955030.712385178 -9979575.1710883379 0 0 0 0 -7204156.4980545044 3075293.4994983673 0 3075293.4994983673 3682765.717912674 0 0 0 0 -1700276.8609508798 588024.83315111697 0 588024.83315111697 503970.44676104654 0 0 0 0 -11743686.626457214 3139042.3542513847 0 3139042.3542513847 3422087.5172820091 0 0 0 0 -9201522.005569458 -288096.50804822147 0 -288096.50804822147 4720168.0491822287 0 0 0 0 -3741773.673101753 532368.917380495 0 532368.917380495 2008884.5795187498 0 0 0 0 -3704726.0290215611 822059.23461785913 0 822059.23461785913 2131469.1541086696 0 0 0 0 -9389701.2496757507 1690325.05833707 0 1690325.05833707 2010954.7305949032 0 0 0 0 -9687444.6189575195 643433.73101530969 0 643433.73101530969 3446061.8795228601 0 0 0 0 -10837858.597885132 -956358.94510082155 0 -956358.94510082155 7454021.6045228243 0 0 0 0 -10952483.926715851 1240556.3293602467 0 1240556.3293602467 6114133.6734457016 0 0 0 0 -10793661.570350647 -1148589.40735773 0 -1148589.40735773 4315224.5141720548 0 0 0 0 -5350416.182510376 -2320982.69224732 0 -2320982.69224732 3440047.6212619096 0 0 0 0 -11864536.976341248 -4515010.1120839044 0 -4515010.1120839044 7259568.0291351452 0 0 0 0 -15630924.947683334 -3502511.4987227768 0 -3502511.4987227768 7009607.4737858474 0 0 0 0 -5577227.3811187744 -1831455.008730758 0 -1831455.008730758 142422.36596878432 0 0 0 0 -10516087.768104553 -6855955.5350669809 0 -6855955.5350669809 1370426.8700824529 0 0 0 0 -10736064.115219116 -7358025.0295072347 0 -7358025.0295072347 -471997.75309954584 0 0 0 0 959887.13636779785 522313.19115327671 0 522313.19115327671 1824083.242898508 0 0 0 0 -24445557.298618317 7434897.0550519228 0 7434897.0550519228 12399460.087687016 0 0 0 0 -1822129.1679877639 514963.67077834904 0 514963.67077834904 1987176.232862755 0 0 0 0 -4483649.3332386017 -3999076.0558201 0 -3999076.0558201 3076307.2834578902 0 0 0 0 472984.531208992 -12314455.263611436 0 -12314455.263611436 21300238.177423954 0 0 0 0 -345864.00024491176 214255.73620383069 0 214255.73620383069 20861.950510109309 0 0 0 0 -4710228.043258667 14115595.650594473 0 14115595.650594473 30665956.823634148 0 0 0 0 -6309590.5192337036 3345120.4054663181 0 3345120.4054663181 -1814861.2305459976 0 0 0 0 2388335.0091400146 16515233.255523682 0 16515233.255523682 -3787730.3585604429 0 0 0 0 3994515.9670362473 6452668.5261458755 0 6452668.5261458755 -17167803.491725922 0 0 0 0 -3041936.2208480835 3398590.3459699154 0 3398590.3459699154 -4002601.6995944977 0 0 0 0 -9971111.4663009644 11416023.057243824 0 11416023.057243824 -5209722.3894910812 0 0 0 0 12537.238297253847 -24043.367817485705 0 -24043.367817485705 52244.10773230515 0 0 0 0 3808828.2359771729 -3846204.2419309244 0 -3846204.2419309244 1635158.3320437521 0 0 0 0 4931673.9166564941 -1731865.6004975364 0 -1731865.6004975364 2524033.5318021178 0 0 0 0 -1158122.6904895045 380143.36717804521 0 380143.36717804521 1847146.7524243686 0 0 0 0 164166.1584854126 -2561845.6389983995 0 -2561845.6389983995 3713899.1290902197 0 0 0 0 -690163.6464881897 -216889.23448540457 0 -216889.23448540457 823805.61066283286 0 0 0 0 -67128.2900390625 -2066757.0755283311 0 -2066757.0755283311 6304753.7868810967 0 0 0 0 7721354.9109191895 -662945.72968417406 0 -662945.72968417406 5962791.2843573969 0 0 0 0 -736283.19725799561 317493.54786627181 0 317493.54786627181 9363831.3529404104 0 0 0 0 -277471.88031005859 460979.7930696737 0 460979.7930696737 3988440.4572246373 0 0 0 0 5052058.6667175293 712413.11309337243 0 712413.11309337243 3814486.9150275402 0 0 0 0 -4759429.3528366089 3490335.8159608422 0 3490335.8159608422 4374289.7583127543 0 0 0 0 -2141407.6514282227 689640.32032463327 0 689640.32032463327 2654239.7238250226 0 0 0 0 -2510926.5003662109 1112456.574200891 0 1112456.574200891 6384244.5780589543 0 0 0 0 -4073442.820602417 887094.17806078494 0 887094.17806078494 5372110.6780476179 0 0 0 0 463312.65866088867 1115836.7480553277 0 1115836.7480553277 1100384.3796672001 0 0 0 0 -792666.65426635742 261406.52522998024 0 261406.52522998024 4241679.4978761971 0 0 0 0 -839070.6728553623 742312.98104446009 0 742312.98104446009 859869.32263279904 0 0 0 0 3106085.4588508606 -1807541.1795015507 0 -1807541.1795015507 3405655.6299999859 0 0 0 0 2501433.6585998535 845803.86372833513 0 845803.86372833513 2012282.1881497949 0 0 0 0 959930.6491394043 -2904301.217132872 0 -2904301.217132872 2980641.1120293811 0 0 0 0 -42332.218433380127 -1447702.0582513844 0 -1447702.0582513844 7816117.989971878 0 0 0 0 146528.50463104248 -4059881.037635955 0 -4059881.037635955 5965300.1731975945 0 0 0 0 8803639.2981567383 -8718733.4575011004 0 -8718733.4575011004 10500953.293292224 0 0 0 0 9116286.049987793 -9495201.8339675516 0 -9495201.8339675516 11669311.531517923 0 0 0 0 18572.909291543067 83708.971926983446 0 83708.971926983446 -63943.370726455374 0 0 0 0 2329478.6686935425 -811257.77373677865 0 -811257.77373677865 12220489.997812375 0 0 0 0 -3417814.0521697998 3828739.872940273 0 3828739.872940273 -4685825.366803986 0 0 0 0 -6598491.5254440308 -5964602.3500903063 0 -5964602.3500903063 -11646779.652059458 0 0 0 0 -3962824.8414306641 -1916155.1231646761 0 -1916155.1231646761 2834584.5712211281 0 0 0 0 -4036304.9467544556 -2455459.631678123 0 -2455459.631678123 -1105366.5434967205 0 0 0 0 -5899086.7110748291 3543973.6845060047 0 3543973.6845060047 -860707.98510786658 0 0 0 0 -4272890.8894958496 1674529.8022955358 0 1674529.8022955358 3280301.5699944757 0 0 0 0 -4541393.4172286987 1211797.6448667673 0 1211797.6448667673 2659334.7377267554 0 0 0 0 -3607699.8280029297 3378537.1436732635 0 3378537.1436732635 257615.97158430517 0 0 0 0 -7472486.443321228 5704116.5025368128 0 5704116.5025368128 -117725.84352384374 0 0 0 0 -5595316.3538131714 4056094.094334973 0 4056094.094334973 -18788.126992635429 0 0 0 0 -8000143.7846846581 3377398.0977296289 0 3377398.0977296289 -3626501.6611391855 0 0 0 0 -44165.926115382463 -10004.695409152657 0 -10004.695409152657 3545.4620665314483 0 0 0 0 -7662443.739440918 2772150.4407106475 0 2772150.4407106475 508813.44474849035 0 0 0 0 -3671242.4881515503 5411291.8212776575 0 5411291.8212776575 -3956341.7967065047 0 0 0 0 -16950.572245914489 -1398.6537469644099 0 -1398.6537469644099 3227.3103002983808 0 0 0 0 -6035261.3356781006 1364860.2544406806 0 1364860.2544406806 1390145.8107749936 0 0 0 0 -14651338.562476158 3672711.7696059491 0 3672711.7696059491 -4298.8974317015181 0 0 0 0 -1465415.4955787659 -1726650.5696028611 0 -1726650.5696028611 -157309.85102813854 0 0 0 0 -4234871.4641265869 1030346.4589414787 0 1030346.4589414787 227978.51231180146 0 0 0 0 688715.81080627441 -1676382.605252868 0 -1676382.605252868 -539247.47434937488 0 0 0 0 272942.05020141602 283062.84567902423 0 283062.84567902423 -903711.73064477928 0 0 0 0 -2174038.1770324707 -514553.4809237523 0 -514553.4809237523 1950947.3989370419 0 0 0 0 -786402.72204589844 -558662.72943139262 0 -558662.72943139262 2400157.8188304454 0 0 0 0 -5790056.9086761475 1757605.8363325857 0 1757605.8363325857 921414.10401941568 0 0 0 0 -4017539.9088516235 5922921.5903768102 0 5922921.5903768102 -7011520.2270307308 0 0 0 0 -1643009.7256622314 3399228.308100895 0 3399228.308100895 928069.8203583234 0 0 0 0 -2666315.3148880005 3161734.8934689807 0 3161734.8934689807 -3969810.4646370197 0 0 0 0 -12584548.0632267 2979063.2884468799 0 2979063.2884468799 -574530.20206635888 0 0 0 0 -10774972.938537598 11518232.449720994 0 11518232.449720994 -5323774.397350966 0 0 0 0 -10580772.19644165 5453929.4704521764 0 5453929.4704521764 -1617.0893502761828 0 0 0 0 -4392838.3832550049 -29792.237433285423 0 -29792.237433285423 -2165808.5788991321 0 0 0 0 -3129277.5282936096 1556543.5208493373 0 1556543.5208493373 -1541715.8929181295 0 0 0 0 254839.56921386719 -1093060.2829277662 0 -1093060.2829277662 -4377.8890529714008 0 0 0 0 89804.442153930664 -745052.28721895698 0 -745052.28721895698 3603836.1984795593 0 0 0 0 871516.32508087158 -2044616.1923618889 0 -2044616.1923618889 1869612.8435595331 0 0 0 0 -929899.08622400463 747711.12647278234 0 747711.12647278234 708962.05978599028 0 0 0 0 870628.001537323 -408957.3314713001 0 -408957.3314713001 752740.64738172293 0 0 0 0 1199499.9234390259 -547806.4143821625 0 -547806.4143821625 2837.7087805053466 0 0 0 0 -596250.25775555149 769800.79968218133 0 769800.79968218133 -716654.04789695784 0 0 0 0 -428637.1513671875 662521.92432029895 0 662521.92432029895 -4162136.1388661526 0 0 0 0 -196221.09532421827 626010.92283545248 0 626010.92283545248 -737984.47526043735 0 0 0 0 -2050387.6761474609 3859304.9218066898 0 3859304.9218066898 1726.5391765830266 0 0 0 0 -754612.90230560303 1945637.1802283044 0 1945637.1802283044 -2742639.2317258492 0 0 0 0 -1533416.7341918945 6385318.2815761343 0 6385318.2815761343 -3697771.6138915382 0 0 0 0 -161576.27292227373 191085.20644110441 0 191085.20644110441 93174.125946529006 0 0 0 0 -1106988.6728973389 641169.75542448089 0 641169.75542448089 -5992373.9140599743 0 0 0 0 95016295.102828979 -1931504.8463373855 0 -1931504.8463373855 -51037245.894752502 0 0 0 0 -631698.84418558888 1502455.64264483 0 1502455.64264483 -1243674.8058311553 0 0 0 0 -2439108.0249614716 1465141.5972647057 0 1465141.5972647057 -300936.38404285163 0 0 0 0 -963199.8090108633 563218.51115877926 0 563218.51115877926 295126.77770397312 0 0 0 0 -1648572.7394714355 1616183.6950695515 0 1616183.6950695515 -1138183.3167557716 0 0 0 0 -922121.78918075562 2328856.1243146658 0 2328856.1243146658 -1340291.3765921593 0 0 0 0 700327.60292434692 1405891.1014024019 0 1405891.1014024019 -2564056.6750378609 0 0 0 0 -796254.4085468892 1208342.7100596838 0 1208342.7100596838 -796086.50674757943 0 0 0 0 -368167.33279418945 795657.22079849243 0 795657.22079849243 -1126381.2075222433 0 0 0 0 -1487358.2590255737 2091555.5317912102 0 2091555.5317912102 -2307847.0334715843 0 0 0 0 -4639456.3378753662 4220532.0452430248 0 4220532.0452430248 -4609602.1638157368 0 0 0 0 -1764710.6970157623 1553502.0075973868 0 1553502.0075973868 -2166300.1287684441 0 0 0 0 -86537.354288648814 172995.69277912751 0 172995.69277912751 -237113.88703926327 0 0 0 0 431645.22868347168 1676217.5105657578 0 1676217.5105657578 -12300631.827425957 0 0 0 0 -4819040.1716427803 7377703.5915483162 0 7377703.5915483162 -10024112.288669586 0 0 0 0 1024881.4080200195 -788901.53121089935 0 -788901.53121089935 -4310645.9435931444 0 0 0 0 -2401071.2556533813 2874898.7700126171 0 2874898.7700126171 -3755687.057700634 0 0 0 0 -2669234.0962982178 2972021.1438112259 0 2972021.1438112259 -1635482.3616108894 0 0 0 0 -2383047.0350494385 2790976.3062266111 0 2790976.3062266111 -1708597.4076385498 0 0 0 0 -548512.90530395508 2924437.1940910816 0 2924437.1940910816 -4047283.5922317505 0 0 0 0 -225954.35539531708 654022.59422373399 0 654022.59422373399 -887604.84401755489 0 0 0 0 -1585446.6903991699 -105128199.65096089 0 -105128199.65096089 13934461.297120124 0 0 0 0 -50337783.840057373 -10131956.27929014 0 -10131956.27929014 -38688462.569131613 0 0 0 0 -324380963.16475487 -37340862.328760743 0 -37340862.328760743 12033295.409170747 0 0 0 0 -454009.55549312383 -4902.18574618618 0 -4902.18574618618 20978.517735284302 0 0 0 0 -267401307.76737213 91359234.594761968 0 91359234.594761968 -5299592.7088795071 0 0 0 0 -251568922.16104126 -94273388.751529515 0 -94273388.751529515 66716551.666979715 0 0 0 0 -508207990.9543457 -7760801.4146948205 0 -7760801.4146948205 261128.95790349669 0 0 0 0 -479728470.69834518 93815568.472533688 0 93815568.472533688 -5154271.5952776074 0 0 0 0 -550117911.37792969 18583387.191279501 0 18583387.191279501 97536205.037521154 0 0 0 0 -314136843.13320541 5518987.0545602515 0 5518987.0545602515 80901352.676549852 0 0 0 0 -521745463.00021362 74613223.495007455 0 74613223.495007455 60711134.978063941 0 0 0 0 -503336917.15509033 -29572062.084948301 0 -29572062.084948301 65141771.183160305 0 0 0 0 -239700497.50320244 61146178.520891435 0 61146178.520891435 42396995.569374859 0 0 0 0 -278308615.04498291 -15063986.216315605 0 -15063986.216315605 39985598.241711259 0 0 0 0 -283868831.95579529 -8784633.3647682294 0 -8784633.3647682294 -71744245.571344405 0 0 0 0 -279692790.95328045 -41068582.134288386 0 -41068582.134288386 92827747.14862743 0 0 0 0 -172261.49314755201 346610.09436743148 0 346610.09436743148 -651209.35999774409 0 0 0 0 -1348079.1785430908 1501992.5712034502 0 1501992.5712034502 -4748.4364001177019 0 0 0 0 -1413623.1379547119 1924253.4180049347 0 1924253.4180049347 -2714926.6755933901 0 0 0 0 -6428114.4527435303 -45466021.384214312 0 -45466021.384214312 47551354.983785152 0 0 0 0 -5870728.7638244629 -44070344.621640146 0 -44070344.621640146 -34442094.344822228 0 0 0 0 -143214475.54576111 25337568.105147004 0 25337568.105147004 -26859513.665367216 0 0 0 0 9256733.4718322754 -71454080.965171009 0 -71454080.965171009 -46896783.457511425 0 0 0 0 27529853.988365173 34866301.426998734 0 34866301.426998734 38635736.335114717 0 0 0 0 -29826646.589736938 88437798.456182599 0 88437798.456182599 -11259065.740892738 0 0 0 0 -382285.38201922923 -197007.28122213483 0 -197007.28122213483 -198033.15527624357 0 0 0 0 -332641186.12637329 -228843430.94485843 0 -228843430.94485843 172239928.93090773 0 0 0 0 1805232.5757217407 -43490625.34106648 0 -43490625.34106648 -144525903.14941752 0 0 0 0 -313362958.21917057 -44481400.365568683 0 -44481400.365568683 -295147448.86431575 0 0 0 0 -311910010.61405945 -16355439.335179329 0 -16355439.335179329 -38021131.671427608 0 0 0 0 -245566893.00474548 -118985670.03791237 0 -118985670.03791237 -91392389.130819678 0 0 0 0 -363926491.65650177 -27223493.347200841 0 -27223493.347200841 40109204.484874606 0 0 0 0 -221580583.51260376 68084507.046468854 0 68084507.046468854 -5532971.6623732448 0 0 0 0 -661913869.54527855 204161922.02644643 0 204161922.02644643 -30697082.574962974 0 0 0 0 -590027025.90791321 -190280634.9822033 0 -190280634.9822033 -77174959.444406629 0 0 0 0 -770341695.69908142 77940613.447294831 0 77940613.447294831 7035939.8144700527 0 0 0 0 -399001872.92980957 -249777586.634027 0 -249777586.634027 -64679472.984987676 0 0 0 0 -785054.42405309528 384523.29814940691 0 384523.29814940691 -20036.957465990447 0 0 0 0 -797920668.48688984 -31788343.864583433 0 -31788343.864583433 -93046774.298170567 0 0 0 0 -29305762.637710571 -34263211.721685797 0 -34263211.721685797 28709520.256633043 0 0 0 0 -7841126.5751953125 -40195139.457449734 0 -40195139.457449734 -30072038.525646925 0 0 0 0 -28626052.277938843 115766162.24250388 0 115766162.24250388 -89528673.896744728 0 0 0 0 7199918.1678771973 -20080050.785727799 0 -20080050.785727799 -89730267.325449228 0 0 0 0 -29466889.22996521 55065219.135550439 0 55065219.135550439 -101683802.92433977 0 0 0 0 -183416800.50751877 12499566.565015942 0 12499566.565015942 -41610983.115109921 0 0 0 0 -252698967.60907269 -19443871.735792235 0 -19443871.735792235 101964325.44437599 0 0 0 0 -251102295.39904785 -35842213.397065639 0 -35842213.397065639 74477073.319577694 0 0 0 0 -106889111.85529995 821757.83013097942 0 821757.83013097942 42250301.724814892 0 0 0 0 -137359103.60591888 -150966505.80526611 0 -150966505.80526611 -86812429.853368759 0 0 0 0 -410598471.8782196 -28985880.290848732 0 -28985880.290848732 86885054.870970249 0 0 0 0 -697064390.62019348 -120323553.87604678 0 -120323553.87604678 104218629.14447355 0 0 0 0 -331174885.43695831 -65223448.043506622 0 -65223448.043506622 98211201.69414854 0 0 0 0 -373438260.54896545 13099211.975648284 0 13099211.975648284 63582646.161236763 0 0 0 0 -237110812.74391937 87614693.801413536 0 87614693.801413536 1164765.516046524 0 0 0 0 -563175110.73439598 310345168.72577584 0 310345168.72577584 -134650445.20530558 0 0 0 0 -122725299.64984131 56918908.721623898 0 56918908.721623898 -10010255.560204744 0 0 0 0 -132945275.28129578 38755108.202275753 0 38755108.202275753 -8393211.7444944382 0 0 0 0 -1036463.5928655341 -257215.5186550878 0 -257215.5186550878 -351372.99763753463 0 0 0 0 -542178.0894985795 503991.02577127516 0 503991.02577127516 -237662.71695163567 0 0 0 0 -50755145.402420044 34980448.609707355 0 34980448.609707355 -29490433.312942266 0 0 0 0 -145492010.29593658 -12704883.418257236 0 -12704883.418257236 14938257.417286396 0 0 0 0 -198267037.43830109 27456065.866815567 0 27456065.866815567 5073704.9954820871 0 0 0 0 -202554.39176496863 214153.26749091968 0 214153.26749091968 -79368.67839178443 0 0 0 0 -18369935.17486763 -21753083.724805832 0 -21753083.724805832 -24021575.850104332 0 0 0 0 -101585122.26055145 -130636027.02758932 0 -130636027.02758932 -16305099.830691576 0 0 0 0 -49384308.729896545 -18602962.559891701 0 -18602962.559891701 -55629265.932653666 0 0 0 0 -218305884.94416046 -19125154.924754143 0 -19125154.924754143 68283203.134284019 0 0 0 0 -216093911.03029633 -4318233.326706171 0 -4318233.326706171 -50704188.842522621 0 0 0 0 -329994973.00274849 -63228196.713214993 0 -63228196.713214993 99273452.534289837 0 0 0 0 -319382966.8035202 -102715080.8755393 0 -102715080.8755393 8977812.8029108047 0 0 0 0 -220098323.76998901 2215315.0391030312 0 2215315.0391030312 -92281198.384982109 0 0 0 0 -437762574.19574738 -57866853.959947824 0 -57866853.959947824 103630765.86912155 0 0 0 0 -279000434.35441589 -25373543.480424643 0 -25373543.480424643 110052053.44667494 0 0 0 0 -241439081.27542877 -44155493.577143312 0 -44155493.577143312 85313296.782698154 0 0 0 0 -6281193.9291992188 5510500.311721921 0 5510500.311721921 -3525734.8846068382 0 0 0 0 -527.11978022754192 -11828.724985638633 0 -11828.724985638633 -171496.24412414816 0 0 0 0 7293358.6816864014 11536808.316023827 0 11536808.316023827 -7890251.9822394848 0 0 0 0 7358395.2305908203 24664290.633292198 0 24664290.633292198 -8446482.9512000084 0 0 0 0 -8655498.183265686 6596847.1584348679 0 6596847.1584348679 33281639.038119793 0 0 0 0 9580066.8522949219 -16388122.978304684 0 -16388122.978304684 292810.21506977081 0 0 0 0 15809884.186950684 23815698.982476234 0 23815698.982476234 -395885.96263647079 0 0 0 0 69385.467193603516 1383042.483253479 0 1383042.483253479 -15160965.726097584 0 0 0 0 55038.976364135742 -2435106.6709856987 0 -2435106.6709856987 -5540778.9393858314 0 0 0 0 -1350354.4303131104 -53389.514311075211 0 -53389.514311075211 -41441.341545581818 0 0 0 0 -1115419.2760391235 -142056.78075528145 0 -142056.78075528145 -2611254.7336371243 0 0 0 0 -168816.85906204581 150806.12503507733 0 150806.12503507733 -430441.26003587816 0 0 0 0 -626305.00479888916 802298.708537817 0 802298.708537817 -836940.89507722855 0 0 0 0 2842122.1958236694 -3983127.3921124935 0 -3983127.3921124935 -9174852.6411309242 0 0 0 0 -2109154.3169670105 -2506133.5466499627 0 -2506133.5466499627 -9607954.6374070644 0 0 0 0 22817671.375045776 12093649.98750639 0 12093649.98750639 -25121647.306611896 0 0 0 0 729872.86058044434 617974.30251055956 0 617974.30251055956 -18764049.107165337 0 0 0 0 17357543.767917633 39748924.177540064 0 39748924.177540064 13708026.651920795 0 0 0 0 18226848.386810303 28775379.950615644 0 28775379.950615644 -56838064.918639421 0 0 0 0 3718861.9788742065 20990736.959045172 0 20990736.959045172 -1359585.4868636131 0 0 0 0 7225453.1793365479 12212452.650319099 0 12212452.650319099 11647280.832248211 0 0 0 0 14479379.424949646 26506966.95368278 0 26506966.95368278 -3249405.5674419403 0 0 0 0 481399.03695678711 15970412.796881914 0 15970412.796881914 -10648255.021994114 0 0 0 0 -7770204.9161224365 20994123.459791899 0 20994123.459791899 3329063.9452619553 0 0 0 0 10635813.607925415 8706923.9226229191 0 8706923.9226229191 -2732828.8139381409 0 0 0 0 -10994995.493309021 8046878.7828600407 0 8046878.7828600407 -2475003.4147937298 0 0 0 0 -3374804.1124305725 22433781.799471974 0 22433781.799471974 -77031.056100845337 0 0 0 0 -24488230.537704468 4723971.5058012009 0 4723971.5058012009 45696088.832071781 0 0 0 0 -6623278.4914549887 1140753.1957780188 0 1140753.1957780188 509561.85711308231 0 0 0 0 -92650498.85357666 90639231.392755985 0 90639231.392755985 29993182.515330791 0 0 0 0 335222.43996474519 201799.50778903253 0 201799.50778903253 -640468.12115260377 0 0 0 0 19858338.628623962 13386220.651157379 0 13386220.651157379 -49328906.856423259 0 0 0 0 -116092828.40274811 -3543963.5089912415 0 -3543963.5089912415 10403267.036823273 0 0 0 0 22957794.653656006 25150449.092370987 0 25150449.092370987 -54701662.192948341 0 0 0 0 9560655.9066429138 18708547.23339653 0 18708547.23339653 -31819001.436842918 0 0 0 0 -3263672.9201698303 22399436.246259689 0 22399436.246259689 78151976.366128445 0 0 0 0 -4955871.5596519634 1014154.7950397772 0 1014154.7950397772 175342.9276312603 0 0 0 0 -27918004.076454163 10440820.578058243 0 10440820.578058243 -15210033.798005104 0 0 0 0 14577701.354072571 28591103.969545364 0 28591103.969545364 -73466090.354203433 0 0 0 0 -408337.02362823486 28756367.914782107 0 28756367.914782107 10874441.325167179 0 0 0 0 6874288.6988372803 28177529.262271166 0 28177529.262271166 -11731267.49620977 0 0 0 0 -1379488.1748916954 1131317.7585678864 0 1131317.7585678864 611571.46074007649 0 0 0 0 -6380588.9820041656 5732836.543685317 0 5732836.543685317 38324702.28350997 0 0 0 0 -46026432.621994019 -290760.48460054398 0 -290760.48460054398 1890954.4249788523 0 0 0 0 -136606452.79956055 -41757660.624922752 0 -41757660.624922752 12468324.220103264 0 0 0 0 -70092.381648905575 106968.13251553196 0 106968.13251553196 48389.151463992428 0 0 0 0 -14850151.204376221 26131433.401992679 0 26131433.401992679 25371125.908479691 0 0 0 0 -16595812.859519958 37884322.025613785 0 37884322.025613785 54707409.078733921 0 0 0 0 27080238.023517609 18397345.957191467 0 18397345.957191467 10551004.063057661 0 0 0 0 453237.87250226736 679249.91343634389 0 679249.91343634389 -1205079.9020632259 0 0 0 0 -48041219.639343262 -6272925.073621273 0 -6272925.073621273 27904398.013670921 0 0 0 0 -64568703.67816925 917806.64390826225 0 917806.64390826225 60825925.369410515 0 0 0 0 -62470903.535934448 -24272473.101360321 0 -24272473.101360321 18051630.906680107 0 0 0 0 22916000.15272522 -3524301.131057024 0 -3524301.131057024 -17428844.314712286 0 0 0 0 -498778941.45135593 -217688896.84881082 0 -217688896.84881082 -243657481.7717495 0 0 0 0 -254836834.97344589 1256767.3749577999 0 1256767.3749577999 -136615853.71287203 0 0 0 0 -377789562.39308548 154943102.33608103 0 154943102.33608103 -236527069.08599281 0 0 0 0 -518312572.61872101 7323384.9952940941 0 7323384.9952940941 52269226.420809746 0 0 0 0 -337601402.82231522 -242350475.86223584 0 -242350475.86223584 -11131259.569182873 0 0 0 0 -1172830.7900431976 198867.80607318447 0 198867.80607318447 -28372.516727578011 0 0 0 0 -584446081.61855316 122799760.87989783 0 122799760.87989783 66960706.448823929 0 0 0 0 -54638065.312294006 110492287.66124296 0 110492287.66124296 -321325678.66692448 0 0 0 0 -35616349.296665192 -17148447.778248787 0 -17148447.778248787 -90292815.543750525 0 0 0 0 -3222695.0982610956 663916.83341751446 0 663916.83341751446 22483.341161012708 0 0 0 0 -105322349.19519043 20288272.20689249 0 20288272.20689249 137322842.51899481 0 0 0 0 48217635.171058655 23619678.881715298 0 23619678.881715298 -148421461.14010018 0 0 0 0 -1397530.4564961269 958290.94632299896 0 958290.94632299896 682862.26782706636 0 0 0 0 -30216789.476854324 -3195363.2746321559 0 -3195363.2746321559 133098540.06014585 0 0 0 0 -53180218.330490112 135045453.70241117 0 135045453.70241117 -119033557.90082276 0 0 0 0 -55436086.088592529 85843199.122471809 0 85843199.122471809 -24174459.301115513 0 0 0 0 -89731101.495594025 100684250.80872118 0 100684250.80872118 -107303797.17269301 0 0 0 0 80772010.920539856 83730980.977638483 0 83730980.977638483 -59834729.757409215 0 0 0 0 -207903310.66705704 -158229024.36786902 0 -158229024.36786902 252327079.95245981 0 0 0 0 -670501.45089435577 434744.25580858439 0 434744.25580858439 330309.08521424665 0 0 0 0 -168215390.47013092 249044118.72160113 0 249044118.72160113 -335535021.2421174 0 0 0 0 -461124588.06209564 23468848.076411247 0 23468848.076411247 -35544410.198162496 0 0 0 0 -56666551.463516235 -7108885.9200246334 0 -7108885.9200246334 -53654775.30536437 0 0 0 0 -271832093.31851196 -148746285.75392711 0 -148746285.75392711 -94171313.219980717 0 0 0 0 4088551.8899612427 -91929972.882065237 0 -91929972.882065237 -5790333.6187491417 0 0 0 0 -269443543.82240295 -136038062.92685425 0 -136038062.92685425 -4356315.8780884743 0 0 0 0 -88938170.415794373 108051968.56154099 0 108051968.56154099 201365569.3597331 0 0 0 0 -158291643.23501587 -18561055.828359365 0 -18561055.828359365 95433144.91605866 0 0 0 0 -693400.86787936091 746418.96073002368 0 746418.96073002368 -127593.59503810509 0 0 0 0 35567102.979637146 17509083.622084379 0 17509083.622084379 43541561.04627949 0 0 0 0 -34737477.598236084 -30065487.343142629 0 -30065487.343142629 42870531.886497617 0 0 0 0 56409499.474441528 118605963.30579603 0 118605963.30579603 -110957445.25489807 0 0 0 0 -299623.5021623373 497928.70234933961 0 497928.70234933961 -101187.71777349804 0 0 0 0 -75268438.288917542 195728549.5990243 0 195728549.5990243 -79948590.992471695 0 0 0 0 -272846814.34815979 159098045.7374692 0 159098045.7374692 -24211039.07448956 0 0 0 0 -291240961.79586792 147874675.87900519 0 147874675.87900519 20734792.05034256 0 0 0 0 -143057048.40080261 30106927.852811575 0 30106927.852811575 113610683.40343904 0 0 0 0 -172161476.55789185 9906574.3727366924 0 9906574.3727366924 36358888.504520893 0 0 0 0 -135580700.79433441 46078511.687032282 0 46078511.687032282 53479085.387644172 0 0 0 0 -69453613.830528259 60528971.761915684 0 60528971.761915684 33338891.466773033 0 0 0 0 -19037380.48884964 56967827.032561779 0 56967827.032561779 29422421.517992735 0 0 0 0 -28677249.554447174 21064716.854859442 0 21064716.854859442 64925344.142033219 0 0 0 0 10625135.18494606 -20387710.410051271 0 -20387710.410051271 37360855.070014 0 0 0 0 34531850.924396515 21809972.001182795 0 21809972.001182795 27438583.842775106 0 0 0 0 7694104.655670166 1974217.2077463865 0 1974217.2077463865 39704207.246624231 0 0 0 0 49667586.082904816 14806841.048076034 0 14806841.048076034 30596907.675160646 0 0 0 0 24397392.666316986 24699505.210228562 0 24699505.210228562 123501166.12112969 0 0 0 0 3350535.7669219971 -15305178.660387993 0 -15305178.660387993 78141418.776892364 0 0 0 0 -53830756.5679245 45752338.038995206 0 45752338.038995206 27351064.285786629 0 0 0 0 7257979.7079315186 -1000096.9699788988 0 -1000096.9699788988 23707503.012956619 0 0 0 0 -24622632.82705307 28823877.23481077 0 28823877.23481077 16060795.259294748 0 0 0 0 -58051246.507034302 23805321.255128384 0 23805321.255128384 44926031.404863119 0 0 0 0 -64870187.297264099 -15294417.90953064 0 -15294417.90953064 37428087.138906658 0 0 0 0 -59112211.362701416 -8415041.9850896597 0 -8415041.9850896597 16040103.421074629 0 0 0 0 -73532973.239179611 4084362.3783438802 0 4084362.3783438802 49032869.948091984 0 0 0 0 -29854852.54598999 -5285881.9874587059 0 -5285881.9874587059 31894950.407468557 0 0 0 0 -32441048.791488647 4970862.985502243 0 4970862.985502243 48267435.341480851 0 0 0 0 42394361.691314697 35658410.864328384 0 35658410.864328384 87364411.54805398 0 0 0 0 -17579627.970870972 7634419.1223273277 0 7634419.1223273277 45534649.015080094 0 0 0 0 38071224.880714417 47845242.449645519 0 47845242.449645519 59343918.252431393 0 0 0 0 -150200.0964422673 49926.709876403213 0 49926.709876403213 -381071.84716552356 0 0 0 0 47004395.498947144 29347881.266380548 0 29347881.266380548 -7714880.1927472353 0 0 0 0 28517659.214639664 83606495.945794165 0 83606495.945794165 94396115.919262886 0 0 0 0 13925386.327026367 45995494.646439552 0 45995494.646439552 115536596.35133266 0 0 0 0 24492147.443023682 42651714.928514004 0 42651714.928514004 40103993.331411362 0 0 0 0 9721262.4924926758 -35401769.20866394 0 -35401769.20866394 -7952341.56468153 0 0 0 0 -284804824.36584473 168427531.30588317 0 168427531.30588317 -74278991.910694599 0 0 0 0 -166770633.38596344 -82865750.548524857 0 -82865750.548524857 43103184.522381306 0 0 0 0 39363.008896458894 56617.89673486352 0 56617.89673486352 -301458.42728552083 0 0 0 0 79098918.283462524 148329576.14781356 0 148329576.14781356 -44221328.640275478 0 0 0 0 -86410932.234802246 218823656.18004131 0 218823656.18004131 -52213611.721757412 0 0 0 0 -19118571.303741455 107555181.56524837 0 107555181.56524837 -1251535.7391624451 0 0 0 0 -265488402.8710289 128918284.49646592 0 128918284.49646592 46253266.733620644 0 0 0 0 -20185863.490234375 19875397.972070217 0 19875397.972070217 31705923.111394644 0 0 0 0 78022062.017056704 29102127.612538591 0 29102127.612538591 31048303.295318604 0 0 0 0 5935656.0754928589 95768509.603317261 0 95768509.603317261 -30092761.002630234 0 0 0 0 -69853216.735519409 117001833.6583361 0 117001833.6583361 -235832.4223575592 0 0 0 0 -97377978.398666382 32178868.209087893 0 32178868.209087893 19570181.605703831 0 0 0 0 -93170608.884872437 127756995.048814 0 127756995.048814 26245420.788938165 0 0 0 0 -79919376.924812317 104192645.12291384 0 104192645.12291384 43825654.162216656 0 0 0 0 -177805915.03671265 94828764.827584982 0 94828764.827584982 43506088.996015847 0 0 0 0 -209223096.44244385 -31167419.492564499 0 -31167419.492564499 -20574256.065158077 0 0 0 0 -98503954.510276794 34002834.291820884 0 34002834.291820884 17524679.16688621 0 0 0 0 -89991830.693945885 -38999274.196339056 0 -38999274.196339056 -31739748.133047223 0 0 0 0 -53368092.590946198 2081003.9987012148 0 2081003.9987012148 14323600.327144623 0 0 0 0 -76330789.450836182 27133850.381535977 0 27133850.381535977 -36618473.270105623 0 0 0 0 893996.10111999512 19720686.463766456 0 19720686.463766456 -28731370.557030618 0 0 0 0 10391387.139053345 8524691.4272647351 0 8524691.4272647351 -18584775.05150637 0 0 0 0 -4363578.949098587 -3996130.0852881074 0 -3996130.0852881074 32496687.360581398 0 0 0 0 -4996891.3391723633 255681.40945446491 0 255681.40945446491 5560481.8545808792 0 0 0 0 -37603976.505096436 -18791875.695958138 0 -18791875.695958138 -1344971.7851707935 0 0 0 0 -28810363.054290771 9812912.2133674622 0 9812912.2133674622 18410384.434526205 0 0 0 0 -4871513.2228546143 -14306005.027191639 0 -14306005.027191639 12354521.840439916 0 0 0 0 -1151278.6609191895 -10167483.845873117 0 -10167483.845873117 13592516.489439726 0 0 0 0 -507597.36345240101 603281.08603291493 0 603281.08603291493 462062.51108034758 0 0 0 0 -64862686.063186646 22754042.654703945 0 22754042.654703945 13777849.145622253 0 0 0 0 -287313.96918339282 316813.97448758502 0 316813.97448758502 245202.83153833786 0 0 0 0 -19943257.026519775 8177321.4992752075 0 8177321.4992752075 21704481.399463177 0 0 0 0 -12235819.663909912 16644179.291029572 0 16644179.291029572 29653608.8905797 0 0 0 0 -788264.21479034424 -15786702.969903231 0 -15786702.969903231 55302510.362703443 0 0 0 0 5861872.9568862915 7343441.3931734562 0 7343441.3931734562 19109559.193957329 0 0 0 0 7577960.7267684937 -13598510.295646667 0 -13598510.295646667 14645799.725614667 0 0 0 0 89905040.075195312 10488008.846333981 0 10488008.846333981 25304235.265396595 0 0 0 0 -479307.1805098094 672428.11746304762 0 672428.11746304762 495087.29171665967 0 0 0 0 -21430049.828033447 -5297023.8625769615 0 -5297023.8625769615 35162427.862144589 0 0 0 0 8882432.1101195216 35748336.364334419 0 35748336.364334419 67520466.554080963 0 0 0 0 111832431.03001404 49969921.91345644 0 49969921.91345644 18587947.188925624 0 0 0 0 -1322808.0579047855 -624908.90471671522 0 -624908.90471671522 -88426.702720392961 0 0 0 0 13581472.569076538 19449343.824244186 0 19449343.824244186 14654956.352959096 0 0 0 0 41863051.722229004 20162997.704712957 0 20162997.704712957 2586137.364385277 0 0 0 0 -4982132.0307528973 -1640788.6099031828 0 -1640788.6099031828 -154114.46745127701 0 0 0 0 82506345.326400757 34514244.707292214 0 34514244.707292214 -5064286.8726875708 0 0 0 0 42180786.459042788 25056048.637774579 0 25056048.637774579 26296362.72721374 0 0 0 0 -42813671.687545776 -10355689.864958629 0 -10355689.864958629 7938881.1094069928 0 0 0 0 -46031895.250007629 1095157.8900868222 0 1095157.8900868222 -32802469.578998968 0 0 0 0 -18210560.019886494 14528760.14371904 0 14528760.14371904 29596334.903238297 0 0 0 0 -10836832.779373169 29888456.367798686 0 29888456.367798686 37051675.066301405 0 0 0 0 -70126435.025810242 -23195261.381350994 0 -23195261.381350994 86172621.568175554 0 0 0 0 -92323791.395980835 -36507936.147103667 0 -36507936.147103667 46467859.315411806 0 0 0 0 -28085965.100139856 16804456.285741568 0 16804456.285741568 865988.28560256958 0 0 0 0 -7234356.5065670013 8077508.0904898643 0 8077508.0904898643 -8361324.6526527405 0 0 0 0 -22182305.485689163 -23265499.905627251 0 -23265499.905627251 -18347107.111597836 0 0 0 0 -15139781.833606243 -3421654.5367648676 0 -3421654.5367648676 9572608.7340654135 0 0 0 0 -15173299.835146012 4854590.1859412473 0 4854590.1859412473 5785371.5567857819 0 0 0 0 -19305138.750535488 12782831.740486555 0 12782831.740486555 15241328.242564917 0 0 0 0 13045809.943161011 17148416.476008058 0 17148416.476008058 593911.57575720549 0 0 0 0 -23370271.30080153 -2352207.9857530221 0 -2352207.9857530221 -11095087.651451111 0 0 0 0 -18146875.170883179 -2070224.8762477636 0 -2070224.8762477636 9307473.6023769379 0 0 0 0 -734627.00144958496 2461092.1457908154 0 2461092.1457908154 7101133.1728219986 0 0 0 0 -14395730.489118444 4055731.9442981556 0 4055731.9442981556 6661649.2348355027 0 0 0 0 -9739280.7715911865 19902527.558900833 0 19902527.558900833 22622568.148017883 0 0 0 0 -17069899.441650391 12367869.960530519 0 12367869.960530519 14966061.910064936 0 0 0 0 -32411205.075004578 50732177.096304595 0 50732177.096304595 20642039.219578266 0 0 0 0 13323773.849067688 38146002.219934046 0 38146002.219934046 37060758.381115913 0 0 0 0 -308210.87012481689 17269604.832340002 0 17269604.832340002 50990714.028081894 0 0 0 0 26048830.367500305 17039014.233140767 0 17039014.233140767 21251153.011002541 0 0 0 0 -3798288.3153839111 5459693.1109740734 0 5459693.1109740734 42281573.279094756 0 0 0 0 -9180164.1697006226 16315538.585490584 0 16315538.585490584 23464694.140082836 0 0 0 0 -62273953.437316895 -6555629.2754075527 0 -6555629.2754075527 60051470.778143883 0 0 0 0 -40734125.117202759 25926051.469341278 0 25926051.469341278 -34639403.269606352 0 0 0 0 -11868846.705825806 -5718721.5432286263 0 -5718721.5432286263 -9560010.1212072372 0 0 0 0 -15278564.950302124 -15678735.400978088 0 -15678735.400978088 12329040.686084747 0 0 0 0 6777894.2312927246 51068890.658475399 0 51068890.658475399 -40871750.860760689 0 0 0 0 -267331.39398146048 398573.98307428788 0 398573.98307428788 284118.5164499497 0 0 0 0 5917837.5897483826 84705982.922964454 0 84705982.922964454 -3853811.9101467133 0 0 0 0 58797323.029434204 74691890.63639307 0 74691890.63639307 -2345841.131349802 0 0 0 0 -97168699.202354431 429551.36355662346 0 429551.36355662346 11516526.116072655 0 0 0 0 -336416.97532667965 -60676.025849083439 0 -60676.025849083439 15335.123040727805 0 0 0 0 31137467.354515076 34982555.45677495 0 34982555.45677495 23828720.283136129 0 0 0 0 -26647457.206130981 3865025.3525910378 0 3865025.3525910378 1676716.9305505455 0 0 0 0 -24279033.769287109 17655839.300051689 0 17655839.300051689 7305352.8409764767 0 0 0 0 -60322205.345046997 -5025574.2999477386 0 -5025574.2999477386 1931070.3482374772 0 0 0 0 -36671098.30014801 22207335.808370113 0 22207335.808370113 -5482373.9063739777 0 0 0 0 -27876159.097167969 5993327.9957623482 0 5993327.9957623482 18847995.053390026 0 0 0 0 -19989508.385009766 13228028.208218813 0 13228028.208218813 -435724.22947788239 0 0 0 0 -23518663.698043823 15032976.568805218 0 15032976.568805218 8048368.8480973244 0 0 0 0 -36256025.218387604 8909276.795752883 0 8909276.795752883 8726270.7374649048 0 0 0 0 -24477540.130754471 19112799.389338672 0 19112799.389338672 1148910.0100870132 0 0 0 0 -18680563.412071228 2753859.2000191212 0 2753859.2000191212 1349282.3930207491 0 0 0 0 -27332783.068820953 3189031.7697948217 0 3189031.7697948217 1485234.3951025009 0 0 0 0 -1560060.9392807595 185035.19812701643 0 185035.19812701643 535879.12548062461 0 0 0 0 -4518547.5667212829 65708.399167874828 0 65708.399167874828 1145540.3103830914 0 0 0 0 -6373349.4180297852 1945172.2392001748 0 1945172.2392001748 1940169.083021313 0 0 0 0 -5397057.4153137207 2143281.4892502427 0 2143281.4892502427 1751937.7161246538 0 0 0 0 -4198134.6002464294 -464862.69247432053 0 -464862.69247432053 2735359.6632601023 0 0 0 0 -4264386.5204772949 -707797.69827675819 0 -707797.69827675819 2132268.3369207382 0 0 0 0 -4689958.576402165 918824.76350134611 0 918824.76350134611 1815922.4237613748 0 0 0 0 -13281180.656089783 8184231.3462042809 0 8184231.3462042809 -5510117.0948764682 0 0 0 0 -16649251.204330444 12633688.643723488 0 12633688.643723488 -8989556.0848398209 0 0 0 0 -11513676.595672607 12570792.799217701 0 12570792.799217701 -14573672.239830017 0 0 0 0 -21436238.616668701 20164785.460704327 0 20164785.460704327 -9772081.892414093 0 0 0 0 -18084915.195297241 15139726.25643158 0 15139726.25643158 -2278311.9459409714 0 0 0 0 -18350046.727912903 14317317.02545166 0 14317317.02545166 -4793723.5583705902 0 0 0 0 4665596.7547912598 31369447.447593689 0 31369447.447593689 38072403.12168926 0 0 0 0 -4684585.7747268677 16600711.567093253 0 16600711.567093253 14758764.740670204 0 0 0 0 33050691.689094543 15924988.624071836 0 15924988.624071836 -3609224.1171269417 0 0 0 0 -749181.52688567713 256210.23078020662 0 256210.23078020662 266057.85525474953 0 0 0 0 -1513468.0909298416 2955325.6896123718 0 2955325.6896123718 -1072643.6697293986 0 0 0 0 2017124.1342849731 7810729.1051397324 0 7810729.1051397324 4950893.0558264256 0 0 0 0 8274509.6563186646 11902733.876830578 0 11902733.876830578 -29056.839126110077 0 0 0 0 -828743.26206207275 16035114.19628334 0 16035114.19628334 14837503.214396954 0 0 0 0 -5439708.7886734009 4867542.4885194302 0 4867542.4885194302 4052.6289150156081 0 0 0 0 -1197039.2111434937 11686021.921253443 0 11686021.921253443 2142563.7087550163 0 0 0 0 -2074798.7600855269 4296239.7812474445 0 4296239.7812474445 -1143194.9987901305 0 0 0 0 -5869373.5243530273 2910530.8550332636 0 2910530.8550332636 2890831.8394280076 0 0 0 0 -2504701.7966041565 8079722.7396139801 0 8079722.7396139801 905838.999066405 0 0 0 0 -17028426.774108887 2946630.4259576434 0 2946630.4259576434 4743602.6262838682 0 0 0 0 30373712.397094727 -17407949.986378193 0 -17407949.986378193 -11699309.425598145 0 0 0 0 11734493.292938232 -24586784.179206789 0 -24586784.179206789 -18680983.429920733 0 0 0 0 -255819.52662787586 85959.491148902103 0 85959.491148902103 346378.24409813993 0 0 0 0 -17366369.954574585 12944332.033866256 0 12944332.033866256 5537364.2031931877 0 0 0 0 -10665623.233703613 8405521.9853452444 0 8405521.9853452444 4259054.2519659996 0 0 0 0 -11734061.348978043 14240165.727704607 0 14240165.727704607 4362280.966337204 0 0 0 0 -23662632.382598877 8633605.455316186 0 8633605.455316186 5683368.8740244508 0 0 0 0 3940354.1554107666 7362204.4075861797 0 7362204.4075861797 861969.25600503385 0 0 0 0 -752293.28841445595 604093.95130995102 0 604093.95130995102 580813.15947044373 0 0 0 0 -6305970.0986175537 -31222938.256185293 0 -31222938.256185293 16309575.371121943 0 0 0 0 -3305327.8878192939 1290256.6506530326 0 1290256.6506530326 2940597.6253171861 0 0 0 0 48657825.704889297 29535623.608213425 0 29535623.608213425 -22837762.579853535 0 0 0 0 -23675597.243839264 43764198.605055988 0 43764198.605055988 15798566.081180573 0 0 0 0 -4135199.7048797607 -2737150.8256368637 0 -2737150.8256368637 14349.679958760738 0 0 0 0 -2237265.2443237305 123763.77750325203 0 123763.77750325203 888897.91039276123 0 0 0 0 -1855769.3243186399 214188.28515479434 0 214188.28515479434 1604136.2483313757 0 0 0 0 -1675387.8564300537 284150.37311339378 0 284150.37311339378 1484801.5595312119 0 0 0 0 -3378661.7180434316 292721.18180158176 0 292721.18180158176 1903051.6586757984 0 0 0 0 -2643178.6831054688 -2156639.3930492401 0 -2156639.3930492401 3119670.1676015854 0 0 0 0 -4362493.1705250889 612548.16550990753 0 612548.16550990753 1209665.294379157 0 0 0 0 -976691.01367259026 428501.30959401466 0 428501.30959401466 620213.90927675366 0 0 0 0 -22284437.228561401 6009383.3825650215 0 6009383.3825650215 -100074.96218681335 0 0 0 0 2187263.8404998779 1721708.0063317716 0 1721708.0063317716 2502499.6831624508 0 0 0 0 -7277411.5462036133 176810.31403720379 0 176810.31403720379 2601884.925471589 0 0 0 0 -9941004.8833618164 -3334192.4581692517 0 -3334192.4581692517 193263.84611061215 0 0 0 0 -12142016.961181641 4024694.4665696453 0 4024694.4665696453 4956089.8570034876 0 0 0 0 -10050825.762817383 -1807692.9714299063 0 -1807692.9714299063 1780997.2673529403 0 0 0 0 2293494.6249084473 2479947.7533473969 0 2479947.7533473969 9434882.467654705 0 0 0 0 129435.95456399024 1005825.7178909776 0 1005825.7178909776 157304.82519088202 0 0 0 0 -533461.88156635687 552905.37466777954 0 552905.37466777954 930618.55631544569 0 0 0 0 -6079330.5326843262 5572126.9982862473 0 5572126.9982862473 17455707.736038566 0 0 0 0 11703036.735206604 -5521823.6103811264 0 -5521823.6103811264 10504875.751566947 0 0 0 0 -24109260.726577759 2190902.9198747873 0 2190902.9198747873 6466026.4412582284 0 0 0 0 -17174719.742004395 -1919432.9844738194 0 -1919432.9844738194 3446661.6927405847 0 0 0 0 -48072763.687431335 29319980.772647083 0 29319980.772647083 6690340.7833608389 0 0 0 0 6010765.2905273438 -109367.76308512688 0 -109367.76308512688 4014033.4415347576 0 0 0 0 -158968.45391800255 398791.96493730694 0 398791.96493730694 214731.08182651945 0 0 0 0 -4826122.3341315985 1390836.2667540484 0 1390836.2667540484 2082759.921456656 0 0 0 0 -1633997.4391040578 1482455.1138752447 0 1482455.1138752447 1565296.4566701557 0 0 0 0 -481769.31729125977 1138533.1052459478 0 1138533.1052459478 2999603.4266777039 0 0 0 0 -4825592.9829249978 920039.15012744628 0 920039.15012744628 2247295.7226663902 0 0 0 0 -4742118.6449588835 -73684.403112124652 0 -73684.403112124652 2010354.4291939985 0 0 0 0 -2857552.4369125366 466753.03270375729 0 466753.03270375729 2710713.5609545708 0 0 0 0 -572016.10481262207 4683890.3548732996 0 4683890.3548732996 7819448.9472327232 0 0 0 0 -2395958.3031921387 -70223.036734104156 0 -70223.036734104156 3116604.0759198666 0 0 0 0 -2587708.3697075695 1178693.3020717148 0 1178693.3020717148 322764.35372060607 0 0 0 0 -2593979.7953166962 391923.35364297032 0 391923.35364297032 2795906.8612635136 0 0 0 0 -715058.50939941406 -827310.14876651764 0 -827310.14876651764 6083270.8841056228 0 0 0 0 -2485412.2057952881 1086079.2086138725 0 1086079.2086138725 220280.80764579773 0 0 0 0 -1003722.2192077637 -107017.1744222641 0 -107017.1744222641 6139959.8179531693 0 0 0 0 -2237440.0212471485 95702.372011497617 0 95702.372011497617 2487888.0024867058 0 0 0 0 -4723589.840376921 526631.48193161888 0 526631.48193161888 2080484.912204056 0 0 0 0 -1274291.8796160966 -718834.50401168538 0 -718834.50401168538 1655923.0642343331 0 0 0 0 -13522.452656906098 13571.566584676504 0 13571.566584676504 -12503.697756125708 0 0 0 0 -23049369.521278381 -1962537.3512601852 0 -1962537.3512601852 -8871079.1279881001 0 0 0 0 -4669673.5387434438 -436091.57482031174 0 -436091.57482031174 1724579.6334332912 0 0 0 0 -2474784.2752304077 1139146.8284875154 0 1139146.8284875154 484097.59195041656 0 0 0 0 -43310346.942932129 23634733.889105797 0 23634733.889105797 -10185632.197526932 0 0 0 0 -42190087.857543945 41961173.030575752 0 41961173.030575752 19155266.660841942 0 0 0 0 -349098.51692960784 -249420.9174615927 0 -249420.9174615927 319108.3298303138 0 0 0 0 -13557790.649078369 9581496.2136306763 0 9581496.2136306763 -497925.49253177643 0 0 0 0 -3439788.9340319857 2683175.6975870207 0 2683175.6975870207 1088293.5489339763 0 0 0 0 -2289753.3369084783 651381.29121261835 0 651381.29121261835 219351.20913069975 0 0 0 0 5796676.8982696533 -711462.73687076569 0 -711462.73687076569 -10843652.733718872 0 0 0 0 -8272070.2759399414 -1562475.2238326073 0 -1562475.2238326073 -10165797.515657902 0 0 0 0 10011522.338150024 2830744.5770225525 0 2830744.5770225525 -19476565.441802979 0 0 0 0 -34788251.845550537 5016527.3749799728 0 5016527.3749799728 -11148488.313833237 0 0 0 0 -2570382.0070343018 -105857.98095798492 0 -105857.98095798492 3422942.0781610012 0 0 0 0 -20753028.518218994 12052685.955254018 0 12052685.955254018 -2801992.7895402908 0 0 0 0 679017.23324584961 3055981.3633155823 0 3055981.3633155823 -1552660.4052009583 0 0 0 0 -933921.8682622537 2175069.3169651157 0 2175069.3169651157 1123541.4161877187 0 0 0 0 -7725299.2063449565 1120669.1516717933 0 1120669.1516717933 1730619.621189967 0 0 0 0 -3247583.3034973145 -1040593.7799761295 0 -1040593.7799761295 6226565.739522934 0 0 0 0 -1300123.6434707642 123202.13912594318 0 123202.13912594318 2821568.3764619827 0 0 0 0 -5349569.4834504053 1134850.0323177374 0 1134850.0323177374 1841166.4000745495 0 0 0 0 -7951468.6089396775 1010486.8354171958 0 1010486.8354171958 1234846.3156558964 0 0 0 0 -4500677.8317201547 3168837.7008795012 0 3168837.7008795012 1951922.6359231689 0 0 0 0 6165153.2273788452 8270655.8176670074 0 8270655.8176670074 3644699.2646398544 0 0 0 0 -25076319.693977356 -35212717.549326897 0 -35212717.549326897 68692549.333553791 0 0 0 0 -9915284.5715141296 3612185.490100503 0 3612185.490100503 12239654.249107361 0 0 0 0 7220082.7673492432 -95320763.353056908 0 -95320763.353056908 -1965174.1036148071 0 0 0 0 41900321.855888367 -83468084.258827925 0 -83468084.258827925 -103620572.70327377 0 0 0 0 37586878.876907349 5500256.0737791061 0 5500256.0737791061 -166250496.31788874 0 0 0 0 9550125.9935455322 -6564473.353600502 0 -6564473.353600502 -33120918.883882046 0 0 0 0 -12345968.371032715 28360377.390156269 0 28360377.390156269 -28753114.194678307 0 0 0 0 -91258948.21622467 82157096.887153625 0 82157096.887153625 -79292796.450505733 0 0 0 0 10879083.095321655 -5668735.9236989021 0 -5668735.9236989021 -13700155.828334808 0 0 0 0 17519928.752235413 -1945462.4648127556 0 -1945462.4648127556 -60812202.875658989 0 0 0 0 10317580.663787842 5916108.7674617767 0 5916108.7674617767 -28843445.594800949 0 0 0 0 5573802.380355835 12968039.509028435 0 12968039.509028435 -27161698.986875772 0 0 0 0 934999.96170806885 14002546.131909609 0 14002546.131909609 -13428801.971138954 0 0 0 0 266944.02444458008 17799298.40612793 0 17799298.40612793 -13280064.905080274 0 0 0 0 -18310919.688011169 16116770.6787467 0 16116770.6787467 -19809905.52112627 0 0 0 0 -11787347.60244751 -2444496.1640458107 0 -2444496.1640458107 18845669.283765316 0 0 0 0 -69620040.658812523 30025315.377337217 0 30025315.377337217 1039629.6508455276 0 0 0 0 -25952334.833503723 -35933973.574329376 0 -35933973.574329376 85215089.154273748 0 0 0 0 16170302.967224121 -11871748.961981297 0 -11871748.961981297 27836008.028235435 0 0 0 0 -19830825.734733582 12286173.029931426 0 12286173.029931426 16884456.30553627 0 0 0 0 8530549.6066837311 13044056.808395803 0 13044056.808395803 13974589.68397665 0 0 0 0 -7268484.6561355591 9764386.2027451992 0 9764386.2027451992 39801756.688481331 0 0 0 0 -4112042.4682006836 11823868.320658684 0 11823868.320658684 13977019.296171188 0 0 0 0 -2710638.8949508667 3297642.6576228142 0 3297642.6576228142 5112819.0292317867 0 0 0 0 -9861550.5570449829 18217304.065146327 0 18217304.065146327 8540125.2289247513 0 0 0 0 -14658628.946548462 8507762.1399798393 0 8507762.1399798393 22771378.603602886 0 0 0 0 -14909022.734298706 17906114.569243908 0 17906114.569243908 7010889.2827858925 0 0 0 0 -26299476.329071045 21180724.388192177 0 21180724.388192177 9217480.3460030556 0 0 0 0 -24508921.639331818 19349163.331253767 0 19349163.331253767 -631227.863697052 0 0 0 0 -15426038.524009705 10865938.319485188 0 10865938.319485188 -896642.2423286438 0 0 0 0 -27483580.790284157 10450099.132089093 0 10450099.132089093 -19644832.170595169 0 0 0 0 -24759306.761520386 20175964.960151672 0 20175964.960151672 -2966973.35516119 0 0 0 0 -27875143.196289062 26528078.31106329 0 26528078.31106329 -11545275.266086578 0 0 0 0 -24712456.038421631 19124560.974114418 0 19124560.974114418 -667727.94824981689 0 0 0 0 -17466977.687110901 16733042.213267326 0 16733042.213267326 -25571444.244428635 0 0 0 0 -7432679.4026947021 7534136.753724575 0 7534136.753724575 -20148351.195316315 0 0 0 0 -2958426.575668335 -1812627.8939580917 0 -1812627.8939580917 -2920036.1905989647 0 0 0 0 -35477285.730987549 36102996.968774796 0 36102996.968774796 -28319052.046030045 0 0 0 0 -44407369.865142822 32083533.896665096 0 32083533.896665096 -26116966.322068214 0 0 0 0 -544206.42941076681 138951.26410894841 0 138951.26410894841 -44718.393073200248 0 0 0 0 -27615634.480262756 18062990.389516115 0 18062990.389516115 -8246552.4105262756 0 0 0 0 -27563039.868225098 16333702.332715034 0 16333702.332715034 -13409628.151340485 0 0 0 0 -5825131.1761627197 7725853.240776062 0 7725853.240776062 -14402953.664259434 0 0 0 0 -6279406.5941162109 5086703.0512666702 0 5086703.0512666702 -19615480.823561311 0 0 0 0 3999725.7953681946 12514402.608710766 0 12514402.608710766 -14662197.563807487 0 0 0 0 -764204.87159729004 5981720.7188808918 0 5981720.7188808918 -12630784.476628304 0 0 0 0 -8073081.1714782715 14661001.357047081 0 14661001.357047081 -1366118.7043063641 0 0 0 0 -12360270.538085938 7020034.5793402195 0 7020034.5793402195 -14915824.465871811 0 0 0 0 -2205967470.7675323 -292746523.04063642 0 -292746523.04063642 121882547.60960232 0 0 0 0 -1852585039.1615829 -81138193.743937463 0 -81138193.743937463 46465500.742663443 0 0 0 0 -1084502.5391234411 499108.91213370115 0 499108.91213370115 86669.935745033639 0 0 0 0 -2078153096.3571358 -193719668.14275491 0 -193719668.14275491 24069945.685405307 0 0 0 0 103013281.13907623 55653927.155687325 0 55653927.155687325 -57828253.365920305 0 0 0 0 -45464195.074501038 -14681202.049612284 0 -14681202.049612284 38809339.744357824 0 0 0 0 -2014740416.2146225 -185994082.02707008 0 -185994082.02707008 11319437.837007612 0 0 0 0 -1877213957.8717155 -69265055.747009143 0 -69265055.747009143 100843108.46062553 0 0 0 0 -36953944.989891052 -10749027.955183625 0 -10749027.955183625 11817856.452925302 0 0 0 0 -2981427.5573258009 1270008.6194037981 0 1270008.6194037981 242312.26937807328 0 0 0 0 25583260.078568459 18752786.634872645 0 18752786.634872645 2994474.3606707454 0 0 0 0 -1022427892.8540764 225747211.14456925 0 225747211.14456925 -207075667.86966553 0 0 0 0 -5237134.3231593985 1236809.1524886284 0 1236809.1524886284 691012.52753223549 0 0 0 0 30847852.197898865 20260069.52585876 0 20260069.52585876 -12806079.57024169 0 0 0 0 12245793.216758728 27311061.547868311 0 27311061.547868311 540894.38711166382 0 0 0 0 -2001551010.0368805 -176881802.74727106 0 -176881802.74727106 181415972.15771541 0 0 0 0 -2150548897.1664734 -273292524.37500715 0 -273292524.37500715 62073631.857997604 0 0 0 0 -2096057776.8373146 -89859675.363512203 0 -89859675.363512203 188243750.11923844 0 0 0 0 -2024939235.8778772 -172007879.50715727 0 -172007879.50715727 95604693.64462471 0 0 0 0 -2137298055.83815 -141234516.06270179 0 -141234516.06270179 -128729313.06181467 0 0 0 0 -2203574434.9590683 -100303931.19378592 0 -100303931.19378592 48290053.75184688 0 0 0 0 -2132100517.4439902 -83496764.568801895 0 -83496764.568801895 -510516977.80717349 0 0 0 0 -1987862733.1276512 -25402977.607684888 0 -25402977.607684888 80436.447746480597 0 0 0 0 -1713401474.3815765 -47176772.823136523 0 -47176772.823136523 82866035.531963795 0 0 0 0 -1493082331.5005951 -215296400.92597592 0 -215296400.92597592 44357654.816653565 0 0 0 0 -18590693.982910156 -2834827.5747900936 0 -2834827.5747900936 2527494.7256797841 0 0 0 0 -3207027.2224306948 -733426.25117876008 0 -733426.25117876008 -99307.686189805652 0 0 0 0 -731267475.75894165 -349894243.4857496 0 -349894243.4857496 -451078361.65603638 0 0 0 0 -4357074.9098737249 -725040.06630678475 0 -725040.06630678475 344836.14693328488 0 0 0 0 -13433660.98538208 -902431.98966130894 0 -902431.98966130894 2288968.5693050399 0 0 0 0 -9490992.2705230713 -2353069.5812154096 0 -2353069.5812154096 -161056.52097344311 0 0 0 0 -2432729191.1228714 -208532922.1662215 0 -208532922.1662215 207149527.14852288 0 0 0 0 -1430360278.0265274 -1003321517.0931509 0 -1003321517.0931509 -412070491.38188684 0 0 0 0 -1426384.2964659035 22479.828523529577 0 22479.828523529577 -23844.595708487086 0 0 0 0 -2214932843.2825365 717557045.49033952 0 717557045.49033952 -29012746.834534645 0 0 0 0 -2340168088.9140015 -381307405.46595067 0 -381307405.46595067 33891172.429830879 0 0 0 0 -18498291.385192871 -8711768.1733708382 0 -8711768.1733708382 15295739.172730923 0 0 0 0 -10427710.321580879 -1631971.831538565 0 -1631971.831538565 1169112.0545367696 0 0 0 0 36875343.098968506 41964830.497336745 0 41964830.497336745 48020194.595983505 0 0 0 0 -297157843.14912415 -10363727.220005274 0 -10363727.220005274 88165571.863125086 0 0 0 0 -9913113.0031021088 313058.52304345154 0 313058.52304345154 744443.08518934075 0 0 0 0 27455790.418861389 -125145030.06335318 0 -125145030.06335318 -25559247.177171946 0 0 0 0 64039090.283912659 -8712016.7105563879 0 -8712016.7105563879 -37952142.984421253 0 0 0 0 170638614.2180481 93058333.525834084 0 93058333.525834084 57891767.238047123 0 0 0 0 -937329.44119112194 -138555.84223183617 0 -138555.84223183617 371553.93942034012 0 0 0 0 14398519.10446167 65522651.483448014 0 65522651.483448014 8777001.0482579619 0 0 0 0 -6427876.4595680237 -391939.99885097146 0 -391939.99885097146 1155888.4170834534 0 0 0 0 -3877306.3710534535 -1003687.9148145206 0 -1003687.9148145206 714316.36179306754 0 0 0 0 -13120140.153297424 -6216641.1473540571 0 -6216641.1473540571 7213692.5217766222 0 0 0 0 -9321009.6732940674 1437893.6896129213 0 1437893.6896129213 724319.90869540349 0 0 0 0 -9694909.1536941528 151151.90991073684 0 151151.90991073684 -2108365.7510941983 0 0 0 0 -8553141.7876434326 -2117319.1891414844 0 -2117319.1891414844 2215130.0781380786 0 0 0 0 -23201992.523200989 -12251842.316340692 0 -12251842.316340692 -681343.17946607992 0 0 0 0 -1708653.9298892245 -742456.36331237853 0 -742456.36331237853 -167523.08489884253 0 0 0 0 -4676831.2121772766 2777219.9512212249 0 2777219.9512212249 243622.71404517721 0 0 0 0 -623279.95845413208 1934964.87398282 0 1934964.87398282 892.02560009390095 0 0 0 0 -5296523.9130020142 -2090994.7437704219 0 -2090994.7437704219 810299.71837377572 0 0 0 0 -9940029.9456138611 2368507.9846249097 0 2368507.9846249097 -4581.9358393874845 0 0 0 0 -21004193.028236389 -40429.739282192371 0 -40429.739282192371 8623997.1544784475 0 0 0 0 -16053579.912063599 -5461672.6891487464 0 -5461672.6891487464 -99339.493034814979 0 0 0 0 -34703996.787445068 -19441084.924528845 0 -19441084.924528845 -4977747.4017263707 0 0 0 0 -1022100.546255067 -588003.9931206461 0 -588003.9931206461 -308471.19465768669 0 0 0 0 -13789514.092254639 -45474.954716656357 0 -45474.954716656357 2100722.5970862457 0 0 0 0 -22147566.548797607 -3891404.2684441302 0 -3891404.2684441302 18279702.968190938 0 0 0 0 -14738014.216205597 -1027780.2117215982 0 -1027780.2117215982 4852810.4225490019 0 0 0 0 -12084741.87673378 6572026.343654952 0 6572026.343654952 6572266.1642585117 0 0 0 0 -14769142.645561218 -1703750.2331244014 0 -1703750.2331244014 15445323.740821257 0 0 0 0 -6915764.8324127197 3154542.7228409909 0 3154542.7228409909 6193889.4971392285 0 0 0 0 -4314317.6894226074 -28815012.996366978 0 -28815012.996366978 31071690.693456635 0 0 0 0 -9073630.3429047167 -747858.25572010258 0 -747858.25572010258 377781.89444542443 0 0 0 0 -29227692.568616867 -5298211.786526382 0 -5298211.786526382 10016258.635820389 0 0 0 0 -25897428.688400269 3144641.0654294491 0 3144641.0654294491 -9127979.2162392139 0 0 0 0 -8100282.0576059297 -951289.6599780753 0 -951289.6599780753 137485.97444734519 0 0 0 0 142254197.62316895 -26675766.153148651 0 -26675766.153148651 -12498771.569075108 0 0 0 0 -23417946.620666504 -6606104.0823166072 0 -6606104.0823166072 982320.23739309609 0 0 0 0 -10488480.769111633 3965695.5236469805 0 3965695.5236469805 9386203.4568733349 0 0 0 0 25683051.681058921 27691800.32787307 0 27691800.32787307 -323186.81569862366 0 0 0 0 -627870.39432400465 -115143.37859781645 0 -115143.37859781645 397004.56790712697 0 0 0 0 7838765.731048584 -6998912.2951501012 0 -6998912.2951501012 -371629.98002779484 0 0 0 0 -1048983.8842825983 169964.55911176652 0 169964.55911176652 112519.89218013888 0 0 0 0 12601504.078445435 -9557334.9825330973 0 -9557334.9825330973 -1384969.1439582109 0 0 0 0 -30599449.668457031 -10811195.767494082 0 -10811195.767494082 -6513917.5579838753 0 0 0 0 8641652.404510498 -2037700.4015475512 0 -2037700.4015475512 -1772693.5362956524 0 0 0 0 10274028.300552368 -4384561.8724775314 0 -4384561.8724775314 -6118414.8829512596 0 0 0 0 18586235.749391556 4271067.1404025704 0 4271067.1404025704 -2743445.0757886171 0 0 0 0 -1224148.2283552252 -768963.44033604674 0 -768963.44033604674 264908.0063345753 0 0 0 0 19419827.985328674 -4500588.6879442334 0 -4500588.6879442334 -3620680.3380297422 0 0 0 0 12167671.71175766 -9971868.6195694096 0 -9971868.6195694096 -11146231.735111482 0 0 0 0 -21221804.030653954 -17668769.109042391 0 -17668769.109042391 15443632.426671743 0 0 0 0 36371104.386310577 -24385584.240076318 0 -24385584.240076318 -5160635.6623731703 0 0 0 0 1170.9947831407189 2161.5799499861896 0 2161.5799499861896 -383590.11718719266 0 0 0 0 -228377292.46447754 -13418223.339881718 0 -13418223.339881718 52765913.335122108 0 0 0 0 -74380404.972671509 26843221.196498454 0 26843221.196498454 -12160538.608925104 0 0 0 0 -46312178.644958496 -33134209.926502943 0 -33134209.926502943 -21623661.744837582 0 0 0 0 -36481369.830551147 -7092239.9092635214 0 -7092239.9092635214 -16578634.858831294 0 0 0 0 -2470731.382850647 -5374741.5682327151 0 -5374741.5682327151 -11613414.466968507 0 0 0 0 -72831155.423915863 3093302.7447195798 0 3093302.7447195798 9702842.1795065999 0 0 0 0 -463776.91394863278 -582526.23837330565 0 -582526.23837330565 -713230.9521104818 0 0 0 0 -2324897.723319862 -1167213.2343770098 0 -1167213.2343770098 2325709.5536335413 0 0 0 0 -70697452.997772217 -28329683.794210926 0 -28329683.794210926 4226040.9395960923 0 0 0 0 -53496575.322048187 1941622.1409461424 0 1941622.1409461424 4606971.1246854663 0 0 0 0 -2891552.4636116028 -11664716.821477175 0 -11664716.821477175 -7064312.5959544182 0 0 0 0 1450542.6222038269 1305003.8467533588 0 1305003.8467533588 -2600011.8317146301 0 0 0 0 9655003.5027961731 -4708747.342825532 0 -4708747.342825532 -6272699.7517299652 0 0 0 0 -181604.1579308752 -2278190.0064801164 0 -2278190.0064801164 -4457525.8166473499 0 0 0 0 -10764952.710428238 -9650895.104947865 0 -9650895.104947865 -1907637.0910844803 0 0 0 0 -9779350.8190383911 -5372596.2385203838 0 -5372596.2385203838 -1859451.3808813095 0 0 0 0 -1093352.5915092342 -1187103.2036552913 0 -1187103.2036552913 -3722019.6226743865 0 0 0 0 -106305816.13148499 101210935.02966595 0 101210935.02966595 -170998080.01830101 0 0 0 0 -5187588.3469772339 -11973919.533148348 0 -11973919.533148348 -6931045.7281835079 0 0 0 0 6879459.8073120117 -5543027.6561937332 0 -5543027.6561937332 -5516353.676184535 0 0 0 0 -8763333.4732589722 -7453390.7518265843 0 -7453390.7518265843 -6221705.6870574951 0 0 0 0 9079535.0542602539 -6999401.6079275608 0 -6999401.6079275608 -9138274.4531071186 0 0 0 0 6315055.7335662842 -5339858.3797882795 0 -5339858.3797882795 -4169549.431686759 0 0 0 0 5904431.6585388184 -3503090.3766298294 0 -3503090.3766298294 -1995832.901919961 0 0 0 0 10834816.513961792 2171348.5749560595 0 2171348.5749560595 -300353.63762742281 0 0 0 0 -52078064.248352051 -48465737.078449249 0 -48465737.078449249 -43907315.399711609 0 0 0 0 -164155.88710021973 -7712372.1319618225 0 -7712372.1319618225 48260353.328247547 0 0 0 0 -3583931.3992301002 1237888.374739809 0 1237888.374739809 1663396.1002303362 0 0 0 0 -193043580.38669586 -136123000.11183286 0 -136123000.11183286 -165131078.65856361 0 0 0 0 -140870852.57116699 -26431387.921329498 0 -26431387.921329498 -5423808.8602409363 0 0 0 0 -15512952.759429932 -17362257.912723541 0 -17362257.912723541 50662813.389088631 0 0 0 0 -95637706.095092773 -64890615.258447647 0 -64890615.258447647 5174225.2270507812 0 0 0 0 -35270562.709533691 23320900.54061079 0 23320900.54061079 25109558.880329132 0 0 0 0 -198100636.83889771 -87961269.249158859 0 -87961269.249158859 10665077.001778603 0 0 0 0 -242612795.26449585 -59216013.60046196 0 -59216013.60046196 41230489.174261093 0 0 0 0 -354579892.40628052 -105782161.92941475 0 -105782161.92941475 74467083.2040627 0 0 0 0 -369069403.33398438 -133322975.07043123 0 -133322975.07043123 36459499.552085876 0 0 0 0 -294290970.07044983 -120804714.42941046 0 -120804714.42941046 8550481.4857063293 0 0 0 0 -382069142.50061035 -123457106.15540123 0 -123457106.15540123 116654000.28032875 0 0 0 0 -360095893.70672607 -196039113.94467449 0 -196039113.94467449 38315400.941444397 0 0 0 0 -340415243.2973175 -206912943.87153721 0 -206912943.87153721 -102426808.59814644 0 0 0 0 -345191723.72750854 -155858748.45857239 0 -155858748.45857239 3195917.9657492638 0 0 0 0 -345003460.12670898 -142119989.59922409 0 -142119989.59922409 38193872.516704559 0 0 0 0 -397052757.74851227 -352747072.25636864 0 -352747072.25636864 -199535206.79234898 0 0 0 0 -420791853.59451294 128922190.00118923 0 128922190.00118923 19475133.671537638 0 0 0 0 -30471890.283866882 101288871.35557556 0 101288871.35557556 12748144.439949036 0 0 0 0 -1190399.0861137696 400482.75146907195 0 400482.75146907195 473945.03136842372 0 0 0 0 -547530941.17810059 -258028491.08856106 0 -258028491.08856106 -4912640.8779764175 0 0 0 0 -642655840.34370422 368717986.19526672 0 368717986.19526672 -86788730.127405167 0 0 0 0 -1992730.4315032959 -36254210.002077103 0 -36254210.002077103 385320.00836467743 0 0 0 0 -29146620.603529811 -35829467.442948364 0 -35829467.442948364 27037674.343891144 0 0 0 0 -12136314.746276855 4719710.2257859707 0 4719710.2257859707 36376056.535577387 0 0 0 0 4091726.7710571289 -25764465.810675144 0 -25764465.810675144 12285245.472545624 0 0 0 0 -57914.970881596208 118641.9547518082 0 118641.9547518082 60430.823394945823 0 0 0 0 3506105.9756183624 -40948611.759264946 0 -40948611.759264946 1294183.8694124222 0 0 0 0 742317.07875061035 -16938400.64925909 0 -16938400.64925909 -18768349.051923275 0 0 0 0 -44429665.266967773 61460369.392951488 0 61460369.392951488 -71509980.852937698 0 0 0 0 1195600.4049797058 -2211496.2189735174 0 -2211496.2189735174 -660610.49894094467 0 0 0 0 -56669761.643692017 1879839.9254071712 0 1879839.9254071712 13813174.447077751 0 0 0 0 -8050959.9163665771 5699201.789355278 0 5699201.789355278 670876.47135066986 0 0 0 0 -31643363.451339722 207681.03970170021 0 207681.03970170021 4289464.408290863 0 0 0 0 -1713831.947327123 -172789.98628476262 0 -172789.98628476262 3427357.0804709778 0 0 0 0 -492359.7735572122 111460.97539535537 0 111460.97539535537 489863.36739480076 0 0 0 0 -2118866.5352478027 -375467.03795051575 0 -375467.03795051575 -571769.26557540894 0 0 0 0 2646751.5015563965 7249902.9348685741 0 7249902.9348685741 11532221.826239586 0 0 0 0 9671149.1200180054 -14597589.537984133 0 -14597589.537984133 26764426.960180283 0 0 0 0 -3801499.1755065918 8417308.8024845123 0 8417308.8024845123 -11322754.489700317 0 0 0 0 28391.914888650179 54564.89017370902 0 54564.89017370902 244592.3739213394 0 0 0 0 -40007321.461639404 24777643.922777176 0 24777643.922777176 45121472.491168976 0 0 0 0 -33444851.434997559 9074074.9893989563 0 9074074.9893989563 37773965.165088654 0 0 0 0 36158728.972167969 25730290.205280304 0 25730290.205280304 27127107.107364655 0 0 0 0 -56815994.921981812 24022227.419418335 0 24022227.419418335 40588708.121644974 0 0 0 0 -30480526.916992188 43161501.228740692 0 43161501.228740692 69371264.966205597 0 0 0 0 -36786530.277410507 -4724152.6339716911 0 -4724152.6339716911 3245343.268409729 0 0 0 0 50501803.642883301 66835710.046136856 0 66835710.046136856 46590412.543085098 0 0 0 0 -2679286.0270477468 1369484.2111357525 0 1369484.2111357525 1751333.1545811254 0 0 0 0 100259092.43447876 46131630.367582321 0 46131630.367582321 17718532.520412445 0 0 0 0 -3108661.8303146362 713893.43947958946 0 713893.43947958946 726194.42150497437 0 0 0 0 -3511655.2486686409 468729.96757219173 0 468729.96757219173 4323658.7454178948 0 0 0 0 38932898.441650391 41679867.910878181 0 41679867.910878181 26537731.58644104 0 0 0 0 -5235123.1011641845 1811269.7763974275 0 1811269.7763974275 3322703.5611779015 0 0 0 0 -1337661.1492966264 -364136.01695903763 0 -364136.01695903763 2725343.0739127835 0 0 0 0 -2747166.3028056324 1497012.0372077432 0 1497012.0372077432 918124.82733854442 0 0 0 0 -9659477.8655853271 4288678.1405821741 0 4288678.1405821741 7433129.3804504871 0 0 0 0 -4001506.6990737915 -2141909.358614862 0 -2141909.358614862 -4491500.1073458195 0 0 0 0 -63258357.043212891 -1999883.8426742554 0 -1999883.8426742554 43552630.916282654 0 0 0 0 -84543244.730651855 -42479881.054094315 0 -42479881.054094315 16365934.67086792 0 0 0 0 -1372961.9907226562 2247635.8863811493 0 2247635.8863811493 6248680.7143249512 0 0 0 0 -4777448.590423584 6279165.2900032997 0 6279165.2900032997 2848710.8574652076 0 0 0 0 -1412303.0533338487 231240.63332755491 0 231240.63332755491 1988616.2174089253 0 0 0 0 1168254.7495727539 3573237.7855215073 0 3573237.7855215073 4967842.5805683136 0 0 0 0 -21037829.117126465 -3775884.3733763695 0 -3775884.3733763695 1014812.1061947346 0 0 0 0 -6788830.5745391846 -2202568.2552401423 0 -2202568.2552401423 -373024.42371940613 0 0 0 0 -8427515.3298187256 2189523.0374126434 0 2189523.0374126434 3958829.8431837559 0 0 0 0 3479304.7589263916 -8729412.0606803894 0 -8729412.0606803894 -3182302.2590637207 0 0 0 0 -81572.183136064559 -7893.8289546947926 0 -7893.8289546947926 37345.031583157019 0 0 0 0 3968970.7021789551 6249764.440612793 0 6249764.440612793 9277253.5258798599 0 0 0 0 153342.15498828888 9258631.4701944888 0 9258631.4701944888 10388951.122096777 0 0 0 0 396047.95180511475 7136709.6501225829 0 7136709.6501225829 2936623.3826014996 0 0 0 0 1516821.2741699219 2739500.8414320946 0 2739500.8414320946 5277776.9943196774 0 0 0 0 -1044392.8623743504 1262541.471037386 0 1262541.471037386 -230561.62648607069 0 0 0 0 -7850025.5692596436 1519239.2636648417 0 1519239.2636648417 7153094.4870790467 0 0 0 0 -7024254.3269195557 11078299.579373658 0 11078299.579373658 5584706.9395387173 0 0 0 0 7195523.4834747314 9473914.2225236893 0 9473914.2225236893 8602852.2340521812 0 0 0 0 -1838801.4058567267 713362.55256308988 0 713362.55256308988 4020149.9456070685 0 0 0 0 -15294026.13343811 8950845.6215649247 0 8950845.6215649247 9039423.3518807888 0 0 0 0 -40805030.220581055 -32632977.620121002 0 -32632977.620121002 -50509021.66518116 0 0 0 0 -17951590.704711914 3264323.4365577996 0 3264323.4365577996 10734376.443211079 0 0 0 0 -780527.89262566902 -553718.23840646818 0 -553718.23840646818 -496495.60722994898 0 0 0 0 -11046867.276416779 -4700001.0932660103 0 -4700001.0932660103 34811627.86720562 0 0 0 0 -116586946.66796875 91736744.25890255 0 91736744.25890255 -56443359.615450859 0 0 0 0 -573023008.23425293 30107827.460859299 0 30107827.460859299 13208627.83793664 0 0 0 0 -536170530.59510803 -42969361.207636356 0 -42969361.207636356 31816187.798213005 0 0 0 0 -322289869.85842896 68376477.031179428 0 68376477.031179428 18922952.359870911 0 0 0 0 -297098499.65904236 -15536960.053690434 0 -15536960.053690434 -37555766.469150543 0 0 0 0 -291327298.65194702 -22675895.151603699 0 -22675895.151603699 -39330396.118987083 0 0 0 0 -408280526.72036743 -48308631.49279213 0 -48308631.49279213 -12079441.779730797 0 0 0 0 -27744000.230918884 1713510.6749715805 0 1713510.6749715805 -99528376.368091583 0 0 0 0 -157130348.29312134 9940048.6980810165 0 9940048.6980810165 -49669478.496153116 0 0 0 0 -152533917.87597656 -24706491.934365273 0 -24706491.934365273 -33031882.895395279 0 0 0 0 -106297895.68725586 -5805739.0138044357 0 -5805739.0138044357 -33510205.391702056 0 0 0 0 -175395396.66230774 -46425223.745755196 0 -46425223.745755196 16641619.95438385 0 0 0 0 -284728919.29740906 -26618723.32952404 0 -26618723.32952404 -4779171.3790855408 0 0 0 0 -277629461.28729248 -31177817.435914993 0 -31177817.435914993 -63225885.739015579 0 0 0 0 -180995059.75668335 -29548601.285497665 0 -29548601.285497665 -13148086.585731506 0 0 0 0 -278545728.31291199 -23253322.031821966 0 -23253322.031821966 26446025.437368393 0 0 0 0 -170879447.86471558 -53270961.189546585 0 -53270961.189546585 23866462.466623306 0 0 0 0 -302373955.48530579 -73349272.718460321 0 -73349272.718460321 46222596.395242691 0 0 0 0 -316805771.71388245 -50475566.223760605 0 -50475566.223760605 47459687.900842667 0 0 0 0 -253742184.29849243 -83114011.168511391 0 -83114011.168511391 39021154.335347772 0 0 0 0 -237518828.40945435 -38990118.220396042 0 -38990118.220396042 45515858.298995972 0 0 0 0 -95729198.819641113 -34323363.520206451 0 -34323363.520206451 9671293.7961325645 0 0 0 0 -146598111.08889771 -5967970.3191375732 0 -5967970.3191375732 22549367.565811157 0 0 0 0 -30061263.530117989 -7032343.323809538 0 -7032343.323809538 -2307626.7145318985 0 0 0 0 -1011056.0043963622 -855058.69426383078 0 -855058.69426383078 -2683153.1491473517 0 0 0 0 -395281431.96655273 -76195344.577109814 0 -76195344.577109814 62878955.155529976 0 0 0 0 -374957750.45298767 -99208986.998755455 0 -99208986.998755455 88552803.958620071 0 0 0 0 -388220272.59231567 -64129576.230830193 0 -64129576.230830193 72441071.013607025 0 0 0 0 -340421679.13867188 -97296481.223126411 0 -97296481.223126411 74181311.36733228 0 0 0 0 -374626579.12261963 -48597109.826748848 0 -48597109.826748848 39022361.452842712 0 0 0 0 -370971669.42983246 -28972676.584137917 0 -28972676.584137917 -54644138.014842987 0 0 0 0 -320688435.03799438 -57169582.285763741 0 -57169582.285763741 34363812.990737915 0 0 0 0 -3419688.6638289988 31151.093406509608 0 31151.093406509608 103934.15932354936 0 0 0 0 -14464863.120872498 -3046628.8636687994 0 -3046628.8636687994 -2169362.7637163214 0 0 0 0 -1559453.3324585296 -757669.7295056656 0 -757669.7295056656 -1697236.6011824729 0 0 0 0 -584059690.32763672 -185068293.11337709 0 -185068293.11337709 9875343.4998817444 0 0 0 0 -489406247.46907806 -203406670.61485624 0 -203406670.61485624 -68583280.498955727 0 0 0 0 -346169675.27511597 -116658763.79660797 0 -116658763.79660797 -140605094.55088806 0 0 0 0 -14400408.579786301 -2729549.9115949869 0 -2729549.9115949869 -616398.86908841133 0 0 0 0 25909523.542970598 -109647512.97978871 0 -109647512.97978871 17646245.665409088 0 0 0 0 -582024983.73709106 -173455757.63498306 0 -173455757.63498306 -37363588.189602852 0 0 0 0 -7394919.141463846 -1518788.8299820723 0 -1518788.8299820723 -18924.025293375042 0 0 0 0 -12171426.922485352 -2376320.7499287575 0 -2376320.7499287575 -342235.09617289691 0 0 0 0 39350205.397567749 -91160484.761496067 0 -91160484.761496067 -33800699.35500145 0 0 0 0 -3045.6799934282899 71641.975550901145 0 71641.975550901145 -543124.21024366096 0 0 0 0 -884226909.03016663 -115444068.72936583 0 -115444068.72936583 41578155.09973526 0 0 0 0 -724281938.93995667 -22448670.334430695 0 -22448670.334430695 4883338.1092939377 0 0 0 0 -651213550.8707428 -388959222.64501643 0 -388959222.64501643 -173693437.77472305 0 0 0 0 -17119.586972273886 -110054.96032873844 0 -110054.96032873844 -81205.519699174911 0 0 0 0 -834446511.12911987 -205322163.3846283 0 -205322163.3846283 171842595.65281299 0 0 0 0 -718940001.10090637 -176921624.72760189 0 -176921624.72760189 -127044473.48466897 0 0 0 0 -2896767.7568700816 253909.99931930751 0 253909.99931930751 -1193714.7904043642 0 0 0 0 -8610355.3987045288 -432929.240920607 0 -432929.240920607 -790385.27428794652 0 0 0 0 -689488228.62336731 -272840089.7162593 0 -272840089.7162593 55173485.344161153 0 0 0 0 -257095746.25798035 -217186237.4039228 0 -217186237.4039228 -85519951.807731152 0 0 0 0 -11650889.130146027 785585.24309526943 0 785585.24309526943 313045.38518687338 0 0 0 0 -4175881.3445587158 5642277.1577168889 0 5642277.1577168889 6297410.2369575426 0 0 0 0 -3034836.556502752 -237151.76518969238 0 -237151.76518969238 111950.94912612325 0 0 0 0 -13377385.241287231 -2228050.2890834622 0 -2228050.2890834622 1044293.9690157175 0 0 0 0 1970265.6065368652 14158088.959221222 0 14158088.959221222 10364419.431241974 0 0 0 0 -19339412.767414093 -8245481.9667588724 0 -8245481.9667588724 8150620.4040538147 0 0 0 0 -923711.09044588916 -98775.970343310386 0 -98775.970343310386 27356.806113810158 0 0 0 0 -979401.60189379193 163163.38026347011 0 163163.38026347011 -204292.09405591921 0 0 0 0 11461870.205276489 40311650.125552781 0 40311650.125552781 25959026.511884734 0 0 0 0 2230729.2272644043 10178761.187651522 0 10178761.187651522 23882958.276496466 0 0 0 0 -33703889.156494141 2741498.1030673981 0 2741498.1030673981 30151637.528946139 0 0 0 0 -65461792.233535767 -11556222.646039037 0 -11556222.646039037 191656.9002658707 0 0 0 0 -21249993.518383026 45466806.603137374 0 45466806.603137374 47517618.114964709 0 0 0 0 -426707157.56741333 60682704.765659876 0 60682704.765659876 66047928.658912785 0 0 0 0 -16570087.427932739 -9195533.8298461959 0 -9195533.8298461959 12051171.138347758 0 0 0 0 -8046249.8721389771 4830759.6246966114 0 4830759.6246966114 1054876.8667104901 0 0 0 0 -68632146.427728653 42309677.953160375 0 42309677.953160375 25579547.347109437 0 0 0 0 -76280651.45873642 72096229.081372172 0 72096229.081372172 -59919177.439238727 0 0 0 0 -31054010.8984375 35892554.090143234 0 35892554.090143234 -259006.35650953732 0 0 0 0 -303032859.51676559 -220634222.36417833 0 -220634222.36417833 -193627424.49012569 0 0 0 0 -255269.95999192074 174895.39967603236 0 174895.39967603236 616265.94371804956 0 0 0 0 -764247451.23042297 -164693837.53677884 0 -164693837.53677884 215960376.73005053 0 0 0 0 -138250906.1566391 -88148481.030658245 0 -88148481.030658245 -149850067.64559305 0 0 0 0 65026192.787071228 -41216816.868293338 0 -41216816.868293338 -14319602.224934906 0 0 0 0 -43048254.805130005 -69157772.845400199 0 -69157772.845400199 42430162.279360816 0 0 0 0 -44434696.686101437 -44363562.200337581 0 -44363562.200337581 -57121010.152150005 0 0 0 0 -33769914.589626312 -20028536.456144489 0 -20028536.456144489 18588556.134482503 0 0 0 0 -17197105.519943237 -11425580.000212252 0 -11425580.000212252 16844807.499744877 0 0 0 0 -465463250.24745178 -37157013.326426744 0 -37157013.326426744 36844149.6907866 0 0 0 0 -77589957.010955811 106355468.21546316 0 106355468.21546316 -8702666.7427198887 0 0 0 0 -845681.64009993803 412378.27586079761 0 412378.27586079761 2158910.1783319972 0 0 0 0 47652164.501186371 39074780.789972156 0 39074780.789972156 -43655661.933225632 0 0 0 0 -14702871.301392555 -10295319.701027621 0 -10295319.701027621 9172200.6316014528 0 0 0 0 -7284620.5078277588 15268906.832129478 0 15268906.832129478 23656290.342512012 0 0 0 0 -12603357.562812805 -4628218.2225781083 0 -4628218.2225781083 22907822.509042442 0 0 0 0 -12434630.131607056 -3794894.4106936753 0 -3794894.4106936753 17652518.67478013 0 0 0 0 57638.894256621599 44716.843540882692 0 44716.843540882692 82648.620985849004 0 0 0 0 -1137114.8944198489 1026584.9770162217 0 1026584.9770162217 -99114.664674185333 0 0 0 0 10933921.790206909 23717916.166064918 0 23717916.166064918 27772711.070979238 0 0 0 0 13265691.328704834 16796068.037149191 0 16796068.037149191 13380919.019252539 0 0 0 0 11447394.334083557 -3147600.5883385539 0 -3147600.5883385539 5022035.8478713036 0 0 0 0 -7645517.0714797974 7129626.3497937322 0 7129626.3497937322 30751883.200043201 0 0 0 0 -11377801.812454224 18618317.100254953 0 18618317.100254953 45476517.788266897 0 0 0 0 4810621.2785186768 10595174.566843152 0 10595174.566843152 39480332.878872633 0 0 0 0 30839340.847351074 8745007.8173482418 0 8745007.8173482418 35768012.398300886 0 0 0 0 3420614.7490386963 27261772.737203538 0 27261772.737203538 34937421.892851472 0 0 0 0 -7427399.9331512451 6163469.5567736924 0 6163469.5567736924 29033505.828786433 0 0 0 0 -322626.25568861514 45964.476229989901 0 45964.476229989901 226675.98205550818 0 0 0 0 127398.07150268555 2966278.4947757721 0 2966278.4947757721 -3638187.5182474256 0 0 0 0 -55729644.569313049 -93247625.138091505 0 -93247625.138091505 -58140642.25648737 0 0 0 0 -16838134.429870605 3160730.2723646164 0 3160730.2723646164 -14475477.984425068 0 0 0 0 12596315.986083984 -9957401.2413886786 0 -9957401.2413886786 -10493779.797540426 0 0 0 0 -29842861.396430969 25029648.647749066 0 25029648.647749066 -10194810.435083866 0 0 0 0 -59400350.534912109 30022801.578423023 0 30022801.578423023 -7291143.0815279484 0 0 0 0 -70106706.055664062 7064168.1303064227 0 7064168.1303064227 -100391.54168725014 0 0 0 0 41414913.27641201 71174796.73421596 0 71174796.73421596 22882785.04981643 0 0 0 0 -525119.80741162226 575789.26965041831 0 575789.26965041831 -297696.3853737092 0 0 0 0 49732645.525588989 15908495.862556577 0 15908495.862556577 23184368.554443836 0 0 0 0 3691342.2026205063 65580019.393984675 0 65580019.393984675 36576617.56926322 0 0 0 0 -22091142.248538971 -42281.250012472272 0 -42281.250012472272 35906495.089419007 0 0 0 0 32479300.090515137 26161485.486411095 0 26161485.486411095 28845002.91506052 0 0 0 0 -31444494.581344604 35166810.005307943 0 35166810.005307943 32593582.992004961 0 0 0 0 7485125.5877933502 42545082.235513479 0 42545082.235513479 21286493.748028278 0 0 0 0 -20041464.815963745 -7316841.8415559679 0 -7316841.8415559679 23718102.155819774 0 0 0 0 -23484978.809585571 -7392858.791873157 0 -7392858.791873157 24274118.660966754 0 0 0 0 -72148525.488204956 100129066.06935304 0 100129066.06935304 -55927568.763558179 0 0 0 0 -65767689.001739502 -14435634.950835317 0 -14435634.950835317 25010522.732805885 0 0 0 0 -185324235.23448181 12496548.867690541 0 12496548.867690541 19021868.745990973 0 0 0 0 -78769396.375 62091932.151642032 0 62091932.151642032 16886482.237034645 0 0 0 0 23881837.072677612 32602339.123536784 0 32602339.123536784 15238139.471438229 0 0 0 0 47270945.587806702 70857802.822524428 0 70857802.822524428 -122503380.16301048 0 0 0 0 14038558.945892334 60288656.599320687 0 60288656.599320687 -47210672.757884033 0 0 0 0 69138061.349388123 31474624.77525121 0 31474624.77525121 -67843756.036193192 0 0 0 0 104672984.92892456 13345634.224278867 0 13345634.224278867 -64896989.216286518 0 0 0 0 -36597294.156574249 -6907273.2188627049 0 -6907273.2188627049 32391427.036217391 0 0 0 0 -320252.43478951603 123860.57554137288 0 123860.57554137288 -8704.1888904484076 0 0 0 0 -123736556.80905151 47853179.174749538 0 47853179.174749538 117372.86780368234 0 0 0 0 47879240.72996521 -14973756.037748139 0 -14973756.037748139 -149119.8562995781 0 0 0 0 -199025563.83251953 52486890.075541675 0 52486890.075541675 116044382.65235963 0 0 0 0 33419131.878257751 -10662477.838406365 0 -10662477.838406365 26826882.906770214 0 0 0 0 -772427.31297997385 133338.99067571457 0 133338.99067571457 18315.027980367468 0 0 0 0 12273767.364654541 15551384.11716008 0 15551384.11716008 32448.753360864976 0 0 0 0 -149244.76037228107 182405.36904459074 0 182405.36904459074 -146761.80488431558 0 0 0 0 75857999.36687088 -2658083.7513808459 0 -2658083.7513808459 -52605840.079541266 0 0 0 0 -149220.04736126866 119778.47611752898 0 119778.47611752898 2231.5613652471802 0 0 0 0 -308724573.91003418 7528128.0773919821 0 7528128.0773919821 99750051.874379635 0 0 0 0 -233848018.44485474 177178356.69429767 0 177178356.69429767 -110028041.50346959 0 0 0 0 -122103291.72329712 -70782117.145632267 0 -70782117.145632267 -10379039.548395157 0 0 0 0 -61041266.15158844 65964764.519693971 0 65964764.519693971 -38063822.83704257 0 0 0 0 -59993418.055809021 -15142311.491589665 0 -15142311.491589665 -50333027.305662632 0 0 0 0 106151187.72808409 -24032724.927683115 0 -24032724.927683115 -41271618.357712328 0 0 0 0 126821937.83006287 156814339.49156058 0 156814339.49156058 -45141366.065555453 0 0 0 0 -10281118.742614746 112212209.90269148 0 112212209.90269148 -54272194.202224374 0 0 0 0 175010992.71307373 -21291174.151453644 0 -21291174.151453644 -79182261.160987794 0 0 0 0 -37020153.814849854 -12760822.028399229 0 -12760822.028399229 -79260552.211345524 0 0 0 0 46568321.05960083 59507045.31590271 0 59507045.31590271 -90447990.582699537 0 0 0 0 -8821318.6950378418 24311139.54007709 0 24311139.54007709 -92166358.045551777 0 0 0 0 -17999394.293071747 29384977.882864445 0 29384977.882864445 -9019959.7842125893 0 0 0 0 -1698350.7778625488 -29657579.068618596 0 -29657579.068618596 -16035298.738404192 0 0 0 0 -66306100.285533905 -7139432.0987702459 0 -7139432.0987702459 52950558.072662711 0 0 0 0 -100229808.77687073 37848618.702803016 0 37848618.702803016 28149010.899179816 0 0 0 0 -87757035.871582031 -81967636.004561871 0 -81967636.004561871 -11765864.425464809 0 0 0 0 -471578.93955120072 301522.32891115546 0 301522.32891115546 211774.73200042651 0 0 0 0 16218013.659484863 -11605859.651535988 0 -11605859.651535988 1102980.8788568377 0 0 0 0 -27549045.759841919 15974091.748928964 0 15974091.748928964 -116634306.46393204 0 0 0 0 -101985125.94771957 -80578701.984010726 0 -80578701.984010726 45792314.491532803 0 0 0 0 -13164905.640907288 -3069604.6570193768 0 -3069604.6570193768 -18793516.571143508 0 0 0 0 -5652420.8112869263 10275240.449971139 0 10275240.449971139 48220097.548672765 0 0 0 0 -1633608.9277836494 998830.19086746685 0 998830.19086746685 -217484.72313681588 0 0 0 0 -4759092.2194800377 -4777866.957276402 0 -4777866.957276402 1912691.443775773 0 0 0 0 -22666857.168441772 85473458.840135574 0 85473458.840135574 75234844.978260517 0 0 0 0 -51488678.321899414 -48099486.513590813 0 -48099486.513590813 11402425.343022466 0 0 0 0 -1048966.2692710767 694795.53830964863 0 694795.53830964863 824128.23737977515 0 0 0 0 -1909528.0471651368 1382789.2113888189 0 1382789.2113888189 -339289.37953459553 0 0 0 0 -4019778.130241394 327820.41274410486 0 327820.41274410486 8296041.9389975667 0 0 0 0 -9039237.3076171875 3469832.349704355 0 3469832.349704355 -4523877.405898571 0 0 0 0 -45618849.459289551 7382635.5985503197 0 7382635.5985503197 23540491.268051207 0 0 0 0 -35761665.250579834 -13836166.234848499 0 -13836166.234848499 -38156795.920425713 0 0 0 0 -49053589.280517578 -24227763.983016253 0 -24227763.983016253 -7676722.6876554489 0 0 0 0 -650768.94262897223 325998.70773744956 0 325998.70773744956 414984.77919171267 0 0 0 0 -31331871.65272522 -15967625.921616077 0 -15967625.921616077 -8868682.2036151886 0 0 0 0 799255.7248840332 708116.99690264463 0 708116.99690264463 3476742.1195020676 0 0 0 0 852806.48709106445 2555276.1131558418 0 2555276.1131558418 2558073.8474321365 0 0 0 0 -37396606.937652588 -10438328.209089637 0 -10438328.209089637 -7675017.8635931015 0 0 0 0 -1450774.1450844184 264220.70575910062 0 264220.70575910062 1488540.3328876398 0 0 0 0 -33656653.128311157 -16794585.478625774 0 -16794585.478625774 2275598.4490556717 0 0 0 0 -15588407.072998047 -13366280.311657429 0 -13366280.311657429 -9327174.2031866908 0 0 0 0 -34137279.341130257 -13006998.487308457 0 -13006998.487308457 -1020871.50415802 0 0 0 0 -19160915.486391068 -10860259.595933586 0 -10860259.595933586 -284706.85642671585 0 0 0 0 -29987317.699516296 -12404464.070188522 0 -12404464.070188522 -1593896.2102007866 0 0 0 0 -37652258.608062744 -7399817.479156971 0 -7399817.479156971 103173.36018538475 0 0 0 0 -40019822.315216064 -17028814.469568253 0 -17028814.469568253 -3528524.9619357586 0 0 0 0 -3122524.0373840332 14948514.356838226 0 14948514.356838226 114305525.02878761 0 0 0 0 -1854591.782630574 956075.61893899925 0 956075.61893899925 190076.84730710671 0 0 0 0 -34162408.773155212 -13419643.801777124 0 -13419643.801777124 -711729.67337977886 0 0 0 0 -34417869.573783875 -12594261.820872307 0 -12594261.820872307 -1493392.0479055643 0 0 0 0 -32492942.229724884 -29155238.038942575 0 -29155238.038942575 -21643215.569844246 0 0 0 0 -31062484.766868591 -12866791.74524653 0 -12866791.74524653 -9991280.0038490295 0 0 0 0 -31950021.036262393 -16946692.57242696 0 -16946692.57242696 -467552.98849439621 0 0 0 0 55453233.479438782 103238947.17558575 0 103238947.17558575 55036401.754011154 0 0 0 0 -96902238.261764526 -43884706.68273735 0 -43884706.68273735 -9679013.6547710896 0 0 0 0 -1019865.7533392906 513355.91503917426 0 513355.91503917426 94066.321510222508 0 0 0 0 74035708.820835114 82651268.215371847 0 82651268.215371847 7624289.859931469 0 0 0 0 58485555.775306702 117508567.46557021 0 117508567.46557021 93418220.311115742 0 0 0 0 92610349.328903198 75192506.063561916 0 75192506.063561916 -34657755.675472975 0 0 0 0 -76140858.997367859 -7371681.3281131387 0 -7371681.3281131387 108392909.62329197 0 0 0 0 -72449542.064361572 -10635159.20542717 0 -10635159.20542717 9944306.5170087814 0 0 0 0 -229238908.21508789 46042817.33744216 0 46042817.33744216 5317058.0977880955 0 0 0 0 -33414313.697036743 16837473.809843063 0 16837473.809843063 49524143.67157042 0 0 0 0 -134544756.07730865 93538930.753381371 0 93538930.753381371 100230931.18890953 0 0 0 0 138748150.80123901 155263971.37596989 0 155263971.37596989 111597460.45774746 0 0 0 0 -460081.27085851505 440263.60480667278 0 440263.60480667278 318705.99762160843 0 0 0 0 -194638320.40585327 -105976202.45438647 0 -105976202.45438647 -96886065.812078118 0 0 0 0 -23751990.544525146 28258539.319399118 0 28258539.319399118 -199846473.81386662 0 0 0 0 -11725488.291191101 -15469203.02823019 0 -15469203.02823019 -58922888.177331209 0 0 0 0 33452415.08821106 48684084.981962681 0 48684084.981962681 9628787.8767008483 0 0 0 0 33360197.034038544 66023794.750625491 0 66023794.750625491 -24890250.58190918 0 0 0 0 43717601.063804626 55864873.972279072 0 55864873.972279072 82158117.1138134 0 0 0 0 65445829.105529785 15532189.595932007 0 15532189.595932007 29928709.447860718 0 0 0 0 56581328.430786133 66839893.63390255 0 66839893.63390255 8425684.6314201355 0 0 0 0 64458579.039642334 22880747.051791191 0 22880747.051791191 -784521.90590536594 0 0 0 0 52645791.890426636 34843492.480774879 0 34843492.480774879 -11760046.053294659 0 0 0 0 64274579.050997972 39803929.681453481 0 39803929.681453481 78649.973610877991 0 0 0 0 68770123.170982361 14018151.593791008 0 14018151.593791008 -43326630.1070261 0 0 0 0 66538668.23302269 18354037.740825415 0 18354037.740825415 -13656902.983107567 0 0 0 0 62443949.970916748 19242057.956895828 0 19242057.956895828 -13758796.1419034 0 0 0 0 54906787.281608582 21992032.257768869 0 21992032.257768869 -93905852.414625168 0 0 0 0 10150238.972213745 -48598269.437036037 0 -48598269.437036037 -68415509.373813152 0 0 0 0 27958025.969177246 -7338906.9590367079 0 -7338906.9590367079 4318999.4155688286 0 0 0 0 -7734874.5408782959 -64288771.7712183 0 -64288771.7712183 -41598224.699223518 0 0 0 0 -128573.62411193113 -126133.51998523995 0 -126133.51998523995 75764.557693789247 0 0 0 0 -6027927.532779038 3086191.9392347652 0 3086191.9392347652 13763841.087384701 0 0 0 0 54999548.336799622 -36547960.515654445 0 -36547960.515654445 -20951799.915833116 0 0 0 0 8633306.6642990112 -31254879.154539347 0 -31254879.154539347 21344748.027904987 0 0 0 0 3173892.0724105835 -8817760.6619768143 0 -8817760.6619768143 14666492.855416954 0 0 0 0 -107539932.36827087 -45967326.635537148 0 -45967326.635537148 100927451.79374135 0 0 0 0 -24262068.007080078 30467924.931417704 0 30467924.931417704 113528115.14726597 0 0 0 0 -44545344.070770264 -27361564.751023531 0 -27361564.751023531 -26525287.804095268 0 0 0 0 -45508418.520681381 -37125130.319549203 0 -37125130.319549203 -111213733.92637634 0 0 0 0 -163950250.24951935 -131856686.84832728 0 -131856686.84832728 -17429190.141238689 0 0 0 0 -205548322.68008423 -72240265.72053504 0 -72240265.72053504 -23568408.438637435 0 0 0 0 -256023858.26626587 -148810569.78384256 0 -148810569.78384256 952313.36286175251 0 0 0 0 -233899448.95655823 -117526301.27674365 0 -117526301.27674365 44751282.161733627 0 0 0 0 -169537036.14858627 -176931414.22797328 0 -176931414.22797328 -123137278.26497984 0 0 0 0 -9299.6147124692798 -34131.143706822768 0 -34131.143706822768 -20750.440319339279 0 0 0 0 -93920844.352745056 -77957500.885040283 0 -77957500.885040283 -74864075.910502434 0 0 0 0 -130541893.2243576 -78299051.973841906 0 -78299051.973841906 -35432014.970517874 0 0 0 0 -128157787.26195526 -36740460.278884649 0 -36740460.278884649 -27006799.130568743 0 0 0 0 -368906839.37091064 -103451260.62288094 0 -103451260.62288094 -231356038.88562012 0 0 0 0 -572682184.60115814 -94354488.787195683 0 -94354488.787195683 95334145.693161964 0 0 0 0 -118385728.1061554 -69312827.62012434 0 -69312827.62012434 -33883858.359345913 0 0 0 0 13987.734018396586 -82682.013615489006 0 -82682.013615489006 -192682.75770133571 0 0 0 0 -332988247.51532745 -210378169.87612653 0 -210378169.87612653 47143787.515195608 0 0 0 0 -175821774.09721375 102174191.20787692 0 102174191.20787692 -9596975.3862315416 0 0 0 0 -363190.24477179348 350438.22327094385 0 350438.22327094385 -65885.156417637307 0 0 0 0 -59355742.471008301 65913758.2151438 0 65913758.2151438 -9334675.8215050697 0 0 0 0 -223731466.43664551 -14031590.514331818 0 -14031590.514331818 85249320.515320778 0 0 0 0 82769.31590237096 -166959.57833342254 0 -166959.57833342254 -307484.39695139846 0 0 0 0 -170600077.67434692 -57274398.788511932 0 -57274398.788511932 63030384.287953377 0 0 0 0 -171082221.9836731 -56741790.851881266 0 -56741790.851881266 89988580.754110992 0 0 0 0 -116831896.70993042 -76699368.753957748 0 -76699368.753957748 -37448923.568744659 0 0 0 0 -152817577.12369919 -41076095.117554903 0 -41076095.117554903 42864304.356831193 0 0 0 0 -112004338.46470642 -955396.20525819063 0 -955396.20525819063 72078519.835153282 0 0 0 0 -122699507.4576683 6358438.976947546 0 6358438.976947546 89505545.250483751 0 0 0 0 -104119780.4572525 -44287025.114584208 0 -44287025.114584208 -61739383.306993484 0 0 0 0 -92676757.346504211 -23174140.077184141 0 -23174140.077184141 -34699375.661942482 0 0 0 0 -38604336.936386108 -47103425.357905865 0 -47103425.357905865 -72099872.50968647 0 0 0 0 -49309129.497619629 -10174060.559278369 0 -10174060.559278369 -31150387.564064384 0 0 0 0 -113622557.57513428 -43538141.611873388 0 -43538141.611873388 -43247719.571627349 0 0 0 0 -114751085.75841522 -59296762.282002926 0 -59296762.282002926 -24885959.459569931 0 0 0 0 -140129577.01373291 -80816991.827660322 0 -80816991.827660322 -28708538.45308733 0 0 0 0 -111222714.02932739 -69542748.991870403 0 -69542748.991870403 -30096921.647800922 0 0 0 0 -138904930.84400177 -53556169.035181999 0 -53556169.035181999 -36219642.505826235 0 0 0 0 -122483774.21183777 -73175335.264272094 0 -73175335.264272094 -26689622.220373154 0 0 0 0 -109523282.94017029 -59217252.171384811 0 -59217252.171384811 -27512850.20141685 0 0 0 0 -108483174.47889709 -63143408.289491415 0 -63143408.289491415 -15825848.9356637 0 0 0 0 -61050193.702606201 -43299901.083267212 0 -43299901.083267212 -20946223.761152267 0 0 0 0 -68693878.285217285 -4205551.9772315025 0 -4205551.9772315025 5933427.8589282036 0 0 0 0 -87608736.984909058 -39136526.65333128 0 -39136526.65333128 -15191959.29278183 0 0 0 0 -106713832.74526978 -46196724.802484035 0 -46196724.802484035 1407482.6593403816 0 0 0 0 -97009527.402099609 -59614812.116352797 0 -59614812.116352797 -27784897.767399311 0 0 0 0 -103936442.13835907 -63638753.979350686 0 -63638753.979350686 -63646427.563129902 0 0 0 0 31756562.376906395 11126526.8311671 0 11126526.8311671 -40627088.237876415 0 0 0 0 -165927007.4750061 -36248260.213299036 0 -36248260.213299036 -5545449.7619514465 0 0 0 0 84299.701158702257 -245608.54008480534 0 -245608.54008480534 -41876.935589683009 0 0 0 0 -148735577.69702148 -75585828.923508167 0 -75585828.923508167 -17554917.702157021 0 0 0 0 699780.40268044919 -637981.20347042941 0 -637981.20347042941 -96195.608631984098 0 0 0 0 -137615463.06152344 -40022539.495439529 0 -40022539.495439529 61883611.706039429 0 0 0 0 3652.2639274485409 -22847.408319685608 0 -22847.408319685608 32336.913683191175 0 0 0 0 -574963.6155280571 -376530.20281862468 0 -376530.20281862468 769387.78938801866 0 0 0 0 -650021.90045583248 -297253.58593628556 0 -297253.58593628556 396675.07152462006 0 0 0 0 -78779110.896369934 -42490417.992796421 0 -42490417.992796421 -25997836.926338673 0 0 0 0 -19883115.221679688 -27782766.130353928 0 -27782766.130353928 -32868350.007686615 0 0 0 0 -1447176.2945254669 -272247.43353447691 0 -272247.43353447691 712476.09077549493 0 0 0 0 -54826497.290054321 -53827201.530518532 0 -53827201.530518532 -28197567.828948975 0 0 0 0 -86394188.178741455 -40771724.493039131 0 -40771724.493039131 -14938217.676665783 0 0 0 0 -99914727.069641113 -61055928.749236107 0 -61055928.749236107 -29565051.879384041 0 0 0 0 -84044561.791656494 -49554677.099163711 0 -49554677.099163711 -26549670.093849182 0 0 0 0 -101264488.08294678 -59531560.5946877 0 -59531560.5946877 -28848488.281079292 0 0 0 0 -78421393.245910645 -39833349.384211779 0 -39833349.384211779 -34967634.163062215 0 0 0 0 -77031763.028656006 -56334717.682779551 0 -56334717.682779551 -52253030.215794325 0 0 0 0 -115651134.84803009 -74872166.143275738 0 -74872166.143275738 -37483832.293437958 0 0 0 0 -4899450.0289741755 -1484753.281792108 0 -1484753.281792108 114615.11263370514 0 0 0 0 -482187.43129665934 -287670.24144920334 0 -287670.24144920334 215913.83727925643 0 0 0 0 -334272.19395715743 -210784.74804565683 0 -210784.74804565683 290006.80091934418 0 0 0 0 2965512.9355081916 -8583148.2397900708 0 -8583148.2397900708 15012855.685859203 0 0 0 0 -605539.60101697966 -1835455.5807969943 0 -1835455.5807969943 158510.73326546047 0 0 0 0 -1681662.4041900635 -637982.65779542923 0 -637982.65779542923 -637214.90281140804 0 0 0 0 -3432900.3027954102 -1421344.196457386 0 -1421344.196457386 -607436.5442302078 0 0 0 0 -8477431.3420791626 -10753836.96277225 0 -10753836.96277225 -1628064.4432792664 0 0 0 0 512506.45540618896 2346390.052703023 0 2346390.052703023 -9210772.3055911064 0 0 0 0 3526846.2659454346 -910654.81770944595 0 -910654.81770944595 -12051147.984593391 0 0 0 0 -53034731.103820801 -25074990.254136801 0 -25074990.254136801 17657638.062147617 0 0 0 0 -1091756.8769073486 27064813.296475887 0 27064813.296475887 20305879.256969452 0 0 0 0 50208562.115325928 11347112.589606762 0 11347112.589606762 -8853101.8026492596 0 0 0 0 19506128.851593018 -59899307.404579163 0 -59899307.404579163 18836138.061498642 0 0 0 0 5140611.8340816498 5182282.6162391901 0 5182282.6162391901 -787764.79394245148 0 0 0 0 -2267454.7209472656 -651821.14598703384 0 -651821.14598703384 -121649.69117164612 0 0 0 0 -2363500.7391662598 -1176905.6481976509 0 -1176905.6481976509 -110018.60793304443 0 0 0 0 -3125392.3307342529 -87198.338254451752 0 -87198.338254451752 317723.6898651123 0 0 0 0 -2268020.4868011475 -710685.30057382584 0 -710685.30057382584 -267360.6537976265 0 0 0 0 -153474.75198348239 10537.028117384762 0 10537.028117384762 57087.472578527406 0 0 0 0 -24798117.605285645 -5628090.6840229034 0 -5628090.6840229034 1374565.7171525955 0 0 0 0 -394140.25871935114 -734560.69015550613 0 -734560.69015550613 549692.01555339526 0 0 0 0 -225994.84688565135 -1350293.7060133331 0 -1350293.7060133331 995325.53946630273 0 0 0 0 -903002.14933776855 -351299.81649684906 0 -351299.81649684906 448594.1258058548 0 0 0 0 607573.9544801116 -1239747.6758142654 0 -1239747.6758142654 219026.87703571888 0 0 0 0 5229682.7658843994 -17990179.538022041 0 -17990179.538022041 4216209.8332099915 0 0 0 0 -1009288.9943752289 7957638.8024092615 0 7957638.8024092615 22012705.092113495 0 0 0 0 -7079057.8219909668 -23438795.892146111 0 -23438795.892146111 2443125.6820201874 0 0 0 0 -17112225.354951859 -27938540.979183614 0 -27938540.979183614 -55816326.106298208 0 0 0 0 -5806973.4388427734 -37441504.218310833 0 -37441504.218310833 -80199169.056759834 0 0 0 0 -3213824.8887863159 -7161491.2730644047 0 -7161491.2730644047 -40945203.0780797 0 0 0 0 6600418.5463142395 -4235643.9342418909 0 -4235643.9342418909 -72130232.588401794 0 0 0 0 -352656.14599609375 -11014581.808374405 0 -11014581.808374405 -39647440.282934308 0 0 0 0 -16870157.64743042 -21137597.487355709 0 -21137597.487355709 8031805.3990440369 0 0 0 0 -25664.13738900423 -1699247.4605480749 0 -1699247.4605480749 2030960.0728225762 0 0 0 0 -631828.58798091114 -538479.94215750135 0 -538479.94215750135 872438.97364222747 0 0 0 0 112326857.09983063 9097057.1561160088 0 9097057.1561160088 5509739.0221829414 0 0 0 0 131894405.51647949 -74547625.844669342 0 -74547625.844669342 42157865.763684273 0 0 0 0 201317013.86351013 -102178148.57138801 0 -102178148.57138801 12114123.930380821 0 0 0 0 92842667.74659729 179194664.52080488 0 179194664.52080488 -53682661.47415638 0 0 0 0 -37719166.790756226 131706071.42716026 0 131706071.42716026 -5118440.430685997 0 0 0 0 264884710.95846558 3637175.8680028915 0 3637175.8680028915 -145761983.58528328 0 0 0 0 -102970724.20658875 108944069.92858827 0 108944069.92858827 15539461.744578719 0 0 0 0 -52247484.330780029 -4674421.9537446499 0 -4674421.9537446499 -37527623.871186733 0 0 0 0 -2300080.1443634033 4583075.5897443295 0 4583075.5897443295 -51907084.668073654 0 0 0 0 -29540373.721134186 -14386914.070820689 0 -14386914.070820689 -64991704.610239029 0 0 0 0 -322138.84678649902 -16258747.879362822 0 -16258747.879362822 -88652897.47726965 0 0 0 0 6346861.5551300049 8042155.0221047401 0 8042155.0221047401 -105305899.10978711 0 0 0 0 -326305491.9882431 -231873507.12188768 0 -231873507.12188768 -47531875.137481689 0 0 0 0 -89883702.984247208 -104797020.14089298 0 -104797020.14089298 -21248541.365253448 0 0 0 0 -218450480.68785095 -131567873.80357647 0 -131567873.80357647 6539966.3756818771 0 0 0 0 -202070698.82119751 40269651.148266792 0 40269651.148266792 64167915.58191371 0 0 0 0 -124562970.65005112 258856644.14787269 0 258856644.14787269 -135623329.21733856 0 0 0 0 -513395048.00357056 32558553.153299809 0 32558553.153299809 67248018.693935871 0 0 0 0 -1180743578.2656059 185202518.81413889 0 185202518.81413889 264638322.53379774 0 0 0 0 -227976394.98033142 -249838744.00660276 0 -249838744.00660276 -434965419.21832943 0 0 0 0 -105696794.85050201 13943848.362763882 0 13943848.362763882 131747740.2480278 0 0 0 0 219859310.17562866 -131453462.57843256 0 -131453462.57843256 -236018790.70778465 0 0 0 0 -55283.304528836161 -218740.26576206461 0 -218740.26576206461 -1115012.9459563883 0 0 0 0 240225186.00616455 -84076889.526303053 0 -84076889.526303053 -53439437.921237946 0 0 0 0 -37398399.907554626 -184508178.09432244 0 -184508178.09432244 -71088229.431331873 0 0 0 0 7551859.4523773193 -13704780.872671127 0 -13704780.872671127 116999704.66415584 0 0 0 0 -362957341.12203217 -143010594.39653063 0 -143010594.39653063 -89460409.086505711 0 0 0 0 -29624699.096557617 -120597798.61696386 0 -120597798.61696386 146517661.63348532 0 0 0 0 -387245.4761837055 -178488.19743940234 0 -178488.19743940234 576196.11265662964 0 0 0 0 212475837.44502258 -84457385.948674202 0 -84457385.948674202 -176613381.46446562 0 0 0 0 -472793641.02033997 -110410912.40699053 0 -110410912.40699053 440212666.02191639 0 0 0 0 -369905071.56152344 252551558.67811394 0 252551558.67811394 -161811890.96227074 0 0 0 0 -135553930.86251831 -102299579.87031364 0 -102299579.87031364 28192168.288155556 0 0 0 0 -159665862.66350555 90414673.533911943 0 90414673.533911943 55949275.688102722 0 0 0 0 -1267129.2828901918 -927285.35600675642 0 -927285.35600675642 1897028.7605364774 0 0 0 0 85822861.467094421 -20113978.28729105 0 -20113978.28729105 -61313109.132183075 0 0 0 0 -337819056.93247223 31288718.399244785 0 31288718.399244785 41746960.338732719 0 0 0 0 -633539897.48324203 147468665.88722599 0 147468665.88722599 62841132.221616745 0 0 0 0 -480532.32428897917 -1345883.641967833 0 -1345883.641967833 -3065748.2372111389 0 0 0 0 112480235.67453766 -145148268.43333384 0 -145148268.43333384 -98878921.315107942 0 0 0 0 -288769984.27954102 81671840.288162231 0 81671840.288162231 -84646604.905558586 0 0 0 0 -305052379.92607117 -6745628.8478717804 0 -6745628.8478717804 -23778037.572272301 0 0 0 0 -286642070.41938019 27250716.46515274 0 27250716.46515274 35169297.572992325 0 0 0 0 -299985688.34651184 1171383.7650918961 0 1171383.7650918961 39103142.363091588 0 0 0 0 -308494675.27194023 34945999.309166193 0 34945999.309166193 51408763.693892479 0 0 0 0 -169461119.57872009 41624350.432881832 0 41624350.432881832 -8062706.7504320145 0 0 0 0 -331394884.4249649 36979932.335525751 0 36979932.335525751 51420954.73649025 0 0 0 0 -283865188.40093231 97515987.327384472 0 97515987.327384472 -27024601.816922188 0 0 0 0 -1085188.9507421665 -1884252.0160833374 0 -1884252.0160833374 278204.90419550799 0 0 0 0 2847607.8866882324 6589505.2503619194 0 6589505.2503619194 27969978.015935898 0 0 0 0 -150626523.51670933 -31823209.759864807 0 -31823209.759864807 18271177.626224518 0 0 0 0 -131679948.54790497 28110011.609333515 0 28110011.609333515 26123665.419474602 0 0 0 0 -212825752.5925293 -46753853.765708923 0 -46753853.765708923 16515358.757550001 0 0 0 0 -1293021.4649119377 -2664338.040734645 0 -2664338.040734645 274628.18254066305 0 0 0 0 -2992912.8917541504 242813.27335810661 0 242813.27335810661 1507729.1285667419 0 0 0 0 -1314374.3790435791 2674264.6486275196 0 2674264.6486275196 2318345.2012463808 0 0 0 0 -2950320.3843460083 -1937647.6817221642 0 -1937647.6817221642 -1281344.903195858 0 0 0 0 -436764.38407897949 384334.94543457031 0 384334.94543457031 -992553.45495933294 0 0 0 0 14042739.423522949 -31988713.707459927 0 -31988713.707459927 36277574.263898849 0 0 0 0 -11652337.328323364 -1218626.6491518021 0 -1218626.6491518021 11353917.303070068 0 0 0 0 -1333939.2343805628 -1635806.1593179628 0 -1635806.1593179628 2866883.376372647 0 0 0 0 -117991700.55738831 118909509.48651838 0 118909509.48651838 -125036359.31402588 0 0 0 0 -95559875.850845337 -26833759.314601421 0 -26833759.314601421 93568867.501963139 0 0 0 0 5203042.824005127 21007609.002914906 0 21007609.002914906 38444713.955375195 0 0 0 0 16288185.780487061 437190.12275242805 0 437190.12275242805 8886419.6122217178 0 0 0 0 40661761.779586792 48481165.21356678 0 48481165.21356678 5704030.1376233101 0 0 0 0 -70646574.059556961 68138956.791511297 0 68138956.791511297 11871031.218764782 0 0 0 0 61004171.199127197 45544874.047338963 0 45544874.047338963 5332129.4928913116 0 0 0 0 -311363.11310944334 143645.82183788717 0 143645.82183788717 35711.543175515486 0 0 0 0 16968551.592971802 -140590794.78351641 0 -140590794.78351641 -88522794.497461319 0 0 0 0 -47548157.671722412 -82291938.016404629 0 -82291938.016404629 -23478462.374408722 0 0 0 0 -8429086.0036773682 -8716502.5582016706 0 -8716502.5582016706 -60116914.861884117 0 0 0 0 -93214767.208282471 -93226934.587071419 0 -93226934.587071419 2291008.240196228 0 0 0 0 -1050098.0173600628 -1050942.8194178194 0 -1050942.8194178194 2915752.4008649075 0 0 0 0 -74282557.835021973 -32047987.833636284 0 -32047987.833636284 32275868.874024928 0 0 0 0 32201817.715187073 11597046.485318363 0 11597046.485318363 -57449444.145462036 0 0 0 0 -34458116.895812988 13275552.319216728 0 13275552.319216728 -2371203.7679721713 0 0 0 0 -39463142.06814003 -5522567.4746078253 0 -5522567.4746078253 -10712224.226015091 0 0 0 0 -417596720.35277557 -76473739.615667343 0 -76473739.615667343 997749.47199344635 0 0 0 0 -642378063.36981201 8362847.4239578247 0 8362847.4239578247 163126784.6101532 0 0 0 0 -465467939.96934509 -77464600.674958706 0 -77464600.674958706 194636762.66262627 0 0 0 0 -41160797.191238403 -94111224.848775864 0 -94111224.848775864 -37778747.269162178 0 0 0 0 -486570832.82080078 198001099.40890217 0 198001099.40890217 23669621.311897516 0 0 0 0 9721860.3296585083 -64733252.052295685 0 -64733252.052295685 -23966396.36259079 0 0 0 0 -481554.83367627859 -613662.31811032444 0 -613662.31811032444 103070.36791459471 0 0 0 0 -6579748.6756896973 11536592.277659416 0 11536592.277659416 25471277.259187698 0 0 0 0 -70646109.022064209 -18995681.138374329 0 -18995681.138374329 14975090.94093895 0 0 0 0 8560457.8204040527 -614343.16012072563 0 -614343.16012072563 -3807131.2746477127 0 0 0 0 -446249041.8358674 -124494269.70980808 0 -124494269.70980808 54937710.714751244 0 0 0 0 -1353533.8581902497 -3128079.6911202706 0 -3128079.6911202706 -4569716.3386742268 0 0 0 0 207600199.45780945 -19099966.129639149 0 -19099966.129639149 -149781650.71584129 0 0 0 0 -129685305.08305359 146836881.08521748 0 146836881.08521748 -131079173.7934103 0 0 0 0 -386163078.02694702 -327178383.11106873 0 -327178383.11106873 230929780.9884181 0 0 0 0 875573.90448838472 -1164475.1426838469 0 -1164475.1426838469 -5060853.2739114054 0 0 0 0 2419049.1997680664 -6572358.6131913662 0 -6572358.6131913662 -3362202.2991163433 0 0 0 0 9350912.6273078918 -7749265.7243362665 0 -7749265.7243362665 -9650866.0744361877 0 0 0 0 2154682.6192855835 -1825066.8272500038 0 -1825066.8272500038 -6275827.0694445968 0 0 0 0 -16052884.987701416 -12287993.811004162 0 -12287993.811004162 -7693260.5271058083 0 0 0 0 -16899993.254952431 -23614606.744392231 0 -23614606.744392231 -12260781.866806984 0 0 0 0 -2657920.6024837494 -168197.0768648535 0 -168197.0768648535 2412020.1717233569 0 0 0 0 -14717349.592018127 -3806189.888617754 0 -3806189.888617754 -5262961.0453150272 0 0 0 0 -6586544.2325191498 -17780716.994369566 0 -17780716.994369566 -16863984.88586092 0 0 0 0 7622763.705947876 -7114384.7190032005 0 -7114384.7190032005 -7536163.8156204224 0 0 0 0 733230.71341705322 -3506413.3329014778 0 -3506413.3329014778 -7468857.3184216991 0 0 0 0 10671570.863056183 -5045674.4842191339 0 -5045674.4842191339 370204.58509469032 0 0 0 0 8755017.1423797607 -1962057.8083916903 0 -1962057.8083916903 -4523750.3276756406 0 0 0 0 928203.87075424194 -19127170.732200772 0 -19127170.732200772 9740180.3655297756 0 0 0 0 -20466556.001792908 -13706543.577678382 0 -13706543.577678382 12810618.740015641 0 0 0 0 33559732.241666794 1864130.9750778377 0 1864130.9750778377 2144208.3651428223 0 0 0 0 12103750.723321915 -36800543.281390905 0 -36800543.281390905 21270389.427130163 0 0 0 0 -24608668.090766907 14848525.006323576 0 14848525.006323576 65240610.013911009 0 0 0 0 -5088921.2442169189 19785941.402773619 0 19785941.402773619 27940390.048269749 0 0 0 0 -11776316.766201019 -24033897.118170142 0 -24033897.118170142 -6992965.3358330727 0 0 0 0 15663676.875541687 -1002565.4062948227 0 -1002565.4062948227 -5820700.7330487967 0 0 0 0 -1725430.4279454965 -1804303.9890223444 0 -1804303.9890223444 493892.47032392002 0 0 0 0 -331424.07048173063 -3698826.6217379514 0 -3698826.6217379514 -7701505.8672414199 0 0 0 0 -50913909.154571533 -92238858.039645195 0 -92238858.039645195 -25740448.061713696 0 0 0 0 -334760368.4407959 18287161.23408103 0 18287161.23408103 41275755.429834366 0 0 0 0 -726344.64917495102 -2677068.8128462639 0 -2677068.8128462639 -5248084.1690706089 0 0 0 0 30372757.979370117 -16589668.458578825 0 -16589668.458578825 -18112683.570012689 0 0 0 0 32528884.98033905 -27780733.615089297 0 -27780733.615089297 39528871.922124863 0 0 0 0 4505332.3891372681 -8701957.3860435486 0 -8701957.3860435486 81847739.909186244 0 0 0 0 86445399.373352051 2886118.1706356406 0 2886118.1706356406 64527237.371215321 0 0 0 0 -11487640.967670441 -38515616.167657733 0 -38515616.167657733 51024266.3041749 0 0 0 0 4024227.5464019775 -5427741.6117959619 0 -5427741.6117959619 64195064.864256382 0 0 0 0 -17605787.032912254 44844427.17705556 0 44844427.17705556 96576497.410172343 0 0 0 0 -878906.78294814378 85237.275924336165 0 85237.275924336165 684627.99083893816 0 0 0 0 -82533997.481384277 -35611359.35861218 0 -35611359.35861218 99836857.971167922 0 0 0 0 -20378323.110420227 -4214325.044141829 0 -4214325.044141829 102351883.06055665 0 0 0 0 -144496483.98577118 25642359.591921151 0 25642359.591921151 203084599.96234369 0 0 0 0 -28935483.453063965 -20114600.536057472 0 -20114600.536057472 -63789473.200379968 0 0 0 0 -33836224.037406921 -50958381.719689131 0 -50958381.719689131 19425368.819961548 0 0 0 0 -26034666.75736618 -6490568.3531453609 0 -6490568.3531453609 -13373336.320071697 0 0 0 0 -809035.3086909391 -997142.54642747063 0 -997142.54642747063 379303.63745380967 0 0 0 0 4669743.170791626 -83787706.92814517 0 -83787706.92814517 -98289811.700334668 0 0 0 0 -29388887.747543335 -129093474.7561748 0 -129093474.7561748 62403229.423972607 0 0 0 0 -14154312.883735657 -98277487.66639936 0 -98277487.66639936 -68693154.438625336 0 0 0 0 7175912.8916931152 -27330547.890075684 0 -27330547.890075684 -10163215.760866642 0 0 0 0 -29856697.028488159 -13105455.042068005 0 -13105455.042068005 26062362.909090996 0 0 0 0 -29920109.63263011 -15123581.912810519 0 -15123581.912810519 -9447491.1861777306 0 0 0 0 57512580.784076691 -24640886.564622283 0 -24640886.564622283 -45736271.231878281 0 0 0 0 -39400133.96217823 -15723451.219424039 0 -15723451.219424039 -13317851.893029213 0 0 0 0 -40056477.068725586 -25301772.506788254 0 -25301772.506788254 -19361464.707010269 0 0 0 0 -41253731.735378265 -19571505.465811253 0 -19571505.465811253 -29123351.834262848 0 0 0 0 -36666941.160987854 -25478821.62614584 0 -25478821.62614584 -21777053.732046604 0 0 0 0 -42859288.219451904 -50180901.751950264 0 -50180901.751950264 -29860423.432354927 0 0 0 0 -56755144.662391663 -25457312.869748592 0 -25457312.869748592 -16923654.906022549 0 0 0 0 -90432928.364995956 -98837607.347227633 0 -98837607.347227633 -72187641.049643517 0 0 0 0 -17429136.249320984 -18636382.687287807 0 -18636382.687287807 -16640275.332893848 0 0 0 0 -17901120.528377056 -6873892.0571206212 0 -6873892.0571206212 -8775252.0512390137 0 0 0 0 -33816004.746414185 -14544968.861244678 0 -14544968.861244678 -16494316.957894325 0 0 0 0 -18920243.406600952 -20772843.218222857 0 -20772843.218222857 -16528188.913725376 0 0 0 0 -14343568.974822998 -18093588.153986216 0 -18093588.153986216 -6745432.8172740936 0 0 0 0 -27331620.799247742 -10941091.982355714 0 -10941091.982355714 -9953223.6566238403 0 0 0 0 -31505688.886871338 -19131840.545928955 0 -19131840.545928955 -14377928.915006638 0 0 0 0 5368064.868221283 -6106031.6119594574 0 -6106031.6119594574 -14648182.067123413 0 0 0 0 -26199784.508750916 -2209045.8528261781 0 -2209045.8528261781 9805349.9885694981 0 0 0 0 -2108947.6410130747 -1752095.4049369153 0 -1752095.4049369153 358266.98614455399 0 0 0 0 -27097790.810333252 -10272509.016527176 0 -10272509.016527176 -1787244.4944484234 0 0 0 0 -33623231.870773315 -983418.44567382336 0 -983418.44567382336 79006850.101977348 0 0 0 0 172076262.58656311 50321462.530981779 0 50321462.530981779 -57050021.138819456 0 0 0 0 76961619.921073914 -11276908.474808544 0 -11276908.474808544 -1996262.8010642529 0 0 0 0 39887463.410037994 -60943003.965534613 0 -60943003.965534613 62479237.602213144 0 0 0 0 -17719235.776123047 -4041332.4162106514 0 -4041332.4162106514 11275645.664672315 0 0 0 0 -61847664.91642952 -36612245.239600688 0 -36612245.239600688 57010614.608217597 0 0 0 0 -17455415.566719055 37324520.366797507 0 37324520.366797507 84044025.865752876 0 0 0 0 -663186.6161237359 -531871.88835178409 0 -531871.88835178409 308713.99583777954 0 0 0 0 -29476864.625358582 -36388620.637187839 0 -36388620.637187839 -51633296.651800275 0 0 0 0 -154907740.3190918 22474308.358537231 0 22474308.358537231 52938381.452488907 0 0 0 0 -9149225.1307373047 2081926.2498521805 0 2081926.2498521805 33497542.934417874 0 0 0 0 -11942146.108734131 777865.01556897163 0 777865.01556897163 5795237.3311758041 0 0 0 0 -1580490.1581711471 -1368614.6942935549 0 -1368614.6942935549 416348.07214749244 0 0 0 0 540881.2412071228 -31207662.538820654 0 -31207662.538820654 -18768274.122822285 0 0 0 0 -2094146.3689575195 2514805.1409358978 0 2514805.1409358978 2722471.3564095497 0 0 0 0 -30307604.311172485 4394055.0136402845 0 4394055.0136402845 16188306.560756922 0 0 0 0 -19144267.467021942 -4397041.8890725374 0 -4397041.8890725374 14411555.978517771 0 0 0 0 6897910.3341369629 -12768134.682439327 0 -12768134.682439327 17099651.202915192 0 0 0 0 -3990482.7128943205 -2929362.9443204687 0 -2929362.9443204687 103837.39668565255 0 0 0 0 -5519586.4889907837 2284100.2459445 0 2284100.2459445 2866695.6001727581 0 0 0 0 -648510.30875438917 -94015.00515040569 0 -94015.00515040569 3823.175795906689 0 0 0 0 -9233129.9586029053 304859.03004264832 0 304859.03004264832 2894510.82781744 0 0 0 0 -3089087.2302827155 -1900628.1420400813 0 -1900628.1420400813 -2437357.5811371864 0 0 0 0 -10624543.784934998 8412712.1514004245 0 8412712.1514004245 -12966189.016060591 0 0 0 0 -12826187.343536377 -10272054.471635401 0 -10272054.471635401 -55254969.013568908 0 0 0 0 -10565289.884109497 -6347466.0387134552 0 -6347466.0387134552 -1641298.0628013611 0 0 0 0 3741353.5001726151 -2203692.6153836548 0 -2203692.6153836548 -8869692.9920320511 0 0 0 0 -1731473181.7759476 714412873.66446388 0 714412873.66446388 -39742416.379231215 0 0 0 0 -1233735432.9393425 792227217.54089773 0 792227217.54089773 -252840044.88286018 0 0 0 0 -1571683906.6627426 594293118.12704384 0 594293118.12704384 48726966.350483522 0 0 0 0 -1621545.8096866049 86135.516360795125 0 86135.516360795125 828429.11734870134 0 0 0 0 -19850780.154983521 -9877581.1444244981 0 -9877581.1444244981 -455472.83170092106 0 0 0 0 -1163342046.1609802 611957133.00862169 0 611957133.00862169 -93804938.108524159 0 0 0 0 -24360167.348270416 4558419.8778508306 0 4558419.8778508306 4532160.0423783064 0 0 0 0 -8223388.7323993146 -33761.463615093846 0 -33761.463615093846 -37427.968524815165 0 0 0 0 -10862182.058868408 -505838.7045044899 0 -505838.7045044899 2757113.7334798574 0 0 0 0 6583432.8031005859 139427.71310329437 0 139427.71310329437 855779.0152426362 0 0 0 0 -13586058.796173096 -660846.95537757874 0 -660846.95537757874 4581796.0850195885 0 0 0 0 -14868653.53515625 -5224461.3429074287 0 -5224461.3429074287 -625508.64994978905 0 0 0 0 -4548345.2639312744 -1165812.8125972748 0 -1165812.8125972748 440990.16296517849 0 0 0 0 -3223574.2746067494 -1540682.5914414506 0 -1540682.5914414506 -1974841.3666871884 0 0 0 0 -675790265.48875427 513601025.68885124 0 513601025.68885124 -799674775.50909603 0 0 0 0 -1154737.449760437 -5870519.2675406933 0 -5870519.2675406933 -5282067.0438175201 0 0 0 0 -2202497783.6752625 1331103352.0785611 0 1331103352.0785611 -290278670.78354454 0 0 0 0 -1062501243.2454605 1089289448.2268603 0 1089289448.2268603 -492858226.03282523 0 0 0 0 -1593587585.2554169 1036038776.4764879 0 1036038776.4764879 -414560863.7741946 0 0 0 0 -3585553.995034473 155218.64249468967 0 155218.64249468967 1874647.3300833569 0 0 0 0 -561427916.50062275 1225069565.6548071 0 1225069565.6548071 -1741463760.7895904 0 0 0 0 -3275328.3951846287 -2481065.3787641488 0 -2481065.3787641488 -412577.88837689348 0 0 0 0 -2198353035.2692032 -374165.24233110406 0 -374165.24233110406 1303874.0093719286 0 0 0 0 -3704383.4183807373 -27829358.452568501 0 -27829358.452568501 -884769340.01391196 0 0 0 0 -1376492.8387413099 -172451.09375931509 0 -172451.09375931509 -710245.73276479216 0 0 0 0 -655720245.73553467 -1054281899.9510391 0 -1054281899.9510391 -828402017.74912441 0 0 0 0 -2102010.1488816775 -2723374.5304525462 0 -2723374.5304525462 402507.06515609915 0 0 0 0 -7215592.3306045532 -9260354.4956024885 0 -9260354.4956024885 -5726165.2657418102 0 0 0 0 -17871426.088165283 -3670516.1590123177 0 -3670516.1590123177 3880154.2301726341 0 0 0 0 -16612073.715133667 -6976027.7037186623 0 -6976027.7037186623 883381.2900121212 0 0 0 0 -2202089089.4159164 -1029823844.0248096 0 -1029823844.0248096 28425341.391112462 0 0 0 0 -1882165961.9363537 -645232512.91546357 0 -645232512.91546357 -40643432.902086578 0 0 0 0 -1350692.7897464409 129181.42567599379 0 129181.42567599379 893236.25399958878 0 0 0 0 -32947600.899353027 -2339352.43296206 0 -2339352.43296206 39905839.442799091 0 0 0 0 -22524202.167434692 -13415397.158346742 0 -13415397.158346742 53802217.94370532 0 0 0 0 -2597142.3304710388 4039991.1643470526 0 4039991.1643470526 -6464083.484578371 0 0 0 0 -2589266.1331386678 199862.75455504097 0 199862.75455504097 1881218.6308329548 0 0 0 0 -28817983.18120575 -27968259.944082975 0 -27968259.944082975 -3687791.4853846431 0 0 0 0 -1318385529.6574392 -273143167.25755751 0 -273143167.25755751 2949680.2149674594 0 0 0 0 -222713255.40211308 170526126.97340947 0 170526126.97340947 -18089542.044738889 0 0 0 0 -227608747.56694412 -82267622.577090055 0 -82267622.577090055 -23657027.911352977 0 0 0 0 -1017529106.3400803 -283362830.42250621 0 -283362830.42250621 3143740.3336666431 0 0 0 0 -1238430494.3687477 -52099579.564752065 0 -52099579.564752065 36306592.525629014 0 0 0 0 -1352188337.9376373 -344479078.44938385 0 -344479078.44938385 94824323.187958062 0 0 0 0 -1940835140.5220561 -438099615.85467559 0 -438099615.85467559 124314519.56717709 0 0 0 0 -1690452918.4100571 -394857181.35520172 0 -394857181.35520172 94354857.944514349 0 0 0 0 -31005524.763673782 423391346.0406847 0 423391346.0406847 -625493567.73521042 0 0 0 0 -1468620.7279757001 -987865.91177626653 0 -987865.91177626653 315525.76598499075 0 0 0 0 -1481948765.7355156 746169732.55577576 0 746169732.55577576 -130581961.68395948 0 0 0 0 -1367162140.5533104 1222601599.5423226 0 1222601599.5423226 -724004542.38733554 0 0 0 0 -180194547.66113281 229933940.94040394 0 229933940.94040394 -503101296.34857941 0 0 0 0 -944832165.97731018 273641627.12413466 0 273641627.12413466 78424931.02988863 0 0 0 0 -299526519.96372604 444483151.41700602 0 444483151.41700602 -122332443.47541142 0 0 0 0 -217083668.70913696 383066608.64588499 0 383066608.64588499 -734468552.24423134 0 0 0 0 -617463583.83278656 820039060.76793087 0 820039060.76793087 -836805288.81647921 0 0 0 0 -571883243.36620522 790295291.07259715 0 790295291.07259715 -947626631.22026253 0 0 0 0 -495192999.18148041 882884808.31944716 0 882884808.31944716 -1018674033.9239783 0 0 0 0 -1454368342.455677 1638738836.6815336 0 1638738836.6815336 -1483143661.9535828 0 0 0 0 -1896287274.2077713 1353728817.0563266 0 1353728817.0563266 -674343359.67618012 0 0 0 0 -2246588735.8493614 1845980212.5056474 0 1845980212.5056474 -817193343.87194121 0 0 0 0 -2206194519.2502155 1192911564.6046131 0 1192911564.6046131 -720414468.77003765 0 0 0 0 -2949698194.4063988 537645020.60936916 0 537645020.60936916 -1288816860.7858341 0 0 0 0 -2101066013.7627144 1157653840.5688386 0 1157653840.5688386 -940462321.60052574 0 0 0 0 -1984079688.8065825 1437266310.8265584 0 1437266310.8265584 -472509084.03657961 0 0 0 0 -1809188910.8161011 1237935753.1977625 0 1237935753.1977625 -1138464941.435303 0 0 0 0 -2448241216.8332367 1214601166.9653158 0 1214601166.9653158 -619962363.55757546 0 0 0 0 -1598304678.0114155 1407601324.8333898 0 1407601324.8333898 -1138732187.8841381 0 0 0 0 -2043996739.3092842 1161793080.7379534 0 1161793080.7379534 -12719241.983066976 0 0 0 0 -1165407004.0116119 319326520.36409175 0 319326520.36409175 -18776789.896251202 0 0 0 0 -339551802.55332565 -572112136.67801416 0 -572112136.67801416 -1154151382.6015172 0 0 0 0 -1232977.1585533787 -256503.98700694181 0 -256503.98700694181 -3727966.5209160582 0 0 0 0 -360962740.77851868 -655276235.63546705 0 -655276235.63546705 -469778684.01190186 0 0 0 0 -143492301.10611725 -277852407.05368805 0 -277852407.05368805 -299669263.89115334 0 0 0 0 -332748881.21933746 -141597697.45456314 0 -141597697.45456314 197792905.01319695 0 0 0 0 -411471655.27559185 -435109241.90520501 0 -435109241.90520501 -137212532.15445328 0 0 0 0 98710963.964590549 -613416358.99917459 0 -613416358.99917459 -1318284719.3947773 0 0 0 0 -47135945.583351135 -420542010.62514496 0 -420542010.62514496 -546260647.88610458 0 0 0 0 -189223815.89771271 -335465185.46443558 0 -335465185.46443558 -273449784.09309387 0 0 0 0 202974149.45415211 -250313057.41292095 0 -250313057.41292095 -765478704.7361536 0 0 0 0 203791787.26621056 -260517066.95483637 0 -260517066.95483637 -738363486.33315611 0 0 0 0 79864561.155666351 -108348204.14167023 0 -108348204.14167023 -281859066.55070496 0 0 0 0 6342140.7356376648 -104731771.68654442 0 -104731771.68654442 -175002503.96156693 0 0 0 0 12072975.592716217 -218521554.01694489 0 -218521554.01694489 -457022054.89645386 0 0 0 0 -57089271.472182274 -91401814.748483658 0 -91401814.748483658 -161972944.41146469 0 0 0 0 -7296093.7291145325 10505970.082403183 0 10505970.082403183 -58425469.456142426 0 0 0 0 11670736.814611912 30124788.610830307 0 30124788.610830307 -95650846.361000061 0 0 0 0 8952145.7425918579 -60016633.964458466 0 -60016633.964458466 -292407294.48321915 0 0 0 0 19846056.363533974 21773087.780021846 0 21773087.780021846 -53091274.394336939 0 0 0 0 -99823076.743175507 -209361974.51165229 0 -209361974.51165229 -60494702.189512759 0 0 0 0 -4021524.9993247436 -14619.681430574041 0 -14619.681430574041 -9314628.8759220913 0 0 0 0 280246292.35490036 78149559.71182251 0 78149559.71182251 -107429866.00059128 0 0 0 0 9324667.2277317047 163474652.51438904 0 163474652.51438904 49012715.365954399 0 0 0 0 68225272.098478317 85919434.84602356 0 85919434.84602356 26641134.299303055 0 0 0 0 -8584554.4780272432 1146138.8844324243 0 1146138.8844324243 -12720019.539459066 0 0 0 0 -52835831.187227249 -45254280.167954147 0 -45254280.167954147 20897705.443847895 0 0 0 0 61156345.951402664 -6682067.7594642639 0 -6682067.7594642639 27856318.879245758 0 0 0 0 26635756.759586334 80717236.744972229 0 80717236.744972229 47508698.91556406 0 0 0 0 14328955.126025796 33357424.985906363 0 33357424.985906363 -96488372.443996429 0 0 0 0 60957291.14362812 8842062.7167510986 0 8842062.7167510986 -82632868.476409912 0 0 0 0 30261558.581707001 93211953.798044205 0 93211953.798044205 -14697991.272796631 0 0 0 0 -24223964.344099954 3340607.4295746353 0 3340607.4295746353 -5368772.0737520829 0 0 0 0 -40091927.685424805 -26629282.026032448 0 -26629282.026032448 19839899.740215302 0 0 0 0 -15814609.12566483 63878990.040300369 0 63878990.040300369 111742667.20745468 0 0 0 0 -12644202.385766983 -7624050.6954934299 0 -7624050.6954934299 -15528066.658844113 0 0 0 0 -5990999.9232926127 -2936273.0417200774 0 -2936273.0417200774 -4230152.7811618885 0 0 0 0 -6609638.2289043013 -2769328.0863752747 0 -2769328.0863752747 -5730984.6037362805 0 0 0 0 -6091257.2934265137 41066459.62789917 0 41066459.62789917 18894420.005599976 0 0 0 0 -13794374.065708097 2070401.1909160744 0 2070401.1909160744 -8043271.1196168978 0 0 0 0 -1753080.7520370483 -334973.10992622375 0 -334973.10992622375 1431250.4382019043 0 0 0 0 -12034908.241864668 -43774.854251406156 0 -43774.854251406156 -666471.13092841487 0 0 0 0 -10119103.471160639 -3009179.1276971288 0 -3009179.1276971288 -6129917.1759061012 0 0 0 0 432105.64186859131 466674.23332691193 0 466674.23332691193 -2915081.0199298859 0 0 0 0 -9073019.4152744226 -540351.72296852153 0 -540351.72296852153 -9741419.2170460299 0 0 0 0 351573.14291095734 1398571.5803899765 0 1398571.5803899765 -2529312.9839363098 0 0 0 0 -314551170.69501495 -169249587.56745544 0 -169249587.56745544 7967128.0920199202 0 0 0 0 -4529921.5876220278 -1806037.4300981574 0 -1806037.4300981574 -8270181.987900272 0 0 0 0 -65077581.735458374 -17786850.080498248 0 -17786850.080498248 24334113.93854697 0 0 0 0 37682408.298576355 -26890873.884396024 0 -26890873.884396024 -20392643.673489809 0 0 0 0 -4724522.3169516623 -3290505.5863082334 0 -3290505.5863082334 1380291.4751921147 0 0 0 0 -5377016.1713957079 315993.37352978019 0 315993.37352978019 -3310500.4827823006 0 0 0 0 81839789.178356171 -165442191.90615463 0 -165442191.90615463 244976621.42928052 0 0 0 0 -37735128.13394928 51647404.4239913 0 51647404.4239913 -15292213.316636108 0 0 0 0 -5547863.0719470978 7921659.6703516729 0 7921659.6703516729 -231533000.52135938 0 0 0 0 126090268.16281128 -111414938.15525079 0 -111414938.15525079 -648424328.24396896 0 0 0 0 -148785938.45627594 -369303582.54508519 0 -369303582.54508519 75802000.952512264 0 0 0 0 -2202637731.8039608 625691823.16918838 0 625691823.16918838 148932935.70788515 0 0 0 0 -2351124391.7272491 1157244853.2351899 0 1157244853.2351899 -1456257195.3074863 0 0 0 0 -2361291729.4897423 -24181973.230249904 0 -24181973.230249904 113227939.73285642 0 0 0 0 -1794779.8182340525 406892.39202159783 0 406892.39202159783 -1495365.9545116914 0 0 0 0 -297546859.89382172 705797204.07738304 0 705797204.07738304 -1415267995.1933687 0 0 0 0 -1921542.8500658069 -1247757.6879614617 0 -1247757.6879614617 -6999942.8824370196 0 0 0 0 -1646300172.3295612 1019265601.8058724 0 1019265601.8058724 -395146595.73247361 0 0 0 0 -170045121.90419769 -143481113.91973069 0 -143481113.91973069 -112785524.72188878 0 0 0 0 -706221241.25592041 -1189199015.235918 0 -1189199015.235918 -1279337243.0110254 0 0 0 0 -2201287688.9339371 -954486507.70645845 0 -954486507.70645845 97656132.632070482 0 0 0 0 -37489772.218379974 -59280026.031444252 0 -59280026.031444252 -196310658.1407603 0 0 0 0 -296451964.072155 -126110951.13352269 0 -126110951.13352269 -171258361.58279967 0 0 0 0 -515991835.9877243 -445912082.93270373 0 -445912082.93270373 -349997791.36133611 0 0 0 0 -444589982.17934132 14348516.087687295 0 14348516.087687295 79632419.681464672 0 0 0 0 -1315450018.3134995 -410014422.25788057 0 -410014422.25788057 152157247.62781334 0 0 0 0 -658498225.35651016 -294242858.66210711 0 -294242858.66210711 70385307.784410417 0 0 0 0 -768859085.26286507 -150921137.27433664 0 -150921137.27433664 145383295.91295338 0 0 0 0 -2205165760.0931816 -375675333.03405583 0 -375675333.03405583 475690762.68888605 0 0 0 0 -1310882157.8414383 -519583098.94516277 0 -519583098.94516277 285709952.48298705 0 0 0 0 -1382256794.5323944 56320803.691295743 0 56320803.691295743 443638890.63207877 0 0 0 0 -854226859.28231812 131586251.83351153 0 131586251.83351153 141764980.02339852 0 0 0 0 -1292329979.3719711 -241385374.52815142 0 -241385374.52815142 200791151.37783921 0 0 0 0 -1254303749.2852936 617063700.57857549 0 617063700.57857549 -90797137.188441247 0 0 0 0 -592948148.11725807 -31014755.805032924 0 -31014755.805032924 -4762108.2601764798 0 0 0 0 -2204403288.7457161 240095958.52054608 0 240095958.52054608 430973495.33067197 0 0 0 0 -1304771891.5884056 506613431.93556881 0 506613431.93556881 58136641.681778133 0 0 0 0 -9685591.9477920532 -5235140.5812327862 0 -5235140.5812327862 -11252622.961134911 0 0 0 0 -22900336.491317749 -19242582.260179758 0 -19242582.260179758 -11876386.747313499 0 0 0 0 -2471490.8535229457 -2067115.6158828363 0 -2067115.6158828363 -5316878.1817233171 0 0 0 0 -1256124.9317436218 -5991856.5369706154 0 -5991856.5369706154 -12362865.149299622 0 0 0 0 -352067087.61044693 177731385.71320447 0 177731385.71320447 -62847770.312039398 0 0 0 0 -13348942.7289505 -6000362.7772045135 0 -6000362.7772045135 -3488682.8733730316 0 0 0 0 -26942979.774864197 -19094573.595145226 0 -19094573.595145226 -9834591.8988075256 0 0 0 0 -27998750.773207664 -19962368.832374334 0 -19962368.832374334 -7588398.2446022034 0 0 0 0 -45538762.40145874 -32404189.878965378 0 -32404189.878965378 -15945258.507541656 0 0 0 0 -4303259.5417289734 -258133.54629611969 0 -258133.54629611969 -13641525.510801315 0 0 0 0 -286793138.96398544 -75314765.816381007 0 -75314765.816381007 -108993048.8166945 0 0 0 0 -3190670.5328573952 -1922040.970651282 0 -1922040.970651282 -7608692.4138047015 0 0 0 0 -60048700.793865204 10532367.433866501 0 10532367.433866501 -539797.33883285522 0 0 0 0 -30137652.834651947 -13490311.637818336 0 -13490311.637818336 -6537875.0809546113 0 0 0 0 -3561445.6069849785 -1290239.8013092037 0 -1290239.8013092037 -378877.98356134631 0 0 0 0 -17718171.73608017 -26723068.426358223 0 -26723068.426358223 -22430376.910247803 0 0 0 0 -44539617.132541656 -8934044.0174503326 0 -8934044.0174503326 918525.46975958347 0 0 0 0 -5482114.9122875594 -2016317.3912697472 0 -2016317.3912697472 -9088678.1839002278 0 0 0 0 -8953447.9451516084 -5123901.2541075721 0 -5123901.2541075721 1268475.8885224946 0 0 0 0 -30663409.22527647 -9624970.8988258839 0 -9624970.8988258839 -10250694.239276886 0 0 0 0 -23947533.208587646 -22205973.621170044 0 -22205973.621170044 -26925548.713145256 0 0 0 0 -2719309.4683846384 -1543536.7225822555 0 -1543536.7225822555 429485.69307225384 0 0 0 0 2551849.5096282959 -6888798.6907901764 0 -6888798.6907901764 -14659090.127763033 0 0 0 0 -60838148.078529358 -70898912.384109497 0 -70898912.384109497 -24105962.082921982 0 0 0 0 -40392036.265461922 -8684872.442502737 0 -8684872.442502737 732040.28695487976 0 0 0 0 -19488172.369522095 -35527666.374914169 0 -35527666.374914169 22481193.936581612 0 0 0 0 -30162363.359367371 -48848822.127948761 0 -48848822.127948761 -26740452.783256531 0 0 0 0 -20898337.471278191 -13433783.881714344 0 -13433783.881714344 -11691266.9646492 0 0 0 0 -27748602.978983879 -21692651.298012972 0 -21692651.298012972 -12207713.038965225 0 0 0 0 -41811816.037986755 -28505460.498373985 0 -28505460.498373985 -13297284.928899765 0 0 0 0 -24073675.84274292 -17088450.096869469 0 -17088450.096869469 -15824049.593109131 0 0 0 0 -43415574.390949249 -42442187.613547921 0 -42442187.613547921 -27574062.53188324 0 0 0 0 -32704713.279426575 -28212414.335910797 0 -28212414.335910797 -24723175.113617182 0 0 0 0 -27030658.308746338 -26701554.993084192 0 -26701554.993084192 -31729377.515714645 0 0 0 0 -36736134.868915558 -28595208.181199551 0 -28595208.181199551 -19333180.172459602 0 0 0 0 -23143087.32151413 -15177544.012973189 0 -15177544.012973189 -14765791.771417618 0 0 0 0 -34741375.485530853 -28253112.514549255 0 -28253112.514549255 -18969946.29099369 0 0 0 0 -89577585.484428406 -35809467.17223835 0 -35809467.17223835 -28401568.313541651 0 0 0 0 -65882629.380775452 -29167602.580218792 0 -29167602.580218792 -30439842.733384132 0 0 0 0 -137264430.47717285 -66533842.188422203 0 -66533842.188422203 -28423920.651312649 0 0 0 0 -64612252.451828003 -31834077.654262543 0 -31834077.654262543 -25238044.196093559 0 0 0 0 -36734996.943269581 -28259257.154405627 0 -28259257.154405627 -40519279.528318405 0 0 0 0 -48296084.480140686 -39582634.43244648 0 -39582634.43244648 -33829273.951147079 0 0 0 0 -60370115.739212036 -16480451.030936241 0 -16480451.030936241 -37381367.893032074 0 0 0 0 -147177683.60137177 -25217016.627002716 0 -25217016.627002716 -28589510.953047752 0 0 0 0 -115216319.57830429 -8915011.7211194038 0 -8915011.7211194038 -40008546.569381714 0 0 0 0 -63411510.988990784 3568368.1378631592 0 3568368.1378631592 -41242291.628557205 0 0 0 0 -118185301.33998108 -5072633.7189435959 0 -5072633.7189435959 -9866041.6304111481 0 0 0 0 -57235731.891578674 -33783485.248410225 0 -33783485.248410225 -15897098.517686844 0 0 0 0 -28691164.766983032 -23999038.800439835 0 -23999038.800439835 -21442775.422387123 0 0 0 0 -22137931.541519165 2487292.137925148 0 2487292.137925148 58132234.780790329 0 0 0 0 -39115326.267463684 -51264645.465193748 0 -51264645.465193748 5550491.7546319962 0 0 0 0 -56047680.177944183 -1668544.5855321884 0 -1668544.5855321884 44296154.684036255 0 0 0 0 -8594632.9785308838 -25886704.646448135 0 -25886704.646448135 47582697.814004898 0 0 0 0 41879340.357903481 -88810779.105051994 0 -88810779.105051994 102427061.81058693 0 0 0 0 -197610288.19322014 -190823790.54752731 0 -190823790.54752731 -52694865.483816147 0 0 0 0 -118759506.78856468 -64085681.186882973 0 -64085681.186882973 100344647.83651543 0 0 0 0 -308988141.28724575 47905894.571958542 0 47905894.571958542 138208700.78634453 0 0 0 0 36590316.708849907 -49132905.454663277 0 -49132905.454663277 130407360.17500687 0 0 0 0 -150430555.36043644 93431630.108487368 0 93431630.108487368 -60323366.21987915 0 0 0 0 -208908423.67368007 -7786932.8152017593 0 -7786932.8152017593 493238281.69736671 0 0 0 0 -37199963.647280328 1862811.8908397397 0 1862811.8908397397 622217.57020680851 0 0 0 0 -58837658.903491974 -26404335.101124763 0 -26404335.101124763 127138180.77074432 0 0 0 0 -31066622.192776348 2479264.6264400631 0 2479264.6264400631 -1744923.1964529688 0 0 0 0 -52165398.049813747 211124561.51865578 0 211124561.51865578 120861123.24615479 0 0 0 0 -60319872.18976593 -12795160.070608139 0 -12795160.070608139 83260761.067790985 0 0 0 0 -122442725.45468557 43836015.158273697 0 43836015.158273697 381364768.7793628 0 0 0 0 28827612.894551396 96456191.485342026 0 96456191.485342026 30896083.133590698 0 0 0 0 -41762057.924692154 95073538.920557022 0 95073538.920557022 30921729.09473905 0 0 0 0 35356585.539747477 164460017.52107334 0 164460017.52107334 -205487691.86272621 0 0 0 0 -93124138.663174868 103090747.06224823 0 103090747.06224823 80697082.264380455 0 0 0 0 -38389822.527765274 185493045.41276741 0 185493045.41276741 -179341069.90740776 0 0 0 0 -174893945.36625481 224098907.97063255 0 224098907.97063255 -177493167.23698044 0 0 0 0 74690350.912233502 219665274.53010058 0 219665274.53010058 -572539831.75543213 0 0 0 0 70080020.725385547 182191417.29922771 0 182191417.29922771 -482210861.13230896 0 0 0 0 -90116106.556236267 329641598.01102066 0 329641598.01102066 -548814100.34448147 0 0 0 0 56656928.72876215 62143346.356128693 0 62143346.356128693 -244544168.12485218 0 0 0 0 61418283.772631764 37792102.423517704 0 37792102.423517704 -377713337.865345 0 0 0 0 246989223.84326243 91371431.316478729 0 91371431.316478729 -577433758.9837724 0 0 0 0 97233443.944815278 -129300034.06002975 0 -129300034.06002975 -504019310.60191345 0 0 0 0 396900086.00707626 -220511059.76134896 0 -220511059.76134896 -984844217.21178055 0 0 0 0 266752407.61380148 -66477166.602155685 0 -66477166.602155685 -606885754.46906281 0 0 0 0 256383000.86532795 -14717390.961408138 0 -14717390.961408138 -862473061.15526199 0 0 0 0 529181947.84007406 -62669397.766526222 0 -62669397.766526222 -857300161.28290653 0 0 0 0 343223559.95772791 123147732.38841438 0 123147732.38841438 -906844281.28996515 0 0 0 0 173065988.0828636 272974415.98848152 0 272974415.98848152 -974682522.17898941 0 0 0 0 423203417.66553569 108518360.3643322 0 108518360.3643322 -1016520686.7970381 0 0 0 0 329573990.92292053 282172763.7738899 0 282172763.7738899 -1378074173.9646606 0 0 0 0 -1288375985.8027449 99491853.123732567 0 99491853.123732567 -154479904.67098618 0 0 0 0 48025704.828174591 573086726.36488914 0 573086726.36488914 -1678426619.7534637 0 0 0 0 -668159094.795084 975127454.97900391 0 975127454.97900391 -1205643906.2879839 0 0 0 0 -413052642.61253452 619397764.46801186 0 619397764.46801186 -723296966.89840698 0 0 0 0 -203485690.05111217 -287218553.81219149 0 -287218553.81219149 -307692782.64820671 0 0 0 0 -604181863.25555611 1035862058.7332573 0 1035862058.7332573 240064465.44991302 0 0 0 0 -260963731.36786938 -93452966.221547127 0 -93452966.221547127 -225862499.48287773 0 0 0 0 -273754468.01040936 -50497534.656045914 0 -50497534.656045914 -82009883.74074173 0 0 0 0 -634054046.73727608 23244707.360607147 0 23244707.360607147 -57356986.189661026 0 0 0 0 -309391826.98989677 409073248.51549435 0 409073248.51549435 -426633071.55385017 0 0 0 0 -86613788.033299923 316502192.5008266 0 316502192.5008266 -542608664.10632324 0 0 0 0 64956199.6277771 -32567192.284679413 0 -32567192.284679413 -49689719.996061325 0 0 0 0 27853727.136657715 -34013410.130861282 0 -34013410.130861282 -12257034.201042175 0 0 0 0 -50375568.3328228 -219047316.55550718 0 -219047316.55550718 -249676893.94614601 0 0 0 0 120701530.8909874 -63641340.500253677 0 -63641340.500253677 -108549839.65921021 0 0 0 0 96508754.282166481 118950675.79203033 0 118950675.79203033 81436438.901542664 0 0 0 0 -1933626.3847281635 2329276.5411458258 0 2329276.5411458258 -767457.01340314234 0 0 0 0 260687102.61350822 46563327.512799263 0 46563327.512799263 -265016781.2077843 0 0 0 0 32342769.190132141 6910645.0999746323 0 6910645.0999746323 -60822309.766323566 0 0 0 0 -3049277.1839314215 -564910.80681423843 0 -564910.80681423843 347753.9974254719 0 0 0 0 29103396.318802834 3976205.5069377422 0 3976205.5069377422 -2062553.3162155151 0 0 0 0 -335431585.68342209 -71740486.987825394 0 -71740486.987825394 386109120.38899612 0 0 0 0 -85721673.949913025 -41117414.456262589 0 -41117414.456262589 -25602786.361574173 0 0 0 0 -280979477.7946167 46213214.923668861 0 46213214.923668861 254940707.74061584 0 0 0 0 63658348.59828949 95756331.142501831 0 95756331.142501831 98740950.792346954 0 0 0 0 -1446176.5515317388 250216.41353582125 0 250216.41353582125 482896.31706735678 0 0 0 0 -359077582.46547699 315381328.53912354 0 315381328.53912354 288747232.04835796 0 0 0 0 946274.41055094264 2596897.8076271089 0 2596897.8076271089 -874407.13348710607 0 0 0 0 -168725560.06432724 469797483.67901111 0 469797483.67901111 -273414742.39289856 0 0 0 0 142245405.12478256 -11712.870308876038 0 -11712.870308876038 -311538033.36386108 0 0 0 0 -16734320.348014072 2750697.8691929085 0 2750697.8691929085 578326.96177526936 0 0 0 0 -620229742.63593102 -935129641.13819456 0 -935129641.13819456 -1039766034.795166 0 0 0 0 -410813009.60042191 -434015705.529562 0 -434015705.529562 -71501983.407814026 0 0 0 0 3239749.613067627 -12712122.1426754 0 -12712122.1426754 -12699726.219587326 0 0 0 0 -4348873.0938930511 -16344702.537983894 0 -16344702.537983894 -5409385.4831733704 0 0 0 0 2677949.4483852386 -22296909.080138206 0 -22296909.080138206 -3653586.9747619629 0 0 0 0 16684042.13445282 -16580898.876478195 0 -16580898.876478195 -11667622.417165756 0 0 0 0 -29961854.93980775 5757520.0108298883 0 5757520.0108298883 4944152.4295249339 0 0 0 0 8296947.9516830444 -28422537.300674438 0 -28422537.300674438 -1515535.5641946793 0 0 0 0 -39439753.171907425 -21495333.516438484 0 -21495333.516438484 35193149.212692261 0 0 0 0 214140473.45356369 192353422.0418365 0 192353422.0418365 99534346.734046936 0 0 0 0 -403431213.36804962 -179429657.70667934 0 -179429657.70667934 175622272.44139862 0 0 0 0 -942578264.02523804 -423462837.55652428 0 -423462837.55652428 358711718.95368195 0 0 0 0 -364315726.57783508 -34264873.51817894 0 -34264873.51817894 478288141.46339798 0 0 0 0 -172029441.54717255 514739384.59920311 0 514739384.59920311 538223956.28578091 0 0 0 0 -1232516286.5565338 234912355.61706352 0 234912355.61706352 988170449.86469269 0 0 0 0 -170840333.95948792 -63685750.007919312 0 -63685750.007919312 206449436.79145813 0 0 0 0 -264950983.85871124 -6139532.4422311783 0 -6139532.4422311783 219819946.86372757 0 0 0 0 -276768352.26502514 17455168.080835104 0 17455168.080835104 276919343.18577576 0 0 0 0 -9400649.870370619 2209914.2942262683 0 2209914.2942262683 4915656.6755246669 0 0 0 0 -75637671.557786942 41644883.060710907 0 41644883.060710907 188780233.03831482 0 0 0 0 -23786377.899711609 -1017749.4713790417 0 -1017749.4713790417 -6209162.9334545135 0 0 0 0 -29463416.594960459 4532966.03830879 0 4532966.03830879 3196534.6421596333 0 0 0 0 -34549179.554287694 -525237.81449410017 0 -525237.81449410017 6856937.0661545899 0 0 0 0 -16590227.669815063 997924.99629306793 0 997924.99629306793 6720530.0842707455 0 0 0 0 -47104242.042747937 302902.74756154232 0 302902.74756154232 6738664.1117232395 0 0 0 0 -52620908.756515503 20844644.315696716 0 20844644.315696716 76408129.857605457 0 0 0 0 -22964170.913467407 -47105121.655402184 0 -47105121.655402184 71930116.303495407 0 0 0 0 -42920428.650414467 10734377.87121398 0 10734377.87121398 7757599.6529347263 0 0 0 0 10192604.692107201 -55692551.835457802 0 -55692551.835457802 21564682.536426544 0 0 0 0 5955182.9074401855 -37378252.842000961 0 -37378252.842000961 -12300561.255778193 0 0 0 0 -5724098.0307445526 -185949778.18877602 0 -185949778.18877602 -86715617.72382617 0 0 0 0 8496970.1706441641 -69938291.862768531 0 -69938291.862768531 77848032.062519073 0 0 0 0 -42441837.085097574 1297883.8499209518 0 1297883.8499209518 2985275.6376612987 0 0 0 0 -86232450.539619446 15934131.456140518 0 15934131.456140518 150822358.20400226 0 0 0 0 -95071447.253797531 -119777493.11594582 0 -119777493.11594582 279712200.18799138 0 0 0 0 -59334862.224281311 -21353337.816116333 0 -21353337.816116333 72743314.348264694 0 0 0 0 -100451985.21452332 45699589.349866867 0 45699589.349866867 36826617.760077477 0 0 0 0 -45523268.145782471 62064653.103047371 0 62064653.103047371 26891081.113620758 0 0 0 0 -36279838.376609802 56722455.110056877 0 56722455.110056877 12831845.596954346 0 0 0 0 -43581647.863540649 42781189.291855812 0 42781189.291855812 709498.34055519104 0 0 0 0 -8372210.5020446777 34520233.072570801 0 34520233.072570801 -83013362.834730148 0 0 0 0 -89857625.539093018 92931979.299059868 0 92931979.299059868 -36306820.256762505 0 0 0 0 -244246.19029993564 436578.38100794144 0 436578.38100794144 454933.74648036715 0 0 0 0 -48970230.275756836 -3388839.2066102028 0 -3388839.2066102028 9279133.3974211216 0 0 0 0 -8110600.7028313987 4083819.3706601299 0 4083819.3706601299 3724831.0949720726 0 0 0 0 -125554868.68249512 1112564.5432891846 0 1112564.5432891846 -13016415.929950714 0 0 0 0 -210327558.34707642 80774718.573818207 0 80774718.573818207 -29229331.034481049 0 0 0 0 -166927921.57339478 90850865.639415741 0 90850865.639415741 -77307378.242546082 0 0 0 0 -115923654.63858795 -4991787.958065033 0 -4991787.958065033 -15040471.874479294 0 0 0 0 -236017601.7250061 46939354.387377739 0 46939354.387377739 -34003224.395435333 0 0 0 0 -3629535.079498291 -38961400.143730164 0 -38961400.143730164 32081790.409826279 0 0 0 0 -226231555.21671867 89215036.735300779 0 89215036.735300779 -27823092.070861816 0 0 0 0 -595554.54578889906 -150046.26984425448 0 -150046.26984425448 613451.49256759044 0 0 0 0 -78215757.405220032 -6682133.9298567772 0 -6682133.9298567772 11932031.602647305 0 0 0 0 -3128947.401686579 -2349902.6888110135 0 -2349902.6888110135 7413796.6561237406 0 0 0 0 12115495.437430382 52228106.93329674 0 52228106.93329674 50368097.445512772 0 0 0 0 -94690044.169219971 25390780.006193161 0 25390780.006193161 105002097.2521553 0 0 0 0 -23140536.597578049 -42322613.010354996 0 -42322613.010354996 63135579.831218719 0 0 0 0 -144081515.21505737 -72660796.817447662 0 -72660796.817447662 52859727.680722237 0 0 0 0 -214922538.91030121 -17597137.584280014 0 -17597137.584280014 33966798.360462189 0 0 0 0 -156536228.20825195 -79697541.337241173 0 -79697541.337241173 62032006.441052437 0 0 0 0 -89487556.731491089 -14097180.093560204 0 -14097180.093560204 53801363.770018309 0 0 0 0 -491586.82791137695 -75857271.991595984 0 -75857271.991595984 57683624.611978054 0 0 0 0 -64171615.684356689 27052662.73955822 0 27052662.73955822 10604550.228985548 0 0 0 0 -3560664.786919578 618209.44890587404 0 618209.44890587404 326916.24195997673 0 0 0 0 -39424252.207061768 -45575581.070811123 0 -45575581.070811123 155847725.61558628 0 0 0 0 -858744.51850733906 -2169093.6868690569 0 -2169093.6868690569 4351349.2232330181 0 0 0 0 -5489174.5257863998 -119459264.81069034 0 -119459264.81069034 123930619.92889833 0 0 0 0 10371733.332733154 -170920298.07387543 0 -170920298.07387543 226587649.10731792 0 0 0 0 101659470.74160767 -99230871.874049753 0 -99230871.874049753 24801443.200599864 0 0 0 0 -45307432.549758911 4578143.2677451372 0 4578143.2677451372 -90447455.296002984 0 0 0 0 -77147693.448103905 11983435.463216234 0 11983435.463216234 13152131.751875401 0 0 0 0 -11050131.967761993 -42068341.374476805 0 -42068341.374476805 43567030.086163521 0 0 0 0 17609227.926158905 -21412391.911303092 0 -21412391.911303092 18935394.812178828 0 0 0 0 -14931519.79209137 -20375157.190936744 0 -20375157.190936744 27318318.164959073 0 0 0 0 -18530146.069274902 -13613009.74337709 0 -13613009.74337709 20978297.257569507 0 0 0 0 -24812210.239654541 -15075205.025666654 0 -15075205.025666654 28590808.178459048 0 0 0 0 -12825678.046037883 3640002.0318097286 0 3640002.0318097286 637950.50999183033 0 0 0 0 -46846692.376834869 24165071.899754167 0 24165071.899754167 154970.04919171333 0 0 0 0 -45726337.885296822 18900255.159224898 0 18900255.159224898 13507846.503612041 0 0 0 0 -45025526.999847412 46291605.26235199 0 46291605.26235199 -6392498.5927276611 0 0 0 0 -15459959.610666677 6741163.5112173315 0 6741163.5112173315 8200098.6130362758 0 0 0 0 -51291430.404689789 49002289.994560719 0 49002289.994560719 21747068.476951599 0 0 0 0 -20053309.802513123 35080597.481301308 0 35080597.481301308 -3158836.200088501 0 0 0 0 995502.65455701202 1754933.6316367607 0 1754933.6316367607 -282083.80571016436 0 0 0 0 -16478380.431652069 -39379039.060279161 0 -39379039.060279161 3249220.3424389064 0 0 0 0 -20956540.422340393 -17739431.895145744 0 -17739431.895145744 29315292.134631157 0 0 0 0 -11468751.644791994 -6843215.0053852322 0 -6843215.0053852322 6582635.1187353898 0 0 0 0 -44052203.836257935 -1849085.4980598837 0 -1849085.4980598837 77308564.904368252 0 0 0 0 -29418968.708721161 -30726283.971184716 0 -30726283.971184716 36714814.690128982 0 0 0 0 -9410860.9226303101 -73786819.392881393 0 -73786819.392881393 -62082090.12831527 0 0 0 0 -68952206.854572296 2188131.9636617899 0 2188131.9636617899 74506662.525142908 0 0 0 0 -5054551.1128337905 -1206511.1487228619 0 -1206511.1487228619 1852709.3384263322 0 0 0 0 4195492.5372848511 15986892.789296739 0 15986892.789296739 30437366.894600742 0 0 0 0 -74684317.139282227 77374705.57128188 0 77374705.57128188 75966927.08837077 0 0 0 0 -43006900.162445068 85596575.045627147 0 85596575.045627147 66217275.765242577 0 0 0 0 108529.25516337529 -123915.43572288007 0 -123915.43572288007 -173615.75234699144 0 0 0 0 -157637387.63093567 -97632033.875832409 0 -97632033.875832409 -32273642.822454825 0 0 0 0 -148046475.49414825 -55360740.944095105 0 -55360740.944095105 31030789.385270059 0 0 0 0 -124041676.17159271 -948398.31065879762 0 -948398.31065879762 117743876.59073001 0 0 0 0 -235780285.88832855 12135596.666203976 0 12135596.666203976 117031025.98948014 0 0 0 0 -58561994.674713135 12155769.665269673 0 12155769.665269673 83265525.283347949 0 0 0 0 -51607026.012744904 54024154.412232846 0 54024154.412232846 69436875.319095969 0 0 0 0 -123431403.9803009 13512927.617078602 0 13512927.617078602 59750217.171542361 0 0 0 0 -135132176.3574791 53798364.592858806 0 53798364.592858806 92513534.736624718 0 0 0 0 -119159785.94664001 40773005.302067906 0 40773005.302067906 71454777.614938483 0 0 0 0 1159732.7614059448 -82550493.131937921 0 -82550493.131937921 53238485.43325448 0 0 0 0 -386057940.82937622 103354150.41633043 0 103354150.41633043 83317807.640118003 0 0 0 0 -343885304.83184624 -167024137.54699796 0 -167024137.54699796 37604199.574665293 0 0 0 0 -374706202.28409958 324077581.31899166 0 324077581.31899166 262500552.46032086 0 0 0 0 -465442128.90976715 -81230948.544254005 0 -81230948.544254005 22636705.031989574 0 0 0 0 -1561634.9344694763 -217856.07877695747 0 -217856.07877695747 429504.26020512095 0 0 0 0 -90395482.801647186 120467872.69313847 0 120467872.69313847 -11445643.94244343 0 0 0 0 -150874185.14970398 -279721995.28805077 0 -279721995.28805077 -325086060.23307782 0 0 0 0 -15064077.226165771 -69058275.937929034 0 -69058275.937929034 -201476579.45553291 0 0 0 0 -125839088.95449829 -132275274.59209371 0 -132275274.59209371 83462444.791748047 0 0 0 0 19222028.177322388 1662598.5515685081 0 1662598.5515685081 141034588.9134239 0 0 0 0 49671876.306375504 387654771.64041924 0 387654771.64041924 100573126.34371418 0 0 0 0 -10345492.299668994 -3595737.9150383621 0 -3595737.9150383621 3085451.0515752384 0 0 0 0 174087275.93669128 44842974.636811256 0 44842974.636811256 49989723.102886677 0 0 0 0 -9628333.6809115596 -2719998.4977906831 0 -2719998.4977906831 3371794.3619125457 0 0 0 0 -33748529.87991333 137456539.95002818 0 137456539.95002818 111047901.25494313 0 0 0 0 -38282852.723601542 6704357.4006391959 0 6704357.4006391959 83403.927636074834 0 0 0 0 -27461528.726319671 40647242.870096326 0 40647242.870096326 -114032301.16429043 0 0 0 0 -34127826.706794739 5004999.1436728239 0 5004999.1436728239 68116407.665491402 0 0 0 0 23543408.381393433 -57314245.409849882 0 -57314245.409849882 442589720.95443916 0 0 0 0 -31167090.850373577 -16954778.388055336 0 -16954778.388055336 16516884.237027446 0 0 0 0 -56099087.167728424 -17897826.757825851 0 -17897826.757825851 -228542996.54186249 0 0 0 0 -61982384.917005062 -36306922.336339951 0 -36306922.336339951 61470120.336375237 0 0 0 0 -8506017.2389185727 2317316.5112388134 0 2317316.5112388134 -85296008.870858192 0 0 0 0 18414175.063848495 -67593015.35650444 0 -67593015.35650444 50839360.203486443 0 0 0 0 -64888707.397529602 28073927.676687241 0 28073927.676687241 -50231461.564365387 0 0 0 0 -44504487.42646265 -63111597.890612125 0 -63111597.890612125 -16386526.555355072 0 0 0 0 -59224515.253255844 -39580449.798389435 0 -39580449.798389435 48108378.20334053 0 0 0 0 22846911.975040436 -24228367.767511368 0 -24228367.767511368 -45744461.331988335 0 0 0 0 -43878220.596989244 -5733501.2234641723 0 -5733501.2234641723 1579197.1809348701 0 0 0 0 -75021224.969919205 11942749.727011681 0 11942749.727011681 -93910169.315703392 0 0 0 0 -49927853.47949791 -75019303.513119698 0 -75019303.513119698 -66208405.013622284 0 0 0 0 -103381783.78428268 -80951541.615491569 0 -80951541.615491569 211044518.33394885 0 0 0 0 -135774892.56959915 55242617.908809662 0 55242617.908809662 -53079330.265765667 0 0 0 0 -142370453.58628273 -25202558.608074188 0 -25202558.608074188 -28011616.544753075 0 0 0 0 -4976757.8179542841 -2669963.2708632741 0 -2669963.2708632741 3649696.1860691188 0 0 0 0 5145994.2817077637 -36180822.995283127 0 -36180822.995283127 -109008917.61449528 0 0 0 0 -65839346.517495155 -44304826.845460415 0 -44304826.845460415 -16002838.330991745 0 0 0 0 -46205903.494838886 749033.07339979382 0 749033.07339979382 1374477.5542822182 0 0 0 0 -95658931.175422668 2013256.2958545685 0 2013256.2958545685 26473431.183010459 0 0 0 0 -61306403.113334656 -68016796.834177017 0 -68016796.834177017 76083317.794741631 0 0 0 0 -42819154.535068512 -38352932.995105684 0 -38352932.995105684 83302251.086861849 0 0 0 0 -41622084.745855331 -152217652.68327522 0 -152217652.68327522 19544713.515367508 0 0 0 0 -177755030.79296494 -100327956.17131805 0 -100327956.17131805 78951674.962966919 0 0 0 0 -145796319.76742935 -142953250.98955536 0 -142953250.98955536 86951478.821855545 0 0 0 0 -157362800.7966423 -218480586.83809471 0 -218480586.83809471 104714448.07118797 0 0 0 0 -5387984.9230041504 -96819113.208791733 0 -96819113.208791733 17760258.55973053 0 0 0 0 77575911.972953796 -65430090.477087021 0 -65430090.477087021 26897883.971552849 0 0 0 0 -6143207.9577941708 -2998047.6334946416 0 -2998047.6334946416 -310592.0000211834 0 0 0 0 -36630118.121749878 -46970377.108249664 0 -46970377.108249664 169223162.03261948 0 0 0 0 -74669836.219058037 -82333253.722065926 0 -82333253.722065926 318861036.15645885 0 0 0 0 197472753.40393257 -6385371.8648424149 0 -6385371.8648424149 40266234.046955109 0 0 0 0 -1924509.3906658888 -1321021.847745317 0 -1321021.847745317 -374021.16283543548 0 0 0 0 -102555260.33768272 157237192.75629139 0 157237192.75629139 -177789511.66197777 0 0 0 0 -161305412.02291107 -247095393.64883423 0 -247095393.64883423 -117248118.75164032 0 0 0 0 -236798462.06811905 115948361.91287231 0 115948361.91287231 67763052.833768845 0 0 0 0 -124313239.36354256 58629613.193552017 0 58629613.193552017 -27362180.861870766 0 0 0 0 -124978383.12263775 59407889.338933587 0 59407889.338933587 10717859.863101959 0 0 0 0 -49781591.796691895 29110021.327784538 0 29110021.327784538 19387842.978182793 0 0 0 0 -10252307.259635489 -4057093.1243565306 0 -4057093.1243565306 486527.52456636121 0 0 0 0 -22303265.867832184 -10254985.34417057 0 -10254985.34417057 38337322.415142059 0 0 0 0 -41791464.29671526 -59034392.857796669 0 -59034392.857796669 236980170.17527866 0 0 0 0 -71987852.272172928 9946994.713306427 0 9946994.713306427 122030139.96071053 0 0 0 0 34936253.20990181 -2060202.5529851913 0 -2060202.5529851913 122560472.55250359 0 0 0 0 26903336.67871666 -124762709.84676552 0 -124762709.84676552 163197816.03929138 0 0 0 0 -81329609.695674896 -27164169.808677673 0 -27164169.808677673 17999448.119311333 0 0 0 0 -27631854.27381134 -23417697.139590263 0 -23417697.139590263 1244055.6803007126 0 0 0 0 -8900410.4518890381 -14349062.275017738 0 -14349062.275017738 130616.11928939819 0 0 0 0 -27761902.882358551 -9605831.814286232 0 -9605831.814286232 10697432.753966331 0 0 0 0 -8566157.0007510185 -11218688.393042207 0 -11218688.393042207 13188528.478271484 0 0 0 0 -27908510.504522324 -23321010.297145367 0 -23321010.297145367 13127968.567527771 0 0 0 0 -41985548.33285141 -5291642.2178983688 0 -5291642.2178983688 16293772.208616257 0 0 0 0 -160719305.68281555 9635537.3557667732 0 9635537.3557667732 63705047.159500122 0 0 0 0 -154048201.43244553 20937335.960634232 0 20937335.960634232 34455615.357700348 0 0 0 0 -184621253.83663559 18052424.773752213 0 18052424.773752213 130795100.70637417 0 0 0 0 -183976964.11577606 -12261088.409485817 0 -12261088.409485817 61578038.98242569 0 0 0 0 -173749774.51919174 18061678.169667244 0 18061678.169667244 18422488.011249542 0 0 0 0 -175694854.37160826 -5523451.2739667892 0 -5523451.2739667892 55064853.602302551 0 0 0 0 -215108290.79863739 -10580869.404994965 0 -10580869.404994965 37781923.934036255 0 0 0 0 -145638762.86991882 25597332.875492096 0 25597332.875492096 18515563.72313118 0 0 0 0 -85355474.950266838 -475941.89710664749 0 -475941.89710664749 29478328.798442841 0 0 0 0 -165639175.22935486 2260157.9312582016 0 2260157.9312582016 34290586.829566956 0 0 0 0 -163722916.34689713 -31280048.033872604 0 -31280048.033872604 28680695.527574539 0 0 0 0 -97694597.80083847 -22200033.207350731 0 -22200033.207350731 4921269.2376461029 0 0 0 0 -205957899.18894577 -64138811.861515045 0 -64138811.861515045 8843045.784078598 0 0 0 0 -255492282.36496353 25426462.076102734 0 25426462.076102734 9775925.1022224426 0 0 0 0 -115492567.90984344 2583451.3128099442 0 2583451.3128099442 -46534972.87208271 0 0 0 0 -200328948.28322601 307137164.04671097 0 307137164.04671097 -34384456.867452621 0 0 0 0 -374928559.06240082 129041980.72976112 0 129041980.72976112 15479800.299458981 0 0 0 0 -210918481.01033401 73558478.55974102 0 73558478.55974102 -11669076.346248627 0 0 0 0 -296357540.27473831 28327858.000113487 0 28327858.000113487 86538530.791545868 0 0 0 0 -1585563.1953677423 -1429064.398652236 0 -1429064.398652236 -1434453.8833244969 0 0 0 0 -511891736.00225639 329942261.9248805 0 329942261.9248805 1328207.0575294495 0 0 0 0 -179311709.7472887 -219825256.43380713 0 -219825256.43380713 -482309071.60913086 0 0 0 0 -781858631.57455444 60452444.514732361 0 60452444.514732361 92974341.912324905 0 0 0 0 -209763411.86906052 100480254.40180588 0 100480254.40180588 -39561979.433547258 0 0 0 0 -361057047.2661438 -404059063.87724304 0 -404059063.87724304 -158059998.81087112 0 0 0 0 -485986.82075020671 526400.39225553162 0 526400.39225553162 314220.91291134851 0 0 0 0 -138745969.61608124 492180411.91188145 0 492180411.91188145 -682325416.72700357 0 0 0 0 -104166770.42551804 -28179207.509416103 0 -28179207.509416103 19890729.08313942 0 0 0 0 -406282.47820113227 3440494.8320253505 0 3440494.8320253505 1321021.4102358867 0 0 0 0 -2295537.6187953539 -1501856.1215783469 0 -1501856.1215783469 1261763.6830847636 0 0 0 0 -986121.14138793945 1591887.8832092285 0 1591887.8832092285 9729554.5278892517 0 0 0 0 902523.26473999023 -29220896.692482948 0 -29220896.692482948 -18354064.186674118 0 0 0 0 -93615245.502880096 -37491827.696707249 0 -37491827.696707249 9538632.6427688599 0 0 0 0 2456266.3436431885 15705973.12160778 0 15705973.12160778 37120915.187393188 0 0 0 0 -2567525.0417654738 -870874.05346622597 0 -870874.05346622597 2193401.4623077041 0 0 0 0 4360806.2307672501 8617793.6713590622 0 8617793.6713590622 17919472.331806183 0 0 0 0 27241.574653625488 -9325581.6184587479 0 -9325581.6184587479 -1463001.6636734009 0 0 0 0 7298492.0858974457 21305062.539519846 0 21305062.539519846 26157906.095291138 0 0 0 0 -2428502.6712913513 1816301.1066954136 0 1816301.1066954136 8852216.8898363113 0 0 0 0 -834546.1951084137 1720278.0221357346 0 1720278.0221357346 7873408.6697568893 0 0 0 0 -1756547.6264093295 3270668.1195021542 0 3270668.1195021542 2202012.0220591193 0 0 0 0 -48670081.511998177 -16615054.904920459 0 -16615054.904920459 -20472110.389579773 0 0 0 0 25687099.133583069 21191395.443137169 0 21191395.443137169 -169481888.45069122 0 0 0 0 -11552719.463178635 68700947.395913482 0 68700947.395913482 -181413080.52744293 0 0 0 0 -311789046.37804794 -44541671.055798531 0 -44541671.055798531 -223648764.29814434 0 0 0 0 -100605811.87696123 172027525.00920486 0 172027525.00920486 -470004455.13107872 0 0 0 0 -64714251.85149765 59125624.245429277 0 59125624.245429277 -173055135.77297354 0 0 0 0 7120741.8070907593 101720546.81517696 0 101720546.81517696 -171160666.74974346 0 0 0 0 -7723102.8612136841 117905833.44775224 0 117905833.44775224 -234001248.90535235 0 0 0 0 -269448089.16887665 194047709.05548334 0 194047709.05548334 -68731040.280856609 0 0 0 0 -267396729.96625137 158752140.6865747 0 158752140.6865747 -24317014.942977428 0 0 0 0 -93856502.007862329 91314348.563522607 0 91314348.563522607 -3094179.1088480949 0 0 0 0 -367500188.81728363 20751881.541069508 0 20751881.541069508 -2542613.8278534412 0 0 0 0 -389616803.61125445 211739918.37595987 0 211739918.37595987 29849392.834274292 0 0 0 0 -494915292.99795532 339904135.9470849 0 339904135.9470849 -145251563.20350933 0 0 0 0 -252032106.32419014 178794475.17623878 0 178794475.17623878 -120654297.76833963 0 0 0 0 -496246383.44341415 -76961021.890178382 0 -76961021.890178382 -386900870.74292469 0 0 0 0 -879047.60889142193 -641962.7249678364 0 -641962.7249678364 -397599.04255363718 0 0 0 0 -494711620.14473534 500226815.37433887 0 500226815.37433887 -347661095.21567631 0 0 0 0 -471492387.55760098 99473097.015795469 0 99473097.015795469 49036899.350847244 0 0 0 0 -383522745.00865936 299009968.94066715 0 299009968.94066715 90479700.088689804 0 0 0 0 -73459549.526191711 245528601.94784641 0 245528601.94784641 -186947432.95847702 0 0 0 0 -572066617.32916641 458311395.53565884 0 458311395.53565884 -17469481.096845627 0 0 0 0 -832229885.84622765 498226120.90264034 0 498226120.90264034 -122440786.3256073 0 0 0 0 -342110260.64064407 307121321.55923176 0 307121321.55923176 -276119196.05501962 0 0 0 0 241099593.69721794 -21685714.687004805 0 -21685714.687004805 -369760942.9422493 0 0 0 0 -169993.87064909851 -418888.05652204249 0 -418888.05652204249 -1673697.5883553182 0 0 0 0 -415854.95400810451 -286064.78214519005 0 -286064.78214519005 -3838706.1025161408 0 0 0 0 32329224.221920013 76716913.271657705 0 76716913.271657705 -286142547.20682716 0 0 0 0 -442577937.61206818 205668783.7465086 0 205668783.7465086 23285042.535624504 0 0 0 0 -275028163.2223835 15573949.241151363 0 15573949.241151363 77080195.15865612 0 0 0 0 -920121830.07172394 453634602.41675997 0 453634602.41675997 165257927.07603401 0 0 0 0 254060347.71801627 -2427333.3534307647 0 -2427333.3534307647 -393928590.53540802 0 0 0 0 -337904549.47683716 572432156.05101597 0 572432156.05101597 -538976291.13954818 0 0 0 0 -965989.71843023505 387194.42819947843 0 387194.42819947843 -3307082.7593707703 0 0 0 0 -166600532.47036171 -24007373.7956191 0 -24007373.7956191 -7983192.553648591 0 0 0 0 86142117.766576767 -3740539.5328722 0 -3740539.5328722 -66723181.811851025 0 0 0 0 27101924.560646057 -49445707.226743221 0 -49445707.226743221 -57283746.325464725 0 0 0 0 -133302183.20999146 -56996810.583772182 0 -56996810.583772182 -5394974.0984120369 0 0 0 0 -2082328.852906758 1921294.4425425457 0 1921294.4425425457 -45342.254633217904 0 0 0 0 -1650390864.6155996 993898703.45274615 0 993898703.45274615 -592976619.51155996 0 0 0 0 -795713274.78813934 -116889005.84955812 0 -116889005.84955812 357846252.79986787 0 0 0 0 -1233912388.4161339 1195693718.1762106 0 1195693718.1762106 -665334726.37818158 0 0 0 0 -970111887.35781288 237408847.12292737 0 237408847.12292737 -690689812.57382059 0 0 0 0 -1222301714.193388 39929019.223598719 0 39929019.223598719 -371033022.86720264 0 0 0 0 -1564421199.3446798 1034044394.3857167 0 1034044394.3857167 -698035036.38826394 0 0 0 0 -639129677.33956528 323744889.03251529 0 323744889.03251529 -278963794.31382966 0 0 0 0 -731436904.25808716 101874876.24807465 0 101874876.24807465 137285486.47651362 0 0 0 0 -217458076.92259216 -176746203.76606894 0 -176746203.76606894 -16460565.530969501 0 0 0 0 -968891906.51538086 271461435.82415104 0 271461435.82415104 -19155954.735668182 0 0 0 0 -491382901.51023674 265700562.53220952 0 265700562.53220952 -56206071.148732662 0 0 0 0 -413916366.8778429 333640049.12856507 0 333640049.12856507 -95336049.383973122 0 0 0 0 -552985597.61085701 318535255.81228495 0 318535255.81228495 -96864903.833794475 0 0 0 0 -423039873.72922325 312546761.40979528 0 312546761.40979528 -144063691.38283157 0 0 0 0 -256299912.02953529 330867606.88980579 0 330867606.88980579 -142500120.96884787 0 0 0 0 -232826363.74858093 254941390.62766099 0 254941390.62766099 -205615533.16577148 0 0 0 0 -243399425.80264282 292887465.36441612 0 292887465.36441612 -214004874.39894056 0 0 0 0 -287087187.85523987 207545467.20232797 0 207545467.20232797 -136708754.14563274 0 0 0 0 -565546316.47742176 161103100.92970252 0 161103100.92970252 -143932501.89993382 0 0 0 0 -227104919.88564682 314108941.22368956 0 314108941.22368956 -544694883.14293385 0 0 0 0 -315422093.83538818 698059183.31283188 0 698059183.31283188 -472260155.7663784 0 0 0 0 -122029748.96956635 288948226.58053446 0 288948226.58053446 -298706987.54699087 0 0 0 0 -213152194.44981766 -297224993.08536053 0 -297224993.08536053 -248628699.84843659 0 0 0 0 -111187869.81928635 196196449.54439735 0 196196449.54439735 -126719190.32947922 0 0 0 0 -1621399.5757341348 -1438011.8990056426 0 -1438011.8990056426 -1183295.5176175972 0 0 0 0 -399741197.61863518 362807773.53455687 0 362807773.53455687 -108629677.32961845 0 0 0 0 -357199442.2537365 216036705.57171917 0 216036705.57171917 89950721.936148643 0 0 0 0 -910272.44164370373 -659287.33082570229 0 -659287.33082570229 -138032.71642722748 0 0 0 0 -337326251.47132778 377882196.29151893 0 377882196.29151893 -110392505.85558128 0 0 0 0 -116661862.56916428 13380269.499153614 0 13380269.499153614 -26153318.655023575 0 0 0 0 -132854240.99787569 94911449.022678018 0 94911449.022678018 -173892261.96686363 0 0 0 0 -152544694.31680298 33369872.477611542 0 33369872.477611542 -83173446.957952499 0 0 0 0 -17354001.831939697 -4642477.3076572418 0 -4642477.3076572418 -116698963.98297882 0 0 0 0 -173327551.98923683 -54762276.024989128 0 -54762276.024989128 196918650.27931976 0 0 0 0 159363366.20560837 -194699600.4203186 0 -194699600.4203186 67634447.494132996 0 0 0 0 -158848353.83790827 -47309596.801820517 0 -47309596.801820517 533553576.22122574 0 0 0 0 -151505421.64096069 -11607280.461463928 0 -11607280.461463928 116670297.50471687 0 0 0 0 151834662.10290122 277657218.98127604 0 277657218.98127604 -238496231.38957596 0 0 0 0 106416688.69858646 -241972832.87415397 0 -241972832.87415397 149912495.8259201 0 0 0 0 -68034580.719520569 289316760.69233608 0 289316760.69233608 100315250.77567816 0 0 0 0 -152483724.10136795 101711617.30869675 0 101711617.30869675 -243129532.89838102 0 0 0 0 116562773.5395546 188065295.6651392 0 188065295.6651392 -243540246.65912819 0 0 0 0 -22347087.513614655 83482447.422147751 0 83482447.422147751 -179227704.05949783 0 0 0 0 38207973.688865662 233064802.94249964 0 233064802.94249964 -612426344.62474632 0 0 0 0 -189406550.61144638 401261007.02615929 0 401261007.02615929 -166393394.94095612 0 0 0 0 -140913258.03470612 362622842.22075176 0 362622842.22075176 -346457609.89195824 0 0 0 0 -385794181.45730782 428892431.65526628 0 428892431.65526628 -169165971.08156204 0 0 0 0 -268794888.13835335 304943755.16548038 0 304943755.16548038 -173867613.90941811 0 0 0 0 -52392706.764052391 209688705.54337883 0 209688705.54337883 -190955923.0907917 0 0 0 0 265283415.35563374 -87733948.122713089 0 -87733948.122713089 172270920.80246544 0 0 0 0 -603542317.88844299 507163301.55169773 0 507163301.55169773 89613519.873953342 0 0 0 0 -418373485.42429352 330350354.80829573 0 330350354.80829573 449242.31490516663 0 0 0 0 -466780812.60171127 713121338.4930582 0 713121338.4930582 -513126598.30323601 0 0 0 0 -84098665.993468285 626569687.41545343 0 626569687.41545343 -1419003837.2611237 0 0 0 0 -912719004.45231056 1038567975.025424 0 1038567975.025424 -440495488.80402565 0 0 0 0 -699884.96164037287 1467254.7530788593 0 1467254.7530788593 -544815.65490745986 0 0 0 0 -764672519.84879041 349489897.99472189 0 349489897.99472189 613823328.2133007 0 0 0 0 606034.32186809508 1556318.5209898623 0 1556318.5209898623 -3307310.4740820061 0 0 0 0 -560342099.87353075 1163807591.8497093 0 1163807591.8497093 -288538316.371315 0 0 0 0 465090160.92691755 -322041707.47575247 0 -322041707.47575247 -889886330.49855423 0 0 0 0 402109498.4870348 -69660381.066599607 0 -69660381.066599607 -1413933699.78986 0 0 0 0 291072565.30174398 -64028018.042556763 0 -64028018.042556763 18649128.506912455 0 0 0 0 467638564.06204796 67075553.409986496 0 67075553.409986496 -962258125.38906193 0 0 0 0 532657.20856135013 3257939.9194751419 0 3257939.9194751419 -6034599.8594680056 0 0 0 0 693880283.38213634 881474188.22047436 0 881474188.22047436 37864091.814041607 0 0 0 0 568399945.71913195 519399501.08669138 0 519399501.08669138 44296124.828080177 0 0 0 0 71337132.46001339 289889519.73041773 0 289889519.73041773 86689358.107532799 0 0 0 0 322419258.07933414 47806742.248663604 0 47806742.248663604 -472044642.10952282 0 0 0 0 232994455.9656992 608447238.41240835 0 608447238.41240835 -1001770304.9423834 0 0 0 0 -197539579.85624218 397396550.77395439 0 397396550.77395439 -404150571.94036531 0 0 0 0 157135435.49133658 93496770.480752945 0 93496770.480752945 -192410842.9373827 0 0 0 0 -447877266.37658882 241852351.83746529 0 241852351.83746529 88749926.636009216 0 0 0 0 -446421490.7442503 372622765.51280212 0 372622765.51280212 -57636048.910094261 0 0 0 0 -419845437.19766808 324020396.06540203 0 324020396.06540203 -54032786.619616091 0 0 0 0 -198048754.98004246 384345072.2231971 0 384345072.2231971 -194257591.0588274 0 0 0 0 -425384318.37334251 500746978.04182482 0 500746978.04182482 -251831914.15875578 0 0 0 0 -653194154.96529531 718148500.14711487 0 718148500.14711487 -217950487.43481791 0 0 0 0 -365096070.36493492 555365717.81487501 0 555365717.81487501 -222136835.7889185 0 0 0 0 -205455124.28553128 721624858.10053277 0 721624858.10053277 -546217481.7189455 0 0 0 0 102745941.75464058 674471392.36386395 0 674471392.36386395 -588838775.04505694 0 0 0 0 -1351469843.0158117 819029580.99282682 0 819029580.99282682 -186577354.11010456 0 0 0 0 -431158328.59848309 1161661448.5813248 0 1161661448.5813248 -757807413.45964527 0 0 0 0 295731702.6978035 236326783.55648232 0 236326783.55648232 -804842878.82824397 0 0 0 0 -89122260.065146446 343810019.86551619 0 343810019.86551619 454723977.69815254 0 0 0 0 -3347008.0717751728 6681256.9276178842 0 6681256.9276178842 -955337.69804086024 0 0 0 0 -956914.45774787664 1359069.2967836363 0 1359069.2967836363 -1093570.4519280274 0 0 0 0 -174853815.09846711 442767599.60955167 0 442767599.60955167 1051832588.0646306 0 0 0 0 -4715217.2576217353 5309032.8568044528 0 5309032.8568044528 -51056.069538152806 0 0 0 0 187222428.85878658 262832781.01570535 0 262832781.01570535 -123324728.00655484 0 0 0 0 81594754.885478839 821513504.83249474 0 821513504.83249474 -604000211.20265126 0 0 0 0 -2752560.9790086746 701838307.71520317 0 701838307.71520317 -76887728.851298869 0 0 0 0 221953183.32045269 488248076.87084299 0 488248076.87084299 -451301575.36429715 0 0 0 0 59371408.292363346 735022461.92638481 0 735022461.92638481 -604642291.96028256 0 0 0 0 -175151051.82361984 1227436948.6245964 0 1227436948.6245964 -1345228375.9306097 0 0 0 0 -1195211265.8171902 166618944.72295988 0 166618944.72295988 -263804980.48472193 0 0 0 0 -1104061771.8629472 1053973526.0460079 0 1053973526.0460079 -438520688.60529381 0 0 0 0 -1342345910.3705673 436330103.60723579 0 436330103.60723579 84926205.856389686 0 0 0 0 -192000064.39215684 450284940.91659343 0 450284940.91659343 -41175290.783443093 0 0 0 0 153600395.60599089 67756283.593253732 0 67756283.593253732 671498390.89226246 0 0 0 0 -476553621.63823366 717134261.73173499 0 717134261.73173499 346288257.46125031 0 0 0 0 -298673441.05741066 -123785817.10559754 0 -123785817.10559754 384620100.06240106 0 0 0 0 -936173441.37338591 79987447.584061623 0 79987447.584061623 776649462.20274138 0 0 0 0 478697820.7338233 -141900589.02071643 0 -141900589.02071643 779371544.4975903 0 0 0 0 -381903799.04449105 470042430.45381773 0 470042430.45381773 1889292677.8715124 0 0 0 0 -4823385.612645708 3659276.7622308517 0 3659276.7622308517 381714.0366670884 0 0 0 0 -2126248515.255857 192671149.44275546 0 192671149.44275546 562971222.27083766 0 0 0 0 -2131075338.923131 -56843583.039392233 0 -56843583.039392233 1354982070.7916415 0 0 0 0 -1212320356.2201362 -670989278.53026128 0 -670989278.53026128 1755489145.3023896 0 0 0 0 -2255986.9550017901 1284412.295235689 0 1284412.295235689 243902.3902460828 0 0 0 0 -258608689.76248932 375699467.28243971 0 375699467.28243971 -439418641.2368713 0 0 0 0 -1018616428.1728373 -588703361.51596975 0 -588703361.51596975 998479456.30554068 0 0 0 0 -1917834555.0911801 -47553257.175632276 0 -47553257.175632276 702033252.81450045 0 0 0 0 -2205291782.1994376 -159386401.72433376 0 -159386401.72433376 1032751702.3334165 0 0 0 0 -1476809035.2086368 -224219499.70128602 0 -224219499.70128602 534163117.87476969 0 0 0 0 -2204093853.4878402 335859227.73465359 0 335859227.73465359 136057252.87891173 0 0 0 0 -1585782857.6824942 218326246.77881065 0 218326246.77881065 -206890163.78704745 0 0 0 0 -2205146177.8995962 606256947.58017015 0 606256947.58017015 -381518753.91287428 0 0 0 0 -1715994841.9612937 772889143.75490856 0 772889143.75490856 -611407046.29929602 0 0 0 0 -1388468604.7037549 572863674.24082828 0 572863674.24082828 -816964826.08641756 0 0 0 0 -1281052803.3079164 1133622932.108145 0 1133622932.108145 -730901612.47507346 0 0 0 0 -1297483154.6092525 832077403.07194543 0 832077403.07194543 799284689.18740618 0 0 0 0 437197007.81795359 332871065.51220578 0 332871065.51220578 -1747514315.4518681 0 0 0 0 291052.44794924371 1656884.5530151878 0 1656884.5530151878 -3171809.2746409597 0 0 0 0 -1747998337.2789373 845675171.49284101 0 845675171.49284101 -763066962.57003403 0 0 0 0 -2220501647.5925856 829819511.15915155 0 829819511.15915155 -88617649.438883185 0 0 0 0 712247401.66013157 261910570.38925001 0 261910570.38925001 -892384191.65409994 0 0 0 0 -416097026.14101315 369027465.37643135 0 369027465.37643135 -1165869344.6880293 0 0 0 0 23454937.687745094 -182995608.99093008 0 -182995608.99093008 -566338628.45463562 0 0 0 0 -141365155.63387394 745819206.89319551 0 745819206.89319551 -2804441238.3086262 0 0 0 0 -1603328063.1220093 1309438960.9238682 0 1309438960.9238682 -2130533688.3386602 0 0 0 0 -2055635393.4151707 391252751.10876024 0 391252751.10876024 -1627975476.6476474 0 0 0 0 -2203994520.3024979 918834912.72131383 0 918834912.72131383 -1293546517.1933877 0 0 0 0 -1813038769.9738541 1228446211.7005196 0 1228446211.7005196 -1067494093.8547775 0 0 0 0 -2109605137.0071092 601610638.09702373 0 601610638.09702373 -639379208.17507839 0 0 0 0 -33206701.783103943 18009630.225265503 0 18009630.225265503 -39379964.542570829 0 0 0 0 -33003089.61857605 24160429.304877281 0 24160429.304877281 -30012704.536931992 0 0 0 0 -21630774.907093048 27420068.418140411 0 27420068.418140411 -30094226.48644495 0 0 0 0 -59342400.731826782 25179175.633692741 0 25179175.633692741 -15443035.950376511 0 0 0 0 -64514369.349737167 14381965.968525887 0 14381965.968525887 -17210801.03527832 0 0 0 0 -65772264.255661011 18973458.164596558 0 18973458.164596558 -15420528.46055603 0 0 0 0 -55104899.757644653 14908405.861958504 0 14908405.861958504 -17761178.074691772 0 0 0 0 -47461698.612884521 18468749.984964371 0 18468749.984964371 -27780228.680337906 0 0 0 0 -33301695.04266125 26224091.743763983 0 26224091.743763983 -24116507.247253418 0 0 0 0 -60894336.60055542 13939138.808546066 0 13939138.808546066 -15468973.838212013 0 0 0 0 -14712520.564632416 922755.42952632904 0 922755.42952632904 6317739.4604549408 0 0 0 0 -27886388.168724403 232120.16788322572 0 232120.16788322572 3030691.1170128966 0 0 0 0 -49314744.85925293 11711122.839483261 0 11711122.839483261 -16750258.198753357 0 0 0 0 -34808462.152549744 18489571.690748215 0 18489571.690748215 12663642.257221222 0 0 0 0 -20843355.42899704 -1755859.352850914 0 -1755859.352850914 17147410.704093933 0 0 0 0 12201713.114532471 -27934394.187473297 0 -27934394.187473297 22350924.578172207 0 0 0 0 6308143.7039451599 20876729.423236847 0 20876729.423236847 17021608.556834698 0 0 0 0 8387975.6345367432 11338764.029026985 0 11338764.029026985 57026301.625522614 0 0 0 0 19267050.184993744 24566049.475248337 0 24566049.475248337 64730131.822654724 0 0 0 0 -24350747.892430305 30884276.203587472 0 30884276.203587472 22225712.805986404 0 0 0 0 -4235564.5749664307 46643615.848350525 0 46643615.848350525 132945148.85468292 0 0 0 0 -7996004.7133483887 -42163743.488098145 0 -42163743.488098145 49420180.371584415 0 0 0 0 -41706891.401550293 -25494612.999656677 0 -25494612.999656677 109115251.07549858 0 0 0 0 -38021162.551849365 5309599.9094676971 0 5309599.9094676971 -39702013.25804168 0 0 0 0 -35842887.692138672 11267916.304000854 0 11267916.304000854 -23817537.660832405 0 0 0 0 -27773108.603891909 9604023.0152697191 0 9604023.0152697191 5531677.9759492297 0 0 0 0 -15868855.193916321 12539150.72634697 0 12539150.72634697 -76663612.385025024 0 0 0 0 -30302517.188400261 3297391.0871988386 0 3297391.0871988386 7236731.4194039637 0 0 0 0 -23505230.978120804 10464625.659266472 0 10464625.659266472 29350020.014003515 0 0 0 0 -48262231.258911133 45044739.348575592 0 45044739.348575592 92774058.179473162 0 0 0 0 -21855821.751245931 13841436.187587854 0 13841436.187587854 3893311.4299275079 0 0 0 0 -36156647.88342005 2267619.370255603 0 2267619.370255603 13495091.931866748 0 0 0 0 -27425117.559774637 -65072042.897886902 0 -65072042.897886902 -110657702.62895775 0 0 0 0 -19162379.061923981 36934230.361178398 0 36934230.361178398 -42547928.819171906 0 0 0 0 -16605676.999198914 25961425.459854126 0 25961425.459854126 -66647037.691601753 0 0 0 0 -32945432.620159149 24440604.987521648 0 24440604.987521648 -17533790.732199669 0 0 0 0 18999486.283464432 41618574.637046337 0 41618574.637046337 -14051835.716485977 0 0 0 0 139740654.38102055 -74551318.716776133 0 -74551318.716776133 -15466952.731292725 0 0 0 0 -65523058.834201813 -8189998.4455366135 0 -8189998.4455366135 -29271712.115684509 0 0 0 0 -63049598.742488861 -55226864.273212433 0 -55226864.273212433 221029912.77784443 0 0 0 0 -30490489.944644928 -2933518.0860919952 0 -2933518.0860919952 157382342.46752453 0 0 0 0 68252441.573998451 118786188.66095448 0 118786188.66095448 101483854.96194839 0 0 0 0 -27942464.604499817 -3471492.7562046051 0 -3471492.7562046051 33779546.653718948 0 0 0 0 -60775776.616580963 36456246.972125053 0 36456246.972125053 82053751.331913948 0 0 0 0 -37632179.187021255 43712634.07716465 0 43712634.07716465 -1154298.4620265961 0 0 0 0 -77371001.660293579 29101741.937181473 0 29101741.937181473 20345681.536967278 0 0 0 0 -62845980.47497654 22943408.111183405 0 22943408.111183405 13848152.496871948 0 0 0 0 -89864991.612606049 29376788.138630867 0 29376788.138630867 29094972.75043869 0 0 0 0 -107424569.31486893 -6791327.0242528915 0 -6791327.0242528915 2300054.4882850647 0 0 0 0 -86894182.818626404 -44179467.089172363 0 -44179467.089172363 -15329718.001793623 0 0 0 0 -30389757.882011414 -1071284.5179634094 0 -1071284.5179634094 -6262253.9297579527 0 0 0 0 -79450935.699895859 8276767.6145162582 0 8276767.6145162582 938140.53129577637 0 0 0 0 -9639640.4974007457 -151304.40654755756 0 -151304.40654755756 1653987.7366049029 0 0 0 0 -76901229.429878235 12595014.010626793 0 12595014.010626793 8206602.8183188438 0 0 0 0 -82743209.270299911 17553144.200726032 0 17553144.200726032 5388873.6480541229 0 0 0 0 -13568748.299721714 -12834884.8542882 0 -12834884.8542882 -3994037.816423933 0 0 0 0 -4425339.0278205872 -95922295.760293961 0 -95922295.760293961 -57534318.10604763 0 0 0 0 -82227831.70999527 25686167.256314278 0 25686167.256314278 40015746.781002045 0 0 0 0 -103651179.93992615 43728046.500968456 0 43728046.500968456 41508423.227505684 0 0 0 0 -5539933.1886510495 160956.58558007516 0 160956.58558007516 1345877.8331190599 0 0 0 0 5037245.5256576538 -37399738.942008972 0 -37399738.942008972 5481868.0951023102 0 0 0 0 -54514.431449890137 -23153749.734434128 0 -23153749.734434128 13821799.778794765 0 0 0 0 -1573250.8817520142 -29377537.713308334 0 -29377537.713308334 -11645782.788450241 0 0 0 0 24505109.275909424 -19133544.984038353 0 -19133544.984038353 -19843759.338956833 0 0 0 0 7258929.7465629578 -10597655.690459251 0 -10597655.690459251 -40599333.463796616 0 0 0 0 6838719.3675575256 -15812202.296437263 0 -15812202.296437263 -9024824.4856653214 0 0 0 0 -15324458.1425758 -11908686.465322539 0 -11908686.465322539 -2700892.3956960784 0 0 0 0 -35610741.474012375 -12005363.480665684 0 -12005363.480665684 -10269080.886606216 0 0 0 0 25128324.421980143 -25912443.157993764 0 -25912443.157993764 -12859956.402162552 0 0 0 0 -6604129.8988647461 -22730246.907588959 0 -22730246.907588959 12997360.175484657 0 0 0 0 -40285.884277777746 -9628878.549502071 0 -9628878.549502071 -1479721.6957391289 0 0 0 0 15711966.343067169 -22423023.251220703 0 -22423023.251220703 -4458940.8443012238 0 0 0 0 -11902936.792402267 -11927687.699411869 0 -11927687.699411869 1315175.0060596466 0 0 0 0 -9675381.7101173401 -15699550.618693352 0 -15699550.618693352 5164090.8420715332 0 0 0 0 5770163.4058685303 -21527521.718224525 0 -21527521.718224525 -537994.90924882889 0 0 0 0 1287191.0862045288 6405814.5855093002 0 6405814.5855093002 14968720.9601717 0 0 0 0 -52327119.890867233 961848.13428711891 0 961848.13428711891 2588114.0232162476 0 0 0 0 -32088034.055740356 10907109.04324913 0 10907109.04324913 -11158312.363530636 0 0 0 0 -69217522.819570541 13321509.420105696 0 13321509.420105696 -14517977.249252319 0 0 0 0 -6054146.1229087785 -270789.35234749503 0 -270789.35234749503 2543879.8635569075 0 0 0 0 -68023577.78527832 30567071.224591732 0 30567071.224591732 -15611825.967611313 0 0 0 0 -89471844.667633057 21483950.264976501 0 21483950.264976501 6386246.2103164196 0 0 0 0 -15882912.230232686 2507620.4658103371 0 2507620.4658103371 129050.33015424013 0 0 0 0 -33535558.43963623 -5084037.3761196136 0 -5084037.3761196136 -7828760.3273458481 0 0 0 0 -47940055.818771362 -2866827.7011089325 0 -2866827.7011089325 1637855.2839584351 0 0 0 0 -17394740.67610969 -2798784.0062528113 0 -2798784.0062528113 1593390.9366294406 0 0 0 0 -7933038.234899044 -357190.32725429535 0 -357190.32725429535 1907376.7670764923 0 0 0 0 -11922838.012897599 -3637118.153122481 0 -3637118.153122481 -186350.12793622725 0 0 0 0 -7081338.9604344368 905102.76950073242 0 905102.76950073242 3387150.9948105812 0 0 0 0 -7574832.4601426125 -1055421.5823497772 0 -1055421.5823497772 5006442.10557881 0 0 0 0 -8919147.879856348 -3307691.5175638199 0 -3307691.5175638199 6133708.7180356979 0 0 0 0 -9411834.9560980797 -1831695.9017963409 0 -1831695.9017963409 8507338.5805358887 0 0 0 0 -6119148.0722799376 1116888.2354303668 0 1116888.2354303668 327749.16320918646 0 0 0 0 -16794693.993848011 -17217601.745012913 0 -17217601.745012913 2884333.6127160131 0 0 0 0 -8716068.4586853981 -4149515.7202291489 0 -4149515.7202291489 4249829.4979127645 0 0 0 0 -27903581.955675125 11469874.488510132 0 11469874.488510132 -18787566.228343964 0 0 0 0 -17452964.348235093 2724423.2045475733 0 2724423.2045475733 3643081.6546959151 0 0 0 0 -17261219.872298334 2138795.6701169875 0 2138795.6701169875 4875801.8384153061 0 0 0 0 -37607790.033081055 790697.03185987473 0 790697.03185987473 7347374.8824768066 0 0 0 0 -5490795.8953933716 455366.71018123627 0 455366.71018123627 5106842.3124351501 0 0 0 0 -17798193.817787874 366326.08673391375 0 366326.08673391375 258229.99086341821 0 0 0 0 -44688223.440376282 12880015.302604675 0 12880015.302604675 18965588.283148766 0 0 0 0 -62067331.339183807 19487007.556348801 0 19487007.556348801 24275896.983386993 0 0 0 0 -31712395.681224823 -1169957.9857597351 0 -1169957.9857597351 3277082.5926475525 0 0 0 0 -58867691.464851379 32886342.87506485 0 32886342.87506485 13144330.89661026 0 0 0 0 -10614303.026942084 1137095.1897466397 0 1137095.1897466397 2352237.986420217 0 0 0 0 -25403358.16973877 2829137.5803794861 0 2829137.5803794861 3469614.6607549191 0 0 0 0 -31654192.756233782 1920844.9375828058 0 1920844.9375828058 1289751.6573638916 0 0 0 0 -15570741.684616042 1036180.6430792566 0 1036180.6430792566 1123029.3562744036 0 0 0 0 -10686775.709236844 -2176727.8644124335 0 -2176727.8644124335 1733171.1740653031 0 0 0 0 -52010605.74382019 10721082.517346382 0 10721082.517346382 5379021.0449705124 0 0 0 0 -2738858.3999069175 -278345.51848287787 0 -278345.51848287787 1003796.1838168697 0 0 0 0 -38146532.371383667 3719104.8778772354 0 3719104.8778772354 12592012.351730347 0 0 0 0 -22319410.756409645 -478756.25061798096 0 -478756.25061798096 13520406.145944595 0 0 0 0 -9039837.3363876343 2859801.4025707245 0 2859801.4025707245 -5947706.4239311218 0 0 0 0 -56848956.928361893 18434020.511025429 0 18434020.511025429 10346181.621562958 0 0 0 0 -56882101.101783752 1602713.0639753342 0 1602713.0639753342 31052095.51326561 0 0 0 0 -36884081.91532135 127484.79350852966 0 127484.79350852966 28925308.095504761 0 0 0 0 -28760854.961509705 -10518797.29580307 0 -10518797.29580307 40717426.277070999 0 0 0 0 -12151255.817145586 -10292473.760032803 0 -10292473.760032803 11884030.050125122 0 0 0 0 -38593196.729984283 -5606029.7553606033 0 -5606029.7553606033 17416904.300336838 0 0 0 0 -36000842.134040833 3945165.6309585571 0 3945165.6309585571 16000597.812263489 0 0 0 0 -3150732.0049171448 -16850234.783758163 0 -16850234.783758163 -19888919.315351009 0 0 0 0 -6969478.3517341614 -14981226.819048882 0 -14981226.819048882 -593010.09210109711 0 0 0 0 -7429826.6265716553 -15918695.309707642 0 -15918695.309707642 -2354665.7396187782 0 0 0 0 -1950514.0392570496 -10263761.178534508 0 -10263761.178534508 -6844649.2939577103 0 0 0 0 -2746983.9342918396 -8823728.3697366714 0 -8823728.3697366714 -3058733.8264036179 0 0 0 0 -4517743.2788658142 -12868739.00954628 0 -12868739.00954628 -303692.93609428406 0 0 0 0 -3890572.3584632874 -13991448.348701477 0 -13991448.348701477 -9346779.9563713074 0 0 0 0 -2237190.9952602386 -21023582.898211002 0 -21023582.898211002 -3511466.7681732178 0 0 0 0 3103081.5046577454 -858311.13581943512 0 -858311.13581943512 -6487540.0014461279 0 0 0 0 -3585500.8878269196 -10319844.399645329 0 -10319844.399645329 -5458641.368806839 0 0 0 0 -6856787.0654811561 -2015486.3827074589 0 -2015486.3827074589 549139.46411427669 0 0 0 0 -3493022.4533805847 1911369.4198284149 0 1911369.4198284149 -10706279.012797356 0 0 0 0 -3575816.5615787506 -5684522.77090168 0 -5684522.77090168 -4692356.8729877472 0 0 0 0 -2988672.5453424454 -15870721.963337064 0 -15870721.963337064 -22203273.463069916 0 0 0 0 78451020.046016693 -25240857.553581238 0 -25240857.553581238 19469666.162582397 0 0 0 0 -122410.12497828528 -1840140.0382785506 0 -1840140.0382785506 -901463.91808881704 0 0 0 0 17357906.96966362 -64053251.593518734 0 -64053251.593518734 48652692.199968338 0 0 0 0 -5393052.9939670563 11536513.598172665 0 11536513.598172665 69340793.884836197 0 0 0 0 -6516173.3671855927 7983170.9437189102 0 7983170.9437189102 725799.42300987244 0 0 0 0 -12903043.536075592 -3336114.4827389717 0 -3336114.4827389717 44650393.1033535 0 0 0 0 -636250.9555056002 -145283.47329302877 0 -145283.47329302877 242827.75025983527 0 0 0 0 -941583.46932900324 889013.07271776232 0 889013.07271776232 758610.34099921212 0 0 0 0 11299295.594284058 -356257.58783149719 0 -356257.58783149719 -17061533.569641113 0 0 0 0 28841722.172166824 -31596449.340206146 0 -31596449.340206146 24176779.824375153 0 0 0 0 -22867485.547149658 17409695.853037834 0 17409695.853037834 759469.17185878754 0 0 0 0 33365543.594320774 44791598.747085541 0 44791598.747085541 1406342.9580154419 0 0 0 0 318792.52518463135 -16283678.494814873 0 -16283678.494814873 69779426.981616974 0 0 0 0 315985.35629832745 23571150.18166101 0 23571150.18166101 30230415.34752655 0 0 0 0 -141400314.29891586 13777003.455464363 0 13777003.455464363 33748318.796760559 0 0 0 0 -97938992.237289429 -81385415.683549881 0 -81385415.683549881 21272052.583745003 0 0 0 0 -5786483.2875437737 -32668063.757708311 0 -32668063.757708311 -13185881.584236145 0 0 0 0 -56681505.318727493 20286968.317436218 0 20286968.317436218 14129859.826683044 0 0 0 0 -20587617.396438599 21633642.012282372 0 21633642.012282372 -10169572.154108047 0 0 0 0 -67961008.041137695 63525406.072227478 0 63525406.072227478 -42855023.697633743 0 0 0 0 -220674.14240332879 126433.76672999258 0 126433.76672999258 142995.44093915564 0 0 0 0 -24898494.094316483 7607077.6226587296 0 7607077.6226587296 35955186.59168911 0 0 0 0 -32848341.715572357 -36924753.5580163 0 -36924753.5580163 37908903.469631195 0 0 0 0 -89344414.673488617 13160778.246461868 0 13160778.246461868 10859087.669448853 0 0 0 0 -16037455.694701573 5741050.8855135106 0 5741050.8855135106 4943098.9475649502 0 0 0 0 -23342968.38835144 19722237.235791847 0 19722237.235791847 -1635006.0764946789 0 0 0 0 -32781024.287936211 -26318346.133505695 0 -26318346.133505695 -13031755.020376086 0 0 0 0 -79720466.587238312 -18470133.046404392 0 -18470133.046404392 11348905.811930776 0 0 0 0 51104586.940002441 16724793.662727013 0 16724793.662727013 17347656.262903303 0 0 0 0 43567230.885076523 36469438.260766961 0 36469438.260766961 -13377879.684996247 0 0 0 0 36237581.607791901 30302258.926574081 0 30302258.926574081 7429192.5174041986 0 0 0 0 17546961.159217834 34296561.904117122 0 34296561.904117122 13516486.813794106 0 0 0 0 -16747770.292612139 6593350.6807157109 0 6593350.6807157109 4151148.3909058846 0 0 0 0 43487251.28679657 36473520.447758377 0 36473520.447758377 1853268.6906596422 0 0 0 0 -50786430.499378204 -2364241.9877220392 0 -2364241.9877220392 6634972.1468271017 0 0 0 0 5649967.9303131104 23876584.317817688 0 23876584.317817688 21517277.380828857 0 0 0 0 -11641157.601874838 -3170195.1461580656 0 -3170195.1461580656 -343596.76731699752 0 0 0 0 -12380246.102961719 -19065606.039619088 0 -19065606.039619088 24793836.828092575 0 0 0 0 -28497906.435626984 66641693.098581314 0 66641693.098581314 1246063.1437950134 0 0 0 0 -2683094.5718723377 614885.3694349369 0 614885.3694349369 234789.62056327611 0 0 0 0 -8832285.4712047558 -1612525.9556722157 0 -1612525.9556722157 9508.3584617497399 0 0 0 0 18761841.709157944 45067248.316803932 0 45067248.316803932 -11937152.381103516 0 0 0 0 -28548956.724445343 18713184.874394417 0 18713184.874394417 34609685.883281708 0 0 0 0 8818280.688835144 47934846.056304455 0 47934846.056304455 25744194.598792076 0 0 0 0 -22352431.827894904 4495466.9017837327 0 4495466.9017837327 3206370.7611603681 0 0 0 0 -42124527.464993 100786.38777565956 0 100786.38777565956 3054289.5285205841 0 0 0 0 -68099951.593466759 -22752597.164385796 0 -22752597.164385796 11852963.303272247 0 0 0 0 85069147.787387848 66727119.541977882 0 66727119.541977882 34167305.388963699 0 0 0 0 -2774093.8904950405 -472176.04344021436 0 -472176.04344021436 17787.909127661958 0 0 0 0 75118379.294881821 32478076.254931688 0 32478076.254931688 -6557800.2787475586 0 0 0 0 -48666280.884269714 6274265.4093074799 0 6274265.4093074799 21577115.920227051 0 0 0 0 8495779.9889068604 36962626.537477493 0 36962626.537477493 -38709608.79064846 0 0 0 0 12648932.759460449 17223015.564203262 0 17223015.564203262 26405716.0277071 0 0 0 0 -22898571.250385284 41874746.458228052 0 41874746.458228052 57031361.019447088 0 0 0 0 -32375492.820953369 62453897.269817591 0 62453897.269817591 52251418.24550049 0 0 0 0 8018391.2986297607 44552943.351537913 0 44552943.351537913 15868850.995810121 0 0 0 0 -15216910.430663109 52723771.968763858 0 52723771.968763858 -27949468.573505759 0 0 0 0 -15493001.89440155 53298980.16943568 0 53298980.16943568 13422196.677228935 0 0 0 0 17236208.673023701 38025482.539401114 0 38025482.539401114 -25392713.902122498 0 0 0 0 -12496714.119812012 17886042.447250158 0 17886042.447250158 -1621703.0291758776 0 0 0 0 -19594542.848060608 29671937.523487553 0 29671937.523487553 -13967800.226334825 0 0 0 0 -34578707.895597458 1767620.5424674936 0 1767620.5424674936 -59883842.530280046 0 0 0 0 -82420343.812858582 66116795.988782465 0 66116795.988782465 -3227398.9970517159 0 0 0 0 -40488399.572265625 74597187.855540037 0 74597187.855540037 -46880748.731227629 0 0 0 0 -69229720.692306519 14695478.121989489 0 14695478.121989489 -57632188.316396058 0 0 0 0 -270505786.79006195 54827852.420286208 0 54827852.420286208 -47007246.85796535 0 0 0 0 -85710832.265462875 -7112692.8647401258 0 -7112692.8647401258 -160339713.3924191 0 0 0 0 -236205.84898966551 183861.94722731598 0 183861.94722731598 -370684.81677055842 0 0 0 0 -253993973.4312973 -176773814.73358029 0 -176773814.73358029 -156692307.78773409 0 0 0 0 -18430866.959262848 137066933.4219158 0 137066933.4219158 12755602.586852312 0 0 0 0 -77760175.199831009 -105493811.24156505 0 -105493811.24156505 -95117843.173602521 0 0 0 0 -47972589.885231018 -45610570.848483145 0 -45610570.848483145 -91869875.87920168 0 0 0 0 -174780582.06533813 22065823.809364825 0 22065823.809364825 28288094.979866922 0 0 0 0 -21118657.29813385 46362691.795115888 0 46362691.795115888 80126997.57510674 0 0 0 0 -80882164.407371521 63853824.08003068 0 63853824.08003068 86807889.965722531 0 0 0 0 -57604648.616062164 45255065.97807923 0 45255065.97807923 14284003.732471704 0 0 0 0 -27713687.920087814 61304787.571423113 0 61304787.571423113 17146721.461298347 0 0 0 0 -44662497.908050537 -6494402.3928751945 0 -6494402.3928751945 34510969.619163603 0 0 0 0 327039062.36722565 189760787.38488311 0 189760787.38488311 -17739474.828062259 0 0 0 0 17289213.279420376 25403671.66429171 0 25403671.66429171 102802205.11662842 0 0 0 0 -60819028.338256836 25091606.384129941 0 25091606.384129941 98631724.38928628 0 0 0 0 143373112.64639282 128066450.54509255 0 128066450.54509255 115142622.38193135 0 0 0 0 73860836.384338379 -6106342.9782377239 0 -6106342.9782377239 69197849.70798777 0 0 0 0 -24932326.265697479 36327423.062069416 0 36327423.062069416 87598012.829911351 0 0 0 0 -47431360.120544434 -83135294.484493017 0 -83135294.484493017 -42287717.793932557 0 0 0 0 -45473674.485237122 57767103.807278514 0 57767103.807278514 85950783.51525867 0 0 0 0 -305540.25373849273 -417712.24087514915 0 -417712.24087514915 -306932.75730689871 0 0 0 0 -1018875.5935968608 334980.44198776037 0 334980.44198776037 -738405.35178243998 0 0 0 0 -60928764.072441101 -9563546.9554659128 0 -9563546.9554659128 2499804.1056571007 0 0 0 0 -2751989.3219985962 -42838509.04370147 0 -42838509.04370147 16298107.218050271 0 0 0 0 -77689782.666015625 -9229252.988589108 0 -9229252.988589108 13489195.596352637 0 0 0 0 8790780.2364807129 -44770142.906153023 0 -44770142.906153023 26134275.075652242 0 0 0 0 -38143273.059173584 -110717224.68291995 0 -110717224.68291995 -106446877.96407425 0 0 0 0 -2203309.9626830555 138705.47449315898 0 138705.47449315898 -802179.70713743253 0 0 0 0 -2412846.485861402 -1317446.2331989277 0 -1317446.2331989277 -111473.32248832495 0 0 0 0 -57334508.537618399 -89274183.707892388 0 -89274183.707892388 15332718.025686502 0 0 0 0 -4591233.2811973691 -815546.05520749092 0 -815546.05520749092 -161933.34875018155 0 0 0 0 -37530117.196992874 -103232417.08804744 0 -103232417.08804744 -43158520.600164413 0 0 0 0 7262200.4792404175 23089298.914993584 0 23089298.914993584 -13926246.694655642 0 0 0 0 -54792402.437194824 57918035.597854614 0 57918035.597854614 14233768.747478008 0 0 0 0 -32016228.373214722 -48391451.955612063 0 -48391451.955612063 12289823.387388468 0 0 0 0 182972200.30365753 -156212626.60176611 0 -156212626.60176611 -263114358.09841636 0 0 0 0 -60937573.337051868 7619299.8976759911 0 7619299.8976759911 58194442.107190132 0 0 0 0 -51176360.498100281 -53502703.974753618 0 -53502703.974753618 51633707.715129435 0 0 0 0 -16145114.533126354 1265028.5903544426 0 1265028.5903544426 -89009373.115836143 0 0 0 0 -83921644.129684448 -28096303.893916428 0 -28096303.893916428 148020806.9067111 0 0 0 0 -35119473.719154246 2044776.3734546106 0 2044776.3734546106 193636.2464824403 0 0 0 0 -23399846.23626709 44712279.107562065 0 44712279.107562065 -18505516.491686821 0 0 0 0 -27934756.153549075 36555640.45630759 0 36555640.45630759 -36291702.571550369 0 0 0 0 -75323775.484138489 -6306005.7437986135 0 -6306005.7437986135 187263484.99369222 0 0 0 0 -31963816.79641255 1448266.0680114834 0 1448266.0680114834 468693.03009168251 0 0 0 0 -33311872.837545395 3310866.177148819 0 3310866.177148819 5139526.7657775879 0 0 0 0 -41140160.383634567 8123043.9130353928 0 8123043.9130353928 43785847.058325768 0 0 0 0 -21715870.776825905 32221101.187502384 0 32221101.187502384 13287046.296573639 0 0 0 0 -33011510.517593026 5923048.3275542259 0 5923048.3275542259 47305184.903053284 0 0 0 0 -27734329.839126587 6354554.7566576004 0 6354554.7566576004 40329329.436584473 0 0 0 0 -35731906.977806568 -10757976.43605423 0 -10757976.43605423 99168774.737495422 0 0 0 0 -25274929.162365437 -5993717.7055354118 0 -5993717.7055354118 99599804.286518097 0 0 0 0 -62711493.371504188 19753001.345799446 0 19753001.345799446 53699208.435121536 0 0 0 0 -16435438.041781425 4338494.9556865692 0 4338494.9556865692 48772608.560423851 0 0 0 0 -35768015.966812134 8686927.1693687439 0 8686927.1693687439 115801964.73678589 0 0 0 0 -39330668.80950892 -11487163.522716999 0 -11487163.522716999 134446637.2654686 0 0 0 0 7723487.7638072968 -24209353.879804611 0 -24209353.879804611 87464015.409900665 0 0 0 0 -3019260.34087798 -47687693.696182251 0 -47687693.696182251 130811902.11756134 0 0 0 0 -43317731.241232872 -45333017.433375359 0 -45333017.433375359 187981768.41495132 0 0 0 0 -14445482.14257385 -4426303.7658341434 0 -4426303.7658341434 2601797.1071590679 0 0 0 0 -2462697.669755578 -19764311.948915482 0 -19764311.948915482 53205474.403755426 0 0 0 0 -40880.0995054245 23851594.553567886 0 23851594.553567886 124198853.16355324 0 0 0 0 -9767960.8353271484 26074095.213683128 0 26074095.213683128 31141267.722621441 0 0 0 0 -16608224.351882935 10099673.017045021 0 10099673.017045021 28185563.61386919 0 0 0 0 -2211209.662197113 23283722.975704193 0 23283722.975704193 29544457.313223839 0 0 0 0 -11147711.000747681 29270893.789580822 0 29270893.789580822 83019185.544054314 0 0 0 0 -16074405.687280655 17160237.259366035 0 17160237.259366035 10250894.271141052 0 0 0 0 -25205918.175097495 4045435.0323932143 0 4045435.0323932143 1851152.5680285739 0 0 0 0 -77878267.42622757 23244194.96661061 0 23244194.96661061 183879491.02482748 0 0 0 0 -87480506.434055328 -9895399.4862057269 0 -9895399.4862057269 186178065.09889162 0 0 0 0 -28654637.144689713 1922916.7576575817 0 1922916.7576575817 935544.39589496085 0 0 0 0 -31790899.625998497 23828552.626067162 0 23828552.626067162 -5724983.1696867943 0 0 0 0 -29950357.679677963 7733031.2784061432 0 7733031.2784061432 19653749.465105057 0 0 0 0 -31535420.984938622 15816442.391017437 0 15816442.391017437 26718479.483915329 0 0 0 0 -33929206.619615555 19236309.319216728 0 19236309.319216728 25323436.068173885 0 0 0 0 -31465463.062246323 8586004.3518638611 0 8586004.3518638611 29612723.567903519 0 0 0 0 -26868984.0402174 12226831.490981102 0 12226831.490981102 31989537.623626709 0 0 0 0 -25584209.93506705 1478170.782877146 0 1478170.782877146 11947279.162118725 0 0 0 0 -173382495.93844223 -17540943.152427197 0 -17540943.152427197 31668054.564653397 0 0 0 0 -17898652.758800507 11460411.075448036 0 11460411.075448036 26395829.808959961 0 0 0 0 -24356056.177863598 18147684.974774837 0 18147684.974774837 32050569.624429703 0 0 0 0 -105054136.29314041 -180888546.37845945 0 -180888546.37845945 -49631497.183543205 0 0 0 0 -28126002.330445964 2455193.180539689 0 2455193.180539689 11462164.493364796 0 0 0 0 -166416544.07695961 -56150036.560404301 0 -56150036.560404301 148779696.58885002 0 0 0 0 -50313072.552120209 -21802578.742483139 0 -21802578.742483139 -19049470.826056123 0 0 0 0 64754589.033409119 -136217046.89724231 0 -136217046.89724231 -44332225.921495438 0 0 0 0 -53116556.110607147 -5941894.1444740295 0 -5941894.1444740295 80752931.952289581 0 0 0 0 -57322536.960884094 -43797838.032711029 0 -43797838.032711029 86334847.598506927 0 0 0 0 127607513.99182129 256423360.64206791 0 256423360.64206791 -26902910.049875736 0 0 0 0 -1022588.9952064315 -603589.07984860241 0 -603589.07984860241 2228549.1975959819 0 0 0 0 -63924871.127937317 50749894.248821259 0 50749894.248821259 207541467.15275574 0 0 0 0 -63735044.699263573 79394194.199797273 0 79394194.199797273 -353397046.47490311 0 0 0 0 -295300806.14136505 -110785802.94438267 0 -110785802.94438267 50382011.529813647 0 0 0 0 -256224184.74271011 186461268.57042694 0 186461268.57042694 28244849.167982101 0 0 0 0 -10085212.048496246 42528294.621527195 0 42528294.621527195 45706727.270196915 0 0 0 0 -306360260.32018423 215011524.93547583 0 215011524.93547583 4821755.8490791321 0 0 0 0 -327324887.51198578 -156635730.29759312 0 -156635730.29759312 18919784.214217186 0 0 0 0 -31713971.212984085 -2494097.3180789948 0 -2494097.3180789948 33926787.35485363 0 0 0 0 -2627761.3686161563 4420012.2553031789 0 4420012.2553031789 3984293.0110631278 0 0 0 0 -25348935.961096384 -683942.89147342648 0 -683942.89147342648 12153961.11524982 0 0 0 0 -11148882.562267303 28219286.145217896 0 28219286.145217896 17662786.765767097 0 0 0 0 -34166904.309309006 -3868382.4380989075 0 -3868382.4380989075 52567406.118518829 0 0 0 0 3599481.7843608856 17471791.108406305 0 17471791.108406305 31421989.856565475 0 0 0 0 -1784003.3575864062 2726974.4028872643 0 2726974.4028872643 5122548.6926139249 0 0 0 0 -14816844.331394797 -5761895.8004981112 0 -5761895.8004981112 6841580.5461967755 0 0 0 0 -27182216.73059845 8510696.4332637787 0 8510696.4332637787 24979302.876480103 0 0 0 0 -38985474.525078297 21212992.816575408 0 21212992.816575408 12309334.088886261 0 0 0 0 -132162826.66067123 -162112430.35480356 0 -162112430.35480356 -115454803.80320263 0 0 0 0 96432714.434753418 12800118.491365433 0 12800118.491365433 21316003.922246456 0 0 0 0 -57669099.041748047 -5475755.2303371429 0 -5475755.2303371429 85225794.3367033 0 0 0 0 -838462.61203557253 420181.56166936865 0 420181.56166936865 1624163.5166471717 0 0 0 0 -46357034.924705505 -52563525.66549015 0 -52563525.66549015 -16303802.525528908 0 0 0 0 -148742292.53108978 -84411335.259320259 0 -84411335.259320259 19821059.330853462 0 0 0 0 -145032540.49104118 -50872618.703337431 0 -50872618.703337431 57873936.554067612 0 0 0 0 -99669382.392223358 36079985.755918145 0 36079985.755918145 -2074546.3975067139 0 0 0 0 -152599482.24127197 -26904682.472174644 0 -26904682.472174644 27060284.652692795 0 0 0 0 -22119524.154117584 -14357232.56872654 0 -14357232.56872654 59358689.979981422 0 0 0 0 -5613915.4695182666 -65082.457237606868 0 -65082.457237606868 5607714.3001087233 0 0 0 0 -17038580.656273842 -6572037.3248282671 0 -6572037.3248282671 20344291.628137589 0 0 0 0 -14685698.629455566 -1077651.8122253418 0 -1077651.8122253418 -2135484.9941601753 0 0 0 0 -67151616.301338196 -394086625.40304995 0 -394086625.40304995 248861527.89312458 0 0 0 0 109505274.18251801 38037128.162465572 0 38037128.162465572 -54040675.011071205 0 0 0 0 -229086.3052393198 25323.035511677619 0 25323.035511677619 1132793.750189431 0 0 0 0 -60363620.267700195 -65821503.20326519 0 -65821503.20326519 -44161449.162949085 0 0 0 0 -152923139.86201468 -71175900.899494901 0 -71175900.899494901 39375695.244884491 0 0 0 0 -282780418.8776474 -58027228.954819679 0 -58027228.954819679 57587488.403817177 0 0 0 0 -212966088.93592072 -232195285.95961761 0 -232195285.95961761 -10958244.848403931 0 0 0 0 -230995549.18468475 72473137.418578625 0 72473137.418578625 6848809.4534921646 0 0 0 0 -800997.08544285223 -111964.29607336968 0 -111964.29607336968 718698.52526479494 0 0 0 0 -65694780.360404968 -52337289.582055569 0 -52337289.582055569 26320862.418447495 0 0 0 0 -84546595.948242188 -36331737.259380341 0 -36331737.259380341 83596074.918686867 0 0 0 0 -123415263.05807495 77483761.202015877 0 77483761.202015877 -94590622.057576358 0 0 0 0 -138172979.16500092 -143386330.12330961 0 -143386330.12330961 -109004284.6200695 0 0 0 0 -2314026.7702063853 -1538714.8107838724 0 -1538714.8107838724 4179118.7729271203 0 0 0 0 65216981.595584869 -11750110.445496082 0 -11750110.445496082 -75882111.097881794 0 0 0 0 64559878.995037079 83971790.926881552 0 83971790.926881552 22336767.540747643 0 0 0 0 -22662012.176660538 -4405386.8141394854 0 -4405386.8141394854 8099200.4197635651 0 0 0 0 -84918234.20700264 10504613.090664387 0 10504613.090664387 45939170.448644638 0 0 0 0 -1891452.7803573608 14745125.99555397 0 14745125.99555397 -14135953.56479454 0 0 0 0 -15045454.689239502 15575312.727452278 0 15575312.727452278 179000.42002487183 0 0 0 0 -8822025.5624504089 7890471.2509307861 0 7890471.2509307861 8236609.1061229706 0 0 0 0 -5888505.7991828918 -17157796.285224915 0 -17157796.285224915 -20097998.242291451 0 0 0 0 125788218.04857254 24622231.633366585 0 24622231.633366585 -13516808.582467079 0 0 0 0 -33365962.437133789 -94389406.931574345 0 -94389406.931574345 115769213.14097023 0 0 0 0 -154190178.76263046 -88694496.947026491 0 -88694496.947026491 84244294.113843918 0 0 0 0 -64833594.205947876 -43310938.937809944 0 -43310938.937809944 48303346.41149357 0 0 0 0 -77990672.051483154 -12094675.412669182 0 -12094675.412669182 72874934.556997299 0 0 0 0 -83785459.166511536 -4733972.4172887802 0 -4733972.4172887802 181282225.13017845 0 0 0 0 -7704524.3847160339 -8008473.7870025635 0 -8008473.7870025635 17671735.600765228 0 0 0 0 -654773.1494140625 -3670018.1286144257 0 -3670018.1286144257 6335923.9897232056 0 0 0 0 -2896415.819814682 1094315.0584821701 0 1094315.0584821701 26207611.71805191 0 0 0 0 -4722558.9359779358 -8634415.3932971954 0 -8634415.3932971954 14639024.366405487 0 0 0 0 -6336904.1714868546 -20957666.22131443 0 -20957666.22131443 12088990.010713577 0 0 0 0 -4586112.1509475708 -18966813.551820755 0 -18966813.551820755 14266623.880687237 0 0 0 0 12147193.601280212 -22324659.96606636 0 -22324659.96606636 22314421.448916078 0 0 0 0 -3410653.738820076 19012059.343794346 0 19012059.343794346 10979410.143768311 0 0 0 0 -16902924.365859985 -16462070.938932419 0 -16462070.938932419 22421321.088264465 0 0 0 0 -7652998.8327522278 -5574621.4319972992 0 -5574621.4319972992 47782070.145629883 0 0 0 0 2510515.443447113 11050135.096862793 0 11050135.096862793 22861616.283983231 0 0 0 0 -1671288.79031487 -2026678.1103620324 0 -2026678.1103620324 1568188.5637759641 0 0 0 0 -2912623.8988418579 -11022141.519522667 0 -11022141.519522667 17181646.749913216 0 0 0 0 14444606.309513092 -31100815.62010479 0 -31100815.62010479 25974767.219417572 0 0 0 0 -23159819.169778824 323287.12885224819 0 323287.12885224819 25362782.27129364 0 0 0 0 -13933166.319351196 -24365969.175161362 0 -24365969.175161362 42378751.3754673 0 0 0 0 -10506545.513086563 -8784479.408166308 0 -8784479.408166308 341854.78480943362 0 0 0 0 -8610484.9775257111 -7382172.6933903694 0 -7382172.6933903694 21823162.771591187 0 0 0 0 -11339124.653291242 910317.29778056638 0 910317.29778056638 6823068.1294849599 0 0 0 0 25330259.115618706 16576211.725515127 0 16576211.725515127 7833088.9337310791 0 0 0 0 -20127320.665161744 -3986535.052720496 0 -3986535.052720496 7020107.0926364586 0 0 0 0 -3915610.0098438263 -2418702.9939239025 0 -2418702.9939239025 8516270.5916910172 0 0 0 0 -11083307.83997345 -6737666.601773262 0 -6737666.601773262 17751169.682892561 0 0 0 0 -10809441.662230436 1097196.8400370749 0 1097196.8400370749 9721682.2472078726 0 0 0 0 -11845103.545383453 1459280.6965043545 0 1459280.6965043545 11158039.910173297 0 0 0 0 -13227729.50359726 -3617542.8584542274 0 -3617542.8584542274 16129424.835224867 0 0 0 0 -7708585.7855356075 -2209419.7582082357 0 -2209419.7582082357 5784032.6640029624 0 0 0 0 -16638715.389304638 14645616.521167129 0 14645616.521167129 15420559.041045189 0 0 0 0 -3456786.3695831299 -1493666.572303772 0 -1493666.572303772 4100888.1105098724 0 0 0 0 -774881.4429868646 2364205.430226001 0 2364205.430226001 4609389.5372692002 0 0 0 0 -92135616.363327026 66665396.450435638 0 66665396.450435638 544037134.89683151 0 0 0 0 95482977.507858276 -537748857.09460497 0 -537748857.09460497 -239980127.58677483 0 0 0 0 -733996778.6505928 542213384.93077302 0 542213384.93077302 287913531.14484024 0 0 0 0 438784635.78994751 283912267.94584894 0 283912267.94584894 -589915051.91108465 0 0 0 0 534309342.78549957 19409489.699228287 0 19409489.699228287 -131274347.78083324 0 0 0 0 -3227134.7776412964 976259.30097341537 0 976259.30097341537 3469929.4312801361 0 0 0 0 -5312161.8597036377 2267176.0414227769 0 2267176.0414227769 5695926.5877029998 0 0 0 0 119183673.28781128 47159421.626508713 0 47159421.626508713 171175907.41418839 0 0 0 0 -760509.57715129852 867416.07575035095 0 867416.07575035095 5855953.8533582687 0 0 0 0 -6360573.4585937895 -73732.767293378711 0 -73732.767293378711 4392856.5104875909 0 0 0 0 -2164143.0310974121 415482.25447490066 0 415482.25447490066 2443539.5009329617 0 0 0 0 -2060303.5952203237 804188.04097354831 0 804188.04097354831 6503054.8518413873 0 0 0 0 -2863707.7332116142 253685.07314745151 0 253685.07314745151 4782240.0036172336 0 0 0 0 -5407207.946304529 -1486806.7248206185 0 -1486806.7248206185 3543400.4873051299 0 0 0 0 -3822665.1349639893 -1743215.4535841942 0 -1743215.4535841942 4134806.0139727592 0 0 0 0 -3593214.6096115112 -1541696.8176884651 0 -1541696.8176884651 4217261.2185788155 0 0 0 0 -2901994.1963741872 -3273837.0087382421 0 -3273837.0087382421 7290294.2484344654 0 0 0 0 -2834670.725440979 -1628148.6255421638 0 -1628148.6255421638 2329598.3428535461 0 0 0 0 -1944005.6011216342 1659273.9694248338 0 1659273.9694248338 4356063.4273658637 0 0 0 0 -1723485.5295196436 -1023355.776094174 0 -1023355.776094174 2245825.9832842429 0 0 0 0 -1618422.4550704956 390599.27806437016 0 390599.27806437016 4867291.3966298103 0 0 0 0 947097.58475875854 1982974.6557216644 0 1982974.6557216644 13991839.237067223 0 0 0 0 -2817892.2772636414 1305175.9173715115 0 1305175.9173715115 7841713.567666173 0 0 0 0 -2211147.5932578519 404663.65339473262 0 404663.65339473262 3204385.5518454285 0 0 0 0 -1945788.9362468719 1574781.9228454828 0 1574781.9228454828 6531186.4409537315 0 0 0 0 -404324.44027766772 903971.00758273154 0 903971.00758273154 1239336.4760888517 0 0 0 0 -3872841.2042808533 4421975.3807868958 0 4421975.3807868958 24048792.518583298 0 0 0 0 -4597315.937538147 5502808.0911512375 0 5502808.0911512375 33088606.467824936 0 0 0 0 38685996.040161133 82228622.750339508 0 82228622.750339508 -197238947.61212778 0 0 0 0 19534176.216449738 103844796.3028388 0 103844796.3028388 -100007010.71303558 0 0 0 0 6294327.7059650421 9760023.295321703 0 9760023.295321703 -4169771.6812648773 0 0 0 0 -9208386.6664123535 10678933.701864243 0 10678933.701864243 459316.44890403748 0 0 0 0 -2894355.1484559216 3204525.3989107246 0 3204525.3989107246 3589194.5220864718 0 0 0 0 21000743.059860229 69542407.531700134 0 69542407.531700134 -105020174.17063713 0 0 0 0 -13982164.192153931 19121524.304396629 0 19121524.304396629 24147472.447581291 0 0 0 0 40278774.513786316 49375734.203517914 0 49375734.203517914 36535717.734050751 0 0 0 0 -819203.3260198012 152418.48949711956 0 152418.48949711956 1145843.2996572126 0 0 0 0 -6520584.8757476807 28985564.645838737 0 28985564.645838737 -8256894.6787586212 0 0 0 0 -135361909.69550323 79334522.844054222 0 79334522.844054222 -17829991.91435051 0 0 0 0 -4033571.1226005554 129926074.82777977 0 129926074.82777977 -113643855.40993881 0 0 0 0 -136843821.83763885 207674156.61370182 0 207674156.61370182 -135783703.00507975 0 0 0 0 -31872075.985639572 -30041390.236774683 0 -30041390.236774683 -56037216.884811401 0 0 0 0 20389385.329231262 6804946.6605257988 0 6804946.6605257988 -30223128.774813652 0 0 0 0 -37677968.641223907 -7019838.9021067619 0 -7019838.9021067619 58849824.958740234 0 0 0 0 -2728681.3587806821 3833078.4067516178 0 3833078.4067516178 5404994.8087594584 0 0 0 0 -73730048.140930176 4741177.5333733559 0 4741177.5333733559 55162748.56962204 0 0 0 0 -1203851527.801651 -574638361.72869968 0 -574638361.72869968 592610190.79732275 0 0 0 0 -26699379.271133423 5303058.0694270134 0 5303058.0694270134 15799611.80055356 0 0 0 0 -5217209.2397868261 2461859.215882184 0 2461859.215882184 4196265.468438575 0 0 0 0 -11858865.476703644 -8883242.5560142994 0 -8883242.5560142994 -29960528.01002121 0 0 0 0 -2351015.9182782453 3903345.9609009568 0 3903345.9609009568 9804548.6257400624 0 0 0 0 -769063.18812977523 3016909.321924936 0 3016909.321924936 7538106.5772584379 0 0 0 0 -120954170.42096519 36574307.634732604 0 36574307.634732604 54115453.872508049 0 0 0 0 -64256885.845668793 127770122.80069637 0 127770122.80069637 -77241444.778671265 0 0 0 0 -168566149.18821716 152364551.05563045 0 152364551.05563045 -60080000.044807076 0 0 0 0 -159329638.15263367 97645921.274805546 0 97645921.274805546 62073320.515773773 0 0 0 0 -189452074.542099 -18288694.91348362 0 -18288694.91348362 -45311484.45330596 0 0 0 0 -101699176.2151413 189944558.20979738 0 189944558.20979738 -174872326.72904205 0 0 0 0 61320231.948425293 194566846.81458807 0 194566846.81458807 -243819728.50585604 0 0 0 0 498886.74826037697 -118108.7611191161 0 -118108.7611191161 -1064817.1107150153 0 0 0 0 241206268.157547 124923295.05681586 0 124923295.05681586 -219489168.79624557 0 0 0 0 -243769729.77246666 185100126.33676505 0 185100126.33676505 5325106.4587011337 0 0 0 0 -94440052.811950684 98604047.417760611 0 98604047.417760611 104986970.70550013 0 0 0 0 146334850.53654099 -23945868.41494751 0 -23945868.41494751 -65961079.738431215 0 0 0 0 122166148.00112152 92841857.647879601 0 92841857.647879601 -204932480.50117254 0 0 0 0 -2126516.7521576881 82524563.258209705 0 82524563.258209705 -141815960.39826107 0 0 0 0 28721241.673171997 -56844247.90110302 0 -56844247.90110302 60281942.893579006 0 0 0 0 40129138.974334717 -13462626.236444473 0 -13462626.236444473 5441733.7275805473 0 0 0 0 -869266.54725663364 -993284.76057226397 0 -993284.76057226397 1149466.1419502478 0 0 0 0 -3622512.3335248679 -33584.136045030318 0 -33584.136045030318 345372.89977107802 0 0 0 0 -3508350.518196106 -511218.01186275482 0 -511218.01186275482 4550752.3920450211 0 0 0 0 -3316765.9468612671 -686206.1329126358 0 -686206.1329126358 3693607.2562122345 0 0 0 0 -3685276.5148611069 437975.9477212429 0 437975.9477212429 4725792.8356571198 0 0 0 0 -3676513.780330658 584555.5249209404 0 584555.5249209404 2140047.6923751831 0 0 0 0 -4411198.7430552803 1687072.3345017952 0 1687072.3345017952 993005.14108050964 0 0 0 0 -3795782.9424972534 994312.20776081085 0 994312.20776081085 3204903.1129980087 0 0 0 0 -2702482.4791870117 663142.70553684235 0 663142.70553684235 3828301.7560977936 0 0 0 0 -4752538.5197013468 982417.27628673543 0 982417.27628673543 1435847.6127896155 0 0 0 0 -2591037.8421783447 -284038.55072021484 0 -284038.55072021484 4285911.4247560501 0 0 0 0 -1889860.8682174683 -1668340.8056955338 0 -1668340.8056955338 6581127.0072593689 0 0 0 0 -4008509.0874481201 2120808.493976593 0 2120808.493976593 7881964.858505249 0 0 0 0 -179348.06901784055 31808.382237927988 0 31808.382237927988 78322.245934030041 0 0 0 0 -97751936.277420044 30222079.754272938 0 30222079.754272938 124714681.33071637 0 0 0 0 -2643060.0456085205 -3021790.4586560726 0 -3021790.4586560726 7638516.9517831802 0 0 0 0 -2524021.2172431946 -1898719.8392043114 0 -1898719.8392043114 7638581.0016222 0 0 0 0 -4766447.9555769898 642586.37511294521 0 642586.37511294521 660217.87789857294 0 0 0 0 -3228420.143970713 -3914591.459610749 0 -3914591.459610749 2530487.7890901687 0 0 0 0 -53539072.636001587 -50563191.317986012 0 -50563191.317986012 62639005.160866737 0 0 0 0 -41222007.811653137 7306807.9961690903 0 7306807.9961690903 26466184.113951683 0 0 0 0 198243414.7543354 -16761833.070428848 0 -16761833.070428848 -97213022.244265556 0 0 0 0 512169691.52770996 -588744239.62363815 0 -588744239.62363815 414779320.71521664 0 0 0 0 73106.287293355912 -381055.42477279692 0 -381055.42477279692 144200.26350822672 0 0 0 0 -302066616.73937988 -196748144.41517067 0 -196748144.41517067 -81348708.591505051 0 0 0 0 266551988.44036484 490119173.25658441 0 490119173.25658441 -20427647.320161819 0 0 0 0 -793471008.16790771 215185944.25384521 0 215185944.25384521 -29523978.0376091 0 0 0 0 144124881.88166809 -131548709.31006598 0 -131548709.31006598 -352145952.3300423 0 0 0 0 -54676713.483032227 110546688.78881836 0 110546688.78881836 -256514026.03740311 0 0 0 0 -1972332.6104294807 678826.71785117919 0 678826.71785117919 1285439.707486657 0 0 0 0 -2817183.9297210202 -1428647.2697669659 0 -1428647.2697669659 329729.52087202831 0 0 0 0 -54314683.454208374 -19175429.172281265 0 -19175429.172281265 -20770127.848838806 0 0 0 0 754966840.59928131 1634581105.5322828 0 1634581105.5322828 -900556568.37835693 0 0 0 0 -1012586269.5336609 139542857.24225998 0 139542857.24225998 72970831.708120346 0 0 0 0 -90236168.454063416 -123447693.44240236 0 -123447693.44240236 -83473076.934520721 0 0 0 0 -155404770.61117172 -10862558.379866123 0 -10862558.379866123 27636247.91458416 0 0 0 0 -339550863.26377106 -40587444.933866978 0 -40587444.933866978 70754548.61541748 0 0 0 0 -152352612.78312683 97526945.260751724 0 97526945.260751724 72574891.260468721 0 0 0 0 -160584143.7555542 30019838.557177067 0 30019838.557177067 92144020.603157043 0 0 0 0 -151418970.65744781 5678374.2616653442 0 5678374.2616653442 74997935.391706526 0 0 0 0 8025028.7640380859 -65043285.771277428 0 -65043285.771277428 75320931.184099674 0 0 0 0 -62448724.699333191 28443621.501963139 0 28443621.501963139 58618889.677862167 0 0 0 0 -111176110.0942688 22907779.047409773 0 22907779.047409773 62830242.309062004 0 0 0 0 -106859273.17411804 47300210.158567429 0 47300210.158567429 61127646.243246078 0 0 0 0 -116655703.5098114 14085729.899075985 0 14085729.899075985 88694131.189766884 0 0 0 0 -105679451.57775879 90905779.253014326 0 90905779.253014326 100559275.20374125 0 0 0 0 -118063580.16233253 49808337.907433033 0 49808337.907433033 10769866.523870945 0 0 0 0 -54616618.186992645 35140952.284862518 0 35140952.284862518 -18963232.707336426 0 0 0 0 -76308057.452785492 -2805190.878827095 0 -2805190.878827095 9450433.2373170853 0 0 0 0 -60248866.87164712 -26032970.114674926 0 -26032970.114674926 202783829.96127701 0 0 0 0 55567107.124023438 102749510.66856003 0 102749510.66856003 93845331.013541222 0 0 0 0 -26650423.798049927 -62540985.58553803 0 -62540985.58553803 186861081.06873322 0 0 0 0 5618044.6601676941 -67485337.153059959 0 -67485337.153059959 128386833.93143082 0 0 0 0 -68634207.370033264 46741432.650713921 0 46741432.650713921 289873650.77668619 0 0 0 0 -108507999.30891418 -153651490.64524579 0 -153651490.64524579 -132716936.28068754 0 0 0 0 -143071577.84446716 -82166125.746653795 0 -82166125.746653795 -45921866.883229733 0 0 0 0 -44218536.933747292 -58055316.328172863 0 -58055316.328172863 -141883885.20634556 0 0 0 0 -55232734.624237061 35235061.640657902 0 35235061.640657902 26965622.399903297 0 0 0 0 -15104540.725959778 8426622.9592084885 0 8426622.9592084885 21133040.681569576 0 0 0 0 -9450066.3881225586 -4880903.7540555 0 -4880903.7540555 16430037.601816893 0 0 0 0 2607568.0604095459 15168756.075121403 0 15168756.075121403 15429723.941941977 0 0 0 0 -132893669.39207458 118690358.09632683 0 118690358.09632683 -2018451.3728027344 0 0 0 0 -3067071.2811291367 562791.73552216403 0 562791.73552216403 1296349.2973790732 0 0 0 0 -154976536.58065796 -119717563.69592857 0 -119717563.69592857 -93362968.934986115 0 0 0 0 9975460.036529541 -5130766.2297439575 0 -5130766.2297439575 65376948.583011627 0 0 0 0 -170795608.07688904 -72325066.447780609 0 -72325066.447780609 79691705.949905396 0 0 0 0 -62764.201227590442 95271.479873394477 0 95271.479873394477 -18029.886201305897 0 0 0 0 -294699950.66950989 284699653.80096245 0 284699653.80096245 -166432817.86702538 0 0 0 0 33302283.474060059 -155142112.70306587 0 -155142112.70306587 188779473.59747076 0 0 0 0 39701158.195419312 -355990491.0761137 0 -355990491.0761137 192990777.57214546 0 0 0 0 -126083332.36190796 54554322.294110298 0 54554322.294110298 85182367.8054142 0 0 0 0 -187986327.40604019 -47114014.834759235 0 -47114014.834759235 290368979.0772171 0 0 0 0 -157277747.40459442 -60564603.637198448 0 -60564603.637198448 83786260.535057068 0 0 0 0 -151040618.8374176 -166549453.98595285 0 -166549453.98595285 -20364469.251619339 0 0 0 0 -138441065.66490173 -104993801.96649837 0 -104993801.96649837 -55740091.295719147 0 0 0 0 -175445925.58745575 -132685832.12227917 0 -132685832.12227917 61018139.894947052 0 0 0 0 -26920390.709152222 -13828105.551200151 0 -13828105.551200151 4610388.1418297291 0 0 0 0 -3696540.744102478 -7472829.2209367752 0 -7472829.2209367752 -2281000.1652145386 0 0 0 0 -3830203.3374633789 3560392.5219125748 0 3560392.5219125748 816763.61758565903 0 0 0 0 -9527219.5328598022 3418504.9089584351 0 3418504.9089584351 16798851.208734512 0 0 0 0 48535082.869064331 -59968819.489416122 0 -59968819.489416122 63849257.996266842 0 0 0 0 -8416221.7175674438 6121552.9472823143 0 6121552.9472823143 9641776.0833740234 0 0 0 0 -3564160.0216641799 195644.9584392549 0 195644.9584392549 727621.75751105929 0 0 0 0 -3536201.1992588043 -2113601.9287264347 0 -2113601.9287264347 10192764.373826027 0 0 0 0 -856720.97377818823 -288850.2288910849 0 -288850.2288910849 1069817.0341991102 0 0 0 0 -1749229.0825879872 -1245685.5194247747 0 -1245685.5194247747 3297333.7185346917 0 0 0 0 -10576490.467441559 -5826777.7024849653 0 -5826777.7024849653 7044930.9073991776 0 0 0 0 -40694552.96862793 -2019511.7858347893 0 -2019511.7858347893 3596902.6672973633 0 0 0 0 -4289081.4502638169 199979.09632405976 0 199979.09632405976 955210.05422201008 0 0 0 0 -46810208.427192688 42423467.235647202 0 42423467.235647202 276622419.17093849 0 0 0 0 -58163705.811157227 300377.24585819244 0 300377.24585819244 274707155.07406235 0 0 0 0 -90974231.969360352 10625973.543651581 0 10625973.543651581 272762767.60379219 0 0 0 0 -73234042.424827576 -14736026.562526703 0 -14736026.562526703 398398304.97241211 0 0 0 0 -91835527.805297852 40624673.759307861 0 40624673.759307861 298156993.49502373 0 0 0 0 -63812585.634807587 -14587269.774200439 0 -14587269.774200439 143881488.15303421 0 0 0 0 -64292271.956352234 52450710.570193291 0 52450710.570193291 293008375.07370186 0 0 0 0 37799278.287139893 77888994.474395752 0 77888994.474395752 142304020.67638206 0 0 0 0 -55048107.69178772 5644724.8154349327 0 5644724.8154349327 305847966.89326668 0 0 0 0 -14058602.243614197 118087914.1742878 0 118087914.1742878 243626639.02672577 0 0 0 0 -87281391.269592285 -75206926.611694336 0 -75206926.611694336 303143202.69306946 0 0 0 0 51679371.923110962 -140483010.68320751 0 -140483010.68320751 106539681.80199814 0 0 0 0 -178352583.57304001 -63779900.634240627 0 -63779900.634240627 81158652.318962097 0 0 0 0 -43266037.212600708 60887946.075389385 0 60887946.075389385 -150866771.53309631 0 0 0 0 -32793610.486419678 -46970251.423854828 0 -46970251.423854828 33260212.401195526 0 0 0 0 -148243529.58670807 -191217165.40589142 0 -191217165.40589142 -77694460.846378326 0 0 0 0 37007309.374908447 -185628366.37473345 0 -185628366.37473345 -324384166.71794844 0 0 0 0 -40009161.755859375 15239019.717132568 0 15239019.717132568 119547538.21061802 0 0 0 0 5503648.5696411133 -60206424.552722931 0 -60206424.552722931 -101885096.54973984 0 0 0 0 5738522.2134552002 -168788946.8810997 0 -168788946.8810997 -124072059.16935778 0 0 0 0 -70653000.315238953 -196330830.25242233 0 -196330830.25242233 9584166.4793865681 0 0 0 0 -12591862.256280899 -34500737.821113586 0 -34500737.821113586 29456527.787696838 0 0 0 0 -15997894.316955566 -109122279.37030983 0 -109122279.37030983 142694662.70625305 0 0 0 0 -668596.36284271069 790916.73302490823 0 790916.73302490823 357831.76241326798 0 0 0 0 63087613.646148682 -126695335.12190628 0 -126695335.12190628 35212387.82321167 0 0 0 0 -3399469.8836627007 -67292.341146290302 0 -67292.341146290302 1673356.4944171906 0 0 0 0 -4747110.2967936546 -704263.05309351254 0 -704263.05309351254 2322472.0070823492 0 0 0 0 -298191.43804066628 321505.55999321584 0 321505.55999321584 31428.739227549639 0 0 0 0 80985302.44443512 2409098.4858121872 0 2409098.4858121872 1760777.0569505692 0 0 0 0 -40936894.795146942 -88591461.577833652 0 -88591461.577833652 139385900.57146454 0 0 0 0 -55248700.828296661 41462502.750241995 0 41462502.750241995 4767855.1655101776 0 0 0 0 -88854886.73487854 -10200095.990449905 0 -10200095.990449905 -37182854.843620211 0 0 0 0 -73447519.701934814 -86981388.106708527 0 -86981388.106708527 66416136.679143906 0 0 0 0 -159275321.24955559 21963660.764919519 0 21963660.764919519 176010455.17633057 0 0 0 0 -77185187.839082718 -160387672.44487381 0 -160387672.44487381 -34210416.145244598 0 0 0 0 -2237635.8425598629 237423.41977950186 0 237423.41977950186 1271574.8478608774 0 0 0 0 542850.81709289551 964608.29521369934 0 964608.29521369934 -2733615.7583580017 0 0 0 0 -1931189.054359436 3176025.9297976494 0 3176025.9297976494 6769978.380613327 0 0 0 0 -337112.87213134766 5198180.8089103699 0 5198180.8089103699 -3242525.8164567947 0 0 0 0 -4598766.2771530142 1636976.4119898807 0 1636976.4119898807 1164443.0907529714 0 0 0 0 -3984127.3291282654 634579.46275806427 0 634579.46275806427 2807706.0649709702 0 0 0 0 -1683097.2688522339 -100791.66490364075 0 -100791.66490364075 2958040.3424186707 0 0 0 0 7189394.7411956787 5500031.3544483185 0 5500031.3544483185 -5125895.9235095978 0 0 0 0 -7373854.6905965805 -2010943.3519160748 0 -2010943.3519160748 15303472.437011719 0 0 0 0 -1974235.6333525619 740240.27539461292 0 740240.27539461292 115703.57752249949 0 0 0 0 -630438.35426984169 177520.25571059436 0 177520.25571059436 62472.613937866874 0 0 0 0 18081850.283840179 -34011152.108121872 0 -34011152.108121872 39241617.099708557 0 0 0 0 9688762.6717605591 -18252382.539928436 0 -18252382.539928436 11427724.885351181 0 0 0 0 7843355.1643829346 -11714219.704896927 0 -11714219.704896927 7254474.968706131 0 0 0 0 -8103409.3494491577 -20494782.50976944 0 -20494782.50976944 27331105.940359116 0 0 0 0 6069297.2375202179 -23718924.748169899 0 -23718924.748169899 24462564.897098541 0 0 0 0 1415346.1714859009 -15416976.216600418 0 -15416976.216600418 18397302.048923492 0 0 0 0 1029372.521446228 -16623972.386757851 0 -16623972.386757851 27879020.232170105 0 0 0 0 -4026564.2010140978 -10693.105444456451 0 -10693.105444456451 1069571.1087803198 0 0 0 0 589392.44191360474 -9598860.0904140472 0 -9598860.0904140472 19925805.664482117 0 0 0 0 19607.588073730469 -8470856.4243011475 0 -8470856.4243011475 20927526.117200851 0 0 0 0 -3601101.8375244141 7073097.4687767029 0 7073097.4687767029 7840856.8396987915 0 0 0 0 -874294.59756469727 10011878.979211807 0 10011878.979211807 425756.31414604187 0 0 0 0 -2553573.3626332693 56195.946555446833 0 56195.946555446833 452131.4832050181 0 0 0 0 -13239115.451490402 -9058696.0620348454 0 -9058696.0620348454 18420770.73052597 0 0 0 0 679753.1016998291 14243921.64588356 0 14243921.64588356 23102834.673977852 0 0 0 0 15782917.209732056 -5686613.6657218933 0 -5686613.6657218933 -14785773.072126389 0 0 0 0 -37946627.196327209 1740727.3126678467 0 1740727.3126678467 71516360.309664726 0 0 0 0 -948335.11711276323 -260564.21575247822 0 -260564.21575247822 690275.61780346511 0 0 0 0 58782523.619247437 38860908.061237335 0 38860908.061237335 -29630786.557447433 0 0 0 0 -25663953.896789551 -3900554.5655708313 0 -3900554.5655708313 34267458.794194698 0 0 0 0 -68061135.955928802 24552882.12057972 0 24552882.12057972 44150548.909095764 0 0 0 0 23971439.778289795 5465364.801897049 0 5465364.801897049 48036440.007257462 0 0 0 0 -23176518.572162628 -12119996.807496071 0 -12119996.807496071 38911199.6407547 0 0 0 0 -15751832.001663208 6181412.0405101776 0 6181412.0405101776 57862729.473369598 0 0 0 0 3070877.6596908569 -2327957.331823349 0 -2327957.331823349 33311224.13630867 0 0 0 0 -14658583.552879333 -9958699.3137722015 0 -9958699.3137722015 39572386.069968224 0 0 0 0 -7878937.1475486755 -26927414.132441044 0 -26927414.132441044 6057431.3625831604 0 0 0 0 -28926980.003757477 -20245754.430224419 0 -20245754.430224419 32168677.980853081 0 0 0 0 -5049083.9768676758 -21474082.799750328 0 -21474082.799750328 6439443.3367614746 0 0 0 0 -80961032.034072876 -34222990.57067585 0 -34222990.57067585 23394269.382835388 0 0 0 0 -52752060.173458099 4808884.1005747318 0 4808884.1005747318 4436212.3876342773 0 0 0 0 -94168848.051036835 -14985462.181041241 0 -14985462.181041241 26853302.201208115 0 0 0 0 -37774813.062748909 -29955290.122704744 0 -29955290.122704744 52110152.217918396 0 0 0 0 12407330.323505402 -56619220.912267685 0 -56619220.912267685 74545565.839823723 0 0 0 0 211649190.86882401 137044712.73285723 0 137044712.73285723 110226402.12067556 0 0 0 0 40079904.541194916 -33320167.723918915 0 -33320167.723918915 -40811097.941026688 0 0 0 0 41145448.563981533 -41704235.476410687 0 -41704235.476410687 -2807762.7162322998 0 0 0 0 -267300.06596523616 -144582.80826514773 0 -144582.80826514773 659791.44452827796 0 0 0 0 -11171263.574729919 60103847.797193527 0 60103847.797193527 -34021531.453761101 0 0 0 0 3392362.4238452911 6650131.2281939983 0 6650131.2281939983 69298221.987464905 0 0 0 0 3228403.1567640305 -304670.80048966408 0 -304670.80048966408 9798238.0073986053 0 0 0 0 1784759.1208190918 -11893182.102237701 0 -11893182.102237701 36191889.598818779 0 0 0 0 1813618.3866653442 -15288369.403705597 0 -15288369.403705597 20031745.749946594 0 0 0 0 -126713340.99130249 -28852100.228095055 0 -28852100.228095055 62477946.746687889 0 0 0 0 -100493719.60462856 -92030960.25709033 0 -92030960.25709033 -4610885.6217861176 0 0 0 0 -117504261.10753632 -28632722.629121304 0 -28632722.629121304 61334859.593891144 0 0 0 0 -14937310.216186523 -36612055.059055328 0 -36612055.059055328 26500792.959254265 0 0 0 0 -17145560.103435516 -52125056.733235359 0 -52125056.733235359 40941263.154612541 0 0 0 0 -80557153.582565308 -44320376.551110268 0 -44320376.551110268 43681165.218335152 0 0 0 0 53395886.70533371 -70618915.004830837 0 -70618915.004830837 18379694.961307526 0 0 0 0 26110553.37237072 180673.1859793663 0 180673.1859793663 23004164.432731628 0 0 0 0 -123295025.8794117 -30409027.039392471 0 -30409027.039392471 60638368.839580536 0 0 0 0 -94054332.943370819 -13686379.704287529 0 -13686379.704287529 59801698.441356659 0 0 0 0 -131934840.38682938 1596959.8133802414 0 1596959.8133802414 47465875.283244133 0 0 0 0 -4217955.0168116586 -474635.30248712748 0 -474635.30248712748 778619.17374070175 0 0 0 0 -42952928.840715408 6298844.5378727913 0 6298844.5378727913 36683924.487289429 0 0 0 0 -160332479.01262569 -5181819.7744977474 0 -5181819.7744977474 23725268.218919754 0 0 0 0 -103310152.24531555 5687116.8921709061 0 5687116.8921709061 -13331144.281564713 0 0 0 0 -1194159.8200108293 -192189.11747971084 0 -192189.11747971084 248929.99475716427 0 0 0 0 -106578836.66228771 44713074.697873235 0 44713074.697873235 60281201.130737305 0 0 0 0 -214547637.14954758 -48771873.187581062 0 -48771873.187581062 27433970.894924641 0 0 0 0 66628689.439453125 116019090.48677063 0 116019090.48677063 45756914.429926872 0 0 0 0 -225910683.55952072 -156236455.2196281 0 -156236455.2196281 -91046013.89613533 0 0 0 0 -331817209.66776943 114618499.84494996 0 114618499.84494996 153606214.77596283 0 0 0 0 21985788.13117218 80245198.371196747 0 80245198.371196747 -18664779.559509277 0 0 0 0 8801917.1278686523 42384764.736631393 0 42384764.736631393 -27521636.957906723 0 0 0 0 -15317058.927734375 56327945.680662155 0 56327945.680662155 60959477.604951262 0 0 0 0 -101515791.43392944 -162322405.69360542 0 -162322405.69360542 -301654618.86838818 0 0 0 0 -938468.14815071225 -49358.255278786644 0 -49358.255278786644 130583.51278419467 0 0 0 0 -134732740.81623077 -200351280.67522144 0 -200351280.67522144 -322653612.82539368 0 0 0 0 -99914750.330471039 -67258170.346436024 0 -67258170.346436024 -134103387.88544083 0 0 0 0 -67755890.881378174 -96833708.173009872 0 -96833708.173009872 -345210726.75247812 0 0 0 0 -145951107.65026855 -17189959.969583511 0 -17189959.969583511 -161027960.20542145 0 0 0 0 -341917810.60219383 -16719794.829805374 0 -16719794.829805374 -50764726.331567764 0 0 0 0 -198413129.33481979 135176966.5038352 0 135176966.5038352 -97212059.38939476 0 0 0 0 -171793448.58203888 -175164844.26984978 0 -175164844.26984978 -254955510.81840706 0 0 0 0 -169662038.83003998 58000921.725063801 0 58000921.725063801 73024034.147695541 0 0 0 0 -142407416.62981796 45861426.296847343 0 45861426.296847343 -47204483.676342964 0 0 0 0 -98686518.195922852 20963517.56765461 0 20963517.56765461 -238343753.51650047 0 0 0 0 -91933543.167620659 -21870556.339547515 0 -21870556.339547515 -16679482.327682495 0 0 0 0 -36738197.198280334 -22274770.434406281 0 -22274770.434406281 -53967851.046749592 0 0 0 0 -10326698.854106903 -67584643.417847157 0 -67584643.417847157 -20239645.662483215 0 0 0 0 10487444.511734009 -41485339.390022278 0 -41485339.390022278 -8057943.9696092606 0 0 0 0 2990081.9672775269 -23537703.150276184 0 -23537703.150276184 -38722354.605637074 0 0 0 0 -15002388.402849197 -40200290.388226032 0 -40200290.388226032 8547597.3761425018 0 0 0 0 -87285402.055953979 -35227560.25638628 0 -35227560.25638628 19608532.740426064 0 0 0 0 -259223663.07012558 -67158192.070456982 0 -67158192.070456982 16117586.539738655 0 0 0 0 -13947928.894935608 -153679764.05298233 0 -153679764.05298233 -110439655.54278755 0 0 0 0 -247453419.67055893 102234075.89559078 0 102234075.89559078 250726209.6870842 0 0 0 0 -277200827.3140831 23195235.305395126 0 23195235.305395126 65639184.747483253 0 0 0 0 -1037341.1865600571 -642451.03754852456 0 -642451.03754852456 582681.25859168498 0 0 0 0 -153064402.95860291 -320865754.03340626 0 -320865754.03340626 -483778735.07010269 0 0 0 0 -443480748.96668053 -258184986.81894183 0 -258184986.81894183 -65993613.436508179 0 0 0 0 -386148859.91628265 55317635.504296303 0 55317635.504296303 14900698.562719345 0 0 0 0 -53805460.831161499 -27123638.736300468 0 -27123638.736300468 35560842.369356155 0 0 0 0 37583615.32901001 55033853.647565842 0 55033853.647565842 -65670732.527692795 0 0 0 0 -102631881.22544098 84551205.762987137 0 84551205.762987137 -164645506.56690788 0 0 0 0 -47232903.626831055 -9302432.4828739166 0 -9302432.4828739166 191202527.43552208 0 0 0 0 32157435.271865845 -83156572.739539146 0 -83156572.739539146 40158165.486684799 0 0 0 0 -108792101.78029633 -114957474.24316978 0 -114957474.24316978 -34477841.129451752 0 0 0 0 -92155917.401426315 -39275205.787847996 0 -39275205.787847996 24668529.885736465 0 0 0 0 -37481460.029373169 -29908853.257497787 0 -29908853.257497787 -138489372.47536981 0 0 0 0 -71474735.820053101 -40908869.792586327 0 -40908869.792586327 194382936.99797058 0 0 0 0 -22866578.353263855 88373459.805437088 0 88373459.805437088 137597097.68055344 0 0 0 0 -148515954.35195541 -23571287.684368134 0 -23571287.684368134 80225090.996408463 0 0 0 0 -46489056.730140686 69891351.449211121 0 69891351.449211121 -31357914.094358683 0 0 0 0 -42963162.826782227 228817410.19041824 0 228817410.19041824 323946749.0605402 0 0 0 0 -59552465.644477844 -43684710.314411551 0 -43684710.314411551 286356979.1551857 0 0 0 0 -2754619.7895058542 -1660379.9447506119 0 -1660379.9447506119 1713324.3883103323 0 0 0 0 -6224415.0334777832 -7524185.4856033325 0 -7524185.4856033325 473831438.64720863 0 0 0 0 -72063427.162712097 82278630.151943207 0 82278630.151943207 476687884.81964684 0 0 0 0 -75775017.720993042 -114427343.69524574 0 -114427343.69524574 -109183011.51022911 0 0 0 0 145764808.57402039 -21557240.283376694 0 -21557240.283376694 285760380.7763443 0 0 0 0 33843122.526275635 94607537.580060959 0 94607537.580060959 304149993.92027092 0 0 0 0 -487036.84645988047 6409.6557350065559 0 6409.6557350065559 446756.12214360759 0 0 0 0 113387539.8374176 253711864.42193985 0 253711864.42193985 586885792.85558701 0 0 0 0 29569568.517219543 14230467.429386139 0 14230467.429386139 276471087.32535172 0 0 0 0 13642718.709594727 -73930111.080509186 0 -73930111.080509186 539593875.70855665 0 0 0 0 -7812846.83984375 60805236.789196014 0 60805236.789196014 242566622.86161232 0 0 0 0 71135388.059265137 -109825044.10522842 0 -109825044.10522842 274155348.99634171 0 0 0 0 -55969086.673003197 -92307044.160119891 0 -92307044.160119891 -90310695.60817337 0 0 0 0 -84500342.535430908 -90463915.488160133 0 -90463915.488160133 -52480840.19314003 0 0 0 0 -142348496.18869781 -123612820.86970711 0 -123612820.86970711 -27736819.130157948 0 0 0 0 -131117545.37479782 -138003049.32843685 0 -138003049.32843685 -15271948.568586349 0 0 0 0 -105193858.05391693 -116445867.41100407 0 -116445867.41100407 -83763836.654344559 0 0 0 0 -90858265.881223679 -128714934.48131657 0 -128714934.48131657 -118628324.0240593 0 0 0 0 -164354548.4848938 -187546565.83468008 0 -187546565.83468008 -80758177.685015678 0 0 0 0 -136942901.46487808 -114702254.95583177 0 -114702254.95583177 -88771090.783987999 0 0 0 0 -154536566.02349854 -130192076.13830709 0 -130192076.13830709 -17283118.53660202 0 0 0 0 -135491160.57802582 -127940998.30437684 0 -127940998.30437684 -79760091.240081787 0 0 0 0 -162942173.95240784 -130077820.85749245 0 -130077820.85749245 -7736695.090988636 0 0 0 0 -100147320.60888672 -101967662.37772989 0 -101967662.37772989 -27908101.999055862 0 0 0 0 -57399050.228176117 62274967.274800777 0 62274967.274800777 28042687.394009471 0 0 0 0 -44181382.796363831 -23714884.402374268 0 -23714884.402374268 118338168.10177612 0 0 0 0 -54573269.970321655 57443530.08165741 0 57443530.08165741 26948224.916023254 0 0 0 0 -13789105.333869934 96100647.315570831 0 96100647.315570831 -10538418.968784332 0 0 0 0 -57422589.869735718 110812157.59443092 0 110812157.59443092 -13444798.742837906 0 0 0 0 -98928659.654083252 77547716.1806674 0 77547716.1806674 22043694.253631592 0 0 0 0 -81320602.700437546 47310995.808324575 0 47310995.808324575 -47114635.170045853 0 0 0 0 -44514257.868080139 -129070059.84481335 0 -129070059.84481335 -81752302.69022131 0 0 0 0 -210454451.01426125 -170657695.15459132 0 -170657695.15459132 61702341.996664047 0 0 0 0 -154317098.44687653 70762935.77377224 0 70762935.77377224 48732471.188952446 0 0 0 0 789324.61527899746 -982804.38617050089 0 -982804.38617050089 -710383.39333459549 0 0 0 0 -62330429.521919012 -69968451.445586324 0 -69968451.445586324 -3347475.8389472961 0 0 0 0 -103464348.58701706 -51256712.842324257 0 -51256712.842324257 29197435.959647536 0 0 0 0 -471149.7348770313 -8557800.2838015798 0 -8557800.2838015798 10191594.153104495 0 0 0 0 41302703.304115295 -40815475.326101542 0 -40815475.326101542 13004501.246412754 0 0 0 0 4445073.7035217285 -111581192.49541092 0 -111581192.49541092 -88835605.027719498 0 0 0 0 -61108042.137325287 -126735741.99364853 0 -126735741.99364853 -90540033.792999268 0 0 0 0 1117750.9058340788 -9408918.5758494232 0 -9408918.5758494232 8769007.5846593566 0 0 0 0 -21981409.328052521 -75500179.020305634 0 -75500179.020305634 -135456504.6802063 0 0 0 0 -63341604.856400967 -61492039.608985901 0 -61492039.608985901 23805029.303569794 0 0 0 0 -43997033.110435486 52944791.490697384 0 52944791.490697384 27515168.608909607 0 0 0 0 -26057732.092258453 -139305081.37527275 0 -139305081.37527275 74558555.140219688 0 0 0 0 -92660007.750394821 -52396494.681586385 0 -52396494.681586385 130187909.29131699 0 0 0 0 -30317442.239048958 1943289.6811337471 0 1943289.6811337471 16636858.321720123 0 0 0 0 -52356577.584121704 -32385294.251104355 0 -32385294.251104355 20525726.358737946 0 0 0 0 -98555519.671245575 -18577736.323091507 0 -18577736.323091507 31419393.672149658 0 0 0 0 -64249868.706967354 -19333092.587935686 0 -19333092.587935686 23138098.190933228 0 0 0 0 -68221362.072435379 -4013751.2268419266 0 -4013751.2268419266 30827475.170127869 0 0 0 0 -99608961.893115044 25510173.259502888 0 25510173.259502888 82097103.742794037 0 0 0 0 -61399901.325244904 24802035.248713493 0 24802035.248713493 -46066352.995607376 0 0 0 0 -125340802.46931076 -93194769.511576414 0 -93194769.511576414 -192777422.84171486 0 0 0 0 -177071666.63535309 -120381371.39016771 0 -120381371.39016771 -81030580.772810698 0 0 0 0 -55798850.808151245 43465635.95075655 0 43465635.95075655 -39639956.568446636 0 0 0 0 803440.82719157264 -5659837.976083017 0 -5659837.976083017 10137590.436836094 0 0 0 0 -144547808.97296524 -151112698.13571787 0 -151112698.13571787 -102054389.89860976 0 0 0 0 -5475480.6130354106 -880064.50404609228 0 -880064.50404609228 4374182.7109031277 0 0 0 0 -26337163.760696411 -37663703.69585228 0 -37663703.69585228 -13130834.537563324 0 0 0 0 123676267.88436127 9673494.4687600136 0 9673494.4687600136 -155192766.95010185 0 0 0 0 409327057.21882629 -73149163.177135468 0 -73149163.177135468 -135419322.60059834 0 0 0 0 -275147541.36986542 37804376.844881535 0 37804376.844881535 -44421339.849107742 0 0 0 0 167153952.53351402 -103689108.06311107 0 -103689108.06311107 -14829278.534047127 0 0 0 0 430837712.50657272 227856724.60621452 0 227856724.60621452 -315694457.26926327 0 0 0 0 -253614500.06782532 27272999.054541588 0 27272999.054541588 99739761.296487808 0 0 0 0 -353623623.25771332 -20634408.34686327 0 -20634408.34686327 230993768.26139814 0 0 0 0 121594962.07691956 -330593585.33977008 0 -330593585.33977008 195252480.41149807 0 0 0 0 467116.60306639504 -3547412.2858089404 0 -3547412.2858089404 8279451.5327960625 0 0 0 0 33381119.279998779 -302391044.23644209 0 -302391044.23644209 632691677.0879612 0 0 0 0 3528127.4704170227 4821289.2431983948 0 4821289.2431983948 -34429737.029621124 0 0 0 0 -48019545.763061523 -17904725.848442078 0 -17904725.848442078 -1691535.6534824371 0 0 0 0 -59357028.467525482 -83257119.888170242 0 -83257119.888170242 -61569667.933540344 0 0 0 0 -38822474.484199524 -100686595.09835291 0 -100686595.09835291 -152609990.16643715 0 0 0 0 -57636733.020233154 -93977865.593509674 0 -93977865.593509674 -109201602.4570694 0 0 0 0 -65936818.178337097 -101621427.3270607 0 -101621427.3270607 -62433018.938835144 0 0 0 0 -74237164.668289185 -100566071.94284439 0 -100566071.94284439 -45422617.319877625 0 0 0 0 507029482.31940842 104040870.96093655 0 104040870.96093655 -138432348.88123894 0 0 0 0 207438.19493701681 -585202.61673170142 0 -585202.61673170142 1149923.2103951839 0 0 0 0 284304.97421060968 -1900240.0951682515 0 -1900240.0951682515 5138477.8039756399 0 0 0 0 -62965216.343453884 -74672323.374798834 0 -74672323.374798834 -92412281.729810715 0 0 0 0 -49677256.53421402 -120232380.17313612 0 -120232380.17313612 -258305995.09316254 0 0 0 0 -79397068.056056976 -35432062.950405121 0 -35432062.950405121 -108945984.93298721 0 0 0 0 -64725842.883026123 -53554784.891750336 0 -53554784.891750336 -93066612.545852661 0 0 0 0 -43548712.65625 -10515359.571956635 0 -10515359.571956635 -51736544.000623703 0 0 0 0 -43172896.928328753 -63995959.831268489 0 -63995959.831268489 -104411012.01804352 0 0 0 0 -77001721.473968506 -145391763.31618309 0 -145391763.31618309 -171130319.93827581 0 0 0 0 -49499833.6702981 -90832715.866026163 0 -90832715.866026163 -209162056.25049782 0 0 0 0 -56286319.55147934 -74497847.976953506 0 -74497847.976953506 -94463535.171477318 0 0 0 0 -74647022.109659195 -119923423.31301284 0 -119923423.31301284 -309290204.2955265 0 0 0 0 -130204555.53487206 -255123103.58850431 0 -255123103.58850431 -245685702.84119129 0 0 0 0 -144807627.87484741 -225019661.11882329 0 -225019661.11882329 -126694915.61525154 0 0 0 0 -91135789.411708832 -204585695.23360324 0 -204585695.23360324 -181329169.56195402 0 0 0 0 -89300456.093021393 -210046103.77248621 0 -210046103.77248621 -170451159.27291799 0 0 0 0 -89518554.591147423 -198560144.55977821 0 -198560144.55977821 -126481937.0206027 0 0 0 0 -59218338.983283997 -133402836.3229382 0 -133402836.3229382 -198446488.75039196 0 0 0 0 -72531715.267414093 -137850823.36712837 0 -137850823.36712837 -135648854.49207783 0 0 0 0 -63243918.664909363 -125072403.20148993 0 -125072403.20148993 -129597138.00341988 0 0 0 0 -90300186.117042542 -114860712.88111973 0 -114860712.88111973 -113692635.78687191 0 0 0 0 -103251715.28720856 -154247085.31146908 0 -154247085.31146908 -147278815.44369602 0 0 0 0 -82520491.587654114 -98491130.987146854 0 -98491130.987146854 -103378719.69523621 0 0 0 0 -112328249.18489075 -64924492.414066315 0 -64924492.414066315 -84377348.424556732 0 0 0 0 -154171938.77175903 -71654061.763580322 0 -71654061.763580322 -85404511.047266483 0 0 0 0 -138723237.36084747 -113690744.63449097 0 -113690744.63449097 -107305018.83966637 0 0 0 0 -103018520.48828125 -136239513.87123013 0 -136239513.87123013 -93503473.401590347 0 0 0 0 -242780371.53731537 -110165747.60872602 0 -110165747.60872602 -44006715.416824341 0 0 0 0 -239484576.09184766 -199711143.06653947 0 -199711143.06653947 28917014.678134918 0 0 0 0 -180598991.37249756 -216862972.00716782 0 -216862972.00716782 -35378155.031042099 0 0 0 0 -166993930.45166969 -157069014.99894142 0 -157069014.99894142 -85780150.637685776 0 0 0 0 -128618266.41950607 -205131715.10105228 0 -205131715.10105228 -52037610.470701218 0 0 0 0 -163366289.94351959 -175613867.39000607 0 -175613867.39000607 8822160.1888523102 0 0 0 0 -160427083.88674164 -226854370.24764776 0 -226854370.24764776 -51033856.807086945 0 0 0 0 -81010619.561805725 -303124850.70274019 0 -303124850.70274019 -40746717.010828257 0 0 0 0 -181990775.50536764 -286180343.55322427 0 -286180343.55322427 133219085.37940216 0 0 0 0 -96025044.405544281 -213885729.87543893 0 -213885729.87543893 -139549072.70117378 0 0 0 0 -99749199.292068481 -187784775.91896439 0 -187784775.91896439 -119744232.0612011 0 0 0 0 -128443882.02976608 -195434614.56290507 0 -195434614.56290507 -103092365.82678032 0 0 0 0 -91616459.896186829 -229121137.19785213 0 -229121137.19785213 -89512680.717077017 0 0 0 0 -62189141.392114639 -239063350.65603524 0 -239063350.65603524 -178707243.74059951 0 0 0 0 -75077296.079982758 -227301813.86549568 0 -227301813.86549568 -135110335.02980709 0 0 0 0 -34383800.695762634 -272420511.88645077 0 -272420511.88645077 -139323053.88226154 0 0 0 0 -24572383.926514149 -207047244.94427747 0 -207047244.94427747 -270067993.62154675 0 0 0 0 -84680326.582313538 -324941942.68207002 0 -324941942.68207002 -148789528.65064812 0 0 0 0 -100806623.47360229 -253842336.57266402 0 -253842336.57266402 -140533480.82220364 0 0 0 0 -55573687.168787003 -160733945.07261038 0 -160733945.07261038 -101605655.09037054 0 0 0 0 -35560623.682315826 -181370674.43982351 0 -181370674.43982351 -217272776.83201367 0 0 0 0 -104121782.65322495 -188808905.5722568 0 -188808905.5722568 -68815074.718241811 0 0 0 0 -90843538.232097626 -142263107.05642009 0 -142263107.05642009 -90698352.756899595 0 0 0 0 -112592548.15061903 -214699800.27531451 0 -214699800.27531451 -123930206.88265944 0 0 0 0 -102149031.88446617 -206441001.92830944 0 -206441001.92830944 -146415181.73621511 0 0 0 0 -320454417.20623207 -172899969.68127412 0 -172899969.68127412 -31130423.13713181 0 0 0 0 -368719317.62893581 -180233536.24735647 0 -180233536.24735647 4082867.6091080904 0 0 0 0 -331944231.17266846 -155144205.89341992 0 -155144205.89341992 7686766.8282776028 0 0 0 0 -312387946.8319397 -110083204.33029544 0 -110083204.33029544 -10420228.528331101 0 0 0 0 -312819569.02822113 -63130533.696611106 0 -63130533.696611106 55477855.910417408 0 0 0 0 -365156329.53231812 -103219601.07244626 0 -103219601.07244626 37710957.609700114 0 0 0 0 -362309253.03502393 -32403076.781810455 0 -32403076.781810455 107556041.58142179 0 0 0 0 -384278661.19985962 -115192216.98101801 0 -115192216.98101801 62875080.546311438 0 0 0 0 -457783206.83145142 -164800264.44752538 0 -164800264.44752538 32450548.307520866 0 0 0 0 -407725787.0995636 -175796313.25573397 0 -175796313.25573397 -4246548.7198867798 0 0 0 0 -418785183.14604568 -80196838.139422387 0 -80196838.139422387 54183925.898505926 0 0 0 0 -494578708.87926483 -185810280.55623555 0 -185810280.55623555 -128286165.30909348 0 0 0 0 -532009024.62956238 -119369390.98520648 0 -119369390.98520648 -16890865.551669598 0 0 0 0 -471020303.3086853 -152334841.22606015 0 -152334841.22606015 876705.35852384567 0 0 0 0 -541815127.76507568 -193738244.31331921 0 -193738244.31331921 -6610009.498090148 0 0 0 0 -299977032.8357954 -171283667.72427168 0 -171283667.72427168 -31013638.383431494 0 0 0 0 -486480115.91583252 -248814072.40324187 0 -248814072.40324187 -44392123.75273335 0 0 0 0 -23389358.371307373 -148137547.83542502 0 -148137547.83542502 -187883661.59012365 0 0 0 0 -303625994.57736969 -250105643.99258262 0 -250105643.99258262 -58106416.752704352 0 0 0 0 -419824939.1844368 -193959653.34038624 0 -193959653.34038624 8575582.2205654383 0 0 0 0 -534146750.74781799 -220918965.79830062 0 -220918965.79830062 -215432105.401299 0 0 0 0 -610456.84654380381 -67775.306087208912 0 -67775.306087208912 1613561.6476779459 0 0 0 0 -229675642.85064316 -100115834.91005325 0 -100115834.91005325 -212970333.44751358 0 0 0 0 -100712138.32931519 -145080838.86728072 0 -145080838.86728072 -314541049.58924353 0 0 0 0 -146011044.72515106 -239298774.71126246 0 -239298774.71126246 -261292655.05327463 0 0 0 0 -537554903.75877762 -252885663.9213624 0 -252885663.9213624 -75875097.599259853 0 0 0 0 -371697746.47301483 121009694.97578454 0 121009694.97578454 169434917.02590466 0 0 0 0 158969589.27946472 -333041017.47555065 0 -333041017.47555065 -195033709.53406429 0 0 0 0 -469826.00286792964 -950464.7366327662 0 -950464.7366327662 3630767.0958138974 0 0 0 0 -311860388.17935753 -189268911.13955337 0 -189268911.13955337 -73368878.450858474 0 0 0 0 -309430719.56135559 -166524387.89771941 0 -166524387.89771941 -29969469.168975234 0 0 0 0 -262092564.23221588 -140334488.37021899 0 -140334488.37021899 -78280799.878188968 0 0 0 0 -280003535.52896118 -137123160.39342582 0 -137123160.39342582 -120206128.2776202 0 0 0 0 -278991091.94179916 -148991616.42142797 0 -148991616.42142797 -53865237.03834033 0 0 0 0 1186944944.5060387 -360108794.42806816 0 -360108794.42806816 -663698418.28113365 0 0 0 0 997737865.03485107 902995464.74317837 0 902995464.74317837 329123723.76927185 0 0 0 0 -13927313.217277527 -475819632.50575924 0 -475819632.50575924 40579104.986860275 0 0 0 0 -25359779.312889099 -69612053.441063881 0 -69612053.441063881 284948123.79543304 0 0 0 0 -61642.880513902754 -420341.17762118578 0 -420341.17762118578 1801094.7224694788 0 0 0 0 -369432624.01194477 -191089802.79252422 0 -191089802.79252422 -22592033.231928825 0 0 0 0 249948.04923210852 -1431986.3541961294 0 -1431986.3541961294 3220965.5598410862 0 0 0 0 -339015237.22982788 -112676040.88615954 0 -112676040.88615954 -48693957.484525919 0 0 0 0 -244680225.95029449 -132562380.23848569 0 -132562380.23848569 -33184424.003855705 0 0 0 0 -258081322.17388916 -111019357.17529321 0 -111019357.17529321 -66830971.570836186 0 0 0 0 -300968411.56865692 -152769137.35269058 0 -152769137.35269058 -21659347.233908176 0 0 0 0 -254088748.15454102 -129056846.30786681 0 -129056846.30786681 -26223383.796841919 0 0 0 0 -257864248.55293274 -131846535.78606677 0 -131846535.78606677 8524492.3092985153 0 0 0 0 -198145206.41693115 -106058653.33224678 0 -106058653.33224678 -26973190.730044007 0 0 0 0 -168093990.27545166 -101590943.12220025 0 -101590943.12220025 -28550049.419954538 0 0 0 0 -202707767.66195679 -95526308.929290056 0 -95526308.929290056 10475849.898582935 0 0 0 0 -151181972.5894928 -74850740.595833778 0 -74850740.595833778 -32498280.122452676 0 0 0 0 -168115553.70469666 -58689266.990900755 0 -58689266.990900755 13066633.761164665 0 0 0 0 -242564464.75696564 -57118777.046501875 0 -57118777.046501875 -35721469.265507698 0 0 0 0 -231416891.23196983 -86008579.431419075 0 -86008579.431419075 -29961267.610601425 0 0 0 0 -289764428.17879677 -106030169.30729365 0 -106030169.30729365 -30862309.588862181 0 0 0 0 -204875373.22202301 -82322804.550493717 0 -82322804.550493717 -50533418.394605756 0 0 0 0 -332029129.24740601 -772705.69639500976 0 -772705.69639500976 23292334.211881161 0 0 0 0 -323059276.70867157 -48719367.01244843 0 -48719367.01244843 36122204.591900826 0 0 0 0 -236510242.53447723 15659510.887489557 0 15659510.887489557 -49701194.360120535 0 0 0 0 -162439703.46916199 267428.9489159584 0 267428.9489159584 -46858725.212121308 0 0 0 0 -173635557.20513916 -17331732.414038897 0 -17331732.414038897 198158.90589427948 0 0 0 0 -229235877.13325119 200687698.06297684 0 200687698.06297684 -82934966.981338501 0 0 0 0 -87102253.903495789 -88358065.507498026 0 -88358065.507498026 230997600.94103289 0 0 0 0 128849257.75592804 -12889060.367601156 0 -12889060.367601156 -38539059.072340488 0 0 0 0 -106920401.82722473 79707038.825097084 0 79707038.825097084 303451427.9506886 0 0 0 0 -72457847.242263794 26025982.904668808 0 26025982.904668808 18775784.937634945 0 0 0 0 -106234356.68486023 -40240984.17125082 0 -40240984.17125082 5712108.0140931606 0 0 0 0 -129204502.53902435 -59052430.122657657 0 -59052430.122657657 107772756.03223038 0 0 0 0 -192360385.43779755 -93906909.039586067 0 -93906909.039586067 66492650.623204231 0 0 0 0 -123272876.60101318 -98814282.62739563 0 -98814282.62739563 9954264.6573562622 0 0 0 0 -73005630.115600586 -42925180.629932165 0 -42925180.629932165 46619305.385392189 0 0 0 0 -116295632.03038025 -25663461.441908836 0 -25663461.441908836 132367115.49994802 0 0 0 0 -5272968.6282806396 19357404.892728329 0 19357404.892728329 84280729.703283072 0 0 0 0 55945771.345481873 16469751.639435291 0 16469751.639435291 84540461.783248663 0 0 0 0 -64910926.05355835 16373669.307487965 0 16373669.307487965 139526285.19874096 0 0 0 0 -1635817.3241534792 -725421.33911535668 0 -725421.33911535668 722257.42370063078 0 0 0 0 82758932.485061646 187878675.86149931 0 187878675.86149931 187221892.18518496 0 0 0 0 7280362.7067642212 -20773405.562364101 0 -20773405.562364101 -41928601.665071964 0 0 0 0 -7545619.5842933655 -3543184.5804715157 0 -3543184.5804715157 3792686.4528150558 0 0 0 0 -1443631.1249749511 -441360.29913967475 0 -441360.29913967475 567607.14769717981 0 0 0 0 -532857.63394080848 -312582.39987514354 0 -312582.39987514354 934858.17422789079 0 0 0 0 -263246338.64173126 -59969250.793905497 0 -59969250.793905497 24600899.380043983 0 0 0 0 -339244431.52830696 -58170339.041969895 0 -58170339.041969895 116555197.95726395 0 0 0 0 -284458779.07644653 -104029641.42205524 0 -104029641.42205524 -49290759.583139181 0 0 0 0 -281042776.6378479 -171781952.05693102 0 -171781952.05693102 -73200052.988423347 0 0 0 0 -360622353.07221985 -116266417.89209175 0 -116266417.89209175 66804873.563913107 0 0 0 0 -295788066.12346649 -125679942.24970174 0 -125679942.24970174 58592380.360280991 0 0 0 0 -162108561.87995911 -113821498.44591904 0 -113821498.44591904 28876983.020074368 0 0 0 0 -259414393.72804642 -144270123.07277369 0 -144270123.07277369 42709066.805303097 0 0 0 0 -305471702.77774429 -152755936.28134251 0 -152755936.28134251 13765715.501700878 0 0 0 0 -272401625.58939362 -120121569.94201481 0 -120121569.94201481 -918112.94927024841 0 0 0 0 -175358370.16456604 -106096726.03864384 0 -106096726.03864384 939518.11958384514 0 0 0 0 -175830861.53713226 -105789122.09440994 0 -105789122.09440994 48963867.22166729 0 0 0 0 -4306474.6723327637 15057358.273090839 0 15057358.273090839 24892194.51321888 0 0 0 0 -93905005.150596619 -148403856.05950642 0 -148403856.05950642 -76900535.076654911 0 0 0 0 -323630529.47799683 -216883888.28820968 0 -216883888.28820968 14321188.786741257 0 0 0 0 -350142995.61470413 -347462200.53180647 0 -347462200.53180647 -209504514.97254181 0 0 0 0 -394667299.6317215 -130735850.93798399 0 -130735850.93798399 97436908.01086092 0 0 0 0 -393695410.44163513 -126106581.09342504 0 -126106581.09342504 114605248.52930832 0 0 0 0 -653993501.5058136 -48193815.23213768 0 -48193815.23213768 254268836.94794416 0 0 0 0 -639473725.77931213 -250751901.296525 0 -250751901.296525 111369524.8356649 0 0 0 0 -353921001.49354553 -5917800.363699913 0 -5917800.363699913 121316157.26643419 0 0 0 0 -442294782.27920532 -81467599.503708363 0 -81467599.503708363 122388639.40628719 0 0 0 0 -783808.63194007054 -390429.20968797774 0 -390429.20968797774 284704.14294126164 0 0 0 0 -1574175.3935663812 -189430.73302297294 0 -189430.73302297294 1086198.6953556708 0 0 0 0 -327928372.93759155 -85969558.258253574 0 -85969558.258253574 358688011.63448048 0 0 0 0 -788450143.79600525 -40807991.164968491 0 -40807991.164968491 364164361.21898365 0 0 0 0 -400922078.82791138 -470059326.44466496 0 -470059326.44466496 -303925755.4747858 0 0 0 0 -790819694.30887604 -234068925.3851161 0 -234068925.3851161 20531086.363127708 0 0 0 0 172386330.45264435 -15204076.674001932 0 -15204076.674001932 -107267667.86646175 0 0 0 0 -309442041.2530365 312504112.95282161 0 312504112.95282161 71248521.491138458 0 0 0 0 -308130922.75815582 28507809.225275993 0 28507809.225275993 47681429.263672829 0 0 0 0 -12738007.290527344 120394317.90547156 0 120394317.90547156 -13636544.756037712 0 0 0 0 -1175359.0593669824 -681830.02873704396 0 -681830.02873704396 2177816.5988715412 0 0 0 0 -261058101.84763336 -324101610.46656322 0 -324101610.46656322 -346962712.66889286 0 0 0 0 -178312134.78157806 -9853214.6802597046 0 -9853214.6802597046 -62392823.142244577 0 0 0 0 -123796039.35346222 -172258032.00286818 0 -172258032.00286818 -122678852.79498768 0 0 0 0 -10069781.416526794 -9179845.2373428345 0 -9179845.2373428345 -17567028.919639587 0 0 0 0 -12529191.635719299 -30915066.386597395 0 -30915066.386597395 39349733.847106934 0 0 0 0 -17902518.903358459 -29471743.997612238 0 -29471743.997612238 -1077149.2141065598 0 0 0 0 -1160036.7362331152 -470896.34566862881 0 -470896.34566862881 1642300.1925019776 0 0 0 0 156882978.99739456 -36744498.886742592 0 -36744498.886742592 10020725.655261993 0 0 0 0 -17212190.081016541 5044331.0945862532 0 5044331.0945862532 6340096.3607759476 0 0 0 0 -3055045.8076782227 81603.578027486801 0 81603.578027486801 -6660986.6436774731 0 0 0 0 73388.168701171875 -5721877.036593914 0 -5721877.036593914 3735703.2086577415 0 0 0 0 5027979.4816789627 23810515.394152194 0 23810515.394152194 51862061.778055191 0 0 0 0 -1790217.6088499315 231919.22714380641 0 231919.22714380641 882920.07258009771 0 0 0 0 18597401.840065002 -37574642.244209051 0 -37574642.244209051 -22678954.768201828 0 0 0 0 -4137645.54246521 -3645384.0959188938 0 -3645384.0959188938 -39582070.518021345 0 0 0 0 -360444684.7936058 -84884625.865406275 0 -84884625.865406275 -50556653.426818848 0 0 0 0 -6648079.7347502708 128381781.94569378 0 128381781.94569378 27723844.458356857 0 0 0 0 -727252.7222577706 78784.317490708083 0 78784.317490708083 390287.46878353134 0 0 0 0 -113562368.24704742 -19625865.571043015 0 -19625865.571043015 -63399970.850839138 0 0 0 0 -140561331.31774139 88541449.567670822 0 88541449.567670822 13556347.470225841 0 0 0 0 -43711636.9193573 87265816.839035034 0 87265816.839035034 -43288533.044641972 0 0 0 0 -331181.321557316 2080627.6158835962 0 2080627.6158835962 5556850.5759206032 0 0 0 0 -166015162.79415894 84842271.144960284 0 84842271.144960284 -24137065.911106586 0 0 0 0 -229752152.16009521 5429959.6362469196 0 5429959.6362469196 28367834.253709078 0 0 0 0 -2092903.0780143738 -16833286.749077678 0 -16833286.749077678 -114747724.21030581 0 0 0 0 -371245.00141913444 1049569.6631971858 0 1049569.6631971858 3558593.1029292261 0 0 0 0 -370531474.1555481 143462958.36217737 0 143462958.36217737 18573759.716449976 0 0 0 0 -391074234.16774178 116412646.00271875 0 116412646.00271875 8569929.7202839851 0 0 0 0 -385341.88920787722 291717.27440242469 0 291717.27440242469 1603859.9629856427 0 0 0 0 -269889781.84568977 -27929550.327005908 0 -27929550.327005908 3178923.574259758 0 0 0 0 -158160787.38412476 -68313401.185229301 0 -68313401.185229301 9272905.6119630337 0 0 0 0 -150134318.14654541 -50177543.466967463 0 -50177543.466967463 36785542.672126293 0 0 0 0 -192256759.71479797 -29145364.694983244 0 -29145364.694983244 58694843.771689892 0 0 0 0 -130967301.76715088 20414070.558495522 0 20414070.558495522 36729252.775640845 0 0 0 0 -174244903.92284584 158306445.27697128 0 158306445.27697128 103401514.96247387 0 0 0 0 -337902195.44984436 106817865.96364594 0 106817865.96364594 88547560.522440672 0 0 0 0 -98923624.506523132 131582673.03657222 0 131582673.03657222 95115621.263763785 0 0 0 0 -92416584.588394165 276470380.4039681 0 276470380.4039681 183570934.44543314 0 0 0 0 -186214258.73994446 293711436.93580294 0 293711436.93580294 269515335.10036063 0 0 0 0 -132057327.46848297 309813298.69048333 0 309813298.69048333 158986366.52208471 0 0 0 0 -148729641.86936951 128296906.30858707 0 128296906.30858707 363973437.08374739 0 0 0 0 -146572721.10255432 140663741.30339479 0 140663741.30339479 85076742.554564953 0 0 0 0 -472180.50285084918 -104410.44606478768 0 -104410.44606478768 153716.0823183154 0 0 0 0 -24437525.573108673 67036805.25777328 0 67036805.25777328 -182298606.47955871 0 0 0 0 -53471648.543067932 -49106647.972663522 0 -49106647.972663522 -81416140.277537823 0 0 0 0 -180948110.04135132 212013407.78348279 0 212013407.78348279 -16137790.586824894 0 0 0 0 -10475879.900634766 -3303203.4386687279 0 -3303203.4386687279 58820632.773077488 0 0 0 0 -329160597.87194061 105212519.38554335 0 105212519.38554335 29684643.32516256 0 0 0 0 -230013144.63776445 67309448.540710524 0 67309448.540710524 -182257917.09513807 0 0 0 0 -294143256.12384033 -33221110.142278433 0 -33221110.142278433 20051280.821308613 0 0 0 0 102962393.14606476 129221396.62680876 0 129221396.62680876 9738939.7105197906 0 0 0 0 685778.38008222729 -41094.399078674614 0 -41094.399078674614 -1778199.2025605033 0 0 0 0 124071547.28647232 199044904.88342297 0 199044904.88342297 12451120.825824738 0 0 0 0 44516526.523008347 50033120.014463902 0 50033120.014463902 -2250004.6398024559 0 0 0 0 48645270.364196777 61169229.117331624 0 61169229.117331624 32715210.368549466 0 0 0 0 -127926856.36132812 89486138.723537564 0 89486138.723537564 47428729.569513083 0 0 0 0 -126918499.44552612 119280477.20111728 0 119280477.20111728 -68761065.98916769 0 0 0 0 -245133188.42205048 109109602.81342196 0 109109602.81342196 41812213.830384731 0 0 0 0 -276701518.15618324 171239265.13297391 0 171239265.13297391 -39101267.382111073 0 0 0 0 -280233563.47494888 63627292.568314195 0 63627292.568314195 -19327978.493261129 0 0 0 0 -235532459.40764809 143325279.709382 0 143325279.709382 15378911.160218239 0 0 0 0 -199520496.97283745 66843031.878155351 0 66843031.878155351 833780.54214191437 0 0 0 0 -260315150.75219345 185351147.85602537 0 185351147.85602537 -59131508.288802147 0 0 0 0 -865789.34730033134 -282109.25032366626 0 -282109.25032366626 -6185.4141173818207 0 0 0 0 -55995149.796379089 58301996.243048131 0 58301996.243048131 -63402330.87258327 0 0 0 0 2673948.1666030884 11523181.029709637 0 11523181.029709637 15842209.459514588 0 0 0 0 32372839.965780258 40433154.944253102 0 40433154.944253102 34904864.868251562 0 0 0 0 -287863.25396806444 -330571.43402691185 0 -330571.43402691185 -1792.7642233567312 0 0 0 0 -225680724.81441498 98348437.60687232 0 98348437.60687232 -24523665.9156394 0 0 0 0 35574610.775856018 117705574.78077745 0 117705574.78077745 -11210096.33887291 0 0 0 0 1663005.6100635529 40602247.896386072 0 40602247.896386072 107753136.07924962 0 0 0 0 10608775.856250763 13918340.580828819 0 13918340.580828819 11475788.29026708 0 0 0 0 -2120382.1146062091 1664532.0885752123 0 1664532.0885752123 815223.6921415691 0 0 0 0 -137527086.33280182 53635797.011712193 0 53635797.011712193 -55493554.124735355 0 0 0 0 138945510.48646927 152154769.46836567 0 152154769.46836567 179315721.54202807 0 0 0 0 180435502.10758209 115465676.67797673 0 115465676.67797673 37461848.543736458 0 0 0 0 -326857891.23272133 232245656.47259435 0 232245656.47259435 -193150273.66888368 0 0 0 0 -353348862.81994629 211694359.76652125 0 211694359.76652125 -82302043.852522016 0 0 0 0 -307370193.42589951 258216628.55107296 0 258216628.55107296 -156552788.51856756 0 0 0 0 -22056047.482234955 93208836.210212469 0 93208836.210212469 -130371826.24221444 0 0 0 0 -85334054.532894135 -12044025.376088381 0 -12044025.376088381 42433632.253049135 0 0 0 0 -2001244.6452687345 2407567.8191946903 0 2407567.8191946903 1016675.4007100447 0 0 0 0 24906175.919330597 24343026.966400146 0 24343026.966400146 -110291563.86061168 0 0 0 0 -1432128.6529611165 1473031.9359465763 0 1473031.9359465763 1266336.9470198341 0 0 0 0 28606065.698373437 32271564.93251089 0 32271564.93251089 29527254.968138456 0 0 0 0 -110586062.92337036 117711653.26894391 0 117711653.26894391 -79183239.60904783 0 0 0 0 -4003882.6544105485 725437.04962137761 0 725437.04962137761 1221958.1877008118 0 0 0 0 -148827978.94311523 80357981.534006238 0 80357981.534006238 -49387858.460293174 0 0 0 0 -13136716.775852203 63430306.645057857 0 63430306.645057857 15223488.480972707 0 0 0 0 -172009054.07620239 41719956.948407218 0 41719956.948407218 38371911.221432216 0 0 0 0 181502187.02699006 86659419.097195789 0 86659419.097195789 -954162.48830904067 0 0 0 0 -161080934.29859543 178162630.12235689 0 178162630.12235689 59419629.257329881 0 0 0 0 -678102.26755779353 1544084.587382637 0 1544084.587382637 -41942.197321490123 0 0 0 0 -163787960.17083979 144771937.69850132 0 144771937.69850132 -149254937.51202321 0 0 0 0 -278606883.3666153 269575708.97760755 0 269575708.97760755 -194041526.46207204 0 0 0 0 -215358489.05938339 57491709.261025228 0 57491709.261025228 14667907.39563147 0 0 0 0 -493182003.23635864 222876078.14567193 0 222876078.14567193 -38978793.719165236 0 0 0 0 -521640013.78323746 440201054.24531221 0 440201054.24531221 -221056013.86685812 0 0 0 0 -357488549.05698776 212262703.86387879 0 212262703.86387879 -202329967.3403877 0 0 0 0 -66054144.350639343 136184569.46496025 0 136184569.46496025 207250615.42619067 0 0 0 0 33065015.893753052 43319648.015919685 0 43319648.015919685 161741221.32816184 0 0 0 0 -280444085.1762085 -56710044.908193171 0 -56710044.908193171 13441243.803974152 0 0 0 0 -144681606.8095932 -40594681.206924826 0 -40594681.206924826 13938984.82412241 0 0 0 0 219102430.11974716 419403199.73597693 0 419403199.73597693 132584075.29575236 0 0 0 0 -504807214.24081802 -33779415.02685006 0 -33779415.02685006 44439754.811288357 0 0 0 0 -543964.11839655228 481907.83248462155 0 481907.83248462155 112693.7219415924 0 0 0 0 288642764.67275429 188345671.97302741 0 188345671.97302741 -9510345.5409126282 0 0 0 0 79275829.051071167 232658835.06224775 0 232658835.06224775 126008493.2292341 0 0 0 0 -42914969.705551147 40214186.979682982 0 40214186.979682982 62026744.717541218 0 0 0 0 231858757.83875275 85835002.193567872 0 85835002.193567872 22154851.976364136 0 0 0 0 -45574296.912643433 42283179.505348682 0 42283179.505348682 67002979.919431567 0 0 0 0 -124092667.68938446 -59451105.612273097 0 -59451105.612273097 -34404727.526353359 0 0 0 0 19215048.870567322 121239183.06027196 0 121239183.06027196 -44767918.716245651 0 0 0 0 -146864137.19018555 -153347551.14599204 0 -153347551.14599204 5254555.7717444599 0 0 0 0 -489227522.64736176 461421529.05826235 0 461421529.05826235 -390786455.50973713 0 0 0 0 -1408296.4568907246 213686.21170532098 0 213686.21170532098 353885.67211598146 0 0 0 0 -1015200709.4608841 -96623972.44007206 0 -96623972.44007206 317832590.79296339 0 0 0 0 -173572007.74807739 46602284.053398788 0 46602284.053398788 162080624.30340844 0 0 0 0 -620982884.56933594 -49848456.435264409 0 -49848456.435264409 142009717.92548406 0 0 0 0 -77758992.393836975 179340908.71457225 0 179340908.71457225 125796803.74147403 0 0 0 0 -131758281.36873055 49128665.0888054 0 49128665.0888054 45196803.518085122 0 0 0 0 -486173923.20493317 589392981.69421005 0 589392981.69421005 -446954384.88023853 0 0 0 0 -86831.527819866315 140054.17446969636 0 140054.17446969636 240778.48378015368 0 0 0 0 -457682908.48449898 170765764.71265441 0 170765764.71265441 228928129.15735704 0 0 0 0 3764203.1644287109 129602612.71667716 0 129602612.71667716 73734670.393303975 0 0 0 0 -453642407.24891758 175233302.73664743 0 175233302.73664743 128931953.8102368 0 0 0 0 -572969729.58288765 348155848.29625022 0 348155848.29625022 46504745.581554294 0 0 0 0 -166397934.68247986 110573545.8222895 0 110573545.8222895 86410908.770627439 0 0 0 0 -640355429.88483429 -75616522.646308184 0 -75616522.646308184 67101938.772672571 0 0 0 0 193649442.88064298 415566837.79082775 0 415566837.79082775 -59587075.34862566 0 0 0 0 -498794.58461249061 449477.26403350383 0 449477.26403350383 23016.498714597314 0 0 0 0 190909692.01903534 -35998982.334109724 0 -35998982.334109724 -39247844.323411465 0 0 0 0 120396851.685112 40595483.770785093 0 40595483.770785093 -52995271.423086882 0 0 0 0 -161697520.82494736 140823166.99230474 0 140823166.99230474 -52908313.074842691 0 0 0 0 -8020304.8274536133 -101265220.55048859 0 -101265220.55048859 195115370.33233082 0 0 0 0 -200144123.39245605 61652836.607354939 0 61652836.607354939 90388039.803781569 0 0 0 0 -1023008.0422471184 925423.54990004934 0 925423.54990004934 122046.12552731822 0 0 0 0 -205998061.71540833 39476531.894190148 0 39476531.894190148 233297278.60151437 0 0 0 0 -47946630.710933685 130953690.72468279 0 130953690.72468279 101591006.24881804 0 0 0 0 7066105.4032516479 143868891.76459655 0 143868891.76459655 134876690.98450994 0 0 0 0 -312070334.13180542 -49127677.378849328 0 -49127677.378849328 98981003.235557586 0 0 0 0 -287977997.47096634 466364.87894538371 0 466364.87894538371 92785609.748617172 0 0 0 0 -188214765.84268951 63013384.763567567 0 63013384.763567567 119994342.32784665 0 0 0 0 -331214851.54493713 -18819990.392174602 0 -18819990.392174602 157124241.08676809 0 0 0 0 -412817702.94050598 -98402180.134620667 0 -98402180.134620667 92769120.702263564 0 0 0 0 -318235661.36803436 -9219384.5825598836 0 -9219384.5825598836 88585036.71814537 0 0 0 0 -394912015.58569336 -88318521.921816826 0 -88318521.921816826 61693944.63352102 0 0 0 0 -206269761.76796579 -25441663.660272535 0 -25441663.660272535 77373192.998327971 0 0 0 0 -353929415.68795776 -90330922.951197267 0 -90330922.951197267 25685391.69075495 0 0 0 0 -315624202.89518738 20265764.883738279 0 20265764.883738279 71664057.048145771 0 0 0 0 -418596867.15459442 -50297735.535602719 0 -50297735.535602719 15655267.486337423 0 0 0 0 -493448817.88246155 -124903033.34616613 0 -124903033.34616613 -13200069.332031667 0 0 0 0 -583385876.56301117 -174052767.99439406 0 -174052767.99439406 -130756057.95542789 0 0 0 0 -461421758.45413208 -80795476.753025055 0 -80795476.753025055 -201058027.89603949 0 0 0 0 -489847593.82455444 -88868075.061598778 0 -88868075.061598778 -94223661.759548768 0 0 0 0 -368922266.56446075 -35819545.036455691 0 -35819545.036455691 -90909570.068990946 0 0 0 0 -500353133.80097198 -27319851.177772045 0 -27319851.177772045 -242353658.60792732 0 0 0 0 -328320967.79264832 -70515040.91467905 0 -70515040.91467905 -240096044.41145992 0 0 0 0 -675490853.13018799 -166120945.06113768 0 -166120945.06113768 -200712207.23239321 0 0 0 0 -654303769.61316681 -148151407.49666262 0 -148151407.49666262 -417423799.36768448 0 0 0 0 -604932718.27801514 -208107147.69034398 0 -208107147.69034398 -344945424.72267377 0 0 0 0 -547373799.15104675 70703270.958501697 0 70703270.958501697 -206527357.76382571 0 0 0 0 -415691786.87608051 4442897.2764400467 0 4442897.2764400467 -377558118.27563524 0 0 0 0 -226139695.30999756 58182136.89989242 0 58182136.89989242 -241105436.91134036 0 0 0 0 -408753239.40091515 46493890.669294864 0 46493890.669294864 -67335320.449203372 0 0 0 0 -330637492.39523315 287775749.84613043 0 287775749.84613043 33930473.467963606 0 0 0 0 -188016404.00032043 15587269.159241721 0 15587269.159241721 -107659719.89536861 0 0 0 0 -399880326.938797 191803513.19034407 0 191803513.19034407 -98190841.260049045 0 0 0 0 -449282384.09747314 82303111.744066745 0 82303111.744066745 -2841000.7446259856 0 0 0 0 -452323563.994133 -93386658.247352824 0 -93386658.247352824 -206034524.07982272 0 0 0 0 -453907339.79259491 -131190354.71116358 0 -131190354.71116358 -122242821.8068929 0 0 0 0 -277804418.04153633 1018970.1957364678 0 1018970.1957364678 -207947794.58938599 0 0 0 0 -506641002.27941895 9795949.4402933121 0 9795949.4402933121 -107216725.44753218 0 0 0 0 -680377341.20809174 -248588959.15091342 0 -248588959.15091342 -211162753.24029884 0 0 0 0 -742423142.94321442 -276440770.969396 0 -276440770.969396 -92737255.164123535 0 0 0 0 -759036772.64556122 -308871754.45073676 0 -308871754.45073676 -143014353.56849277 0 0 0 0 -1101495519.1226425 -619191347.42526221 0 -619191347.42526221 -333482424.89891839 0 0 0 0 -1305891554.7774124 -80800528.394450188 0 -80800528.394450188 -419166356.3466242 0 0 0 0 -581564949.54557419 -221826524.06172931 0 -221826524.06172931 -719608456.57117653 0 0 0 0 -641432048.47039413 -234869814.18610889 0 -234869814.18610889 -304407687.82355231 0 0 0 0 -637446892.89012146 470003362.19303811 0 470003362.19303811 -168760941.36396429 0 0 0 0 -512650595.67243767 438767718.49957275 0 438767718.49957275 -164671359.42466003 0 0 0 0 -457218517.82454681 402126971.79732203 0 402126971.79732203 -225368712.94263786 0 0 0 0 -606332037.25815582 342497551.16509604 0 342497551.16509604 -125133933.32163025 0 0 0 0 -167762.68829240813 292661.74452888966 0 292661.74452888966 -316024.47902956652 0 0 0 0 -629003687.44585419 335975619.08876216 0 335975619.08876216 -126961443.38359126 0 0 0 0 -364915.82916470256 1079482.9991476592 0 1079482.9991476592 -591329.18988763425 0 0 0 0 480915359.41217041 73602348.194033474 0 73602348.194033474 -105374314.63121131 0 0 0 0 695408890.75447464 76052912.162183046 0 76052912.162183046 -171924704.20271841 0 0 0 0 -119602184.8270731 220726143.27184731 0 220726143.27184731 88715878.823592544 0 0 0 0 -433802411.63921642 332425476.04274917 0 332425476.04274917 -80064026.585825205 0 0 0 0 -550111141.99161911 292338527.35450196 0 292338527.35450196 -62934825.429141998 0 0 0 0 -552335107.39624023 358903785.77658904 0 358903785.77658904 -60490101.248642206 0 0 0 0 -1430368221.0753193 561694218.04476309 0 561694218.04476309 -50623263.944825172 0 0 0 0 -561670790.25457382 563891648.32758284 0 563891648.32758284 -216467137.06253362 0 0 0 0 -519446531.41101837 372341144.98297584 0 372341144.98297584 -55019249.789493322 0 0 0 0 -492659376.81464386 274967697.7818799 0 274967697.7818799 234812679.07856917 0 0 0 0 -300306521.37830734 421303514.52233118 0 421303514.52233118 -12245972.781340301 0 0 0 0 -550098664.16349268 340041102.76909888 0 340041102.76909888 -16414092.354371786 0 0 0 0 -394875921.15880585 488341775.78918195 0 488341775.78918195 -239089358.87994587 0 0 0 0 -19655009.951823235 9354233.6687309742 0 9354233.6687309742 -2082199.9695367813 0 0 0 0 -1723786.0565500353 144097.11079442315 0 144097.11079442315 197958.13484097691 0 0 0 0 -16988415.063321114 2343363.5689421892 0 2343363.5689421892 -9663532.2300343513 0 0 0 0 -316201564.75195599 38691302.079584837 0 38691302.079584837 5327396.730471611 0 0 0 0 -273936737.51204681 171792629.62176156 0 171792629.62176156 23833290.35221839 0 0 0 0 -532692753.06877136 378863007.08558238 0 378863007.08558238 27555783.337398529 0 0 0 0 -393749903.37878799 267012569.31925523 0 267012569.31925523 -42982652.095998764 0 0 0 0 -460157195.57518768 234735163.04900455 0 234735163.04900455 33839491.611926407 0 0 0 0 -191457486.5999527 168212032.87334085 0 168212032.87334085 -137818948.31132126 0 0 0 0 -495899387.03668118 348564953.03240001 0 348564953.03240001 -77896585.651679993 0 0 0 0 -665074959.02215576 280542334.7075603 0 280542334.7075603 -62255871.121439219 0 0 0 0 -647889439.77794647 324537825.52473176 0 324537825.52473176 -3402897.0726745129 0 0 0 0 -750808720.34101868 254860343.69735169 0 254860343.69735169 -39793692.495881379 0 0 0 0 -647893398.28142834 291175859.57017648 0 291175859.57017648 -51942961.035806179 0 0 0 0 -1037806493.2987366 272239551.0257678 0 272239551.0257678 -26624423.610783577 0 0 0 0 -683517338.28621769 346734499.75932878 0 346734499.75932878 -108578088.04012632 0 0 0 0 -1649931813.5717735 371274240.8165977 0 371274240.8165977 -58132159.367575645 0 0 0 0 -2832129.8381285295 738811.23112028651 0 738811.23112028651 399366.99240472983 0 0 0 0 -406500254.74419403 615828036.71485281 0 615828036.71485281 -654538884.7341013 0 0 0 0 -356929941.08153534 395489254.40124345 0 395489254.40124345 -234423834.59217644 0 0 0 0 -4874423.2321713194 -326129.15749499947 0 -326129.15749499947 2437618.6592293628 0 0 0 0 -3741926.0812530518 -167431.33184623718 0 -167431.33184623718 1309518.9494943619 0 0 0 0 -4605258.2260160707 880122.95751192607 0 880122.95751192607 2167738.1461148211 0 0 0 0 -6262952.8316745758 1168380.7825152576 0 1168380.7825152576 5263882.5534496307 0 0 0 0 -139136846.25792694 -21520166.467965126 0 -21520166.467965126 -157722740.61481285 0 0 0 0 -5469457.0805892944 2161768.080237031 0 2161768.080237031 4453568.1701706648 0 0 0 0 -5450506.370174408 767104.69380018115 0 767104.69380018115 2770593.4491603374 0 0 0 0 -6517453.9621276855 2208783.0586087108 0 2208783.0586087108 2056884.4290338755 0 0 0 0 -4904717.5215790346 -527879.75909204036 0 -527879.75909204036 2603427.1858826545 0 0 0 0 -582870242.81230545 -181079005.52088857 0 -181079005.52088857 -72071628.806816578 0 0 0 0 -826542196.82349777 -344305932.29381168 0 -344305932.29381168 -43760214.384407282 0 0 0 0 -808783413.54380608 -270633529.07854736 0 -270633529.07854736 17778820.565545082 0 0 0 0 -803884140.82373619 -258441231.39377862 0 -258441231.39377862 -92942273.495316505 0 0 0 0 -751421027.82745624 -13481226.349427916 0 -13481226.349427916 -102114225.62665296 0 0 0 0 -908936737.2807312 -31807881.452603579 0 -31807881.452603579 -35900442.932834864 0 0 0 0 -1092102785.7778778 -70889846.060001612 0 -70889846.060001612 -40641202.433121681 0 0 0 0 -1035025846.3803482 -191536449.99715185 0 -191536449.99715185 -61249344.382922515 0 0 0 0 -775691918.36368942 -229413677.50615048 0 -229413677.50615048 -63370411.524648666 0 0 0 0 -938807065.55043221 -86979463.636044264 0 -86979463.636044264 -106625179.12314034 0 0 0 0 -1301542554.2454834 -139736799.53873634 0 -139736799.53873634 -114285715.82470405 0 0 0 0 -1398139247.0946007 -342000178.4145329 0 -342000178.4145329 -489317824.979949 0 0 0 0 -1143647274.6840515 124407471.11377382 0 124407471.11377382 -1075890499.1697383 0 0 0 0 -976830776.21015215 -167954186.53773931 0 -167954186.53773931 -125558501.66125584 0 0 0 0 -1136060251.3397751 16094884.389867306 0 16094884.389867306 -260550656.38147974 0 0 0 0 -964454626.41662598 -106862814.72149253 0 -106862814.72149253 -515291814.89352989 0 0 0 0 -883672365.58999634 -40162177.41872263 0 -40162177.41872263 -305879439.95062065 0 0 0 0 -809935330.45534515 -166147084.64575434 0 -166147084.64575434 -170621954.78280163 0 0 0 0 -802717197.0670433 -198887735.77901673 0 -198887735.77901673 -232974000.11355162 0 0 0 0 -804473734.67995811 -212218441.93436378 0 -212218441.93436378 -7746318.0786452293 0 0 0 0 -913425.01647525281 -849975.44815201126 0 -849975.44815201126 -5142946.9280445799 0 0 0 0 -512080525.09902954 -145684921.75749755 0 -145684921.75749755 -181879745.10307312 0 0 0 0 -930102073.0201416 -262414568.16729116 0 -262414568.16729116 38841581.666044235 0 0 0 0 -243640.96535491943 -4408334.5599348545 0 -4408334.5599348545 -3860403.3110835552 0 0 0 0 -3943522.0612039566 -2457790.5931768715 0 -2457790.5931768715 -4755607.4403748512 0 0 0 0 -3850280.404548645 -3073924.3611164093 0 -3073924.3611164093 -1692065.6327795982 0 0 0 0 -6135836.0389404297 -3816661.4498515129 0 -3816661.4498515129 -1107619.8242907524 0 0 0 0 -9430861.9690437317 -5150144.404384613 0 -5150144.404384613 3864484.9002857208 0 0 0 0 -6771807.4130477905 -4772053.8803603649 0 -4772053.8803603649 -232933.52997112274 0 0 0 0 -5244644.2023773193 -6869683.2680089474 0 -6869683.2680089474 -3476173.0389657021 0 0 0 0 -16361334.896152496 -39159797.517042875 0 -39159797.517042875 -1826515.1243977547 0 0 0 0 22422889.365142822 -4546662.556088686 0 -4546662.556088686 -10989501.892420769 0 0 0 0 -934465.75020931289 -1017808.7085447405 0 -1017808.7085447405 -4715508.6642340953 0 0 0 0 -28021960.306976318 36812103.38195467 0 36812103.38195467 -16991049.716039181 0 0 0 0 -625139.79326901585 -85726.991105714813 0 -85726.991105714813 -7844.1287770294584 0 0 0 0 -45958662.486646652 4461190.299423337 0 4461190.299423337 3282174.6627340317 0 0 0 0 -46116343.75289917 -45852416.176277161 0 -45852416.176277161 30120038.642191887 0 0 0 0 -1301086.9345433991 -1990545.0557360183 0 -1990545.0557360183 -4173446.9800901129 0 0 0 0 28621505.46194458 37903043.53098774 0 37903043.53098774 -32467062.133446753 0 0 0 0 -3774098.9222104736 -5807987.6978489943 0 -5807987.6978489943 -6039545.1690627355 0 0 0 0 -6203757.4574623108 -18255856.252222061 0 -18255856.252222061 46542998.370699167 0 0 0 0 37670076.26133728 -5025206.8244183064 0 -5025206.8244183064 -33794582.925805092 0 0 0 0 21911217.075889587 32676249.171186447 0 32676249.171186447 -43546328.165575504 0 0 0 0 19461035.832387924 -23709444.96705842 0 -23709444.96705842 1226309.6496968269 0 0 0 0 -19063230.931983948 -3746268.2189745903 0 -3746268.2189745903 -5224402.1469140053 0 0 0 0 9820591.1014862061 -2839120.2287704945 0 -2839120.2287704945 -15652307.051186085 0 0 0 0 11456394.439178467 1552872.240418911 0 1552872.240418911 -7302683.2552770376 0 0 0 0 -1100466.3637665212 -937616.1976622846 0 -937616.1976622846 -698571.46498861909 0 0 0 0 -10965985.158145905 -6635240.6988284588 0 -6635240.6988284588 -168004.47429656982 0 0 0 0 -13273251.167376187 -2139672.5288207904 0 -2139672.5288207904 -389946.30841047544 0 0 0 0 -14987211.072795868 2285565.1392636299 0 2285565.1392636299 -4764406.7557353973 0 0 0 0 -123974371.88124084 72047265.065005839 0 72047265.065005839 -9289385.5868967175 0 0 0 0 7866157.5358657837 -19493312.71685648 0 -19493312.71685648 -3679772.4507202506 0 0 0 0 10003261.649795532 16829029.663511992 0 16829029.663511992 6089251.3596164584 0 0 0 0 -9587212.6177070998 -916765.33131054603 0 -916765.33131054603 -1172514.4689368668 0 0 0 0 -85591040.577087402 -81536701.69494155 0 -81536701.69494155 28403226.244139686 0 0 0 0 8106784.0189361572 -41748168.839266777 0 -41748168.839266777 -13322861.302709818 0 0 0 0 -13183060.114250183 -826291.96046161652 0 -826291.96046161652 1325961.662024498 0 0 0 0 -16791307.95665741 4741186.4880962372 0 4741186.4880962372 2974469.6406588554 0 0 0 0 -2507340.4110796582 -608027.78242644295 0 -608027.78242644295 414628.64209241839 0 0 0 0 -2745149.3908189386 -1460300.2551596295 0 -1460300.2551596295 -2079569.2961361366 0 0 0 0 -2398986.2817459106 404591.98874315619 0 404591.98874315619 971895.86994487047 0 0 0 0 -5899982.7950057983 -385514.92553663254 0 -385514.92553663254 524000.3339189291 0 0 0 0 -5397981.8906505834 1915086.2743861843 0 1915086.2743861843 3141159.1386195961 0 0 0 0 -78175246.630249023 -20846598.268556118 0 -20846598.268556118 21345972.550893843 0 0 0 0 -80728939.869044304 -36666862.387427486 0 -36666862.387427486 22762278.306534767 0 0 0 0 -81357180.252810478 -22713704.699159682 0 -22713704.699159682 20612592.065891743 0 0 0 0 -19783659.864837646 -3825894.8430044651 0 -3825894.8430044651 4302475.5296569839 0 0 0 0 -13555167.376220703 18930905.474502325 0 18930905.474502325 742167.92936205864 0 0 0 0 3162881.8335723877 -1216810.2090904713 0 -1216810.2090904713 -2422047.692854166 0 0 0 0 -7840301.3246459961 35084439.911115885 0 35084439.911115885 -4455660.2350275815 0 0 0 0 -34673670.895439148 13547197.856280327 0 13547197.856280327 11008113.529696226 0 0 0 0 -30032675.611846924 13907722.749064207 0 13907722.749064207 11033304.185372353 0 0 0 0 -89548993.643341064 -2669782.9867297411 0 -2669782.9867297411 50849637.32946682 0 0 0 0 -131917800.75445557 4371901.4581475258 0 4371901.4581475258 54634715.416065097 0 0 0 0 -145925109.46679688 38551934.541702271 0 38551934.541702271 79952463.222032785 0 0 0 0 -92596300.551177979 56330288.550498605 0 56330288.550498605 -3534007.9362101555 0 0 0 0 -149815258.54515076 -17205076.944684625 0 -17205076.944684625 76343896.49756062 0 0 0 0 -14202611.371917725 43933069.051163137 0 43933069.051163137 64219659.01368624 0 0 0 0 -152207117.63246918 -50943006.479291715 0 -50943006.479291715 41757953.294132411 0 0 0 0 -1864890.3733290881 -1082270.1656620093 0 -1082270.1656620093 -290291.83559671411 0 0 0 0 -192490287.51953125 162630135.16612434 0 162630135.16612434 71439929.809295416 0 0 0 0 -148391000.08322144 33054988.651660442 0 33054988.651660442 131162817.7959218 0 0 0 0 -133721353.76281738 3794480.9012773037 0 3794480.9012773037 102190271.48868895 0 0 0 0 -123263871.9604187 -37459463.357174993 0 -37459463.357174993 29274451.701003671 0 0 0 0 -33726842.043998718 -2727197.2143490314 0 -2727197.2143490314 20221573.275252402 0 0 0 0 -114660612.14440918 -12530790.127645969 0 -12530790.127645969 113890703.23017049 0 0 0 0 -56410891.441268921 -42056396.952102125 0 -42056396.952102125 -9285395.9641466141 0 0 0 0 -19687876.582107544 -13429219.583497286 0 -13429219.583497286 13351944.552705586 0 0 0 0 -35504927.101554871 -30620658.624835789 0 -30620658.624835789 -2094361.5695801973 0 0 0 0 -49026122.54057312 -18761418.001280069 0 -18761418.001280069 40210382.568788648 0 0 0 0 -19759516.648193359 -15261297.353203595 0 -15261297.353203595 10075013.431378722 0 0 0 0 -27212001.703421593 -11766715.733334549 0 -11766715.733334549 13180325.337890506 0 0 0 0 -28376074.448516846 -8426563.9541976452 0 -8426563.9541976452 11535311.119583607 0 0 0 0 -27830143.26693821 -7994343.3856719583 0 -7994343.3856719583 11173246.822669506 0 0 0 0 -5990852.6449592896 -3588173.7046893444 0 -3588173.7046893444 -1094108.5903766127 0 0 0 0 -50502841.957336426 4359693.986418277 0 4359693.986418277 -30455026.827621847 0 0 0 0 -3444639.8301941305 -2196693.0829961449 0 -2196693.0829961449 428129.33432224585 0 0 0 0 -129125428.14390564 -15394518.16316019 0 -15394518.16316019 10821210.349045396 0 0 0 0 -123203447.49043274 -9839167.6681324393 0 -9839167.6681324393 -12777379.181402206 0 0 0 0 -120006924.37042236 -51681356.469282836 0 -51681356.469282836 32985343.395507097 0 0 0 0 -121665205.85139847 -39370274.553162217 0 -39370274.553162217 -8520816.4986006021 0 0 0 0 -8178143.8409576416 -11813767.289578915 0 -11813767.289578915 -1214094.8726609349 0 0 0 0 3187559.621573925 -15181476.065116704 0 -15181476.065116704 5414180.20259583 0 0 0 0 -7888914.3769402504 -7886054.6189489365 0 -7886054.6189489365 31001.804584503174 0 0 0 0 -7479483.968621403 -5399434.7239975296 0 -5399434.7239975296 -2064131.1097710985 0 0 0 0 2263388.7579841614 -23721962.449261319 0 -23721962.449261319 -8635264.755065918 0 0 0 0 -11337357.719871555 -5102374.9044071995 0 -5102374.9044071995 -849706.86942729307 0 0 0 0 -7206214.8060569763 -10430233.778169155 0 -10430233.778169155 -12127032.641832352 0 0 0 0 -3213640.0073699951 -3202751.631550312 0 -3202751.631550312 -3328220.7182146311 0 0 0 0 1716077.2656440735 1735682.9871382713 0 1735682.9871382713 -11902421.076156616 0 0 0 0 -373684.55932617188 3883822.7366912365 0 3883822.7366912365 -987561.14708137512 0 0 0 0 -1139897.7858161926 2534040.5234584808 0 2534040.5234584808 -2039513.9067516327 0 0 0 0 -1108873.3698558807 -1781155.0186919272 0 -1781155.0186919272 2522369.3052616119 0 0 0 0 -1284408.5661239624 -3660046.2372784615 0 -3660046.2372784615 -6905370.5831022263 0 0 0 0 -98340.179145812988 5831672.9187419415 0 5831672.9187419415 1281792.4088306427 0 0 0 0 -61356746.721637726 -43525906.542274475 0 -43525906.542274475 -520347.36453390121 0 0 0 0 -5104987.6220887601 -2330116.6003458276 0 -2330116.6003458276 908400.10256706923 0 0 0 0 -15793608.136334363 -2224620.0153984549 0 -2224620.0153984549 1839727.1324577467 0 0 0 0 1579899.1229324341 4769300.6848487854 0 4769300.6848487854 -2254117.9905042648 0 0 0 0 6346591.0489120483 29148480.532049179 0 29148480.532049179 21966320.902059078 0 0 0 0 926751.03659439087 3490702.7088947296 0 3490702.7088947296 -3183578.8188266754 0 0 0 0 -15014137.311811727 1182487.6072011013 0 1182487.6072011013 3887922.973952855 0 0 0 0 -22457769.581512451 -6025131.5398902893 0 -6025131.5398902893 -1032964.6490936279 0 0 0 0 -33692577.879241943 -5573607.4784152806 0 -5573607.4784152806 -21224421.582795218 0 0 0 0 -17209653.645050049 -12425157.390151024 0 -12425157.390151024 -8956215.6814937592 0 0 0 0 -9540331.647808075 -74617127.016235083 0 -74617127.016235083 -21898177.210820705 0 0 0 0 -12807991.130231369 -4752819.7530405615 0 -4752819.7530405615 1226541.8106961865 0 0 0 0 -19280191.507888794 -5897123.5226219296 0 -5897123.5226219296 -2025575.1449401379 0 0 0 0 -13491016.692517288 -2604371.9209040338 0 -2604371.9209040338 2717536.7729390906 0 0 0 0 -30166737.722564697 -18167659.107077599 0 -18167659.107077599 -9852461.2625961304 0 0 0 0 -27119566.390830994 -12381840.285037994 0 -12381840.285037994 -8931967.1130065918 0 0 0 0 -7513211.7168409098 -7660520.6909284759 0 -7660520.6909284759 -4441844.9122254588 0 0 0 0 -6287906.8308105469 -2129133.3341140747 0 -2129133.3341140747 1770922.6546068192 0 0 0 0 -12529890.521579053 -6391979.5980904158 0 -6391979.5980904158 -2198332.9440218718 0 0 0 0 -11733080.926013142 -7084087.3602226116 0 -7084087.3602226116 -1124849.4179449021 0 0 0 0 -8030364.6158195557 -1479186.8657875508 0 -1479186.8657875508 -123387.23217811622 0 0 0 0 -23534607.417419434 -12641398.595485687 0 -12641398.595485687 -11213182.221832275 0 0 0 0 -40773417.484939575 -12949357.037403107 0 -12949357.037403107 -10949304.825119019 0 0 0 0 -1672005.993638305 -132058.31998868752 0 -132058.31998868752 1318928.9206498014 0 0 0 0 -27338363.855331421 -13852999.642900467 0 -13852999.642900467 -15651521.969665527 0 0 0 0 -56928665.855239868 -23762379.659261703 0 -23762379.659261703 -3510857.1713180542 0 0 0 0 -7541406.8652191162 -1562510.185675621 0 -1562510.185675621 2361057.4516220093 0 0 0 0 -9280006.4765346143 -6227408.1239536107 0 -6227408.1239536107 -4286353.4688489288 0 0 0 0 -15072301.722651437 -2548538.2835444715 0 -2548538.2835444715 3745572.901969525 0 0 0 0 -5836583.4303955548 -3145114.3069992997 0 -3145114.3069992997 257219.14447698928 0 0 0 0 -22487442.892204285 -9833690.4329376221 0 -9833690.4329376221 -10719643.276835442 0 0 0 0 -21988476.730442047 -11843856.623860359 0 -11843856.623860359 -8394639.4663467407 0 0 0 0 -7954327.0941417217 11466445.413030356 0 11466445.413030356 41285149.675027847 0 0 0 0 -31723645.739200592 -28628448.76788044 0 -28628448.76788044 -13890774.382633209 0 0 0 0 -41354443.807098389 -15883085.900550842 0 -15883085.900550842 -2795477.0038957596 0 0 0 0 13401721.725135803 -2506470.0179309845 0 -2506470.0179309845 4912344.1543655396 0 0 0 0 -24576199.860942841 7719334.8582763672 0 7719334.8582763672 46644309.196914673 0 0 0 0 -57349790.002521515 -10452821.931838512 0 -10452821.931838512 -29817279.172177315 0 0 0 0 -46426036.954589844 -33246090.422277451 0 -33246090.422277451 -7816963.5796604156 0 0 0 0 -54876509.746753693 -17719219.043450832 0 -17719219.043450832 -14001153.025682449 0 0 0 0 -57219727.353912115 -28065223.608844578 0 -28065223.608844578 -8365377.1719551086 0 0 0 0 -4685930.2688181512 -473762.66673843563 0 -473762.66673843563 2214881.0315420218 0 0 0 0 -32388211.035041809 5492353.2444705963 0 5492353.2444705963 45702328.60770607 0 0 0 0 26894248.153274536 66470013.655975819 0 66470013.655975819 1711097.8754806519 0 0 0 0 -13206146.171066284 20976285.8305161 0 20976285.8305161 -85916934.938819885 0 0 0 0 -48365456.668554306 -11908178.08605051 0 -11908178.08605051 -37358392.330530167 0 0 0 0 -16184329.192813873 29119385.760402203 0 29119385.760402203 -27468478.788738251 0 0 0 0 -55746088.455879211 -27474056.355662823 0 -27474056.355662823 5123912.8818130493 0 0 0 0 -16390595.868717762 1657445.7532988936 0 1657445.7532988936 1549337.5436639581 0 0 0 0 -20069820.066308975 18345871.252492785 0 18345871.252492785 -6369476.5420589447 0 0 0 0 -34394436.258939743 -15390969.601705074 0 -15390969.601705074 -10201013.603153229 0 0 0 0 -65964224.300834656 -14424463.310186386 0 -14424463.310186386 -7698135.191590786 0 0 0 0 -2844598.8028590688 112536.44812964834 0 112536.44812964834 472633.47954103258 0 0 0 0 -90309468.602455139 -65281225.742344975 0 -65281225.742344975 -1352060.0920877457 0 0 0 0 -63573118.023284912 -18261577.13122654 0 -18261577.13122654 -3415567.5064649582 0 0 0 0 -64989759.692420959 -21237809.004879951 0 -21237809.004879951 739133.69269323349 0 0 0 0 -66456516.705179453 -18266814.984628856 0 -18266814.984628856 -904373.97477340698 0 0 0 0 -58517452.69530201 -21285997.802238822 0 -21285997.802238822 12671525.214536667 0 0 0 0 -63746970.739242554 -40746286.459180713 0 -40746286.459180713 -25076765.684595108 0 0 0 0 -62323674.272792816 -51470541.227193356 0 -51470541.227193356 -15989633.654231071 0 0 0 0 -65624796.599067688 -45674826.72264266 0 -45674826.72264266 -25692769.119573593 0 0 0 0 -3509454.5030321851 476638.31472013984 0 476638.31472013984 2399180.5264838235 0 0 0 0 -88004193.078968048 -47742126.176030636 0 -47742126.176030636 -8872256.1249685287 0 0 0 0 -92251679.115470886 -28710720.382279873 0 -28710720.382279873 -35562873.7234447 0 0 0 0 -88236155.996495247 -128154905.27626036 0 -128154905.27626036 -129581303.59281874 0 0 0 0 -1724008.275622949 447796.74797804002 0 447796.74797804002 1397764.0385002964 0 0 0 0 -55837566.325714111 -76612664.105140448 0 -76612664.105140448 -13179877.055207253 0 0 0 0 -18108435.15851593 -26588022.252593994 0 -26588022.252593994 -193960153.85176387 0 0 0 0 -16970945.525028229 -66872025.440801144 0 -66872025.440801144 -91329408.073934555 0 0 0 0 29643929.524551392 -12794088.22028327 0 -12794088.22028327 -100398471.30096245 0 0 0 0 16602959.62020874 -59086451.835076809 0 -59086451.835076809 -55009076.65718174 0 0 0 0 -4928819.7601184845 -21824348.275806427 0 -21824348.275806427 -112233320.84932613 0 0 0 0 -26782378.200878143 -100350886.77747655 0 -100350886.77747655 -157474541.56120074 0 0 0 0 -21675001.501895905 -47488380.205173135 0 -47488380.205173135 -64250650.345446944 0 0 0 0 -37927642.2995224 -167329292.73424828 0 -167329292.73424828 -189093471.18802905 0 0 0 0 -37759786.336154208 -193577471.49007887 0 -193577471.49007887 -288769371.81979561 0 0 0 0 -1518628.0326881409 -97149619.295252204 0 -97149619.295252204 -217040191.1709938 0 0 0 0 -31558289.198684692 -114250400.3164444 0 -114250400.3164444 -192979037.01298845 0 0 0 0 -33838166.512752533 -78331912.034766674 0 -78331912.034766674 -286424088.56569958 0 0 0 0 -186294171.91887665 -234634508.06567097 0 -234634508.06567097 -303546066.26237822 0 0 0 0 -73709644.73575592 -113324714.75258207 0 -113324714.75258207 -407101494.81987715 0 0 0 0 -95900502.272304535 -116951939.49563909 0 -116951939.49563909 -257787642.90882492 0 0 0 0 -47611979.422584534 -28465105.352773666 0 -28465105.352773666 -261276718.01069632 0 0 0 0 -44696096.818511963 -76836724.760434389 0 -76836724.760434389 -356462141.72687817 0 0 0 0 -141713008.64606476 -140440377.99392557 0 -140440377.99392557 -318050055.51569462 0 0 0 0 -89538896.243862152 -71312928.290730476 0 -71312928.290730476 -218948431.98474121 0 0 0 0 -94172030.260498047 9103880.738658905 0 9103880.738658905 -155113036.72252941 0 0 0 0 -49393658.390010834 -65655769.465075493 0 -65655769.465075493 -156120419.08619881 0 0 0 0 4720075.4837036133 58514940.711831093 0 58514940.711831093 -369503035.27884388 0 0 0 0 -89532399.06022644 65032753.31241703 0 65032753.31241703 -102549419.32743359 0 0 0 0 -49832672.976333618 -5063324.1367721558 0 -5063324.1367721558 -265682716.57265568 0 0 0 0 -70894651.522712708 -47467275.547587395 0 -47467275.547587395 -281079888.2277689 0 0 0 0 -65156629.044067383 -195794095.57933617 0 -195794095.57933617 -505778029.77592421 0 0 0 0 6387246.049041748 -172593.29253149033 0 -172593.29253149033 -443395750.83157635 0 0 0 0 165854904.74620056 7545250.4381837845 0 7545250.4381837845 -637524012.35461044 0 0 0 0 -28359465.417354584 -54709471.609221935 0 -54709471.609221935 -427916839.61445427 0 0 0 0 51380283.502151489 -276676280.78116679 0 -276676280.78116679 -915298060.20537186 0 0 0 0 -20656314.052215576 -547604591.97068787 0 -547604591.97068787 -624262915.79312468 0 0 0 0 -134205675.12292862 -460960715.87152493 0 -460960715.87152493 -580241044.09586287 0 0 0 0 -616047709.71664906 -566464173.04192281 0 -566464173.04192281 -374883123.3843112 0 0 0 0 -325036174.72651672 -299776433.42102265 0 -299776433.42102265 -393494875.04532981 0 0 0 0 -46043939.59903717 -176760096.84145522 0 -176760096.84145522 -488904613.3317709 0 0 0 0 -164238063.6747818 -266746336.74710703 0 -266746336.74710703 -457676895.70023656 0 0 0 0 -172606382.57529831 -452139584.37217236 0 -452139584.37217236 -310754468.10730839 0 0 0 0 -809639521.03274536 -570857770.09875107 0 -570857770.09875107 -141390302.72689819 0 0 0 0 -509215088.77655029 -225345377.39874864 0 -225345377.39874864 -574722768.36137009 0 0 0 0 -586168215.44624329 -390383903.3453722 0 -390383903.3453722 -684802405.12142992 0 0 0 0 -1306790462.3277893 -21310315.375865459 0 -21310315.375865459 -293338367.33423877 0 0 0 0 -237401953.16564941 -960018115.33159256 0 -960018115.33159256 -1375983398.8050365 0 0 0 0 -565985385.91508484 -250277117.16841602 0 -250277117.16841602 -286956197.37172675 0 0 0 0 -456679592.48814392 -108920781.79766595 0 -108920781.79766595 -126980398.0382092 0 0 0 0 -459282461.99062347 -198044245.96362692 0 -198044245.96362692 -143091766.76208544 0 0 0 0 -541568419.65063477 -131203170.13069153 0 -131203170.13069153 -156406711.75063789 0 0 0 0 -586013529.5333252 -273842585.84782195 0 -273842585.84782195 -188293474.87309122 0 0 0 0 -653757877.14141846 -414403137.54999256 0 -414403137.54999256 -536105602.85513878 0 0 0 0 -593836777.38238525 -326826201.58077145 0 -326826201.58077145 -535819070.46282291 0 0 0 0 -568403426.83107376 -151924230.33804536 0 -151924230.33804536 -277257214.91281414 0 0 0 0 -559413196.641922 -281789318.64583421 0 -281789318.64583421 -617740601.04606867 0 0 0 0 -561276981.81879616 -175582659.30954036 0 -175582659.30954036 -410849472.10789585 0 0 0 0 -604926379.70271683 -306618380.39579135 0 -306618380.39579135 -378186549.56178427 0 0 0 0 -528722862.26668549 -149621627.13628995 0 -149621627.13628995 -257070675.3306365 0 0 0 0 -764805937.91375732 -720567882.9735688 0 -720567882.9735688 -374888602.55202842 0 0 0 0 -584127276.625 -298274852.32511163 0 -298274852.32511163 -398281523.83747292 0 0 0 0 -1002245604.5104218 -540637683.24642956 0 -540637683.24642956 -486291579.186867 0 0 0 0 -534946069.16100311 -455391090.1721828 0 -455391090.1721828 -946404291.4361701 0 0 0 0 -775778903.5632019 -842001428.19105959 0 -842001428.19105959 -667278146.87502432 0 0 0 0 -559043.71384167671 646921.91980125383 0 646921.91980125383 -1494561.6865490435 0 0 0 0 -808457928.34568024 -992457125.51048338 0 -992457125.51048338 -1096858710.9960442 0 0 0 0 314607949.07780457 225515382.53910112 0 225515382.53910112 -510920451.53565025 0 0 0 0 226490697.79928589 -96997353.065895081 0 -96997353.065895081 -1277279029.3838654 0 0 0 0 -600687804.9657135 -160917686.63146424 0 -160917686.63146424 -1433411254.4203262 0 0 0 0 -6490668.8145675659 116375619.83854008 0 116375619.83854008 33488236.832965851 0 0 0 0 -998144.28050643206 895473.22494666837 0 895473.22494666837 -4313884.4134466322 0 0 0 0 11079024.443153381 -116000605.97382975 0 -116000605.97382975 52729398.343507767 0 0 0 0 161844426.14445496 -41371687.546057701 0 -41371687.546057701 -856922.03915214539 0 0 0 0 -62249396.859832764 -208300011.50631547 0 -208300011.50631547 -713735904.76272154 0 0 0 0 -1040941199.9338312 -695311168.53471208 0 -695311168.53471208 -340063148.92902195 0 0 0 0 -302844.22243645042 -753128.43899754807 0 -753128.43899754807 -1620452.4461329158 0 0 0 0 -1271546659.6875753 -6921925.315764999 0 -6921925.315764999 42942510.570848942 0 0 0 0 -445498941.3558197 68053573.981569856 0 68053573.981569856 -76155486.965709418 0 0 0 0 21699248.81920433 -59438339.209897995 0 -59438339.209897995 23435811.069030762 0 0 0 0 -470814.69742574915 -3504101.2086974178 0 -3504101.2086974178 -6836507.3249589493 0 0 0 0 -25096427.264175415 -4488052.826921463 0 -4488052.826921463 24748243.252436638 0 0 0 0 11083876.545627594 -75483772.717065334 0 -75483772.717065334 15560706.799303055 0 0 0 0 -38364267.331520081 -14520939.999920845 0 -14520939.999920845 46286401.012075305 0 0 0 0 -16611416.729911804 768728.56061983109 0 768728.56061983109 23729047.243183136 0 0 0 0 -63083855.092384338 2788111.2508859634 0 2788111.2508859634 24631351.158266306 0 0 0 0 -42550517.821352005 -30508017.071372509 0 -30508017.071372509 -6351078.2365779877 0 0 0 0 -45375941.938468933 23836359.564815521 0 23836359.564815521 -117218432.6196332 0 0 0 0 -61074500.206030846 -36949088.66538775 0 -36949088.66538775 -125102942.34271431 0 0 0 0 -85972155.576454163 22287565.911046028 0 22287565.911046028 -33606814.120716095 0 0 0 0 -56090323.55014801 -49929210.018543243 0 -49929210.018543243 -82635959.26783514 0 0 0 0 -44610968.319065094 -6027156.5855317116 0 -6027156.5855317116 8526804.5548419952 0 0 0 0 -1062585997.416765 714471260.1450634 0 714471260.1450634 329112924.28337383 0 0 0 0 -565405361.42579269 705595180.14071393 0 705595180.14071393 -118512608.24988869 0 0 0 0 -2199167100.995636 1101874902.043381 0 1101874902.043381 312374630.89649183 0 0 0 0 -1040399264.8411942 607042341.72552133 0 607042341.72552133 521345598.48640925 0 0 0 0 -1365760045.5229759 644666541.15198731 0 644666541.15198731 602418152.57496142 0 0 0 0 -1120385954.3261375 380171165.51294065 0 380171165.51294065 887375635.02478468 0 0 0 0 -2205747245.2416048 -370562368.89984244 0 -370562368.89984244 1270211546.6002526 0 0 0 0 -735325181.07292557 486394602.44231701 0 486394602.44231701 359479100.66815603 0 0 0 0 -737071602.81596947 469059379.37178135 0 469059379.37178135 414877599.11509848 0 0 0 0 -528540860.42358589 429821968.7554062 0 429821968.7554062 130563709.41782944 0 0 0 0 -730765440.64027405 450644676.21771169 0 450644676.21771169 211378519.24516511 0 0 0 0 -505496174.66661119 223967926.38695794 0 223967926.38695794 149133739.78218222 0 0 0 0 -258417428.4291954 417857408.96028948 0 417857408.96028948 -62171463.961795449 0 0 0 0 -539746249.56554031 528724821.09437853 0 528724821.09437853 -858666.29987280816 0 0 0 0 -81550740.911563873 197992856.89456189 0 197992856.89456189 -289330664.81593859 0 0 0 0 -418469484.65125084 591199998.42700601 0 591199998.42700601 -207929209.68145394 0 0 0 0 -123290218.12389755 98040582.121942043 0 98040582.121942043 97004995.243571252 0 0 0 0 -420320581.3098278 312459321.97358465 0 312459321.97358465 72570612.54892838 0 0 0 0 -129132187.58696365 44056676.840491176 0 44056676.840491176 76972693.83274439 0 0 0 0 -110134163.37459183 32283606.908858657 0 32283606.908858657 311170702.01851702 0 0 0 0 -111384926.35332489 183170363.73516822 0 183170363.73516822 267539635.65916991 0 0 0 0 -40404858.233081818 133655631.80158424 0 133655631.80158424 190299545.04606861 0 0 0 0 -280624123.34579849 229143737.10944819 0 229143737.10944819 195884913.57725954 0 0 0 0 -133094252.43589783 84140409.925215602 0 84140409.925215602 207860625.26295471 0 0 0 0 -255712470.56618881 200458168.50166726 0 200458168.50166726 389135907.18092704 0 0 0 0 -415962480.32348061 631439632.03979146 0 631439632.03979146 -97829793.741108179 0 0 0 0 -916448718.24899673 1455388650.9603615 0 1455388650.9603615 -673994885.78631604 0 0 0 0 -2202859659.345643 -1197194837.5875611 0 -1197194837.5875611 -468726418.97782826 0 0 0 0 366154024.11544991 676653185.33949947 0 676653185.33949947 -998404435.91500342 0 0 0 0 -2091940.6944619911 1205985.4763286826 0 1205985.4763286826 -1271924.1964661132 0 0 0 0 -1140251928.1550469 -512070784.47022843 0 -512070784.47022843 -35291423.586108327 0 0 0 0 122172361.55753326 313902092.05538058 0 313902092.05538058 350565718.16048336 0 0 0 0 -4973487.8200420383 3768838.9851441067 0 3768838.9851441067 -2177052.4637169368 0 0 0 0 -1144450833.8585706 -307704822.52044165 0 -307704822.52044165 -5266978.0908110142 0 0 0 0 -367805656.04141188 -265001328.59678876 0 -265001328.59678876 -94540820.267851308 0 0 0 0 -2204894857.2688541 -468515319.99805456 0 -468515319.99805456 344252351.01848596 0 0 0 0 -1531029693.4991517 -128489839.33940729 0 -128489839.33940729 309074100.18053752 0 0 0 0 -1537279014.3917227 -91271902.78418833 0 -91271902.78418833 146017604.80945456 0 0 0 0 -388934696.37114477 226953783.54841352 0 226953783.54841352 13182688.729833961 0 0 0 0 -1767930597.4045155 561572992.13414228 0 561572992.13414228 -47949187.135196567 0 0 0 0 -1379500.0791764604 1071281.7052232488 0 1071281.7052232488 858887.12034103414 0 0 0 0 -224198453.30144024 -60425503.077626228 0 -60425503.077626228 196383464.45241207 0 0 0 0 -1794089510.9133532 942205404.00446427 0 942205404.00446427 340487849.02229035 0 0 0 0 -1900699267.2233963 -120661467.85350353 0 -120661467.85350353 310884662.7207877 0 0 0 0 -2204731536.1153293 -205432178.67901012 0 -205432178.67901012 154743487.15032163 0 0 0 0 -2969676152.659122 272849523.12424195 0 272849523.12424195 564970517.23988831 0 0 0 0 -11820491.862811089 4500277.6227636337 0 4500277.6227636337 46746418.268674508 0 0 0 0 -21434131.097456932 33571609.317728281 0 33571609.317728281 1425819.9423351288 0 0 0 0 48232063.875152826 12687489.984516382 0 12687489.984516382 -27018224.270780802 0 0 0 0 54269254.386886597 19666741.304034233 0 19666741.304034233 -172111230.97153044 0 0 0 0 3212000.5187664032 30236139.617419004 0 30236139.617419004 -33771986.50636363 0 0 0 0 -225140390.48356962 -142260417.04327688 0 -142260417.04327688 -6020474.9175439477 0 0 0 0 -3487351.9015500634 3533860.4868824091 0 3533860.4868824091 2444884.318886409 0 0 0 0 -4108522.1948168278 -6503175.8709878623 0 -6503175.8709878623 -53908667.847826481 0 0 0 0 -27460702.034790993 -3208039.4624071121 0 -3208039.4624071121 7550038.7091555595 0 0 0 0 -1554861.6422924595 -40529.46366562543 0 -40529.46366562543 1369477.3643266137 0 0 0 0 -9023439.7242555618 16453807.5154493 0 16453807.5154493 77468580.2628479 0 0 0 0 -9723863.607549632 2446719.6282610307 0 2446719.6282610307 4302217.379629584 0 0 0 0 -4853805.1416015625 -120769040.3293004 0 -120769040.3293004 247189470.40733814 0 0 0 0 -216037897.73162317 144653171.04807839 0 144653171.04807839 -47776277.870675668 0 0 0 0 -8564644.8151943088 26185196.390044495 0 26185196.390044495 216079961.77359962 0 0 0 0 -7110640.0182449017 5552804.7507870179 0 5552804.7507870179 -1532198.8502771319 0 0 0 0 -87540231.880218506 64027208.500762463 0 64027208.500762463 220813990.48377395 0 0 0 0 -108870638.94161797 -14325121.884218454 0 -14325121.884218454 315424587.08250332 0 0 0 0 -92304902.88205719 14000961.03915453 0 14000961.03915453 340557492.26155567 0 0 0 0 -167989089.29789352 82351310.871538401 0 82351310.871538401 331905240.8598547 0 0 0 0 -67407022.27432251 106256019.65087295 0 106256019.65087295 429380954.28400916 0 0 0 0 -100633350.86427307 -63115246.05567646 0 -63115246.05567646 398515489.60815442 0 0 0 0 158316443.55653381 59369335.229500532 0 59369335.229500532 460676445.7542429 0 0 0 0 186455727.68465805 -317828275.09428573 0 -317828275.09428573 226376281.47256565 0 0 0 0 -1360729.970507266 179453.82702174317 0 179453.82702174317 1198266.2948313789 0 0 0 0 -94286579.797950745 -23711038.555901527 0 -23711038.555901527 620683258.40102625 0 0 0 0 561039579.29395294 162306038.64478099 0 162306038.64478099 1666239.2585978508 0 0 0 0 178321708.28527069 -188737630.32711923 0 -188737630.32711923 519061609.11140621 0 0 0 0 67142615.331535339 36758201.122771978 0 36758201.122771978 906193449.14602184 0 0 0 0 -1257553.0904836245 1197628.0902057132 0 1197628.0902057132 859843.67931975925 0 0 0 0 -3983763.300491333 -73799669.603299975 0 -73799669.603299975 887312049.83918667 0 0 0 0 162451039.9478302 259926083.0286423 0 259926083.0286423 643910732.79154825 0 0 0 0 252650219.09714508 87129135.18132329 0 87129135.18132329 44777510.618915319 0 0 0 0 -3422973.4442462921 13204114.171645761 0 13204114.171645761 -2410642.4693279266 0 0 0 0 -3230763.3122373233 5571338.9023529887 0 5571338.9023529887 -3863055.365022087 0 0 0 0 -5741260.5361099243 -27107541.250683784 0 -27107541.250683784 160887963.70243645 0 0 0 0 -8587642.5676490441 2270721.8545245556 0 2270721.8545245556 3939874.9910996263 0 0 0 0 -4615712.2913739681 7514336.6594459414 0 7514336.6594459414 2512529.3716058731 0 0 0 0 -10030474.461299896 10878611.425348282 0 10878611.425348282 1410412.7206399441 0 0 0 0 14458.425025939941 14476826.75859201 0 14476826.75859201 -29153898.505452871 0 0 0 0 -20337647.4554286 21390341.269293129 0 21390341.269293129 -8743934.6112623215 0 0 0 0 4566593.2046451569 3862375.2426947355 0 3862375.2426947355 -3881922.5050532818 0 0 0 0 6437686.9095134735 3573041.6560149193 0 3573041.6560149193 -10989578.05699122 0 0 0 0 -6458594.6155052185 16056069.077996373 0 16056069.077996373 -4185841.7563638687 0 0 0 0 1649514.3275651932 -1892348.9147062898 0 -1892348.9147062898 -3603843.8507552147 0 0 0 0 -7747405.9295427799 -21321019.775671765 0 -21321019.775671765 -11729274.031707525 0 0 0 0 -7475356.8667888641 -1324189.3720247746 0 -1324189.3720247746 28949770.843375094 0 0 0 0 358981054.46412659 244942772.34553593 0 244942772.34553593 -17224506.293998659 0 0 0 0 -303041795.05135727 -10648387.515795082 0 -10648387.515795082 111721917.37132278 0 0 0 0 -4534682.4117466435 2471973.9168721694 0 2471973.9168721694 475637.49624071061 0 0 0 0 -2134572.3467674255 676849.68295395374 0 676849.68295395374 9623819.9393754005 0 0 0 0 -3252953.2047429178 3842546.4867380951 0 3842546.4867380951 -2550096.9561987389 0 0 0 0 344564796.31587219 251607888.73779559 0 251607888.73779559 52951378.903672218 0 0 0 0 284082511.75247908 68716242.345184848 0 68716242.345184848 -49825924.814671755 0 0 0 0 -314784950.2519207 194192673.06110966 0 194192673.06110966 107486798.96849704 0 0 0 0 27601905.968318939 -43526165.408776402 0 -43526165.408776402 46299894.26428616 0 0 0 0 280670255.14981842 128512693.15678692 0 128512693.15678692 55868560.081543937 0 0 0 0 102930209.03908062 220362715.10798621 0 220362715.10798621 141857531.97664118 0 0 0 0 -82410250.651800156 60008476.029554784 0 60008476.029554784 452681222.57205296 0 0 0 0 69251158.453258514 38250512.014547825 0 38250512.014547825 117092753.98405725 0 0 0 0 -124893568.16319752 -91787063.347610369 0 -91787063.347610369 102220238.57976747 0 0 0 0 -400473769.00257111 41678756.68354857 0 41678756.68354857 209948176.56632704 0 0 0 0 -331640819.02091599 -208964168.96077508 0 -208964168.96077508 196801732.70757651 0 0 0 0 -226756619.15698433 -258302445.50370076 0 -258302445.50370076 -51140021.23160664 0 0 0 0 -118920574.28202152 -45602730.212294295 0 -45602730.212294295 246448007.04040161 0 0 0 0 -74828.415697064251 305324.9516146495 0 305324.9516146495 -73923.125255605468 0 0 0 0 -26823526.062093735 -164803192.84325802 0 -164803192.84325802 252033302.49879336 0 0 0 0 92692066.197639465 -22856504.150833607 0 -22856504.150833607 197877572.87886906 0 0 0 0 518249624.78447723 173882233.21395957 0 173882233.21395957 397443432.33413744 0 0 0 0 132848274.89267349 -75169959.451941252 0 -75169959.451941252 276476494.81043744 0 0 0 0 -11318159.956569672 12955337.444786787 0 12955337.444786787 170580699.7791425 0 0 0 0 -50718508.577331066 11849852.863002881 0 11849852.863002881 462871730.1780324 0 0 0 0 207105898.47953033 185983087.56961799 0 185983087.56961799 302943780.85601282 0 0 0 0 48658001.936969757 128825839.6430629 0 128825839.6430629 96934472.840324759 0 0 0 0 130785164.62381363 50205380.48158586 0 50205380.48158586 128755476.69988477 0 0 0 0 -211123.33732611127 721487.52864662488 0 721487.52864662488 -173400.93907811758 0 0 0 0 110894339.21737289 -49576601.325964652 0 -49576601.325964652 12647271.997366272 0 0 0 0 -129055672.77826118 -1289765.508842051 0 -1289765.508842051 247536067.95071846 0 0 0 0 -265527506.01885986 338020614.34004545 0 338020614.34004545 108401082.62785916 0 0 0 0 -80587.526018930599 563062.70607358101 0 563062.70607358101 -149468.36900293926 0 0 0 0 -96648804.561716557 -110661266.08366518 0 -110661266.08366518 26189910.935724497 0 0 0 0 -202567511.67042542 -164204150.65160346 0 -164204150.65160346 27254370.282125056 0 0 0 0 -229641682.10690975 -156933066.77944243 0 -156933066.77944243 58229520.990163803 0 0 0 0 -232666637.02604675 -170210684.95195144 0 -170210684.95195144 26055719.182976872 0 0 0 0 -361071750.79930878 -187713804.10594407 0 -187713804.10594407 51972086.19771307 0 0 0 0 -76666912.92924881 -187314264.22673151 0 -187314264.22673151 -30496253.340711474 0 0 0 0 -300946011.62887573 -90134930.908710659 0 -90134930.908710659 66979232.580797598 0 0 0 0 -293535186.47724342 -99657751.638362437 0 -99657751.638362437 78263067.014048174 0 0 0 0 -231917565.03791809 -138729539.23463047 0 -138729539.23463047 36082135.37252152 0 0 0 0 -221438519.33332825 -54454765.199795127 0 -54454765.199795127 82976964.864686012 0 0 0 0 -9403613.205953598 62418717.888235092 0 62418717.888235092 45697007.447703719 0 0 0 0 -253376431.47104836 105296747.58450389 0 105296747.58450389 44722955.486545682 0 0 0 0 -286929746.94490051 91847112.609257251 0 91847112.609257251 39535893.808354616 0 0 0 0 -219986342.71632004 83404675.979026631 0 83404675.979026631 16886822.285252512 0 0 0 0 -511501108.3222084 175641345.40818542 0 175641345.40818542 -38156855.338482469 0 0 0 0 -257724919.67785072 65665063.689884961 0 65665063.689884961 9144940.0589236319 0 0 0 0 -434624600.42705083 443485727.33214796 0 443485727.33214796 -170668281.98542225 0 0 0 0 -466665753.23632741 225420616.01639596 0 225420616.01639596 -1337847.9142235518 0 0 0 0 -610268280.71115494 309349579.30712426 0 309349579.30712426 -49976804.276447892 0 0 0 0 -699025194.06881332 68375690.685806274 0 68375690.685806274 112636223.10934085 0 0 0 0 -377028356.76359272 -8608784.0747694969 0 -8608784.0747694969 53046856.561680794 0 0 0 0 -466241334.09583664 -66379559.891712844 0 -66379559.891712844 95289454.950284407 0 0 0 0 -523302996.24073982 -119629173.1010381 0 -119629173.1010381 49549585.019596577 0 0 0 0 -694942896.60669136 147685096.85454172 0 147685096.85454172 20301095.438996792 0 0 0 0 -774544258.74189854 343383990.06716555 0 343383990.06716555 -443780242.01903057 0 0 0 0 -905327162.1611824 55191591.66156137 0 55191591.66156137 4789676.3266539574 0 0 0 0 -796932355.17990875 231265150.21776545 0 231265150.21776545 31548816.139109667 0 0 0 0 -539690281.72548294 336337731.24361908 0 336337731.24361908 -94315925.20135586 0 0 0 0 -445936675.28480911 -18662333.336457074 0 -18662333.336457074 11861535.678959489 0 0 0 0 -1067865488.7505875 341583017.4947741 0 341583017.4947741 -236835318.16935384 0 0 0 0 -1227269548.4111519 961851558.98742485 0 961851558.98742485 -525396758.3214426 0 0 0 0 -1345582759.2093849 895162365.370345 0 895162365.370345 -280247921.62052512 0 0 0 0 -1028024616.8637142 922702085.22549915 0 922702085.22549915 -303376696.85710031 0 0 0 0 -1103329382.3399401 263175578.15981144 0 263175578.15981144 208052487.38936591 0 0 0 0 -2147659662.3950806 718511735.97390819 0 718511735.97390819 133345273.07820794 0 0 0 0 -2198144.373330988 1406113.8500563689 0 1406113.8500563689 481374.95233210782 0 0 0 0 -95228517.314968109 -27759859.578348637 0 -27759859.578348637 49325266.773364067 0 0 0 0 -11206744.085613251 28176475.392319441 0 28176475.392319441 24926695.246908188 0 0 0 0 -114002.22656871751 155029.84689955227 0 155029.84689955227 -57863.456188252952 0 0 0 0 -1076130120.200073 492510538.68726146 0 492510538.68726146 114620266.09620571 0 0 0 0 -1672899412.8666077 932001902.98008227 0 932001902.98008227 -98047548.492664933 0 0 0 0 -1432026541.1056747 532457479.86924934 0 532457479.86924934 -430617058.9288801 0 0 0 0 -2383078408.0820341 961335200.96220303 0 961335200.96220303 -125832745.17110014 0 0 0 0 60263.822208829195 74186.007311969995 0 74186.007311969995 -1562296.5512567868 0 0 0 0 -1278292813.71315 975772286.49006319 0 975772286.49006319 -1442366611.3640692 0 0 0 0 -22809196.058906257 -98885725.298393965 0 -98885725.298393965 -460915978.86006212 0 0 0 0 -70665036.88728714 578772112.86860085 0 578772112.86860085 -764069330.65852404 0 0 0 0 -868105785.94831657 765975790.59884071 0 765975790.59884071 -331250013.18212748 0 0 0 0 -1208549303.3806152 266769630.90406978 0 266769630.90406978 -220064909.10202909 0 0 0 0 -945197080.82706833 444127360.61991268 0 444127360.61991268 -103045343.65746331 0 0 0 0 -688546486.82951307 311471973.07514071 0 311471973.07514071 -34598570.483614206 0 0 0 0 -651814313.70872998 586386230.93606055 0 586386230.93606055 -180810921.50928307 0 0 0 0 -315669878.82699966 428598208.35354781 0 428598208.35354781 -194961059.68470192 0 0 0 0 -308964476.34012222 476736688.02773881 0 476736688.02773881 -243723674.34646696 0 0 0 0 -430624291.58817673 201130378.87226772 0 201130378.87226772 -177106853.8527579 0 0 0 0 -117449005.48019695 459604001.13657415 0 459604001.13657415 -226252786.92685413 0 0 0 0 42753670.018696785 160046928.73125309 0 160046928.73125309 -209734412.84568548 0 0 0 0 -298135861.37041092 581966597.5422411 0 581966597.5422411 -283245958.22384202 0 0 0 0 -150604559.62086868 170602341.71428704 0 170602341.71428704 -57062272.796430349 0 0 0 0 -2564504.7464619614 996765.01736631524 0 996765.01736631524 911298.49757892021 0 0 0 0 -271227893.48840332 161097780.7115221 0 161097780.7115221 -57085503.287962675 0 0 0 0 -256584147.65411091 184463523.72734839 0 184463523.72734839 -60356590.376700878 0 0 0 0 -201795488.78454781 98762894.649806023 0 98762894.649806023 -9435075.1153326035 0 0 0 0 -27537395.64053154 43700855.934936166 0 43700855.934936166 -26997959.410559177 0 0 0 0 -398706730.20102692 135730038.12764597 0 135730038.12764597 91577610.73256588 0 0 0 0 -365148028.07227325 226627017.24275839 0 226627017.24275839 14321142.73013556 0 0 0 0 -73382759.767169952 -4599715.4532584548 0 -4599715.4532584548 29696609.14876318 0 0 0 0 -643535000.35886002 186836337.71226299 0 186836337.71226299 112689344.93731022 0 0 0 0 155453407.33103228 18370966.19508639 0 18370966.19508639 41970521.86143899 0 0 0 0 347989.02551419288 -50662.441427420825 0 -50662.441427420825 -890183.81836371706 0 0 0 0 -372098713.32382202 107428475.86653566 0 107428475.86653566 -35710909.72513485 0 0 0 0 -1208867.2883887179 421799.41105658095 0 421799.41105658095 496685.09816159564 0 0 0 0 -470223015.25933075 541674888.47727251 0 541674888.47727251 -418357909.88396382 0 0 0 0 -647655276.92455292 -49446953.0774827 0 -49446953.0774827 877590956.37683105 0 0 0 0 -827461936.63559341 486173785.51975572 0 486173785.51975572 -192204547.36489892 0 0 0 0 -782051482.88865662 55125046.927861452 0 55125046.927861452 798679878.20748186 0 0 0 0 -558905795.78286743 640951305.71917391 0 640951305.71917391 -637123177.90040565 0 0 0 0 -937153157.55989075 -216197651.09158754 0 -216197651.09158754 814345122.07395732 0 0 0 0 568279569.38803101 -70310059.598611832 0 -70310059.598611832 58049500.587112069 0 0 0 0 -1089647.8223620951 710947.50825134409 0 710947.50825134409 371989.93408099649 0 0 0 0 -305251734.80750275 268549349.30000699 0 268549349.30000699 -130057715.71687281 0 0 0 0 -679427196.70973206 478213309.46101511 0 478213309.46101511 -239765336.1220243 0 0 0 0 -174342636.30635548 295289843.53561592 0 295289843.53561592 -383341475.41012263 0 0 0 0 -547023808.32839966 359366957.85155785 0 359366957.85155785 -137624712.14113754 0 0 0 0 -646953461.24014378 360382782.6983906 0 360382782.6983906 -155177547.93791151 0 0 0 0 -492009648.19195175 442559610.40597069 0 442559610.40597069 -121932327.16713658 0 0 0 0 -413065047.97973251 404307033.87420911 0 404307033.87420911 -211851467.10224095 0 0 0 0 -392230353.23961639 455962961.85336018 0 455962961.85336018 -238594111.36610985 0 0 0 0 -386407701.54026031 484138848.54569936 0 484138848.54569936 -145475135.84268427 0 0 0 0 -102607489.17692947 338626573.11642283 0 338626573.11642283 -214410533.82729277 0 0 0 0 -411247272.26490402 417217347.06907254 0 417217347.06907254 -148225025.35359418 0 0 0 0 -741501504.89704514 423046964.94595498 0 423046964.94595498 -91985484.077284753 0 0 0 0 -371259066.19886208 561444032.97850084 0 561444032.97850084 -172744345.83144534 0 0 0 0 526744329.74824905 384086570.22616935 0 384086570.22616935 -151736842.60796922 0 0 0 0 -581936.16727576964 723346.45629483648 0 723346.45629483648 -920229.70206374372 0 0 0 0 -864120332.39758682 617780402.87992036 0 617780402.87992036 -347109804.31041473 0 0 0 0 -612625128.6744442 350676190.65745175 0 350676190.65745175 -208813781.44752353 0 0 0 0 -534572502.885746 337845407.9998579 0 337845407.9998579 -204716585.13745695 0 0 0 0 -519516670.78926849 344639943.65275216 0 344639943.65275216 -398300461.71600312 0 0 0 0 -653479332.67333221 265611805.70977235 0 265611805.70977235 -211337814.90935212 0 0 0 0 -594179748.93846893 66428502.728659809 0 66428502.728659809 -56423714.317636967 0 0 0 0 -502691682.89375305 422139445.49620229 0 422139445.49620229 -194393329.69966674 0 0 0 0 -498090677.3711071 391959938.40012711 0 391959938.40012711 -238991810.39113325 0 0 0 0 -1444007966.4880295 -37203527.30998528 0 -37203527.30998528 -67184461.611536741 0 0 0 0 -106949010.03334808 169263818.3748883 0 169263818.3748883 248855015.15037632 0 0 0 0 343869278.50713158 298380288.84603608 0 298380288.84603608 152407857.39671326 0 0 0 0 -1786609.9832210355 2093030.7924221596 0 2093030.7924221596 -1771140.7212475676 0 0 0 0 -472316022.78922462 -159810468.84118783 0 -159810468.84118783 -127541777.85935259 0 0 0 0 -407818253.30808258 -37599274.850844085 0 -37599274.850844085 -67371454.657446638 0 0 0 0 -260977231.47864437 -124928685.47560614 0 -124928685.47560614 -149897450.0683744 0 0 0 0 -307899022.58549786 34553777.802239209 0 34553777.802239209 110192588.38075423 0 0 0 0 -189461281.21361542 51985722.531031013 0 51985722.531031013 15403465.074578047 0 0 0 0 -307384572.91021347 -10876094.915834382 0 -10876094.915834382 241613520.52581304 0 0 0 0 -275661799.22889137 -47283513.694751799 0 -47283513.694751799 385142908.77909589 0 0 0 0 -192230733.14149666 -188772888.82646182 0 -188772888.82646182 433611002.19679344 0 0 0 0 -235017796.44259834 60348683.062542051 0 60348683.062542051 118999375.52419758 0 0 0 0 -293986559.22759247 -69811277.894808531 0 -69811277.894808531 193004118.79691619 0 0 0 0 -199081853.03417969 -26948884.621727169 0 -26948884.621727169 209662465.99591464 0 0 0 0 -259317345.88737488 3835483.3737667799 0 3835483.3737667799 345409181.08741844 0 0 0 0 -183510153.2223587 72017491.793638349 0 72017491.793638349 277471413.31880951 0 0 0 0 -172252242.18425751 -27149180.996761858 0 -27149180.996761858 201817114.09090805 0 0 0 0 11401265.749519348 130184951.81672049 0 130184951.81672049 90715671.168541431 0 0 0 0 -321133253.97557068 104567670.90168828 0 104567670.90168828 94873721.578356147 0 0 0 0 -184067817.52885818 82700697.030140489 0 82700697.030140489 -62450637.317222834 0 0 0 0 -194549993.24272156 353201677.97005844 0 353201677.97005844 -75195275.02380228 0 0 0 0 -427014897.35195398 310610321.09676039 0 310610321.09676039 -64702714.429945111 0 0 0 0 -312880210.20654655 210583969.83640823 0 210583969.83640823 176087960.04252458 0 0 0 0 -95115095.831218719 399778902.17322755 0 399778902.17322755 334767866.03935826 0 0 0 0 117486789.32383728 39338143.881904602 0 39338143.881904602 163017273.093104 0 0 0 0 37017154.432487488 143772953.39148164 0 143772953.39148164 476764437.65801144 0 0 0 0 -1090579.2701604608 -165983.76263751276 0 -165983.76263751276 723297.23222081095 0 0 0 0 240093148.56408691 191462311.15570891 0 191462311.15570891 47232200.52955389 0 0 0 0 -849332.96742447466 268598.9673792161 0 268598.9673792161 796105.10809735279 0 0 0 0 -39789442.665596008 227459845.72847664 0 227459845.72847664 549043253.63353527 0 0 0 0 -33919779.543636322 -70155096.113323927 0 -70155096.113323927 412592374.97197604 0 0 0 0 -124533466.57510376 61101646.842751473 0 61101646.842751473 225384251.83839273 0 0 0 0 9251561.4516167641 108066060.45412904 0 108066060.45412904 196747237.60805786 0 0 0 0 -8858756.0500717163 34782860.460032016 0 34782860.460032016 35454247.377971768 0 0 0 0 -5975706.842048645 1074165.7189695239 0 1074165.7189695239 152009.24009311199 0 0 0 0 -3203214.6103211753 2411095.8741152976 0 2411095.8741152976 846693.33755282359 0 0 0 0 18366920.956306458 -5988519.2577660084 0 -5988519.2577660084 41876370.78147988 0 0 0 0 -4770017.8648975082 -1202929.1602229364 0 -1202929.1602229364 1854339.9150457478 0 0 0 0 -4676674.7279510498 940683.61085546017 0 940683.61085546017 165452.47254313529 0 0 0 0 -5240311.4898681641 1239603.4280372858 0 1239603.4280372858 1885608.8848848343 0 0 0 0 -7901508.757598877 -14470173.346292526 0 -14470173.346292526 29308150.450193226 0 0 0 0 -3232562.2771969773 2269594.1351660788 0 2269594.1351660788 1049280.8105981695 0 0 0 0 -3793681.4428482056 1958012.8786295652 0 1958012.8786295652 1972005.1166687459 0 0 0 0 -4402951.0076408386 2569869.7534192912 0 2569869.7534192912 4036226.5245287418 0 0 0 0 -5894901.9206085205 1647757.9729712009 0 1647757.9729712009 5610391.3718156815 0 0 0 0 -2551775.1082110107 -240027.79582295753 0 -240027.79582295753 1706848.2612044385 0 0 0 0 -442834660.85224152 13991270.102541685 0 13991270.102541685 -74762811.198695183 0 0 0 0 -373222428.67399979 -81015077.579831302 0 -81015077.579831302 -21367447.776156902 0 0 0 0 -9412092.3787956238 4278941.6118759811 0 4278941.6118759811 -6208017.4016243741 0 0 0 0 -3577464.3114935029 2404345.385042239 0 2404345.385042239 1712654.148847654 0 0 0 0 -4459189.2742984295 1537945.6813323945 0 1537945.6813323945 2763734.6275174618 0 0 0 0 9081906.4736022949 7095424.8967286944 0 7095424.8967286944 -5954435.0332081467 0 0 0 0 -1270682.1234767633 136332.08022578806 0 136332.08022578806 1525314.9109073721 0 0 0 0 -792603745.50359917 97963408.549935639 0 97963408.549935639 287991223.93534517 0 0 0 0 -3636743.1379623413 -6755235.6566738486 0 -6755235.6566738486 53238852.6405164 0 0 0 0 -20106389.586467743 -9131012.5624120086 0 -9131012.5624120086 54311455.816468835 0 0 0 0 -26328392.110782623 -7947400.9249838293 0 -7947400.9249838293 217214907.5454843 0 0 0 0 -143713349.95219421 -23418454.029212475 0 -23418454.029212475 215965030.16309604 0 0 0 0 -100637188.93031311 -114088901.34540418 0 -114088901.34540418 326343828.10125089 0 0 0 0 -122702335.90498924 37405391.324634463 0 37405391.324634463 339128180.33302999 0 0 0 0 -341278.94582024496 202711.98510179669 0 202711.98510179669 663323.642265109 0 0 0 0 228560073.03765106 -301762855.29016626 0 -301762855.29016626 243403241.654755 0 0 0 0 81447127.408126831 -119626498.33262473 0 -119626498.33262473 128181482.04219651 0 0 0 0 -84545953.670135498 -104935043.47574747 0 -104935043.47574747 317022143.80242455 0 0 0 0 -88234531.549979806 -273863898.50314653 0 -273863898.50314653 435357882.7041676 0 0 0 0 -283006952.04980087 113204232.76686209 0 113204232.76686209 178260521.39230251 0 0 0 0 -546401282.78803635 461551724.84039682 0 461551724.84039682 208773874.82690236 0 0 0 0 -161084082.40924072 485974736.37387705 0 485974736.37387705 124680918.61355138 0 0 0 0 -3317940.1646761186 4255711.6478269733 0 4255711.6478269733 -3342956.3643169715 0 0 0 0 18448215.690977097 100552725.67742991 0 100552725.67742991 77221058.034113884 0 0 0 0 -351963640.95194244 140292257.74809515 0 140292257.74809515 -270719839.05947495 0 0 0 0 -352153921.74295044 159814268.63283408 0 159814268.63283408 603759898.55684423 0 0 0 0 -427611003.99938202 48663789.086517334 0 48663789.086517334 186422709.14837456 0 0 0 0 -426548893.51034546 -47760406.391081214 0 -47760406.391081214 -18134554.049081802 0 0 0 0 222769311.310112 -217358741.92525434 0 -217358741.92525434 153327740.36930037 0 0 0 0 750418927.40412998 434626594.12335068 0 434626594.12335068 20421175.662479401 0 0 0 0 629906044.45801973 1119088429.9985554 0 1119088429.9985554 -6970096.6315326691 0 0 0 0 -744371098.04135895 307475748.44689465 0 307475748.44689465 123179947.05876797 0 0 0 0 -315914334.73236847 1141106717.8401489 0 1141106717.8401489 280718290.14417696 0 0 0 0 -414842922.95807266 56521704.116893053 0 56521704.116893053 -13648987.314028263 0 0 0 0 -448679473.34753418 195137170.92100811 0 195137170.92100811 -415900082.78889132 0 0 0 0 -382808483.30586433 -153638506.04587656 0 -153638506.04587656 -191732019.78484058 0 0 0 0 -1474110.6574420407 405582.07635636861 0 405582.07635636861 194645.15820696484 0 0 0 0 -1148747233.9904442 -356669952.61342692 0 -356669952.61342692 427503932.05174685 0 0 0 0 -967776223.30832672 -391988434.49311471 0 -391988434.49311471 396989056.02229452 0 0 0 0 73606686.672702789 -69531024.881595612 0 -69531024.881595612 90914113.986038208 0 0 0 0 -1431016409.1629753 -329788479.55098224 0 -329788479.55098224 460118976.15348792 0 0 0 0 982676584.89241409 -7378526.9796396494 0 -7378526.9796396494 -526280118.35671675 0 0 0 0 -1226077582.4722137 -251748992.09498119 0 -251748992.09498119 310213013.04226017 0 0 0 0 -281885802.15206909 72503052.573314905 0 72503052.573314905 -32049925.71635437 0 0 0 0 -507535423.14162445 -670445968.38488102 0 -670445968.38488102 -937132022.49097776 0 0 0 0 -2541419.3400141448 3976826.5134964185 0 3976826.5134964185 -4552808.3974242955 0 0 0 0 -133725442.3211937 249822914.92591238 0 249822914.92591238 -408826026.54521465 0 0 0 0 -648619744.10363388 353498055.91956663 0 353498055.91956663 -4687507.063896656 0 0 0 0 -290175808.59940332 278461048.53890204 0 278461048.53890204 118292247.16698837 0 0 0 0 -293151730.17850596 171127930.73053756 0 171127930.73053756 88230133.978960991 0 0 0 0 -349536030.93439865 208575668.13247919 0 208575668.13247919 159018758.12379837 0 0 0 0 -336178955.07201004 -68040577.901265144 0 -68040577.901265144 73444152.508795738 0 0 0 0 -210470738.81029892 82214965.58883357 0 82214965.58883357 127261445.22108936 0 0 0 0 -16250196.899801254 35736958.674651146 0 35736958.674651146 85631467.189581871 0 0 0 0 -230677889.84172058 187034374.32867026 0 187034374.32867026 150167275.12492418 0 0 0 0 -220049067.70206642 273588042.95233804 0 273588042.95233804 191098029.08323288 0 0 0 0 -182018831.14411926 176648683.54076505 0 176648683.54076505 119571337.64112473 0 0 0 0 -130626477.36334139 166462910.6258443 0 166462910.6258443 109313919.66738605 0 0 0 0 -119397747.16677856 132371928.68894768 0 132371928.68894768 42615415.851133227 0 0 0 0 -121788194.99741745 52369175.251448154 0 52369175.251448154 72564926.666439652 0 0 0 0 -111775218.46689034 62255571.907497048 0 62255571.907497048 22635453.36948204 0 0 0 0 -109772491.97146225 84884552.233005762 0 84884552.233005762 129529788.50785351 0 0 0 0 -103506524.6918335 93176679.477726698 0 93176679.477726698 131809182.17023659 0 0 0 0 -45511363.885528564 119442149.16234779 0 119442149.16234779 113029453.06349277 0 0 0 0 132519603.36024475 85919995.23747611 0 85919995.23747611 82197741.638633728 0 0 0 0 -27294473.522035599 70633488.24625349 0 70633488.24625349 100290537.61747932 0 0 0 0 -2803118.154386308 3226658.5946983099 0 3226658.5946983099 -2112169.7768232035 0 0 0 0 -82830142.790145874 -426835239.01957005 0 -426835239.01957005 70644867.77712065 0 0 0 0 186885469.28550911 219789466.31755912 0 219789466.31755912 121232287.13558483 0 0 0 0 -40411429.025375366 115897378.80056715 0 115897378.80056715 165713230.21276951 0 0 0 0 -40929351.82616806 83873231.677023649 0 83873231.677023649 84691831.627476215 0 0 0 0 48795724.00202179 92414920.424955487 0 92414920.424955487 100477106.97084475 0 0 0 0 -65881961.577888489 110647636.51668358 0 110647636.51668358 171398841.97388077 0 0 0 0 35354262.224918365 136570523.31932163 0 136570523.31932163 195408793.67979872 0 0 0 0 -168951911.60560608 15433883.951115847 0 15433883.951115847 160104672.47280073 0 0 0 0 -146839298.08812428 -50783750.56725961 0 -50783750.56725961 58122244.478923082 0 0 0 0 -172630721.81177425 -51746083.492670655 0 -51746083.492670655 22487792.189522266 0 0 0 0 -135356556.35186005 9907426.1421062946 0 9907426.1421062946 102674882.23289871 0 0 0 0 -109239470.31118107 12262454.426725507 0 12262454.426725507 77215643.217135429 0 0 0 0 -197706719.46299362 -83197980.461989045 0 -83197980.461989045 -104954298.57040501 0 0 0 0 -169431850.92679214 -106457182.17979741 0 -106457182.17979741 -99395050.367807716 0 0 0 0 -146309442.71799469 -58129012.529756069 0 -58129012.529756069 -15878224.962874174 0 0 0 0 -214263760.32297134 -146754186.43932819 0 -146754186.43932819 15355466.009132147 0 0 0 0 -182974136.50458527 -180698524.84755576 0 -180698524.84755576 -76447281.953794956 0 0 0 0 -445828191.22906113 -131343586.89575052 0 -131343586.89575052 -61997012.159645081 0 0 0 0 -261295338.21613693 -23410322.75458312 0 -23410322.75458312 -8683284.1963415146 0 0 0 0 -398463459.30291796 81468340.789259911 0 81468340.789259911 32404893.93747282 0 0 0 0 -614699825.44614363 -55826188.262263477 0 -55826188.262263477 -144918957.2948966 0 0 0 0 -586916838.91389847 -203487481.15206337 0 -203487481.15206337 -182545152.27146626 0 0 0 0 -823176275.76427841 -118200748.73289919 0 -118200748.73289919 -53698095.013048649 0 0 0 0 -371514572.6771965 -53587100.112326145 0 -53587100.112326145 -97642230.832874298 0 0 0 0 -255231191.1760273 -160170169.00868344 0 -160170169.00868344 -200970969.84361458 0 0 0 0 -270387256.27308655 -136577529.26012075 0 -136577529.26012075 -448660964.43942356 0 0 0 0 -215867489.82829666 -13774612.083545685 0 -13774612.083545685 -235230643.53264552 0 0 0 0 -754723668.10054207 102841430.63680673 0 102841430.63680673 -467195884.29087734 0 0 0 0 -486997969.05571175 -124470852.57858467 0 -124470852.57858467 -482767944.84933758 0 0 0 0 -351323527.89077377 80286904.764256001 0 80286904.764256001 -302330968.30061769 0 0 0 0 -239380843.03039169 -21023155.831072569 0 -21023155.831072569 -225930189.09102154 0 0 0 0 -48812534.839941025 109984235.74746466 0 109984235.74746466 -234639762.40939713 0 0 0 0 -93385913.931175232 104893572.06131601 0 104893572.06131601 -123438600.98207092 0 0 0 0 -173918663.41683197 -58102079.319764256 0 -58102079.319764256 -205746602.31656694 0 0 0 0 -102988408.48908234 28989504.702214479 0 28989504.702214479 -119294286.21443301 0 0 0 0 -126596935.56486893 24613067.455223441 0 24613067.455223441 -71475851.834772587 0 0 0 0 -59678109.589561462 171964939.52190971 0 171964939.52190971 -38231423.787189186 0 0 0 0 -130562846.38595168 177524574.73418027 0 177524574.73418027 5470889.5669231415 0 0 0 0 -66813868.506581306 252170213.83268094 0 252170213.83268094 44533556.652528763 0 0 0 0 -58712598.979766846 283606656.90254211 0 283606656.90254211 77355665.942466974 0 0 0 0 211682592.61259484 101625757.39487103 0 101625757.39487103 27171463.222784996 0 0 0 0 -95653767.324518204 117462941.73952198 0 117462941.73952198 27691440.142564774 0 0 0 0 42118417.527786255 250734481.06411362 0 250734481.06411362 -94538220.801008463 0 0 0 0 165745265.91709518 394305254.17132974 0 394305254.17132974 127813175.32937217 0 0 0 0 -154138817.10900116 216211706.75601149 0 216211706.75601149 128898361.36870289 0 0 0 0 -136295118.54219437 304049996.29274845 0 304049996.29274845 446089198.42514849 0 0 0 0 -9659545.5008392334 60994954.728050709 0 60994954.728050709 -121839915.98281574 0 0 0 0 -25339236.785369873 42766025.503401756 0 42766025.503401756 34117289.895131588 0 0 0 0 -40163386.664001465 -29845391.460120201 0 -29845391.460120201 152825690.05068207 0 0 0 0 -36569150.560274124 -39626964.893977284 0 -39626964.893977284 16711855.703987122 0 0 0 0 -360953.96198938601 -343083.82968600281 0 -343083.82968600281 1003872.260534049 0 0 0 0 -1762281.842168808 12592572.885732889 0 12592572.885732889 7997083.4635038376 0 0 0 0 -3283148.5498476941 1186233.031127573 0 1186233.031127573 660017.78082047822 0 0 0 0 706299.65164852142 13690251.934298396 0 13690251.934298396 -13411485.489438057 0 0 0 0 53689048.480773926 252205221.50181961 0 252205221.50181961 348612767.09263575 0 0 0 0 53606181.344317675 440394175.19193888 0 440394175.19193888 -95447582.611707687 0 0 0 0 -725566.30344578624 23179.547419959679 0 23179.547419959679 328958.75047091069 0 0 0 0 -430942187.28001785 222864211.08845955 0 222864211.08845955 -112308897.51813608 0 0 0 0 -72111539.680397034 -133363086.99524161 0 -133363086.99524161 376081953.39668751 0 0 0 0 208649.34370528534 112256.60575311491 0 112256.60575311491 147535.87555857093 0 0 0 0 -4325000.2058604714 1003143.3567822973 0 1003143.3567822973 1778757.3451996429 0 0 0 0 24841224.02532959 159332389.98699522 0 159332389.98699522 314420658.83671808 0 0 0 0 -1845038.2077324577 -978632.15658603329 0 -978632.15658603329 3648216.581558086 0 0 0 0 -21144597.748020172 2055426.6483373642 0 2055426.6483373642 12443016.60386467 0 0 0 0 258626166.42024803 486289844.83185351 0 486289844.83185351 439210653.90096569 0 0 0 0 -121599791.7677269 93437994.713642836 0 93437994.713642836 297140217.85751688 0 0 0 0 -559670802.01507187 -122017926.06310487 0 -122017926.06310487 383648717.76585031 0 0 0 0 -148561780.31982422 121775648.80593538 0 121775648.80593538 293997818.97648907 0 0 0 0 -587744701.69678617 -102289834.88461801 0 -102289834.88461801 258162948.95020771 0 0 0 0 -606742751.90859604 55782216.314121008 0 55782216.314121008 359744507.00410056 0 0 0 0 -163356851.9263916 148595581.47878253 0 148595581.47878253 63182776.005228043 0 0 0 0 -200861173.63442612 94961856.119319439 0 94961856.119319439 459962474.26005274 0 0 0 0 -441609985.79263115 53777286.477510929 0 53777286.477510929 74979450.09683466 0 0 0 0 -74632180.141662598 188431435.92478037 0 188431435.92478037 -234042522.9204399 0 0 0 0 -618404693.37722206 307245525.81795478 0 307245525.81795478 -285214794.89294481 0 0 0 0 -775309502.85303116 39274469.367196083 0 39274469.367196083 154583525.45408547 0 0 0 0 -983325235.23606491 -102883751.11088562 0 -102883751.11088562 98895831.621408939 0 0 0 0 -767836553.41154385 -329249825.36883819 0 -329249825.36883819 61291643.832826614 0 0 0 0 -943948654.66890717 -324162693.8915987 0 -324162693.8915987 64361235.128137827 0 0 0 0 -778065987.41590118 -99877326.543703198 0 -99877326.543703198 352235647.26430672 0 0 0 0 -1006325991.972208 -112182217.10546446 0 -112182217.10546446 358593021.57458639 0 0 0 0 -760280306.38301468 -4799543.3978384733 0 -4799543.3978384733 414300543.4739536 0 0 0 0 -691099961.64039612 -166985502.11464596 0 -166985502.11464596 280379201.42831278 0 0 0 0 -796230099.12026024 -218279312.67751369 0 -218279312.67751369 374133031.10447264 0 0 0 0 -818136176.22723007 -156839718.77893591 0 -156839718.77893591 282232260.03065062 0 0 0 0 -595680683.75596619 -338578743.16713971 0 -338578743.16713971 178334648.47248405 0 0 0 0 -760147101.35572052 -237299558.77049506 0 -237299558.77049506 238513720.36700261 0 0 0 0 -556510828.25937653 -212878099.7909649 0 -212878099.7909649 3883379.4248704016 0 0 0 0 -582165247.10583878 -133879082.68346405 0 -133879082.68346405 88512262.127554834 0 0 0 0 -694305629.01920319 -100077010.89356387 0 -100077010.89356387 175020024.73529637 0 0 0 0 -718076986.33491898 5079357.4427916408 0 5079357.4427916408 129459307.43908215 0 0 0 0 -607693088.56468201 -135699148.67886043 0 -135699148.67886043 138778391.9812474 0 0 0 0 -1449428857.0139065 -268669517.07224923 0 -268669517.07224923 735509163.84598565 0 0 0 0 -2198840152.6725273 -778747287.35125756 0 -778747287.35125756 544091572.29301453 0 0 0 0 -661032142.11031342 -454024261.42315316 0 -454024261.42315316 5134267.6220163107 0 0 0 0 -740157756.96058452 192490045.80514744 0 192490045.80514744 837890093.00946403 0 0 0 0 -780208076.77024078 -279675080.95175004 0 -279675080.95175004 301074395.524863 0 0 0 0 -2204350595.5274124 -324197152.76874799 0 -324197152.76874799 245996682.11245736 0 0 0 0 -3041114.3949126489 199731.49213202856 0 199731.49213202856 1449968.8264835931 0 0 0 0 105246690.49289703 376237603.94003451 0 376237603.94003451 412162720.90022612 0 0 0 0 -2200545112.0327339 -326339662.07988524 0 -326339662.07988524 247076985.35868675 0 0 0 0 -545876434.98498154 -128834496.25720215 0 -128834496.25720215 221650736.130301 0 0 0 0 -539353989.06633949 -49139087.054649591 0 -49139087.054649591 132294483.05985165 0 0 0 0 -2944134.4092154801 -467856.28225773107 0 -467856.28225773107 2382090.9444887824 0 0 0 0 -299109807.929142 441827702.59131318 0 441827702.59131318 -397669576.07785887 0 0 0 0 -360900354.92646408 67153783.209720731 0 67153783.209720731 -24671842.643354416 0 0 0 0 -5104493.7227961551 8938193.4448175225 0 8938193.4448175225 -279283.98069824552 0 0 0 0 158382877.76438141 76798799.498120785 0 76798799.498120785 -106417895.60450423 0 0 0 0 -37960311.09311676 -55570067.353548646 0 -55570067.353548646 -9657738.5461326987 0 0 0 0 5450670.3664093018 27282145.489625692 0 27282145.489625692 39417981.984112024 0 0 0 0 -4218888.5299617257 1053336.4326410256 0 1053336.4326410256 -872399.25450810953 0 0 0 0 -2173789687.1572704 177766886.88089615 0 177766886.88089615 -13582885.271558354 0 0 0 0 -97737949.712909698 5756291.2437878251 0 5756291.2437878251 54712567.707234383 0 0 0 0 -14974821.343822479 5361653.1350026131 0 5361653.1350026131 16143713.027739286 0 0 0 0 -26918426.546182632 33845020.666262865 0 33845020.666262865 -50326109.822306156 0 0 0 0 -2849608.3724839771 -558223.69305425603 0 -558223.69305425603 3207315.9473461621 0 0 0 0 -2110335249.1841412 -457714260.96950161 0 -457714260.96950161 -99077196.396058559 0 0 0 0 -1017052.9608430676 3324774.8015278229 0 3324774.8015278229 2704506.8379137381 0 0 0 0 -7019094.6908181459 2403732.4189488781 0 2403732.4189488781 2990895.8051820323 0 0 0 0 -47988075.358455658 -11824760.062443733 0 -11824760.062443733 41709595.317952156 0 0 0 0 -144819962.26245499 235289115.15762091 0 235289115.15762091 -201489277.06912708 0 0 0 0 -186532354.87304306 128053995.06848383 0 128053995.06848383 -64278481.336959839 0 0 0 0 43314008.49230957 96740659.593028069 0 96740659.593028069 -152656217.98317051 0 0 0 0 -6169524.1053137779 2916195.7359976359 0 2916195.7359976359 2686731.7015984636 0 0 0 0 -180832493.0752449 41334975.135986328 0 41334975.135986328 15296593.793275833 0 0 0 0 -6958630.6310749054 -6293715.624755621 0 -6293715.624755621 9386632.7183492184 0 0 0 0 8998715.8024024963 -14020659.765995264 0 -14020659.765995264 13119618.602858067 0 0 0 0 -3533115.6570815854 -1582291.7694544494 0 -1582291.7694544494 4362623.0194213074 0 0 0 0 -1485376882.3086433 -703825023.28890896 0 -703825023.28890896 -15925941.354509354 0 0 0 0 -176038728.9471283 -148398239.88230228 0 -148398239.88230228 -330213117.24424934 0 0 0 0 -687374893.34228897 -801373665.31022787 0 -801373665.31022787 -702272752.35183907 0 0 0 0 -2221974.4852651022 -311484.41699369159 0 -311484.41699369159 705503.07216005912 0 0 0 0 -1561218149.5665741 398872406.35389495 0 398872406.35389495 -332506708.03667164 0 0 0 0 -925969618.00473022 -302948461.71893358 0 -302948461.71893358 -1291831837.5279999 0 0 0 0 -1845346806.0837822 -484745387.96174145 0 -484745387.96174145 -394898820.69734097 0 0 0 0 -976583531.7893219 42827045.796200752 0 42827045.796200752 -105411494.30971241 0 0 0 0 -1031442094.1489334 -398063788.39213204 0 -398063788.39213204 -413563544.77152485 0 0 0 0 158400418.90869141 39298984.466999054 0 39298984.466999054 -422066383.5611465 0 0 0 0 -793844.98420385923 398317.60004656948 0 398317.60004656948 668349.34194494644 0 0 0 0 -501953664.04988098 699763206.83344555 0 699763206.83344555 -978184655.30137062 0 0 0 0 -2031925718.3814874 691184132.28691947 0 691184132.28691947 -222111996.87954617 0 0 0 0 -681771110.63646698 309781373.42461586 0 309781373.42461586 -148915418.92886448 0 0 0 0 -510810268.70075989 449839926.96463394 0 449839926.96463394 -299382084.83971667 0 0 0 0 -694929176.58883286 301981919.10534382 0 301981919.10534382 -76751240.221645355 0 0 0 0 -779653642.01136398 261480970.35680604 0 261480970.35680604 106745050.64705437 0 0 0 0 -678189395.60031891 384616192.98203564 0 384616192.98203564 -71615793.866554111 0 0 0 0 -579623512.41076088 282350454.0769279 0 282350454.0769279 -6229085.220416069 0 0 0 0 -684606446.20388794 364256290.95024347 0 364256290.95024347 -132969809.51840091 0 0 0 0 -807402649.10891151 251209063.82377291 0 251209063.82377291 244724796.91691208 0 0 0 0 -1362931718.57938 198475907.73948264 0 198475907.73948264 101677197.83062601 0 0 0 0 -932411378.88306046 197830617.26133594 0 197830617.26133594 195265708.02630186 0 0 0 0 -711439246.35398102 194994721.83838725 0 194994721.83838725 148044737.55574882 0 0 0 0 -670512692.38543892 236571899.97792959 0 236571899.97792959 185557497.01066828 0 0 0 0 -729702038.1307106 338485849.3862884 0 338485849.3862884 241924277.58698988 0 0 0 0 -744946734.76802254 349964297.68474233 0 349964297.68474233 284901121.44248915 0 0 0 0 -707271695.39411545 279746695.46480584 0 279746695.46480584 381531432.22653675 0 0 0 0 -764293187.70933914 231332768.22365534 0 231332768.22365534 368126633.16877937 0 0 0 0 -438116568.22190094 72809162.069658279 0 72809162.069658279 363361772.51565206 0 0 0 0 20959059.899341583 -161891138.35222769 0 -161891138.35222769 218899804.50588274 0 0 0 0 -945898.0076888185 -580817.54186250269 0 -580817.54186250269 1086081.8852833614 0 0 0 0 -437803789.16389084 -164763708.90280843 0 -164763708.90280843 837622924.43067992 0 0 0 0 -2276318384.2165527 -112809457.84664567 0 -112809457.84664567 526976968.45568305 0 0 0 0 -187187039.52036285 51885217.855934143 0 51885217.855934143 6960722.8707289696 0 0 0 0 -2203987843.2237787 -231916980.18942881 0 -231916980.18942881 -199281982.62956613 0 0 0 0 -82584871.023448944 21501416.448064566 0 21501416.448064566 730642.07067871094 0 0 0 0 -133704202.6916275 145343802.87546587 0 145343802.87546587 -89849419.858397484 0 0 0 0 -369325670.65203094 218326314.88799477 0 218326314.88799477 12602960.535270929 0 0 0 0 -716127700.10502625 313022630.86969662 0 313022630.86969662 165586276.71858311 0 0 0 0 -188116285.929245 40358105.436198235 0 40358105.436198235 108552885.06136703 0 0 0 0 -373686278.47430587 149417268.22499496 0 149417268.22499496 47381366.320448875 0 0 0 0 -1749270427.8208046 379226207.72861516 0 379226207.72861516 -36943127.170420602 0 0 0 0 -1829754560.4418945 172287430.00393668 0 172287430.00393668 223433355.0940446 0 0 0 0 -2204436514.0067558 -91045806.217164889 0 -91045806.217164889 412926082.70544869 0 0 0 0 -1654765525.7654037 92835340.587655127 0 92835340.587655127 224827672.70781425 0 0 0 0 -1665475615.5187759 172729129.2534056 0 172729129.2534056 164666181.70311511 0 0 0 0 -50465298.777690887 84510071.925539955 0 84510071.925539955 9681596.6558153629 0 0 0 0 -1515215918.1874466 184695689.82448462 0 184695689.82448462 123188255.69523568 0 0 0 0 28255709.754924774 23632754.569785148 0 23632754.569785148 -3446486.1296648979 0 0 0 0 -617880.2524461057 454174.57856518216 0 454174.57856518216 233426.45899538728 0 0 0 0 -15809739.17521286 13643412.073266238 0 13643412.073266238 5191019.6083184481 0 0 0 0 -21689342.787559509 20721533.053911328 0 20721533.053911328 -2997081.0199917108 0 0 0 0 -1751572.8795863548 1269911.1352196839 0 1269911.1352196839 630134.59311600786 0 0 0 0 -41601738.186511993 13489418.176167607 0 13489418.176167607 10469670.234520316 0 0 0 0 -38240040.230594635 -110648.2912581712 0 -110648.2912581712 50328758.520517588 0 0 0 0 -11041357.772470061 -4996281.7380263321 0 -4996281.7380263321 551465.25909256807 0 0 0 0 -8509282.8581924438 -9359911.3633211851 0 -9359911.3633211851 25107649.044225395 0 0 0 0 -23240581.84003067 -23986666.299623609 0 -23986666.299623609 14553533.428039074 0 0 0 0 -15624854.41166687 9977722.76112324 0 9977722.76112324 660798.46528923512 0 0 0 0 -1833499071.5388641 578855652.31949103 0 578855652.31949103 13577733.312928699 0 0 0 0 -1578426278.8074875 429351822.48629808 0 429351822.48629808 -29801575.430693418 0 0 0 0 -2204261950.8957443 417238012.09117633 0 417238012.09117633 187061603.6649428 0 0 0 0 -2206224498.1951294 696287906.00173366 0 696287906.00173366 75023096.870840326 0 0 0 0 -1886929602.5870361 463622119.02058232 0 463622119.02058232 154535387.67826679 0 0 0 0 -1875802770.4349775 665316776.78523445 0 665316776.78523445 -444870513.17537999 0 0 0 0 -1786964172.3284121 1170533406.8630934 0 1170533406.8630934 -623653458.90010476 0 0 0 0 -2994134893.2703552 610518593.22889566 0 610518593.22889566 -434570768.09718871 0 0 0 0 -3542175.8198411716 1409101.998827761 0 1409101.998827761 1479019.0553381746 0 0 0 0 -973372800.59851837 502630650.74145561 0 502630650.74145561 -305212339.53579324 0 0 0 0 -69884687.519546509 -151103479.04969779 0 -151103479.04969779 -392122188.96215296 0 0 0 0 601775352.0066452 -165243306.21323144 0 -165243306.21323144 544551683.16398144 0 0 0 0 1074650907.2991371 -234845422.35805443 0 -234845422.35805443 -349445695.53934544 0 0 0 0 -1328865.5633668015 -236350.30645572767 0 -236350.30645572767 -116044.42499625008 0 0 0 0 580321441.5282135 -899549840.10860872 0 -899549840.10860872 -937269345.69515467 0 0 0 0 -2601595812.0196037 -754466583.68990839 0 -754466583.68990839 422824064.90115577 0 0 0 0 -2201996021.6575966 -65707012.765035719 0 -65707012.765035719 -1279598981.5357897 0 0 0 0 -2247503193.8500671 1207237560.1418908 0 1207237560.1418908 -618447523.05134749 0 0 0 0 -2989152.6970731802 -119797.27437389363 0 -119797.27437389363 161539.76191942912 0 0 0 0 -845066071.85096741 316983565.75854075 0 316983565.75854075 1062875849.2600852 0 0 0 0 -1189571694.4412613 -1412206301.271991 0 -1412206301.271991 -660654356.86436307 0 0 0 0 -129185772.03300476 -829336639.03377652 0 -829336639.03377652 -737841685.78977478 0 0 0 0 -152186.77108068019 -1961334.4409466498 0 -1961334.4409466498 -1233585.2424765485 0 0 0 0 641231795.73143196 -28187068.780526102 0 -28187068.780526102 -288177568.32196856 0 0 0 0 325898923.23410606 471738734.63928592 0 471738734.63928592 474486202.66436672 0 0 0 0 -134066616.7232933 91348513.953724504 0 91348513.953724504 257355149.11468244 0 0 0 0 -381410632.82212067 -561089024.94976425 0 -561089024.94976425 -412542506.82371849 0 0 0 0 534044268.25244522 -229158312.02843648 0 -229158312.02843648 -473059755.92106676 0 0 0 0 -542461142.7189064 -449529259.57795262 0 -449529259.57795262 4991246.1252232194 0 0 0 0 46660575.95558548 -181275942.96991712 0 -181275942.96991712 -191690736.10394877 0 0 0 0 -437683617.2718277 -389268130.59384584 0 -389268130.59384584 -236533646.15794274 0 0 0 0 -2202427429.5780311 -1285383403.5149243 0 -1285383403.5149243 139556736.62432331 0 0 0 0 -1092125210.1801605 -957375188.49217331 0 -957375188.49217331 -238001556.29601157 0 0 0 0 -1424534137.6858978 -701676442.83342612 0 -701676442.83342612 480833835.29635143 0 0 0 0 -231846675.38677597 -742597466.87991178 0 -742597466.87991178 -298440601.52007574 0 0 0 0 -459973892.62754822 -125083897.54676366 0 -125083897.54676366 -28038960.743565679 0 0 0 0 -517307135.52656555 2589211.257371515 0 2589211.257371515 109029024.73443151 0 0 0 0 -603559508.27629471 -122007144.05814767 0 -122007144.05814767 88885930.562661886 0 0 0 0 -609981019.26346588 -124136848.14765069 0 -124136848.14765069 88179749.819611311 0 0 0 0 -621021643.79305458 -95916743.44227016 0 -95916743.44227016 74884514.795734406 0 0 0 0 -304840189.15814972 -180067976.27391195 0 -180067976.27391195 -3854746.9132193029 0 0 0 0 -537465382.52168274 -69826104.264380902 0 -69826104.264380902 -15447603.327575147 0 0 0 0 -597545680.38336182 -109399021.90731549 0 -109399021.90731549 169662579.09469962 0 0 0 0 -329295781.25244904 -30932342.184188366 0 -30932342.184188366 -8371596.5908356905 0 0 0 0 -107766071.60949707 29182559.842867613 0 29182559.842867613 48226655.721375942 0 0 0 0 -378977253.95420074 -106574977.86296105 0 -106574977.86296105 -9400962.4695863724 0 0 0 0 -446701406.83444977 56690397.356840968 0 56690397.356840968 338913570.9420464 0 0 0 0 -479758677.59584808 -503213585.8121196 0 -503213585.8121196 303431499.56750834 0 0 0 0 -757986.61273930781 597013.51119719073 0 597013.51119719073 113206.86053252325 0 0 0 0 -889866112.02572823 -277027520.0954473 0 -277027520.0954473 4233087.5822360516 0 0 0 0 -657806472.29345322 9988349.4937748313 0 9988349.4937748313 -61501947.693632841 0 0 0 0 -261888602.14486027 165965960.56679538 0 165965960.56679538 -86817534.553026438 0 0 0 0 -480267981.70755768 -473082865.94113755 0 -473082865.94113755 -272126012.64627695 0 0 0 0 -481245478.23428249 -417541946.89886975 0 -417541946.89886975 -366738240.59167361 0 0 0 0 -205379788.46820068 95175106.079603434 0 95175106.079603434 -119174855.09750807 0 0 0 0 -480521147.69294739 -229422401.67663121 0 -229422401.67663121 886837927.23232961 0 0 0 0 765250119.7960968 -545456102.55887628 0 -545456102.55887628 -318018387.29045033 0 0 0 0 -708761.44278306887 -1372787.4025520845 0 -1372787.4025520845 -809530.4803447352 0 0 0 0 -1004786974.8642006 -513711930.84133482 0 -513711930.84133482 427108170.36308432 0 0 0 0 -226626332.8557663 -990174479.00614834 0 -990174479.00614834 -251913083.54443586 0 0 0 0 -193949641.89976883 -867698151.11929655 0 -867698151.11929655 706113903.80798972 0 0 0 0 -9935443.2139056101 -4756261.8858609516 0 -4756261.8858609516 -122101.01364681451 0 0 0 0 -19749889.16296196 -811851.26422150433 0 -811851.26422150433 14805699.688848376 0 0 0 0 313909647.1934433 -619930615.82182074 0 -619930615.82182074 389394814.79328966 0 0 0 0 -150092672.01553726 127001853.21473348 0 127001853.21473348 824619866.09589005 0 0 0 0 -146368781.06514311 228543954.82008481 0 228543954.82008481 256079494.54185581 0 0 0 0 -193655075.67070627 -144195473.52463767 0 -144195473.52463767 251678684.73742151 0 0 0 0 241208400.80672455 144600144.86221075 0 144600144.86221075 412500810.09660244 0 0 0 0 -60095232.159267426 79462730.082522273 0 79462730.082522273 453956378.46422672 0 0 0 0 40439217.099555969 -27251404.521493196 0 -27251404.521493196 185798690.21642256 0 0 0 0 6920050.5406112671 -35178153.788752317 0 -35178153.788752317 395187125.27272344 0 0 0 0 -137401400.01341629 -172564033.80890802 0 -172564033.80890802 443492237.41663504 0 0 0 0 3029652.502281189 105171724.81425619 0 105171724.81425619 172346763.17989504 0 0 0 0 -115470129.62597203 31622531.179659329 0 31622531.179659329 127436062.61391306 0 0 0 0 5350979.1725845337 95956921.79510951 0 95956921.79510951 48066832.877474666 0 0 0 0 26934243.234149933 73662185.93626231 0 73662185.93626231 -49527158.725877762 0 0 0 0 -47839448.157169342 41267088.382764101 0 41267088.382764101 -8142727.4521055222 0 0 0 0 -7990111.6095619202 121551495.5922029 0 121551495.5922029 120438084.52258354 0 0 0 0 18040702.469718933 29922467.225896716 0 29922467.225896716 -38408322.59170413 0 0 0 0 3581276.0034790039 2900409.6489514112 0 2900409.6489514112 -24534785.591827631 0 0 0 0 5048070.1843414307 -9924071.0247040987 0 -9924071.0247040987 -155507159.77847677 0 0 0 0 -9173173.0914993286 17828214.745481968 0 17828214.745481968 -12107519.762346506 0 0 0 0 5397805.8060379028 20038634.995274067 0 20038634.995274067 -57265891.12604329 0 0 0 0 6681705.9959220886 28377553.605653435 0 28377553.605653435 -5100092.6961164474 0 0 0 0 -3034531.5727825165 3597034.5518738925 0 3597034.5518738925 -9650050.0626139641 0 0 0 0 -4104210.2709569931 8224750.9263285995 0 8224750.9263285995 -5261564.7513189316 0 0 0 0 -1773751.6082776021 3020317.2218381539 0 3020317.2218381539 1339214.9542376343 0 0 0 0 126831306.99018097 14372695.169743299 0 14372695.169743299 5940208.9412142038 0 0 0 0 -278112656.65293503 -36464926.936779261 0 -36464926.936779261 -2307643.293205291 0 0 0 0 -2447594.7317323685 4847876.4283331335 0 4847876.4283331335 -13441297.0900805 0 0 0 0 -2293506.3900912311 1933896.4558067406 0 1933896.4558067406 601769.46044893831 0 0 0 0 -3271830.6760749817 9025729.963452369 0 9025729.963452369 -18189375.311987638 0 0 0 0 -287148328.60354614 -6131355.3066147566 0 -6131355.3066147566 3459144.8565668464 0 0 0 0 226920448.50658417 86479435.194776297 0 86479435.194776297 -72764710.63041687 0 0 0 0 207867276.88815689 269306681.93624413 0 269306681.93624413 -492476050.99229431 0 0 0 0 276705526.95722771 89916452.637379527 0 89916452.637379527 -120223203.14207172 0 0 0 0 113471128.07439423 120661851.00384378 0 120661851.00384378 -29088957.309201241 0 0 0 0 -7036215.1244330406 6342306.6638812199 0 6342306.6638812199 288995.75882863998 0 0 0 0 508351725.38424325 47838700.191850483 0 47838700.191850483 -755054875.97488356 0 0 0 0 -1863222.6262963172 2881441.7491813404 0 2881441.7491813404 1131268.631296173 0 0 0 0 495096014.39426041 -489104190.44705796 0 -489104190.44705796 -55545156.682170376 0 0 0 0 40015438.241031647 -98452066.818480492 0 -98452066.818480492 -44914271.399288893 0 0 0 0 -234770.04863849655 1164557.390964767 0 1164557.390964767 -101118.92861063778 0 0 0 0 -18555695.486488342 8275145.8327201605 0 8275145.8327201605 355095.3751607649 0 0 0 0 -22785627.907745361 10326675.682918251 0 10326675.682918251 14823974.166394711 0 0 0 0 -111959971.32114291 -50221725.404117368 0 -50221725.404117368 5660679.5676426888 0 0 0 0 76287926.490684509 187918726.38698202 0 187918726.38698202 316609448.71400034 0 0 0 0 90552.376799333841 363321.86458711047 0 363321.86458711047 -162056.24275125831 0 0 0 0 -38321384.165222168 -109549234.86465919 0 -109549234.86465919 191375164.98761272 0 0 0 0 73819036.793045044 -78133946.393430591 0 -78133946.393430591 395516805.39226562 0 0 0 0 6867386.2852630615 122403225.04557957 0 122403225.04557957 181765701.35145426 0 0 0 0 27606372.15124321 -53953844.187166929 0 -53953844.187166929 -93558718.415944576 0 0 0 0 -69489089.154186249 -33681968.074411154 0 -33681968.074411154 27267278.794964314 0 0 0 0 22160454.370670319 2341554.1746692657 0 2341554.1746692657 38535139.904930115 0 0 0 0 -29881955.125685692 -80362949.676921725 0 -80362949.676921725 73154323.793727875 0 0 0 0 -13178372.512724329 -652623.79492777213 0 -652623.79492777213 2589556.1411673063 0 0 0 0 5617414.9594802856 -41763045.968061268 0 -41763045.968061268 34016053.476926744 0 0 0 0 1653383.4008145481 -476090.13627865561 0 -476090.13627865561 24302.119258215273 0 0 0 0 -15947641.600494385 24184548.649612427 0 24184548.649612427 27218749.294069171 0 0 0 0 -119605686.52062988 116312714.70594771 0 116312714.70594771 816129678.51703441 0 0 0 0 2028127.9194986448 -5947777.3187807379 0 -5947777.3187807379 927643.92689810367 0 0 0 0 -74917369.844070435 22657635.594843149 0 22657635.594843149 666460207.4252255 0 0 0 0 16394055.651452065 -53999276.291688383 0 -53999276.291688383 -489580.3673081398 0 0 0 0 -14904113.182118636 -2490049.9766632579 0 -2490049.9766632579 2198061.3325654962 0 0 0 0 -965945.2914936468 -3650879.2985917595 0 -3650879.2985917595 746002.81628536375 0 0 0 0 -101077401.60674286 -228860098.44705093 0 -228860098.44705093 902208959.70061111 0 0 0 0 -30658072.119735718 11509949.467306256 0 11509949.467306256 66339272.78148976 0 0 0 0 125538579.51899719 -160443667.93431199 0 -160443667.93431199 461306633.15843809 0 0 0 0 -33600877.312614441 9490176.2811425328 0 9490176.2811425328 33603127.43234992 0 0 0 0 -3748474.6464996338 -12700871.054016173 0 -12700871.054016173 49776677.511336565 0 0 0 0 -59107272.738975525 -11877886.566800952 0 -11877886.566800952 50669241.127256602 0 0 0 0 -28338772.601486206 -37021454.73689723 0 -37021454.73689723 66076201.770230651 0 0 0 0 -8927169.3681869507 -8339719.8539412022 0 -8339719.8539412022 49813607.618544638 0 0 0 0 -24761095.07535553 -36498225.993221045 0 -36498225.993221045 13568586.902079225 0 0 0 0 -22663610.355377197 -17031892.77615124 0 -17031892.77615124 10812748.594458371 0 0 0 0 -3237577.002456665 -37768929.202011794 0 -37768929.202011794 -14067356.356952906 0 0 0 0 -122729221.39735413 -6310359.4811998606 0 -6310359.4811998606 30870043.730688788 0 0 0 0 -53108073.497329712 -60546914.959328607 0 -60546914.959328607 -51215946.966617346 0 0 0 0 -2371104.1571350098 3044720.3287756816 0 3044720.3287756816 -92101367.181615293 0 0 0 0 -3727925.3533935547 5444527.7572069988 0 5444527.7572069988 -21039140.709283561 0 0 0 0 5986715.1723175049 -11329832.927838057 0 -11329832.927838057 -2912447.5201151371 0 0 0 0 10376311.068763733 -9752066.3040084243 0 -9752066.3040084243 -39583343.310931206 0 0 0 0 10540652.336574554 -9651217.1770183146 0 -9651217.1770183146 -11864003.537106395 0 0 0 0 9653079.4223670959 -12744233.605896086 0 -12744233.605896086 -3546120.6442718506 0 0 0 0 7110498.856549263 -18882264.831287719 0 -18882264.831287719 10309024.273271441 0 0 0 0 -6526023.1839904785 -20782318.869336665 0 -20782318.869336665 27320319.910376698 0 0 0 0 -8748771.2991344333 2893304.5848840289 0 2893304.5848840289 2636897.941894752 0 0 0 0 43936286.755958557 -92431817.520607948 0 -92431817.520607948 128444971.16841316 0 0 0 0 55038882.91053009 -85645919.791845322 0 -85645919.791845322 126169466.71689939 0 0 0 0 44731120.912780762 -101585658.43455219 0 -101585658.43455219 121219481.52310944 0 0 0 0 24149266.941455841 -57253758.208665848 0 -57253758.208665848 115236063.6837889 0 0 0 0 -10953930.276139043 1025660.5935571333 0 1025660.5935571333 2731829.5275174147 0 0 0 0 3794166.8687744141 -7633605.8671605289 0 -7633605.8671605289 1583911.8174364418 0 0 0 0 832529.20687103271 -1079800.4953328371 0 -1079800.4953328371 -5806052.9079509974 0 0 0 0 1893341.8822784424 -1057141.4142008424 0 -1057141.4142008424 -6630628.6958319247 0 0 0 0 533745.30493927002 -875248.22641912103 0 -875248.22641912103 -4615006.5244324207 0 0 0 0 2435818.4260368347 902647.85324663669 0 902647.85324663669 -5669496.0855636597 0 0 0 0 -3114963.4135894775 170825.14475226402 0 170825.14475226402 -4664778.4353604317 0 0 0 0 -9854926.4365844727 3828342.0488209724 0 3828342.0488209724 -2702923.2189378738 0 0 0 0 -1059964.6946411133 1598718.3477190733 0 1598718.3477190733 -5527326.8834848404 0 0 0 0 -2504585.544128418 4794603.0911577344 0 4794603.0911577344 -3710876.5405170918 0 0 0 0 -1291184.6950483322 4429988.9584701024 0 4429988.9584701024 -3702767.5074441433 0 0 0 0 -25070221.427154541 -61863319.355644226 0 -61863319.355644226 248256891.70236397 0 0 0 0 -5532214.0983886719 6520839.641261518 0 6520839.641261518 -2832647.790933609 0 0 0 0 -1322938.8435974121 6836856.615540266 0 6836856.615540266 -2923941.3871559501 0 0 0 0 -5265823.0925430059 4455586.7396922745 0 4455586.7396922745 2725482.3485784912 0 0 0 0 -6292438.2556915283 8695500.7295088768 0 8695500.7295088768 -3230041.9212390184 0 0 0 0 -6200712.5075378418 8778332.0952148438 0 8778332.0952148438 -3183634.5991395712 0 0 0 0 -639081.95390593261 742231.0753252171 0 742231.0753252171 -589922.61259682011 0 0 0 0 -30471591.647735596 -90509650.907978058 0 -90509650.907978058 243045495.53775406 0 0 0 0 -8455444.4309692383 3520294.495303154 0 3520294.495303154 -2894164.9465141892 0 0 0 0 -2978421.1024475098 3805786.6189838648 0 3805786.6189838648 -2926565.6749753952 0 0 0 0 -5783362.2797088623 6828744.9658720493 0 6828744.9658720493 -2881837.2915058136 0 0 0 0 -6657046.4950561523 7445915.7241868973 0 7445915.7241868973 -2921319.8390240669 0 0 0 0 -4064746.1030883789 7529604.8870453835 0 7529604.8870453835 -3019985.6446192861 0 0 0 0 -4959218.183883667 8325990.2884058952 0 8325990.2884058952 -3214143.4660162926 0 0 0 0 -4751435.9171600342 8801735.2499693632 0 8801735.2499693632 -2960942.1408157349 0 0 0 0 -4276095.3817443848 8918431.8951737881 0 8918431.8951737881 -3406160.6951153278 0 0 0 0 -4687749.3351745605 8490029.1832573414 0 8490029.1832573414 -2753291.376586318 0 0 0 0 -4947138.1079711914 9242917.2494337559 0 9242917.2494337559 -3381604.6338455826 0 0 0 0 -5610077.8684921265 9287312.7166435122 0 9287312.7166435122 -3244466.915851593 0 0 0 0 -4526497.1453857422 8739965.4391074181 0 8739965.4391074181 -3153449.1729238033 0 0 0 0 -5538807.9243621826 8999682.9434369802 0 8999682.9434369802 -3179898.1918165684 0 0 0 0 -41675272.166137695 -80855230.464363098 0 -80855230.464363098 237711220.06527305 0 0 0 0 -41822276.200378418 -87758493.614479065 0 -87758493.614479065 229636796.69301605 0 0 0 0 -36721812.39932251 -77359691.5950737 0 -77359691.5950737 212527160.4414978 0 0 0 0 -35267632.167816162 -77029495.050697327 0 -77029495.050697327 218547791.79380798 0 0 0 0 -37776016.256958008 -74401095.282081604 0 -74401095.282081604 232388921.93055916 0 0 0 0 -23451684.526428223 -59620789.9998703 0 -59620789.9998703 238059707.50258088 0 0 0 0 -17107169.043792725 -63257113.825279236 0 -63257113.825279236 223111235.06773376 0 0 0 0 7932255.721206665 -41500797.640228271 0 -41500797.640228271 238631855.67936707 0 0 0 0 24603417.721801758 -36591049.047698975 0 -36591049.047698975 227069064.89904022 0 0 0 0 -10429168.364425659 5711715.3547503054 0 5711715.3547503054 -2990353.1597571373 0 0 0 0 -7949567.08203125 7981768.0784118176 0 7981768.0784118176 -3243621.2015256882 0 0 0 0 -16727283.464599609 22643397.549210787 0 22643397.549210787 -17121007.6369344 0 0 0 0 43677066.045921326 -11187222.387504578 0 -11187222.387504578 162616192.73147583 0 0 0 0 14034586.986808777 -2263896.6623700038 0 -2263896.6623700038 -22759522.146869063 0 0 0 0 17330115.648101807 9408240.9191277027 0 9408240.9191277027 -45429323.681429505 0 0 0 0 54325384.901123047 -90170345.045143127 0 -90170345.045143127 194503293.82434082 0 0 0 0 75847979.99395752 -54404790.57110405 0 -54404790.57110405 169119402.96485901 0 0 0 0 -7302866.7958679199 8582022.5091900229 0 8582022.5091900229 -3208526.1379653215 0 0 0 0 -10589735.288513184 7767668.8769028187 0 7767668.8769028187 -3358097.6425934434 0 0 0 0 -5663426.9655761719 9203090.5058621168 0 9203090.5058621168 -3338397.6906268597 0 0 0 0 14505651.503417969 -102612158.6660614 0 -102612158.6660614 211614730.98384094 0 0 0 0 -37941243.13507688 -76939517.140986353 0 -76939517.140986353 209813695.09899902 0 0 0 0 -38038631.092163086 -88027141.639560699 0 -88027141.639560699 225518811.27928925 0 0 0 0 -11119735.090499878 -74304302.98589325 0 -74304302.98589325 202026661.38572693 0 0 0 0 -39530298.776580811 -79057244.349784851 0 -79057244.349784851 214351656.59082031 0 0 0 0 -8382143.1836547852 -98100043.080162048 0 -98100043.080162048 218057609.46740818 0 0 0 0 -374210.3768081665 -69015714.925105095 0 -69015714.925105095 187763152.49990845 0 0 0 0 2801092.9177246094 -34723779.698991776 0 -34723779.698991776 171087522.88365173 0 0 0 0 21092747.879547119 -60020700.928291321 0 -60020700.928291321 186989017.998703 0 0 0 0 -32842490.513366699 -44177627.67502594 0 -44177627.67502594 186685520.01457143 0 0 0 0 -15956937.175239563 -30117636.619785309 0 -30117636.619785309 185952679.64227295 0 0 0 0 -47525080.891479492 -6744740.5438957214 0 -6744740.5438957214 178090540.24216342 0 0 0 0 -28256853.253051758 14232564.850364685 0 14232564.850364685 166131735.89247894 0 0 0 0 18117444.715759277 -20421053.567718506 0 -20421053.567718506 178956808.09779644 0 0 0 0 -85360387.760452271 -20659255.905592918 0 -20659255.905592918 188255386.82012558 0 0 0 0 -75884280.712944031 -21152121.333896637 0 -21152121.333896637 183709038.78493881 0 0 0 0 -66869698.587738037 -15525968.275642395 0 -15525968.275642395 182821145.9636097 0 0 0 0 -39991064.176467896 -52390950.388558388 0 -52390950.388558388 194645990.56519318 0 0 0 0 -88783800.698776245 -35250926.487884521 0 -35250926.487884521 188691057.42129517 0 0 0 0 -61292955.531402588 -66800523.136990547 0 -66800523.136990547 181095261.05361938 0 0 0 0 -40350864.129333496 -78083554.390544891 0 -78083554.390544891 209283219.61112595 0 0 0 0 -46947560.596160889 -56222266.269435883 0 -56222266.269435883 193199121.4939785 0 0 0 0 -40481280.631866455 -68255640.214885712 0 -68255640.214885712 194230291.32313919 0 0 0 0 -44580833.822212219 -79435423.834907055 0 -79435423.834907055 212115827.88872528 0 0 0 0 -51056661.044277191 -82314115.699858665 0 -82314115.699858665 186954310.8735733 0 0 0 0 -60138344.904525757 -61548176.472698212 0 -61548176.472698212 195713783.89688969 0 0 0 0 -72394876.74256897 -99168792.571267128 0 -99168792.571267128 157881073.47087479 0 0 0 0 -99532081.635543823 -54760326.745494843 0 -54760326.745494843 178762519.40209866 0 0 0 0 -142520929.98978424 -18518185.686948776 0 -18518185.686948776 185645218.33811951 0 0 0 0 -93581653.136230469 -51222761.663988113 0 -51222761.663988113 174144370.10177994 0 0 0 0 61688486.310920715 -63407776.143492699 0 -63407776.143492699 158753094.83407593 0 0 0 0 9635728.0021972656 -75381123.845169067 0 -75381123.845169067 168885575.79815674 0 0 0 0 30577425.741394043 -69273334.076610565 0 -69273334.076610565 153868906.61788368 0 0 0 0 38567786.337554932 -88968448.260654449 0 -88968448.260654449 130529229.38322258 0 0 0 0 44577471.201538086 -38702707.921808243 0 -38702707.921808243 199582959.31192017 0 0 0 0 31962983.397964478 -55585776.4190979 0 -55585776.4190979 179197335.94120789 0 0 0 0 7474578.1643676758 -59455900.594547272 0 -59455900.594547272 198981877.8765564 0 0 0 0 1387005.4210205078 -51074963.800889969 0 -51074963.800889969 214452472.9841156 0 0 0 0 -16218737.584472656 -61299292.197132111 0 -61299292.197132111 212818204.61360931 0 0 0 0 -12511174.531921387 -69336467.161506653 0 -69336467.161506653 192900447.00321198 0 0 0 0 -31082290.702819824 -69618627.754268646 0 -69618627.754268646 194975904.01612091 0 0 0 0 -32535278.538391113 -75626835.395828247 0 -75626835.395828247 201691838.8496933 0 0 0 0 -5085303.9653930664 -72072067.306316376 0 -72072067.306316376 175990621.60564423 0 0 0 0 -29391619.663299561 -82266193.47782135 0 -82266193.47782135 172999446.7480669 0 0 0 0 2321152.1543807983 -61453552.177978516 0 -61453552.177978516 191135729.5944519 0 0 0 0 9615209.1605682373 -89718729.250320435 0 -89718729.250320435 144052441.13441086 0 0 0 0 -56957747.984436035 -83633901.514945984 0 -83633901.514945984 167218106.12581921 0 0 0 0 -25509700.701171875 -77029351.362020493 0 -77029351.362020493 168604294.60447693 0 0 0 0 -16992296.973648071 -100117986.83998871 0 -100117986.83998871 146598013.46718597 0 0 0 0 -18548792.236343384 -103488305.2800703 0 -103488305.2800703 139428014.01653671 0 0 0 0 15821464.190948486 -106105072.65944481 0 -106105072.65944481 126227996.02227211 0 0 0 0 44643524.658714294 -102360012.7462492 0 -102360012.7462492 115279478.49737358 0 0 0 0 13851944.317199707 -85208858.380458832 0 -85208858.380458832 146338001.98542595 0 0 0 0 22122068.503997803 -103800405.74853706 0 -103800405.74853706 127149268.38913345 0 0 0 0 67429322.334594727 -125665693.63155651 0 -125665693.63155651 92392576.680995941 0 0 0 0 19719371.975984573 -124234355.96669638 0 -124234355.96669638 96103140.891246796 0 0 0 0 -19367498.141448975 -127492538.84144974 0 -127492538.84144974 122031751.34363365 0 0 0 0 -60026636.962646484 -103499726.8909893 0 -103499726.8909893 146332300.7753849 0 0 0 0 -31580019.756561279 -124624449.59980679 0 -124624449.59980679 121435668.21602178 0 0 0 0 -51105718.194702148 -138181846.15905571 0 -138181846.15905571 134908582.33863258 0 0 0 0 -147225858.31742859 -134786461.28866243 0 -134786461.28866243 140847233.97791243 0 0 0 0 9917860.8375511169 -165034226.31111622 0 -165034226.31111622 90601161.823764801 0 0 0 0 33737301.300415039 -161608686.33337116 0 -161608686.33337116 90297138.104521513 0 0 0 0 -148799340.70245361 -1022573.6319327354 0 -1022573.6319327354 165674223.74180222 0 0 0 0 -184670169.97606277 -60928654.752384186 0 -60928654.752384186 175192314.33890152 0 0 0 0 -129585147.58081055 -106505199.37162685 0 -106505199.37162685 153371737.53541088 0 0 0 0 -111633993.39510345 -79846487.432470322 0 -79846487.432470322 146626339.59668159 0 0 0 0 -53833955.076808929 -93062368.785153866 0 -93062368.785153866 149631224.68754578 0 0 0 0 -218888738.37521362 -85035912.746697426 0 -85035912.746697426 157693563.03234196 0 0 0 0 -130781236.80809784 -111958994.97435427 0 -111958994.97435427 142498322.61535645 0 0 0 0 -191471725.24123001 -45403094.31927681 0 -45403094.31927681 131613191.59279251 0 0 0 0 -420515136.83794403 -17156031.704211712 0 -17156031.704211712 162843163.38989353 0 0 0 0 -267910359.1337328 6387769.5671248138 0 6387769.5671248138 119979012.17050171 0 0 0 0 -284800576.85129547 -53710216.161635399 0 -53710216.161635399 139793025.28416061 0 0 0 0 -253273525.81169319 -112202931.18277675 0 -112202931.18277675 176124768.26712322 0 0 0 0 -293274184.42438507 -62193300.973165035 0 -62193300.973165035 131394567.87015581 0 0 0 0 19455354.612747192 -199019890.4148097 0 -199019890.4148097 121328032.94540727 0 0 0 0 19701890.59204483 -199652042.13921261 0 -199652042.13921261 116824410.73213005 0 0 0 0 -50733572.828773499 -205351200.48702812 0 -205351200.48702812 123356295.35194683 0 0 0 0 -47888213.673454285 -179078675.30466437 0 -179078675.30466437 183359080.36061102 0 0 0 0 -216653546.83523178 -236494074.530725 0 -236494074.530725 224750201.14939022 0 0 0 0 198525266.2375946 -282032359.65720654 0 -282032359.65720654 152453331.58359671 0 0 0 0 156768417.43808746 -195504587.67811918 0 -195504587.67811918 317294691.358046 0 0 0 0 136563996.94731903 -90321324.644694448 0 -90321324.644694448 7272238.0239391327 0 0 0 0 275963661.04277039 -213667213.69753551 0 -213667213.69753551 27476883.518405914 0 0 0 0 88059033.141113281 -214458399.70866513 0 -214458399.70866513 100843187.65345764 0 0 0 0 76866128.167315006 -61731826.839301646 0 -61731826.839301646 37899934.55257225 0 0 0 0 169785805.53689957 -146973948.71268368 0 -146973948.71268368 46278454.280731201 0 0 0 0 72265012.793605804 -101877277.78780645 0 -101877277.78780645 82705661.275630951 0 0 0 0 67595262.973892212 -122643275.6686182 0 -122643275.6686182 41391502.156892061 0 0 0 0 27257152.326881409 -47849543.372315407 0 -47849543.372315407 85330236.721198082 0 0 0 0 140458078.39200592 -76135669.623306274 0 -76135669.623306274 36692927.723534018 0 0 0 0 67863743.819984436 17717001.529041052 0 17717001.529041052 -72906005.865345955 0 0 0 0 192071349.74320221 -74777449.847858906 0 -74777449.847858906 -170058847.9183054 0 0 0 0 675105.18490751833 571106.63515232503 0 571106.63515232503 -110546.80641884082 0 0 0 0 -114698893.56264496 22854744.961287722 0 22854744.961287722 927403784.3278302 0 0 0 0 81860667.803804517 174875259.25210944 0 174875259.25210944 528545807.55748838 0 0 0 0 -21287866.872238159 212303760.57960963 0 212303760.57960963 337714982.03885204 0 0 0 0 3473502.6448974609 -182745709.70557928 0 -182745709.70557928 195411136.11842513 0 0 0 0 248224503.59381104 -342919944.89645618 0 -342919944.89645618 399855990.84190953 0 0 0 0 566216796.48736572 -41100822.576728851 0 -41100822.576728851 302832840.70632291 0 0 0 0 563208099.15775299 -57234077.206906095 0 -57234077.206906095 385510166.9984321 0 0 0 0 -260857.09600862116 772067.03992349375 0 772067.03992349375 649291.49851194303 0 0 0 0 713817560.59828186 112118382.78988504 0 112118382.78988504 -32834509.804240227 0 0 0 0 118958257.56261444 85410416.437418342 0 85410416.437418342 617976172.47013617 0 0 0 0 358273224.58045197 -100105165.10470116 0 -100105165.10470116 -118541118.4473989 0 0 0 0 666892203.48985577 -354421136.29829544 0 -354421136.29829544 64691215.542888403 0 0 0 0 304687963.18810272 -107067822.61081004 0 -107067822.61081004 4022046.883415699 0 0 0 0 438755465.36550522 -32652379.901556969 0 -32652379.901556969 -211561997.71382594 0 0 0 0 134446541.4817276 76258695.312783122 0 76258695.312783122 -128141074.15919185 0 0 0 0 173701120.18118286 -1563018.2003538609 0 -1563018.2003538609 2660295.795034647 0 0 0 0 51700073.34812212 94213979.925990865 0 94213979.925990865 -79066572.871552944 0 0 0 0 -540098.29491896555 2095175.2573498171 0 2095175.2573498171 1047125.5618156107 0 0 0 0 326225640.71543121 91092001.140791416 0 91092001.140791416 -7345196.2313758135 0 0 0 0 -1297133.5376113094 3655160.8410229925 0 3655160.8410229925 -2803516.8211520985 0 0 0 0 -1708596940.3934174 1094829484.8237724 0 1094829484.8237724 -198505259.80220318 0 0 0 0 326354204.44682312 35371067.968610764 0 35371067.968610764 -136662191.34171724 0 0 0 0 167739799.71784973 129646491.04858768 0 129646491.04858768 -177650928.83059311 0 0 0 0 -278533.94639204815 1609670.5088178553 0 1609670.5088178553 -1729022.7275221192 0 0 0 0 -5992906.7402648926 70519749.17416048 0 70519749.17416048 176365401.56354594 0 0 0 0 1098050026.7915821 -349236028.09183061 0 -349236028.09183061 397538731.85788536 0 0 0 0 -918032.48803820461 1589458.5020974493 0 1589458.5020974493 -2427311.3081698846 0 0 0 0 -1539435903.5491028 -140705941.50873613 0 -140705941.50873613 508266150.01328468 0 0 0 0 -1544096396.4260292 521147704.26449776 0 521147704.26449776 56840469.528411865 0 0 0 0 -1230600421.5216522 325658437.56053162 0 325658437.56053162 -18223668.173414707 0 0 0 0 -745121238.7702713 750781594.67982578 0 750781594.67982578 -683436530.60371065 0 0 0 0 -657645169.10529709 116767585.26106298 0 116767585.26106298 -4455264.1772612333 0 0 0 0 -737341768.87020874 397343290.82891154 0 397343290.82891154 44441432.488336086 0 0 0 0 -739590407.42184186 144237629.44588396 0 144237629.44588396 172482944.72806644 0 0 0 0 -311981228.48806381 432923562.474648 0 432923562.474648 -88491299.007669449 0 0 0 0 -324331549.7207489 461827603.63216078 0 461827603.63216078 202829669.796386 0 0 0 0 -310423700.84984016 496351045.05603236 0 496351045.05603236 -235979663.54461718 0 0 0 0 -573977946.78984833 384018435.61040711 0 384018435.61040711 23358588.355338097 0 0 0 0 -248937634.75085449 301653789.37177467 0 301653789.37177467 -35800428.830584049 0 0 0 0 68123693.254447937 46396566.71071887 0 46396566.71071887 -137636882.36275434 0 0 0 0 -54873759.751399994 260850806.33141792 0 260850806.33141792 -352589899.39579201 0 0 0 0 -258641317.05536652 217146289.73963857 0 217146289.73963857 -242538469.89185262 0 0 0 0 -1051953756.0396156 802153556.14937639 0 802153556.14937639 -340655005.57949805 0 0 0 0 -321456092.7903595 458824375.76126647 0 458824375.76126647 -1042094746.8162146 0 0 0 0 -1432046439.9927025 354086734.64686227 0 354086734.64686227 245839033.22072411 0 0 0 0 -1404057322.3060913 84281242.554124504 0 84281242.554124504 -12358413.930879176 0 0 0 0 -598660670.20053101 -257666653.62295485 0 -257666653.62295485 -649119642.36123514 0 0 0 0 149741934.95555115 138530911.13294077 0 138530911.13294077 -421608452.36385131 0 0 0 0 -281746748.06976318 121127377.75628555 0 121127377.75628555 -216903553.62245178 0 0 0 0 101093461.65258789 159667277.4300313 0 159667277.4300313 24932282.878922045 0 0 0 0 -155322752.84865189 -66995952.601173878 0 -66995952.601173878 -163988723.81586218 0 0 0 0 -19129923.475700378 -183857830.83061373 0 -183857830.83061373 119579568.17243847 0 0 0 0 -231920453.21219254 29407422.044531256 0 29407422.044531256 205433262.01750791 0 0 0 0 -595561209.80731201 -228108765.72697395 0 -228108765.72697395 30038507.662095606 0 0 0 0 -355724051.86772156 -210700449.6029461 0 -210700449.6029461 276137672.02362072 0 0 0 0 -48662302.810752869 -167512623.04309881 0 -167512623.04309881 366799289.33380926 0 0 0 0 -558689274.12425995 76865984.894398212 0 76865984.894398212 127250514.19136453 0 0 0 0 -676971905.62686825 229328260.1367873 0 229328260.1367873 15461423.12939924 0 0 0 0 -481320355.50863647 102728611.2521981 0 102728611.2521981 122109116.80444241 0 0 0 0 -696015662.76337433 363480445.69478846 0 363480445.69478846 -24207544.07204771 0 0 0 0 -543621192.0406723 412055140.6976518 0 412055140.6976518 -213367040.82426232 0 0 0 0 -505113173.92388153 324939746.88428283 0 324939746.88428283 -137847808.16715741 0 0 0 0 -203618886.93473053 229600928.10335732 0 229600928.10335732 -283643979.16663229 0 0 0 0 267723935.1452446 138104355.36170602 0 138104355.36170602 47960244.045947075 0 0 0 0 -2838172.6147395298 687602.64111961424 0 687602.64111961424 1034928.2112544584 0 0 0 0 -553692566.81722641 594911789.90718758 0 594911789.90718758 -637380761.53867483 0 0 0 0 -741853357.39758682 -320545036.41148126 0 -320545036.41148126 -132151600.25324845 0 0 0 0 -2147940.6048537605 2070541.9463559687 0 2070541.9463559687 112859.36766482424 0 0 0 0 -5075893.6283251476 2923396.160461355 0 2923396.160461355 2100976.1636727629 0 0 0 0 -3171284.5578079224 2868370.2521226406 0 2868370.2521226406 3885994.0012991428 0 0 0 0 2604900.3737945557 3635369.2315070629 0 3635369.2315070629 -4531503.7203464508 0 0 0 0 320795.87344323285 59290.006470622495 0 59290.006470622495 526480.38502486423 0 0 0 0 -649985906.39057481 -80143748.958586812 0 -80143748.958586812 -9428909.7319941521 0 0 0 0 -4715829.2959481478 4283582.2722479124 0 4283582.2722479124 8134854.7015781403 0 0 0 0 -6672830.4658176489 4519867.2433085945 0 4519867.2433085945 1923726.145888465 0 0 0 0 -4631798.0698013306 2506047.0194811821 0 2506047.0194811821 4190863.9244006872 0 0 0 0 -2992698.4173355103 75023475.272818327 0 75023475.272818327 57846809.017374873 0 0 0 0 -4107638.3385543823 3402046.9327107668 0 3402046.9327107668 5073289.1969239712 0 0 0 0 -3937908.0313324593 5232748.2590953317 0 5232748.2590953317 282273.70906712982 0 0 0 0 -49830842.798835754 15675363.019193888 0 15675363.019193888 135498820.06384945 0 0 0 0 -10921582.777580261 80324251.609053612 0 80324251.609053612 220051767.44090819 0 0 0 0 -301289709.00091553 111488424.53691611 0 111488424.53691611 218242612.77037397 0 0 0 0 -136369868.37949371 -48497732.148813903 0 -48497732.148813903 160276069.74739885 0 0 0 0 -4270563.6377067566 287052151.57743627 0 287052151.57743627 132883248.61358914 0 0 0 0 -472595397.01099396 311576855.0239135 0 311576855.0239135 132946283.80012982 0 0 0 0 -606856848.38092709 -158708417.23566306 0 -158708417.23566306 135397031.73764318 0 0 0 0 -711824869.10111237 611794805.84553254 0 611794805.84553254 -555799566.14044333 0 0 0 0 -1826039730.782526 -248757787.6277858 0 -248757787.6277858 80671236.52855444 0 0 0 0 -132422.77028650977 715632.40287521109 0 715632.40287521109 -2134029.9252248919 0 0 0 0 -1633249559.288641 411504867.45780921 0 411504867.45780921 13644229.358574867 0 0 0 0 -871360983.34762573 -204941033.16100955 0 -204941033.16100955 -92306183.803310633 0 0 0 0 -722931650.17182159 292788632.06712055 0 292788632.06712055 -100569729.21966743 0 0 0 0 -1092699501.8311462 171641554.67134428 0 171641554.67134428 108766756.47116327 0 0 0 0 384572642.3459053 123015594.8100245 0 123015594.8100245 -191355893.64443779 0 0 0 0 247763645.02815247 124423128.42352819 0 124423128.42352819 60607263.075126648 0 0 0 0 -1215258.2136991508 -545413.93126540817 0 -545413.93126540817 630963.28509012912 0 0 0 0 1017296301.0292969 388904158.84164071 0 388904158.84164071 -549107255.45416546 0 0 0 0 -100658287.01821899 437991466.71543312 0 437991466.71543312 -234799874.85229874 0 0 0 0 -789440344.72430611 568668567.64839196 0 568668567.64839196 -84785619.166663647 0 0 0 0 -360333778.36434937 170447477.46221209 0 170447477.46221209 -8226199.3453102112 0 0 0 0 -594992151.95864868 234574728.11765444 0 234574728.11765444 78904813.373727798 0 0 0 0 -224253838.84451294 93899443.992092133 0 93899443.992092133 101219103.01361275 0 0 0 0 -320916279.98058319 61621281.016526222 0 61621281.016526222 92770567.322654724 0 0 0 0 -198713321.09737396 43937799.476708174 0 43937799.476708174 161684005.62665939 0 0 0 0 -273246883.41397858 -16526065.66733408 0 -16526065.66733408 173110595.59487152 0 0 0 0 170249648.17790222 270936362.639184 0 270936362.639184 -135636548.69643021 0 0 0 0 -395420116.74463844 273422302.9955126 0 273422302.9955126 55563406.435781479 0 0 0 0 -110530277.61701965 172233183.71212769 0 172233183.71212769 88052716.301625252 0 0 0 0 -223030510.59569168 96857513.487071276 0 96857513.487071276 190982196.7220726 0 0 0 0 -134063211.17453766 198958489.62441397 0 198958489.62441397 132587638.80457497 0 0 0 0 41459940.90146637 173158602.02116489 0 173158602.02116489 130027221.17381287 0 0 0 0 114633669.00686646 92165332.237786293 0 92165332.237786293 187604579.46474457 0 0 0 0 -93809723.375597 96426939.383491516 0 96426939.383491516 187088418.80998993 0 0 0 0 -108226873.05754089 143144122.04723072 0 143144122.04723072 225806380.88508224 0 0 0 0 6442257.5578613281 155252790.06136894 0 155252790.06136894 182316875.30454636 0 0 0 0 -48787440.057220459 103289634.70068359 0 103289634.70068359 172953350.56225586 0 0 0 0 -50298130.676193237 127929485.93081856 0 127929485.93081856 171181421.240448 0 0 0 0 -876774.89050483704 177518567.53200865 0 177518567.53200865 241391153.4770813 0 0 0 0 134944055.34342957 210113432.62769604 0 210113432.62769604 148007632.32031822 0 0 0 0 -128324446.09248352 -13997917.022211075 0 -13997917.022211075 172097009.77851868 0 0 0 0 -181192548.22353363 40297222.380381584 0 40297222.380381584 195211485.78914261 0 0 0 0 -169309279.60350037 113196783.32653427 0 113196783.32653427 195333777.76936674 0 0 0 0 -134845225.59048462 60028309.321567535 0 60028309.321567535 164509975.06896305 0 0 0 0 -119694024.37039566 57392986.071073532 0 57392986.071073532 191047871.6333046 0 0 0 0 -103407174.18029785 107777652.50729561 0 107777652.50729561 199998882.27358055 0 0 0 0 -95499744.862487793 37512037.380138397 0 37512037.380138397 194645821.90603161 0 0 0 0 -104692913.08044052 29262969.526832581 0 29262969.526832581 188534697.42276764 0 0 0 0 -2905817.0765519664 7893521.4476282671 0 7893521.4476282671 1710556.2519213681 0 0 0 0 -19590569.590515137 30599763.600799561 0 30599763.600799561 144212796.37788963 0 0 0 0 1057775.4372558594 11240.160184860229 0 11240.160184860229 4184877.5103887916 0 0 0 0 -20558949.975723267 26018849.798675537 0 26018849.798675537 143693292.57733011 0 0 0 0 -47675001.75982666 31598568.793626785 0 31598568.793626785 170518626.09729767 0 0 0 0 -33143582.866287231 14459966.49133873 0 14459966.49133873 178283926.70424652 0 0 0 0 -44962532.425214767 19541608.846441984 0 19541608.846441984 176421415.39473724 0 0 0 0 -60401870.824523926 20852718.215747833 0 20852718.215747833 190010983.29781532 0 0 0 0 -79042078.444976807 42218315.109981537 0 42218315.109981537 182990370.55984497 0 0 0 0 -39700803.152740479 31949687.900085449 0 31949687.900085449 170059552.73028374 0 0 0 0 -46679143.083450317 36741909.680620193 0 36741909.680620193 181931444.0030365 0 0 0 0 -37922761.640411377 36644063.426147461 0 36644063.426147461 163851185.31336594 0 0 0 0 -48010071.979347229 54903333.570763588 0 54903333.570763588 158330486.20435333 0 0 0 0 -30148180.377319336 51687536.266944885 0 51687536.266944885 158864034.60621071 0 0 0 0 -50991593.017425537 45328723.918354034 0 45328723.918354034 168235827.91072083 0 0 0 0 -65073818.951202393 58652798.487186432 0 58652798.487186432 189938051.92227745 0 0 0 0 -58032728.005859375 61738174.045782089 0 61738174.045782089 172209371.30105209 0 0 0 0 -53452937.471307755 87930195.373077869 0 87930195.373077869 160258071.83634186 0 0 0 0 -23637079.18057251 49356456.022701263 0 49356456.022701263 126731951.67907715 0 0 0 0 -22918717.272613525 61034190.016834259 0 61034190.016834259 127049404.82902527 0 0 0 0 -30778702.002716064 56969747.698707581 0 56969747.698707581 143428221.25436401 0 0 0 0 -23197796.023071289 43875789.991695404 0 43875789.991695404 139335151.84848785 0 0 0 0 -29283799.761001587 39859413.036102295 0 39859413.036102295 154531718.39553833 0 0 0 0 -41812637.060119629 43522272.005462646 0 43522272.005462646 154211674.39933777 0 0 0 0 -4250804.7821655273 15311224.517456055 0 15311224.517456055 148707544.94981003 0 0 0 0 10601852.918212891 12056584.974500656 0 12056584.974500656 31590338.452861786 0 0 0 0 66125706.78673172 7979257.8016033173 0 7979257.8016033173 -6203620.336730957 0 0 0 0 12278460.845003128 58978324.95410943 0 58978324.95410943 59726147.242080688 0 0 0 0 51234704.627075195 85727513.161132812 0 85727513.161132812 77858064.570932388 0 0 0 0 26480804.153015137 111980857.83971024 0 111980857.83971024 59227323.787403107 0 0 0 0 18453226.697052002 130749875.58026314 0 130749875.58026314 141882404.28208923 0 0 0 0 -18546008.565444946 83797236.083625793 0 83797236.083625793 140962332.03499222 0 0 0 0 -18010167.826904297 91013117.998683929 0 91013117.998683929 105449681.11136246 0 0 0 0 7653483.6056938171 81951964.629142761 0 81951964.629142761 105900142.68143463 0 0 0 0 -7000562.7007751465 56340772.443851471 0 56340772.443851471 87089264.987251282 0 0 0 0 -6514410.4629821777 8712522.6292228699 0 8712522.6292228699 112542128.45976257 0 0 0 0 -3428353.8105163574 50794224.796043396 0 50794224.796043396 90892334.833236694 0 0 0 0 -7842227.6069946289 55826399.633232117 0 55826399.633232117 128847101.73890305 0 0 0 0 -6992537.8227233887 61137933.30165863 0 61137933.30165863 108181292.60270691 0 0 0 0 -12099867.46081543 38719584.113166809 0 38719584.113166809 130745932.13871193 0 0 0 0 -3688460.9996948242 34106133.610969543 0 34106133.610969543 106072282.67504597 0 0 0 0 -261964.31707000732 46129414.434789658 0 46129414.434789658 64812129.35975647 0 0 0 0 -2400494.1065368652 3690722.6678009033 0 3690722.6678009033 82641694.980066299 0 0 0 0 -1731816.0393371582 -2781401.2787590027 0 -2781401.2787590027 30443928.404722214 0 0 0 0 -3357219.9410934448 37824132.102983475 0 37824132.102983475 66216931.141983032 0 0 0 0 12833362.21749115 38100206.693658829 0 38100206.693658829 11579192.664482117 0 0 0 0 -11513244.3465271 35227830.553973198 0 35227830.553973198 68725390.651939392 0 0 0 0 355027.99676652066 4163556.0086528733 0 4163556.0086528733 -5672273.0591113642 0 0 0 0 -661021772.27311707 -23034540.537739873 0 -23034540.537739873 101757433.8093977 0 0 0 0 -1336754.7365772519 2670266.6897928566 0 2670266.6897928566 -2321487.9772756603 0 0 0 0 -293093633.72179413 41173387.92022121 0 41173387.92022121 -94995135.401254952 0 0 0 0 -357138605.03199768 109089394.51129624 0 109089394.51129624 3507745.0411441326 0 0 0 0 -678820977.09870195 256044906.73271969 0 256044906.73271969 36138654.244845271 0 0 0 0 -450715003.61297607 93002625.56586194 0 93002625.56586194 85384092.648440361 0 0 0 0 -294254.7093951907 137504.56075108796 0 137504.56075108796 -133847.03264171508 0 0 0 0 -643091290.84967041 84587471.443033695 0 84587471.443033695 122574779.22099763 0 0 0 0 -659828819.06389618 143910707.53257108 0 143910707.53257108 100775582.50121403 0 0 0 0 -521175531.42238617 -33824629.536339045 0 -33824629.536339045 -20417279.112652302 0 0 0 0 -777099295.24484253 93680373.909954548 0 93680373.909954548 123575502.51908159 0 0 0 0 -739800.46174300276 2881422.2982014306 0 2881422.2982014306 -5490417.7405646769 0 0 0 0 -501281257.02846527 31158612.006481528 0 31158612.006481528 -37179685.658956528 0 0 0 0 181238696.22974396 187392248.48682404 0 187392248.48682404 165543735.70513535 0 0 0 0 185418109.0039978 243793117.41052437 0 243793117.41052437 48511465.890097857 0 0 0 0 252577876.90208435 100025850.80198288 0 100025850.80198288 -24359823.928894758 0 0 0 0 16385.294363282621 1007755.9793919846 0 1007755.9793919846 -641522.32825239375 0 0 0 0 -2908236.999458313 3203421.3423467278 0 3203421.3423467278 -1527770.0847363472 0 0 0 0 -2482601.763458252 4743645.5786756277 0 4743645.5786756277 -35083.838914871216 0 0 0 0 -2546241.3910522461 2784017.5243661404 0 2784017.5243661404 -1445828.1373310089 0 0 0 0 -2580844.2331809998 2497766.2857652903 0 2497766.2857652903 -3437039.7925014496 0 0 0 0 -2886963.6298522949 5981703.7319931984 0 5981703.7319931984 -5975383.6465773582 0 0 0 0 -3208471.0018081665 4336121.4254500866 0 4336121.4254500866 916168.46279382706 0 0 0 0 -3423533.8112182617 2721182.8906898499 0 2721182.8906898499 -2928253.1040263176 0 0 0 0 -667041437.8215704 144570391.45250329 0 144570391.45250329 -103592111.47938293 0 0 0 0 -2540261.0183748044 2374082.0739893261 0 2374082.0739893261 -2079715.4282037315 0 0 0 0 -530444315.09740829 303759284.1045531 0 303759284.1045531 -51083843.859853014 0 0 0 0 -458952275.78385925 -42977342.867601424 0 -42977342.867601424 -8423499.6873121969 0 0 0 0 -829324.84674888663 39835.444616679102 0 39835.444616679102 -247388.95349390991 0 0 0 0 -661532351.31785393 343956083.72269177 0 343956083.72269177 -160642479.64336669 0 0 0 0 -599732.38922892511 723156.26913845912 0 723156.26913845912 -99846.039309278029 0 0 0 0 -421982885.33449554 174772118.74575502 0 174772118.74575502 -41535938.193677783 0 0 0 0 -323849754.57723999 343233047.02558959 0 343233047.02558959 -190582786.88035989 0 0 0 0 -1511504.1856842041 2474248.012157917 0 2474248.012157917 -185311.6581158638 0 0 0 0 -3987965.6625061035 1814487.0122566223 0 1814487.0122566223 577117.56174182892 0 0 0 0 -2467723.504447408 2880009.6253421409 0 2880009.6253421409 -1056218.1662157599 0 0 0 0 -4089828.3179931641 1171438.1345982552 0 1171438.1345982552 -905860.2262506485 0 0 0 0 -12298340.458747864 -4107818.0994092226 0 -4107818.0994092226 1825768.4778317213 0 0 0 0 -5237781.7121607307 2856228.0203008968 0 2856228.0203008968 2228850.1030474165 0 0 0 0 -6730118.0811358765 5707444.7394321123 0 5707444.7394321123 3691283.5071051288 0 0 0 0 24930983.980117798 16362803.768507004 0 16362803.768507004 -83322184.853744507 0 0 0 0 -1637121.0318603516 10107582.299847275 0 10107582.299847275 4855802.0588886552 0 0 0 0 -562529.32026672363 11067097.687059253 0 11067097.687059253 3232459.8497053087 0 0 0 0 -2132481.9169845581 9023373.6044765636 0 9023373.6044765636 2892900.7634531409 0 0 0 0 -599996.02513694763 10866050.788550671 0 10866050.788550671 2184063.1771725565 0 0 0 0 -5223810.7158660889 9421018.8506538048 0 9421018.8506538048 6588998.4616028927 0 0 0 0 -1202143.9550509434 322085.88578285277 0 322085.88578285277 405170.08824329101 0 0 0 0 -3932609.9484519958 1592394.6796389818 0 1592394.6796389818 -3698690.6714205742 0 0 0 0 -15182663.111465454 12822634.7767272 0 12822634.7767272 3970.0562229156494 0 0 0 0 -24502751.681610107 -14072977.564945698 0 -14072977.564945698 838392.75556832552 0 0 0 0 -18068301.937088013 12995905.143867493 0 12995905.143867493 -5502733.5473255515 0 0 0 0 -3756200.0350646973 4310883.1079726219 0 4310883.1079726219 -7525689.1161646843 0 0 0 0 -7924673.8301239014 4743240.5369887352 0 4743240.5369887352 1194051.2389006615 0 0 0 0 -10006983.643806458 174248.75867938995 0 174248.75867938995 8782410.2726006508 0 0 0 0 -978996.21031188965 2999939.8634710312 0 2999939.8634710312 1578511.2582559586 0 0 0 0 1980195.6292648315 -995627.7533853054 0 -995627.7533853054 2803478.6764658689 0 0 0 0 -12165738.505802155 6867875.8863600492 0 6867875.8863600492 10051136.711974382 0 0 0 0 -7554650.8495616168 2258384.1876001172 0 2258384.1876001172 2280023.0934925671 0 0 0 0 -5469097.3288184702 2478083.1049299566 0 2478083.1049299566 -105196.76791171667 0 0 0 0 -7058165.7327346802 3009022.5154655417 0 3009022.5154655417 -132821.13137916522 0 0 0 0 -6438000.6539154053 1632482.344325677 0 1632482.344325677 -367394.39770764951 0 0 0 0 -7970808.0432510376 1874724.264310291 0 1874724.264310291 520951.92094179988 0 0 0 0 -7707162.0167999268 1324143.3683684235 0 1324143.3683684235 -472637.56932864431 0 0 0 0 -5139581.36378479 5375900.3242585659 0 5375900.3242585659 5693828.3017323017 0 0 0 0 -6128377.0898081586 1424972.0979532041 0 1424972.0979532041 431908.04503580841 0 0 0 0 -3956723.9644012451 7653488.1195225716 0 7653488.1195225716 902321.32918024063 0 0 0 0 -407025980.57833099 90746688.289878577 0 90746688.289878577 -87429646.509576932 0 0 0 0 -3109189.3379391953 1776382.3002623133 0 1776382.3002623133 -1422565.0157834347 0 0 0 0 -4085760.0644683838 1274581.3101358414 0 1274581.3101358414 1055941.8514438868 0 0 0 0 -7006871.2601547241 225689.72917333385 0 225689.72917333385 -737608.78689553775 0 0 0 0 -6353129.8970031738 719585.86345761246 0 719585.86345761246 -450214.53747863322 0 0 0 0 -7135370.2250976562 2293536.2041681446 0 2293536.2041681446 -772422.39850036241 0 0 0 0 -3517716.7862597462 191815.99608070403 0 191815.99608070403 -806482.36211657897 0 0 0 0 -9309775.4711914062 1200518.6185981417 0 1200518.6185981417 134295.22069846839 0 0 0 0 -8705756.3009033203 921935.94770772476 0 921935.94770772476 -146565.2812238303 0 0 0 0 -4416.8078516609967 546.68286523222923 0 546.68286523222923 -1812.3390604440801 0 0 0 0 -9625128.3780975342 1995164.1328608878 0 1995164.1328608878 24138.944914733991 0 0 0 0 -8625627.6654815674 1757416.2172996211 0 1757416.2172996211 -308242.82343399897 0 0 0 0 -8147671.472366333 1417152.6916570086 0 1417152.6916570086 -367283.15030056972 0 0 0 0 -8503114.2478027344 1983176.7172778696 0 1983176.7172778696 -639273.07911337214 0 0 0 0 -7902551.4107513428 1495645.013729905 0 1495645.013729905 -218369.35578239243 0 0 0 0 -7714877.4436414838 1848702.2318820327 0 1848702.2318820327 -117161.7464481052 0 0 0 0 -8023681.9222335815 1595957.4995015946 0 1595957.4995015946 -121350.98263547383 0 0 0 0 -8081528.3250617981 1370248.4420886503 0 1370248.4420886503 357404.07660206314 0 0 0 0 -8088005.6127166748 1265886.0133350638 0 1265886.0133350638 -140913.48341868259 0 0 0 0 -7840603.3761520386 1391676.9008192553 0 1391676.9008192553 -195597.2557647347 0 0 0 0 -7876673.3595581055 1483140.2510992973 0 1483140.2510992973 -419130.09845178656 0 0 0 0 -8153474.9624023438 1294512.4242261597 0 1294512.4242261597 -65469.484417431988 0 0 0 0 -7714711.5028839111 1138380.3667392286 0 1138380.3667392286 -62510.091397505799 0 0 0 0 -7769054.2427053452 1412783.340881974 0 1412783.340881974 -201495.90989178838 0 0 0 0 -8025922.0009155273 971480.61823600507 0 971480.61823600507 130636.29058401519 0 0 0 0 -8252123.6609573364 1106184.890394506 0 1106184.890394506 222981.62523087068 0 0 0 0 -8117219.3367614746 712832.9163592991 0 712832.9163592991 1311.8786132984364 0 0 0 0 -7653366.2248840332 1065030.3924353197 0 1065030.3924353197 145075.42802812741 0 0 0 0 -7417251.9563884735 801638.53756447171 0 801638.53756447171 -530.87860180944153 0 0 0 0 -9281836.0332183838 423330.72859974467 0 423330.72859974467 -4415.2441211027481 0 0 0 0 -8777339.2294540405 1023033.6944366267 0 1023033.6944366267 479893.91643282329 0 0 0 0 -8182650.3644332886 1263674.5813205163 0 1263674.5813205163 557805.6213332623 0 0 0 0 -8674180.5415916443 1604372.9457486824 0 1604372.9457486824 2009305.9667049767 0 0 0 0 -8582863.4473190308 1424860.8899151292 0 1424860.8899151292 531107.60031815432 0 0 0 0 -7848681.707300663 2133671.6670915913 0 2133671.6670915913 1132719.9106847779 0 0 0 0 -7812145.3881530762 1627046.7073520296 0 1627046.7073520296 -34823.820246845018 0 0 0 0 -8197132.06690979 2971878.3091447102 0 2971878.3091447102 161900.37431280827 0 0 0 0 -18103842.423942566 -2842806.8654662184 0 -2842806.8654662184 8923486.1323492825 0 0 0 0 -8250347.2106895447 3158366.2562194695 0 3158366.2562194695 1677236.7143803453 0 0 0 0 -4325209.8511112109 85658.299606341869 0 85658.299606341869 781356.77461990761 0 0 0 0 -11384629.418266296 -2172453.0186944529 0 -2172453.0186944529 -1634819.6627308689 0 0 0 0 -981881.30396468565 -149558.81158905104 0 -149558.81158905104 28489.679703695867 0 0 0 0 -35087576.487617493 -7825238.2792107519 0 -7825238.2792107519 2292367.9839907195 0 0 0 0 -4008860.5375976562 4259594.2851086734 0 4259594.2851086734 823558.04122046439 0 0 0 0 -22139350.062339783 -97717.560467747928 0 -97717.560467747928 5618.7950025484661 0 0 0 0 -15305263.688140869 5300672.6287227431 0 5300672.6287227431 825942.17697170563 0 0 0 0 -16819204.911952972 1287247.2121049471 0 1287247.2121049471 -2715.0122981243717 0 0 0 0 -17815627.764312744 -1840464.3073565755 0 -1840464.3073565755 -3000838.5092874998 0 0 0 0 -18125798.750457764 1546074.3581897235 0 1546074.3581897235 2340416.2829181198 0 0 0 0 -18914459.530807495 4008325.8457608242 0 4008325.8457608242 -4265475.2809499949 0 0 0 0 -12014541.237297058 1522479.0147174785 0 1522479.0147174785 -2783777.4052489931 0 0 0 0 -10624524.831040025 6211995.9474499887 0 6211995.9474499887 4808939.991344614 0 0 0 0 -10516669.10358429 1835228.2378914636 0 1835228.2378914636 11638.562537711114 0 0 0 0 -16855421.29883194 4695381.6182918008 0 4695381.6182918008 14659554.052977562 0 0 0 0 5336272.605632782 18031777.584680438 0 18031777.584680438 16374078.137884498 0 0 0 0 216403.45942468941 -81078.679399869405 0 -81078.679399869405 -205129.45868631551 0 0 0 0 26410951.647202373 -2853407.7724327799 0 -2853407.7724327799 -6466909.8494334519 0 0 0 0 25537343.58744812 22519962.330571383 0 22519962.330571383 7913450.5950927138 0 0 0 0 -6691031.5397796631 12843413.887421876 0 12843413.887421876 20106247.670072407 0 0 0 0 2752501.0499591827 20963960.829022124 0 20963960.829022124 27037252.27024734 0 0 0 0 -11915571.113926366 998584.79142694734 0 998584.79142694734 869309.1692138348 0 0 0 0 -11847666.176293172 2027321.8196830549 0 2027321.8196830549 1173440.299764259 0 0 0 0 -8331623.3714675903 8971264.0953851342 0 8971264.0953851342 8810731.9794492126 0 0 0 0 -6593029.3841400146 7403667.3637883365 0 7403667.3637883365 10074326.670457423 0 0 0 0 261144.96912956238 9533144.5730104819 0 9533144.5730104819 2983870.7510911077 0 0 0 0 -1287345.6567440033 12899661.39088993 0 12899661.39088993 5692027.6156113446 0 0 0 0 -6870948.8167419434 10399662.831059217 0 10399662.831059217 5076106.8680763431 0 0 0 0 -1536152.524181366 9061487.7104235776 0 9061487.7104235776 2892469.5857034177 0 0 0 0 -8286468.768699646 11351298.85215155 0 11351298.85215155 12635249.064593837 0 0 0 0 -8207632.0364074707 9125781.2886303142 0 9125781.2886303142 6729400.1549825072 0 0 0 0 -8678572.364654541 12253371.142910019 0 12253371.142910019 4267980.8085381985 0 0 0 0 -9537254.2917022705 9641522.8301257789 0 9641522.8301257789 2559259.620503515 0 0 0 0 -7560623.5497722626 8937852.0669277124 0 8937852.0669277124 2061043.712923795 0 0 0 0 -11877544.364883423 8334082.9580161646 0 8334082.9580161646 1976616.4695017934 0 0 0 0 -6363689.4040222168 9289313.4433981329 0 9289313.4433981329 -3082936.4679812938 0 0 0 0 -11771796.337158203 8395003.0877562761 0 8395003.0877562761 -2667876.6071387827 0 0 0 0 -13928290.238769531 6707962.3607997894 0 6707962.3607997894 -2640427.9234084785 0 0 0 0 -3457203.1844329834 14001204.008189321 0 14001204.008189321 -5373543.2947233915 0 0 0 0 -9684009.6423187256 11445262.426879346 0 11445262.426879346 -2371548.9520728588 0 0 0 0 -25788113.062286377 13975964.058055609 0 13975964.058055609 -1280317.1772381067 0 0 0 0 -10225340.601257324 28155568.041063249 0 28155568.041063249 -25407260.181678116 0 0 0 0 -5084325.7915344238 14495419.474001527 0 14495419.474001527 -5511285.825578928 0 0 0 0 -1234563.178352356 7288548.5838852003 0 7288548.5838852003 -1499685.0495598912 0 0 0 0 -1976472.8191184998 8014810.3826249689 0 8014810.3826249689 406976.32890573144 0 0 0 0 -2979668.5629119873 9488442.6601934433 0 9488442.6601934433 -352381.26462158561 0 0 0 0 -5815805.8041229248 7632716.414454788 0 7632716.414454788 -1944167.2338130474 0 0 0 0 -5630348.5712585449 8010555.8926877677 0 8010555.8926877677 -1176080.8002281189 0 0 0 0 -4925550.9987182617 8239336.4099942446 0 8239336.4099942446 -3453126.6604042053 0 0 0 0 -4520891.7933807373 9100558.3399073482 0 9100558.3399073482 -1622240.1324688196 0 0 0 0 -3494464.6868896484 7363625.6434394121 0 7363625.6434394121 -2163537.9706662893 0 0 0 0 -724742.52485656738 8083873.58727476 0 8083873.58727476 -2183384.8008067906 0 0 0 0 -2701130.7904052734 8401449.5513755083 0 8401449.5513755083 -2985538.5022940934 0 0 0 0 5573185.5884017944 3193728.7698376887 0 3193728.7698376887 -5384962.685850665 0 0 0 0 2016995.1055603027 5633410.3405421078 0 5633410.3405421078 -3684738.3151363283 0 0 0 0 988485.18101119995 3762376.2846402377 0 3762376.2846402377 -3916319.10099262 0 0 0 0 7203858.7714233398 5061427.9871303737 0 5061427.9871303737 -3651264.1424845643 0 0 0 0 3149695.9732055664 9910509.0094948784 0 9910509.0094948784 68089.716668978333 0 0 0 0 4344797.6769561768 3212082.6048029363 0 3212082.6048029363 -5052126.3192394674 0 0 0 0 11389985.35332489 1256919.6614187658 0 1256919.6614187658 -6645696.6874444522 0 0 0 0 8188567.5469837189 -6086339.3964881003 0 -6086339.3964881003 -5079954.7930882275 0 0 0 0 4511998.8505401611 -573461.24472886324 0 -573461.24472886324 -6801423.0699988604 0 0 0 0 12486900.913187027 -5760682.6137557551 0 -5760682.6137557551 -6634893.4304976165 0 0 0 0 25481092.243495941 6866521.3266809955 0 6866521.3266809955 -4891787.2411326915 0 0 0 0 2742765.6044311523 11838019.551369682 0 11838019.551369682 3328232.4593942054 0 0 0 0 322692.44535355642 -177035.30657276325 0 -177035.30657276325 -381054.43227957218 0 0 0 0 40997454.453388214 24566494.524557769 0 24566494.524557769 -62503385.79853946 0 0 0 0 2550438.7158546448 510278.67506437004 0 510278.67506437004 -11453594.043813236 0 0 0 0 4643240.2816543579 2376401.7149983458 0 2376401.7149983458 -20796405.444985509 0 0 0 0 151227.586682152 -118191.11941165105 0 -118191.11941165105 -221878.126363811 0 0 0 0 -94468602.523971558 -75206869.22704199 0 -75206869.22704199 -2242392.4393058419 0 0 0 0 -62976531.04283905 -30555182.282526299 0 -30555182.282526299 -130558447.19770744 0 0 0 0 -67011066.264633179 50186190.491287492 0 50186190.491287492 -87041273.913268611 0 0 0 0 -9689511.1688308716 40554876.209839247 0 40554876.209839247 -45179026.050355256 0 0 0 0 39313673.154335022 18178834.381658822 0 18178834.381658822 -86039026.569379151 0 0 0 0 8846289.917356424 54891202.239948601 0 54891202.239948601 -30380540.495862067 0 0 0 0 8944023.5939712524 18968986.456723154 0 18968986.456723154 -92104202.180588484 0 0 0 0 -66839012.739753723 30569832.668397605 0 30569832.668397605 6652636.4727253914 0 0 0 0 -27505356.670761108 84805898.214672804 0 84805898.214672804 192770.75582170486 0 0 0 0 -14282034.838424683 32008528.743865848 0 32008528.743865848 109135358.64554811 0 0 0 0 41125767.043647766 32209282.662972927 0 32209282.662972927 -17986831.329810619 0 0 0 0 12291859.695777893 96544932.479944706 0 96544932.479944706 47844342.643568397 0 0 0 0 6416269.2863311768 29217603.337833285 0 29217603.337833285 160504983.58562016 0 0 0 0 -3006738.6405334473 26606077.283597589 0 26606077.283597589 50019300.308210313 0 0 0 0 19304152.054166794 61097199.550156161 0 61097199.550156161 19835758.636339068 0 0 0 0 33035107.145965576 51021111.75655508 0 51021111.75655508 50244674.606908619 0 0 0 0 8383593.0200576782 49986968.389203429 0 49986968.389203429 50402144.827133343 0 0 0 0 -10465140.879173279 62274932.86585176 0 62274932.86585176 -8161584.4750979543 0 0 0 0 -21211797.389671326 13972740.447881877 0 13972740.447881877 -10605538.861804187 0 0 0 0 -24117116.320728302 40231237.826337218 0 40231237.826337218 78007921.083427668 0 0 0 0 -11590906.408497825 882653.46149165882 0 882653.46149165882 704583.91096633545 0 0 0 0 -12254263.537895203 4574410.1454135869 0 4574410.1454135869 11138362.439245224 0 0 0 0 -12285262.779914856 4363441.1228041416 0 4363441.1228041416 6532456.6443125289 0 0 0 0 -10835813.184731774 1714540.429678381 0 1714540.429678381 507307.88839978958 0 0 0 0 -175457.47743225098 46134173.171621263 0 46134173.171621263 121725245.51258063 0 0 0 0 -10155693.222961426 3784589.3569355616 0 3784589.3569355616 3961782.1851968654 0 0 0 0 -11167922.633720398 3941036.266320019 0 3941036.266320019 3958342.9404278058 0 0 0 0 -9377126.0865707397 2726588.4423763757 0 2726588.4423763757 -528938.33405517554 0 0 0 0 -12388821.342857361 1501092.3064317887 0 1501092.3064317887 513652.29131412203 0 0 0 0 -11732565.204006195 2748620.5593424714 0 2748620.5593424714 1365034.7191920253 0 0 0 0 -10888172.884597778 3259550.1865256429 0 3259550.1865256429 1507360.0885328874 0 0 0 0 -10965240.20716095 2516137.856086174 0 2516137.856086174 -511.11408278445015 0 0 0 0 -19516464.607795715 8199826.8233626178 0 8199826.8233626178 -525435.24657945009 0 0 0 0 -3837632.8357479014 1453682.4268693291 0 1453682.4268693291 -214166.8845080203 0 0 0 0 -11386597.67628479 2837815.2074480858 0 2837815.2074480858 -345679.58260519756 0 0 0 0 -14525623.096511841 2029077.2879787271 0 2029077.2879787271 -5904.7105911594399 0 0 0 0 -10436269.150367737 5124287.0739623746 0 5124287.0739623746 -700455.38865505066 0 0 0 0 -10794814.356002808 2562041.6967958771 0 2562041.6967958771 3028073.7256718739 0 0 0 0 -15098364.667045593 3473778.2591659212 0 3473778.2591659212 2922258.50590679 0 0 0 0 -11656707.444471329 544901.80908997171 0 544901.80908997171 839963.75923908036 0 0 0 0 -12449513.386062622 3681090.4995815223 0 3681090.4995815223 5273320.7288382621 0 0 0 0 -15632379.121841431 36655024.682648659 0 36655024.682648659 4107889.7093319893 0 0 0 0 -12673080.073112488 3079099.0873422138 0 3079099.0873422138 5039935.3321007192 0 0 0 0 -18330498.766937256 -18065297.544327736 0 -18065297.544327736 88215651.285152316 0 0 0 0 34959061.414672375 121028118.55293676 0 121028118.55293676 199499076.11845326 0 0 0 0 -1690035.5296628736 -1002875.3263838273 0 -1002875.3263838273 1014474.0275233799 0 0 0 0 -40771407.434249878 98523605.63506031 0 98523605.63506031 251564484.61338282 0 0 0 0 732010.35888109729 1717142.9041595217 0 1717142.9041595217 -222822.08597140538 0 0 0 0 8983924.8163604736 103863033.29637027 0 103863033.29637027 169917976.30396557 0 0 0 0 25095179.669112206 36207411.610912248 0 36207411.610912248 178353297.95277262 0 0 0 0 4648972.443069458 88868183.270270586 0 88868183.270270586 107082062.55165914 0 0 0 0 -67967780.370437622 71109858.600361824 0 71109858.600361824 182278398.29975367 0 0 0 0 -40710323.829647064 37048805.854418516 0 37048805.854418516 147124843.77144766 0 0 0 0 -79645134.556549072 75209478.508384347 0 75209478.508384347 114323143.13406909 0 0 0 0 -116281629.54772949 19188037.005687237 0 19188037.005687237 170586618.22769666 0 0 0 0 -73359391.398223877 26339318.825586557 0 26339318.825586557 169146163.91263008 0 0 0 0 -59226606.936332703 17697457.544842482 0 17697457.544842482 166214988.54721451 0 0 0 0 -55475145.053390503 57885881.663519382 0 57885881.663519382 156062291.28326488 0 0 0 0 -21208743.52481842 42664121.348725438 0 42664121.348725438 139425006.86062622 0 0 0 0 -98748277.697952271 -33014540.39733696 0 -33014540.39733696 259452472.4008956 0 0 0 0 -103086471.27146912 62046987.71724236 0 62046987.71724236 200589866.82380021 0 0 0 0 -2951982.2534290254 -133144.91897564195 0 -133144.91897564195 498324.88828021998 0 0 0 0 13067547.655769348 -94254685.979361773 0 -94254685.979361773 182854052.30405593 0 0 0 0 -5395797.9964065552 2267891.0646580458 0 2267891.0646580458 -3124610.7747415304 0 0 0 0 -31634129.008453369 -2796578.7996022701 0 -2796578.7996022701 -3552811.9904410839 0 0 0 0 -5273899.1416296884 -1579371.4514835216 0 -1579371.4514835216 -1733961.1980446223 0 0 0 0 -10645279.748681977 405483.76652961224 0 405483.76652961224 457697.16050473647 0 0 0 0 17075303.781738281 -27485889.071512222 0 -27485889.071512222 54171538.206287473 0 0 0 0 -9967777.811214447 6147840.1574532799 0 6147840.1574532799 3135416.3633865337 0 0 0 0 14675734.760894775 -33484398.060155869 0 -33484398.060155869 84882935.312122345 0 0 0 0 -16753265.065368652 26266276.338190079 0 26266276.338190079 53798407.746286392 0 0 0 0 -13056757.918478966 71350886.845519945 0 71350886.845519945 134876533.38552952 0 0 0 0 -8220637.6058044434 -7898827.8508973122 0 -7898827.8508973122 171659057.08581808 0 0 0 0 -10851749.986785889 4299229.6149495756 0 4299229.6149495756 2248814.1282048644 0 0 0 0 -14065456.020935059 -2702540.254578907 0 -2702540.254578907 1644193.1873027422 0 0 0 0 -5916946.1618406773 1433678.3296242617 0 1433678.3296242617 761964.62984867941 0 0 0 0 -9163410.3434486389 -2133246.9204690615 0 -2133246.9204690615 -1419833.7403335627 0 0 0 0 -1985551.5282592773 -601628.66666868329 0 -601628.66666868329 758289.13288533688 0 0 0 0 -7674961.0466719791 102645.5324721802 0 102645.5324721802 -964944.47901102959 0 0 0 0 -16165819.96635437 8198848.9843805637 0 8198848.9843805637 4603220.5673125833 0 0 0 0 -9451698.4008178711 -5856034.0495844726 0 -5856034.0495844726 -701255.04647168145 0 0 0 0 -410047.46886812896 255155.65272003226 0 255155.65272003226 301993.52789249335 0 0 0 0 -5440220.3105656356 -1380417.7217555437 0 -1380417.7217555437 88339.922143041185 0 0 0 0 -10197451.854888916 -134491.55777996778 0 -134491.55777996778 711727.47710342705 0 0 0 0 -13906687.423156738 -2676460.5735780569 0 -2676460.5735780569 1570604.4031558782 0 0 0 0 -12917884.433074951 -579982.39675731957 0 -579982.39675731957 814104.06415338779 0 0 0 0 -14160758.083831787 -2891224.4631814221 0 -2891224.4631814221 1431875.971339006 0 0 0 0 -15790917.960227966 159334.29696091046 0 159334.29696091046 2571334.2824458536 0 0 0 0 -5268655.8762648515 339893.77554144338 0 339893.77554144338 302678.35415716429 0 0 0 0 -11255870.188461304 -2945535.2955309637 0 -2945535.2955309637 3751.9420269188718 0 0 0 0 -5116494.0525054932 -835466.98851236142 0 -835466.98851236142 514089.16046373546 0 0 0 0 -14036001.985450745 -2610726.738434623 0 -2610726.738434623 1702955.7969262237 0 0 0 0 -1432251161.7810059 -44087044.669543482 0 -44087044.669543482 -439263.42535083852 0 0 0 0 -2201279153.0848083 235818109.69428191 0 235818109.69428191 342115685.65622377 0 0 0 0 -2075552690.5181656 234747401.11694768 0 234747401.11694768 -117319881.19257364 0 0 0 0 -1500316513.4631577 -830840950.58033752 0 -830840950.58033752 -148663924.75189859 0 0 0 0 -976319.89396426082 -18008.755837991834 0 -18008.755837991834 12951.270324952795 0 0 0 0 -6163856.4673576355 21190.415644101799 0 21190.415644101799 -1009756.5238327235 0 0 0 0 -3961287.1798553467 -572887.82408439368 0 -572887.82408439368 -2493896.8887401596 0 0 0 0 -2410933.3953466043 -164852.10072563589 0 -164852.10072563589 61880.67211124186 0 0 0 0 -4428577.9219452627 208226.3336060755 0 208226.3336060755 -237175.1430932389 0 0 0 0 -556012106.97102356 175149465.18691814 0 175149465.18691814 -82196283.360768735 0 0 0 0 -163354475.19099426 -152089972.95564547 0 -152089972.95564547 -97694287.625028849 0 0 0 0 -460663961.44511414 -13614938.824874938 0 -13614938.824874938 54346741.721402735 0 0 0 0 -248048142.24328613 -2231674.7913967147 0 -2231674.7913967147 -158980866.14355466 0 0 0 0 -1146075432.2845192 1160113329.5493503 0 1160113329.5493503 -587329195.747208 0 0 0 0 -1086323953.8562803 190239468.12380549 0 190239468.12380549 109278429.51307181 0 0 0 0 -4807898.1845018491 -1056329.5078359991 0 -1056329.5078359991 -834664.23739273322 0 0 0 0 -1545435.3738193065 406319.28464863449 0 406319.28464863449 1566395.1570327743 0 0 0 0 -103993712.34511948 183107871.82702243 0 183107871.82702243 -219869232.20897585 0 0 0 0 -361259899.37667084 -99971434.584974721 0 -99971434.584974721 -24139478.533713147 0 0 0 0 -7557328.9227218628 -518723871.14988285 0 -518723871.14988285 -1068805077.6123661 0 0 0 0 -2125982.9833997488 -80360.425943035632 0 -80360.425943035632 -819475.27461350849 0 0 0 0 -1756444262.6083527 -1055055557.6903841 0 -1055055557.6903841 -345456715.62352055 0 0 0 0 -2201501887.9056206 -1015631585.2036543 0 -1015631585.2036543 148698084.16989836 0 0 0 0 -1664461345.66716 -570718297.87941051 0 -570718297.87941051 -156295523.74798891 0 0 0 0 -1665119270.0969238 -553856141.4097811 0 -553856141.4097811 117822032.65008962 0 0 0 0 -1158259928.8024673 -689925472.60685086 0 -689925472.60685086 -185189336.39539802 0 0 0 0 245121886.06621552 -317308827.46356142 0 -317308827.46356142 -153176250.82232547 0 0 0 0 -1088322874.3010406 118704875.24014407 0 118704875.24014407 243366632.68924874 0 0 0 0 -1355511.9470617622 -543923.64319303632 0 -543923.64319303632 -1006144.6804337604 0 0 0 0 -339437259.91220093 -543945440.85875487 0 -543945440.85875487 -237602004.80275166 0 0 0 0 -62745645.998954773 40244140.143853903 0 40244140.143853903 62067936.071200848 0 0 0 0 -161497612.39089966 -12809310.04317224 0 -12809310.04317224 45732876.54631862 0 0 0 0 -16272893.72082901 -2119134.1089431047 0 -2119134.1089431047 -137006066.89781713 0 0 0 0 -77735383.381690979 15092967.958437979 0 15092967.958437979 84309748.478992015 0 0 0 0 -82574088.698348999 76030819.607236803 0 76030819.607236803 -40901371.855680823 0 0 0 0 -57648885.674827576 50410268.407487676 0 50410268.407487676 -90915440.321195066 0 0 0 0 -129806010.42430115 -23942921.826364398 0 -23942921.826364398 -77285241.14569664 0 0 0 0 -203517812.57779694 32700169.144451395 0 32700169.144451395 -119185925.59891206 0 0 0 0 -138961549.61975861 -32851216.568562061 0 -32851216.568562061 -95718154.75864844 0 0 0 0 -308447562.26714325 -284426507.67334425 0 -284426507.67334425 -168923934.96361548 0 0 0 0 -368093746.55770111 -227566551.91386521 0 -227566551.91386521 -211219422.47646421 0 0 0 0 -964115345.97518921 -355699028.6586507 0 -355699028.6586507 -102078900.82195178 0 0 0 0 -380492098.01536942 -74686231.274338305 0 -74686231.274338305 -142171013.05677456 0 0 0 0 -346343242.90184021 -112645825.72953892 0 -112645825.72953892 -122912499.04480854 0 0 0 0 -137856160.47788239 15552050.840197802 0 15552050.840197802 -108556076.96879208 0 0 0 0 -118656215.6149292 -34077488.926704556 0 -34077488.926704556 -197136033.04636693 0 0 0 0 -366216022.15235901 52507592.828079551 0 52507592.828079551 10268422.699766483 0 0 0 0 -93801239.893407822 -88864311.113068223 0 -88864311.113068223 -126006273.16741312 0 0 0 0 -668631182.0935936 -190341270.17354894 0 -190341270.17354894 -26436659.562927306 0 0 0 0 -905210569.26793671 126663917.25500804 0 126663917.25500804 76091104.389727384 0 0 0 0 -1631159678.5740128 -207633162.37041697 0 -207633162.37041697 381058595.59494519 0 0 0 0 -2205355231.8682313 -497887998.01564193 0 -497887998.01564193 325322610.35956424 0 0 0 0 -1036620792.533165 -306522641.73409843 0 -306522641.73409843 59123647.664975524 0 0 0 0 -1576711071.0799828 -327028104.3385132 0 -327028104.3385132 173691700.91383457 0 0 0 0 -10805870.169015884 -4197054.2338636816 0 -4197054.2338636816 -29843217.723549128 0 0 0 0 -4073138.9077332541 4147055.6643361468 0 4147055.6643361468 -2742314.8153177435 0 0 0 0 -62740456.773803711 -41047674.580653191 0 -41047674.580653191 12274466.678087234 0 0 0 0 -29674301.928436279 37014297.894555092 0 37014297.894555092 -9281423.6772902012 0 0 0 0 -131276657.42370605 -2868990.9442679882 0 -2868990.9442679882 -24934351.517966628 0 0 0 0 -145452155.30049133 -20177739.703047812 0 -20177739.703047812 -3448007.4257675409 0 0 0 0 -143594067.43754196 -65846345.136812106 0 -65846345.136812106 -60380479.498421192 0 0 0 0 146548258.62168503 165128192.47106123 0 165128192.47106123 79187973.684094548 0 0 0 0 119776017.84894562 -15325858.032296181 0 -15325858.032296181 -19420645.113765001 0 0 0 0 -870066.29231220018 761042.75936801359 0 761042.75936801359 285156.1848743622 0 0 0 0 189162315.96876526 103259789.86184049 0 103259789.86184049 -92164035.604224443 0 0 0 0 -2557823.5437545776 -13140518.273335457 0 -13140518.273335457 2393797.8879930973 0 0 0 0 -3069584.6685791016 -396875.0681219101 0 -396875.0681219101 -132315216.9350419 0 0 0 0 -219757120.04537678 -48074680.106254756 0 -48074680.106254756 -131106652.78674507 0 0 0 0 -211564448.15557861 -4488903.6267199516 0 -4488903.6267199516 -29900377.555308819 0 0 0 0 -188406061.11777496 78027576.687452316 0 78027576.687452316 151947675.91218805 0 0 0 0 -137585312.76204109 -58638372.736864746 0 -58638372.736864746 91912779.551917553 0 0 0 0 -133760174.69125366 -39955285.989992976 0 -39955285.989992976 -120301271.02684307 0 0 0 0 -181519504.63651657 107981723.08107924 0 107981723.08107924 -39698337.513588905 0 0 0 0 126574464.36404419 -29198387.378003597 0 -29198387.378003597 -97595091.497110844 0 0 0 0 -15544360.627501488 47004958.728274539 0 47004958.728274539 83873964.476037025 0 0 0 0 -5437419.6694014072 4396979.9344741814 0 4396979.9344741814 -2056328.3786698326 0 0 0 0 -23628000.652410507 -2480368.4391336441 0 -2480368.4391336441 47301242.291983604 0 0 0 0 166498348.87572479 275441276.95359111 0 275441276.95359111 -19229050.600508451 0 0 0 0 113750562.15481567 -176354124.89427686 0 -176354124.89427686 -53803431.128196478 0 0 0 0 -65940607.167358398 24940474.788681984 0 24940474.788681984 100303751.89203143 0 0 0 0 -76363609.348306656 -19083092.170734763 0 -19083092.170734763 81681253.449842453 0 0 0 0 -69885373.461730957 -183090539.12943935 0 -183090539.12943935 64093791.962323815 0 0 0 0 -64276523.086540222 -25625911.549672127 0 -25625911.549672127 79885325.069273949 0 0 0 0 60761819.527374268 104326370.246943 0 104326370.246943 47966060.890183926 0 0 0 0 -1965586.9999397621 -14702.316981805488 0 -14702.316981805488 333471.503689148 0 0 0 0 -68754391.68270874 -19106958.574342728 0 -19106958.574342728 81319065.228661776 0 0 0 0 -45362170.176223755 -29963409.414619207 0 -29963409.414619207 79222108.346404552 0 0 0 0 -78669634.518764496 1756991.4744763374 0 1756991.4744763374 43043515.235368729 0 0 0 0 -68757831.050720215 -18596751.519681931 0 -18596751.519681931 74255725.508985519 0 0 0 0 -35627413.939819336 -17991674.116689444 0 -17991674.116689444 48661495.327048302 0 0 0 0 22315394.744735718 3913432.7513136864 0 3913432.7513136864 11775565.630241871 0 0 0 0 -520774041.55216599 -315226474.94952607 0 -315226474.94952607 -78750127.81418848 0 0 0 0 -15329638.862190247 -36661576.045853853 0 -36661576.045853853 61885893.211896896 0 0 0 0 531516068.84565735 -279705259.67357635 0 -279705259.67357635 -1004424026.1277571 0 0 0 0 -27498658.331832886 -154148659.11990023 0 -154148659.11990023 -74289598.652741432 0 0 0 0 -588037230.60342407 -423524455.04651928 0 -423524455.04651928 -186625850.10876369 0 0 0 0 -289037741.99990845 -334566379.16426563 0 -334566379.16426563 -167534096.39568639 0 0 0 0 -623133070.81482315 -100379260.58575556 0 -100379260.58575556 -35462987.241861343 0 0 0 0 -430571686.09335327 -17952416.52093029 0 -17952416.52093029 -3946203.6414546967 0 0 0 0 -318818179.49190521 78519686.457222223 0 78519686.457222223 -31329979.675769806 0 0 0 0 -348357386.96446991 -413654346.80252481 0 -413654346.80252481 -23249262.898529887 0 0 0 0 -1368057.3918646127 -785001.38664150937 0 -785001.38664150937 -185282.62080104649 0 0 0 0 -15065336.898002625 136061282.45447862 0 136061282.45447862 145480005.9023962 0 0 0 0 47898220.791629791 138218123.5655266 0 138218123.5655266 -121403261.26884794 0 0 0 0 30398478.837287903 -167639600.16087386 0 -167639600.16087386 -304807386.55152178 0 0 0 0 -1342517.8583319932 -175125.25412695669 0 -175125.25412695669 327535.99032136961 0 0 0 0 -56798617.648166656 108143269.66513968 0 108143269.66513968 32756229.959647894 0 0 0 0 27886353.427703857 -7152262.0245463848 0 -7152262.0245463848 96830236.22195816 0 0 0 0 18451993.342126846 15672441.11421591 0 15672441.11421591 129977411.2761879 0 0 0 0 22464803.852203369 -31546525.702368259 0 -31546525.702368259 65659630.50346899 0 0 0 0 -50627430.925231934 -1841826.8746297359 0 -1841826.8746297359 284405208.54052997 0 0 0 0 -3670954.9840699136 -1429583.1131269154 0 -1429583.1131269154 -93370.867263223976 0 0 0 0 -11012643.311767578 -91299747.47458601 0 -91299747.47458601 -38667718.555166066 0 0 0 0 50189131.969093323 -9711467.1530678272 0 -9711467.1530678272 -112184714.31316423 0 0 0 0 29041340.247142792 6437586.6924619675 0 6437586.6924619675 89352276.985940933 0 0 0 0 19856380.461517334 -46706051.162205875 0 -46706051.162205875 75765035.310158253 0 0 0 0 32123783.128662109 -61644777.410639107 0 -61644777.410639107 -24101451.423803091 0 0 0 0 6286791.0637321472 -116520828.77235912 0 -116520828.77235912 -53764296.329196937 0 0 0 0 20939870.600379944 -53527064.81087172 0 -53527064.81087172 -29773729.177515626 0 0 0 0 -55025311.821834564 -79357774.742289752 0 -79357774.742289752 31190780.211286485 0 0 0 0 -106643851.17267418 54775498.400988236 0 54775498.400988236 59385172.011456013 0 0 0 0 -165956352.31452179 96279366.414010227 0 96279366.414010227 49521988.767799348 0 0 0 0 -237502796.6065712 -183396908.45465577 0 -183396908.45465577 -19478119.400950611 0 0 0 0 -177156260.53572845 -44581141.005900636 0 -44581141.005900636 96032561.883776188 0 0 0 0 -193141995.1776886 -98016542.167166412 0 -98016542.167166412 34617874.779391915 0 0 0 0 -33556836.703735352 66535780.895433784 0 66535780.895433784 -20566455.730637237 0 0 0 0 -551713.98869887739 -221429.33192774653 0 -221429.33192774653 462013.79179434624 0 0 0 0 52216952.921005249 29449039.606099591 0 29449039.606099591 -28512958.451166511 0 0 0 0 -45894797.478919983 -70664503.802306503 0 -70664503.802306503 -40917065.891887903 0 0 0 0 -186333627.46287537 -36273590.326113373 0 -36273590.326113373 -2725744.5971449614 0 0 0 0 -51082928.895965576 -80549055.457011566 0 -80549055.457011566 -58175054.331967831 0 0 0 0 -1344597.0209742263 -1037360.9092042353 0 -1037360.9092042353 940779.33320989762 0 0 0 0 3017924.4371337891 -31883822.438717842 0 -31883822.438717842 -50260052.376392573 0 0 0 0 4517365.9669303894 -24421710.085043609 0 -24421710.085043609 -29055556.469022274 0 0 0 0 -3142271.0828333832 -2377628.574730996 0 -2377628.574730996 1566915.2771886119 0 0 0 0 -10415164.69052887 44470868.310688257 0 44470868.310688257 -32754194.138294458 0 0 0 0 21671831.67056632 -17291006.382408358 0 -17291006.382408358 -17476035.472132325 0 0 0 0 -22105963.141143799 -31926599.81639874 0 -31926599.81639874 -7684790.8671817482 0 0 0 0 22964004.73692584 1883053.025014855 0 1883053.025014855 -8370466.9773019552 0 0 0 0 672644.30101013184 8819169.4250569344 0 8819169.4250569344 18300880.473889351 0 0 0 0 -1076978.9934671968 -155405.17603995092 0 -155405.17603995092 968220.70987231785 0 0 0 0 -199916860.06623459 4668609.7645339668 0 4668609.7645339668 16769397.46378696 0 0 0 0 -129325234.57904053 -61282060.438268423 0 -61282060.438268423 -3047008.5413867477 0 0 0 0 -35191297.338752747 -22964450.921340048 0 -22964450.921340048 952223.08578386903 0 0 0 0 -39248753.031326294 -12727995.269100547 0 -12727995.269100547 -22132819.989556313 0 0 0 0 -38024886.4920578 -30300586.872727841 0 -30300586.872727841 -29070331.60118258 0 0 0 0 -32459086.884460449 -18677179.739290386 0 -18677179.739290386 -4802546.3501901627 0 0 0 0 -82048472.645370483 -24306619.884130001 0 -24306619.884130001 -6230542.9373509735 0 0 0 0 -107383245.48413086 -21904808.216416478 0 -21904808.216416478 -9066213.938395977 0 0 0 0 -118859950.80306625 5708588.8817057908 0 5708588.8817057908 -4630434.6218771935 0 0 0 0 -137290257.16268158 -6152170.1600620747 0 -6152170.1600620747 3641456.5976620913 0 0 0 0 -191684509.69033813 42400502.334989309 0 42400502.334989309 -14732997.218313038 0 0 0 0 -70928194.98380661 11647543.611601591 0 11647543.611601591 -120872200.97841239 0 0 0 0 -140378696.55328369 -143584915.18729115 0 -143584915.18729115 -23557064.74174428 0 0 0 0 -70789928.980819702 138125274.48486519 0 138125274.48486519 -159746051.92090893 0 0 0 0 -214990.31695649028 748109.02177314961 0 748109.02177314961 29818.504892292291 0 0 0 0 -162635666.63182068 -67918600.855109289 0 -67918600.855109289 -8569586.8399660587 0 0 0 0 2334516.1884753779 3202895.0678161439 0 3202895.0678161439 -235643.69301519234 0 0 0 0 -25660939.011032104 13930355.338930309 0 13930355.338930309 10706798.443552494 0 0 0 0 -1792407.4973297119 354091.57238155603 0 354091.57238155603 444012.56700864248 0 0 0 0 -2411509.7500419617 -816503.78123474121 0 -816503.78123474121 7767798.0399532318 0 0 0 0 -3370789.3261758965 723134.86027579196 0 723134.86027579196 -1068160.0360104572 0 0 0 0 -49309774.175926208 -9676522.3392843604 0 -9676522.3392843604 -21634472.140956163 0 0 0 0 -941348.45069960039 623604.20979613811 0 623604.20979613811 -909072.63091395632 0 0 0 0 11941289.290847778 -10494928.157892227 0 -10494928.157892227 9558715.0336050987 0 0 0 0 -1495557.4166180044 1204074.7334902724 0 1204074.7334902724 303713.16024119401 0 0 0 0 13707531.2552948 -45454737.642009258 0 -45454737.642009258 39712694.742886543 0 0 0 0 19276495.091751099 -41718255.697191477 0 -41718255.697191477 4348379.3544492722 0 0 0 0 37399428.387207031 -12876426.786140442 0 -12876426.786140442 6075007.1291078329 0 0 0 0 49064958.908432007 -38142438.110962868 0 -38142438.110962868 4761505.7853642702 0 0 0 0 -12859323.659599304 -3634831.1185235009 0 -3634831.1185235009 -13183510.511445999 0 0 0 0 68817770.736335754 -20887702.289059639 0 -20887702.289059639 -9300144.2432975769 0 0 0 0 -1124578.3312419429 197067.96162414923 0 197067.96162414923 -47224.039988940174 0 0 0 0 -2231956.6210566135 2504551.3894036803 0 2504551.3894036803 -2900481.9576475536 0 0 0 0 -194176672.01049328 15212233.494937256 0 15212233.494937256 39584869.218037128 0 0 0 0 55801966.392974854 -39209417.269983768 0 -39209417.269983768 -13538893.552839279 0 0 0 0 30748228.973896027 -71346783.686014652 0 -71346783.686014652 -28166221.27264595 0 0 0 0 77101453.115423203 -17405807.187700272 0 -17405807.187700272 -54407829.328043938 0 0 0 0 67902095.636619568 5954053.4345941544 0 5954053.4345941544 23405379.01126194 0 0 0 0 174907487.34266281 30832700.028606296 0 30832700.028606296 -59951578.008481026 0 0 0 0 -2983792.0703149121 3482055.370745888 0 3482055.370745888 -2893505.0602204097 0 0 0 0 9885729.3664855957 3236520.5654392242 0 3236520.5654392242 -19234609.345680207 0 0 0 0 878068.44093455747 195737.17861350067 0 195737.17861350067 -1005064.3767014109 0 0 0 0 -181176755.68656158 -131489717.283178 0 -131489717.283178 -16627990.264021926 0 0 0 0 -228839573.61073685 22670079.83472991 0 22670079.83472991 -70499545.346177101 0 0 0 0 -252740514.24054718 -24538903.714068651 0 -24538903.714068651 -127028992.88015461 0 0 0 0 -123258942.82817078 -78529581.52399826 0 -78529581.52399826 -70719852.99960804 0 0 0 0 24750229.472602844 -48310101.209621429 0 -48310101.209621429 -45484337.226692438 0 0 0 0 18811781.616714478 -27317877.80996871 0 -27317877.80996871 -111235196.13500547 0 0 0 0 112253680.21122742 8545485.8467755318 0 8545485.8467755318 -91250294.655252457 0 0 0 0 -83013976.438842773 -44162119.3603549 0 -44162119.3603549 -37618563.191231728 0 0 0 0 -6377451.1919937134 -80497233.235886574 0 -80497233.235886574 -54874111.030313969 0 0 0 0 -75322171.798166275 -33402258.367114305 0 -33402258.367114305 -123631455.45281506 0 0 0 0 -172078320.70535278 -60618722.271763802 0 -60618722.271763802 -36917868.741212845 0 0 0 0 -72876992.341489792 -67277437.023893714 0 -67277437.023893714 21459310.585524559 0 0 0 0 -82359722.396240234 -12322519.221746922 0 -12322519.221746922 -13810814.840946198 0 0 0 0 19656616.032608032 -5574855.9154005051 0 -5574855.9154005051 59799645.890601635 0 0 0 0 4487691.349029541 -64303308.463350296 0 -64303308.463350296 6368453.6857309341 0 0 0 0 2830526.2330207825 -54886055.835640907 0 -54886055.835640907 6200212.9549608231 0 0 0 0 -23629068.336669922 -78550786.760024071 0 -78550786.760024071 76008405.411569595 0 0 0 0 -4356109.9578354955 -1385570.0421045872 0 -1385570.0421045872 -654526.1495047356 0 0 0 0 16785077.630493164 -14906937.146774769 0 -14906937.146774769 528765.57688856125 0 0 0 0 -11907363.000930786 -10462597.610830307 0 -10462597.610830307 30745324.027435184 0 0 0 0 -11918276.773674041 -504079.63291879208 0 -504079.63291879208 116620974.78565025 0 0 0 0 -58726.341148909181 -486619.99442012981 0 -486619.99442012981 -697726.00448821671 0 0 0 0 -4196071.9456418008 -1332706.4491651142 0 -1332706.4491651142 -809778.17062685988 0 0 0 0 -21616083.788497925 594734.3856112957 0 594734.3856112957 29164556.497287273 0 0 0 0 -89225841.4324646 -6263069.4968934059 0 -6263069.4968934059 126239497.51769829 0 0 0 0 -18858008.780456543 -34347750.292310715 0 -34347750.292310715 112090646.1722312 0 0 0 0 -51118278.006214142 40563405.666543245 0 40563405.666543245 104273613.24087811 0 0 0 0 27231365.368347168 50465205.139588833 0 50465205.139588833 80076956.641963005 0 0 0 0 -1227937.6953689996 -1117592.8463915903 0 -1117592.8463915903 -1625304.9548080198 0 0 0 0 -773718015.23596954 78666375.043580055 0 78666375.043580055 -80306952.220603943 0 0 0 0 -998565654.0027771 27908558.035359383 0 27908558.035359383 68335837.100397229 0 0 0 0 -58959.692523814738 -143549.77755981358 0 -143549.77755981358 -350146.15046025906 0 0 0 0 -508065.95322383568 -219373.09528836049 0 -219373.09528836049 -534852.2692082068 0 0 0 0 122075355.18907928 372256831.96007729 0 372256831.96007729 -83198494.164600372 0 0 0 0 -117099798.99018478 35297880.954804897 0 35297880.954804897 104218285.78666115 0 0 0 0 -102108958.5004425 -11691668.060137749 0 -11691668.060137749 11169146.78394413 0 0 0 0 -1158974394.0072861 -13544675.8826437 0 -13544675.8826437 -7643968.0841474533 0 0 0 0 -1707639249.037262 111839199.91729879 0 111839199.91729879 -4983764.7635569572 0 0 0 0 -882327543.9377594 -38489828.833837509 0 -38489828.833837509 -89409617.985006332 0 0 0 0 -905856021.57633972 -28962668.17043972 0 -28962668.17043972 -160052175.97161978 0 0 0 0 -1070270490.460144 111604152.39677668 0 111604152.39677668 -213655119.2515862 0 0 0 0 -1019650366.110157 -31970237.140228033 0 -31970237.140228033 -73560553.478023529 0 0 0 0 -1169415461.3491898 291188032.87110996 0 291188032.87110996 -502964349.44607687 0 0 0 0 -1105695485.550457 127416347.1267581 0 127416347.1267581 -103532827.77975035 0 0 0 0 -1594971390.8070526 549244918.70851946 0 549244918.70851946 -487947107.35673904 0 0 0 0 -1387339075.5103035 240891108.03389406 0 240891108.03389406 -30353639.188756943 0 0 0 0 -1210331120.6449432 110018294.33627748 0 110018294.33627748 64824527.169793129 0 0 0 0 -1273764398.8037224 192261194.71720958 0 192261194.71720958 -30638458.507283211 0 0 0 0 -1215358565.6955376 213359461.72496712 0 213359461.72496712 -153674890.83625126 0 0 0 0 -1240415700.8706284 249087347.88470078 0 249087347.88470078 -106164627.20530558 0 0 0 0 -1173485430.9639053 98090937.442546368 0 98090937.442546368 47078318.985459805 0 0 0 0 -1243815323.8865089 134145323.47021651 0 134145323.47021651 107128332.7390995 0 0 0 0 -1317976381.4780884 34404404.97274971 0 34404404.97274971 149515056.94400811 0 0 0 0 -1026822104.4915771 12113147.402081013 0 12113147.402081013 133223361.99539447 0 0 0 0 -1316834347.6937408 107321737.13756275 0 107321737.13756275 105908359.23893929 0 0 0 0 -1234841052.9789639 166483608.13036108 0 166483608.13036108 210846184.65607929 0 0 0 0 -1106051599.7937622 -10238641.874948978 0 -10238641.874948978 186635881.83379841 0 0 0 0 -978066835.92206573 34750486.364142895 0 34750486.364142895 169162302.67426491 0 0 0 0 -800948877.11028862 340098405.88299453 0 340098405.88299453 367658316.98623562 0 0 0 0 -952915775.28384399 1671531.3518024683 0 1671531.3518024683 209790384.80169487 0 0 0 0 -1909909588.8168335 162891618.70949709 0 162891618.70949709 384995976.4887718 0 0 0 0 -1124569609.3710403 -60904104.957903862 0 -60904104.957903862 77613836.74193573 0 0 0 0 -1291250227.7715912 94735538.01693058 0 94735538.01693058 283594001.08107853 0 0 0 0 -1040764604.7041817 136355105.49141037 0 136355105.49141037 66258401.925697327 0 0 0 0 -974581483.66345215 137536896.18738508 0 137536896.18738508 25110343.196371078 0 0 0 0 -1252709438.6108551 191218614.33731699 0 191218614.33731699 96241432.734565258 0 0 0 0 -613512542.52855682 70188773.050630093 0 70188773.050630093 -66877920.855727196 0 0 0 0 -605234634.06789398 -33351710.637171745 0 -33351710.637171745 -38284321.136467934 0 0 0 0 -985593715.72983551 81862312.690754414 0 81862312.690754414 32256930.945940495 0 0 0 0 -546036351.47138214 38688341.027440071 0 38688341.027440071 -5131243.770359993 0 0 0 0 -548266238.5484426 152511223.49560708 0 152511223.49560708 -43371593.899559021 0 0 0 0 -187944836.92193699 113662111.86209497 0 113662111.86209497 -104822968.08754921 0 0 0 0 -1050794597.2524185 325282548.69138432 0 325282548.69138432 11528271.098062038 0 0 0 0 -1224989903.8898487 238831632.8753041 0 238831632.8753041 -100711498.80732918 0 0 0 0 -1010236200.6923294 73429774.743474007 0 73429774.743474007 13975238.221957684 0 0 0 0 31107913.925193787 -122817441.58089471 0 -122817441.58089471 208298219.7084074 0 0 0 0 -17170265.116424561 3290449.2322220802 0 3290449.2322220802 8385577.8573484421 0 0 0 0 -5125310.6247963384 834215.46116629988 0 834215.46116629988 4799570.5642480543 0 0 0 0 -6340349.1799812317 2505670.0599039793 0 2505670.0599039793 6904258.7855706215 0 0 0 0 -9223050.3459014893 -1201439.8613739014 0 -1201439.8613739014 2710387.1831054688 0 0 0 0 -6266354.2936852761 -1746608.9838577369 0 -1746608.9838577369 3145316.5669664559 0 0 0 0 -3863243.5017421991 -1106383.1983954324 0 -1106383.1983954324 1858069.9648912351 0 0 0 0 -2754633.2930089831 -538705.78458619863 0 -538705.78458619863 421769.43175439257 0 0 0 0 264275.6653213501 -9270848.7389807701 0 -9270848.7389807701 6289844.98148489 0 0 0 0 -16675782.456542969 -6993572.191971302 0 -6993572.191971302 15374050.527983189 0 0 0 0 -175569029.32792664 -154433713.70302022 0 -154433713.70302022 -131247624.99181557 0 0 0 0 -694087246.14295197 20808917.083105087 0 20808917.083105087 89901609.78055191 0 0 0 0 -927620105.0221138 -580104188.02334094 0 -580104188.02334094 -363637963.5912838 0 0 0 0 -7484829.1815948486 2957489.0222434998 0 2957489.0222434998 -8942743.0338373184 0 0 0 0 -1186462.6662766151 142394.29131009802 0 142394.29131009802 898655.40212507918 0 0 0 0 -1882151564.7967033 10881013.518219829 0 10881013.518219829 153876127.25276566 0 0 0 0 -1070058666.4285126 -225371578.50389671 0 -225371578.50389671 156655980.81605136 0 0 0 0 -1081576712.9722443 -102004416.20860219 0 -102004416.20860219 167621974.57486343 0 0 0 0 -1492879365.2525558 -17281379.572770834 0 -17281379.572770834 167656166.13346291 0 0 0 0 -1007940906.9576492 -82230167.737105846 0 -82230167.737105846 120940852.43813801 0 0 0 0 -1041199477.0979004 -64832164.357386112 0 -64832164.357386112 116501319.17371023 0 0 0 0 -1038878157.1637802 15388415.574880838 0 15388415.574880838 226412577.66414165 0 0 0 0 -1023920558.6702347 25288005.863185406 0 25288005.863185406 60886016.440132141 0 0 0 0 -1039069054.255806 -65241545.170382023 0 -65241545.170382023 111390348.07151031 0 0 0 0 -783133.09029943123 -91099.03041536361 0 -91099.03041536361 -92149.71758675715 0 0 0 0 -3861309.0451164246 -53322048.147681236 0 -53322048.147681236 15574224.369506836 0 0 0 0 -1029933152.9625854 -46535376.204985142 0 -46535376.204985142 109060528.35854256 0 0 0 0 -1059425213.2189789 -47064029.996433258 0 -47064029.996433258 120391195.39122152 0 0 0 0 -3757894.7299552113 -681239.53712732531 0 -681239.53712732531 2914839.5735960929 0 0 0 0 -27172376.661753654 16409710.68301481 0 16409710.68301481 3337163.2151021957 0 0 0 0 264241741.03323364 -428573825.32571077 0 -428573825.32571077 164399954.77494663 0 0 0 0 -20294361.671569824 -104445820.71523643 0 -104445820.71523643 262806775.72210133 0 0 0 0 -146621838.97460938 -41559983.680270016 0 -41559983.680270016 239573753.91561556 0 0 0 0 -715217038.94494629 259884452.45530462 0 259884452.45530462 37648195.211541891 0 0 0 0 -328327752.16237259 365626141.58026916 0 365626141.58026916 -180392000.82433224 0 0 0 0 -472227875.01733398 48241848.813029528 0 48241848.813029528 -71058159.195817769 0 0 0 0 -227617885.75235748 -26055922.972618341 0 -26055922.972618341 -526551921.97303104 0 0 0 0 -206526091.00237513 -325488875.73349905 0 -325488875.73349905 446132.74600458145 0 0 0 0 -102155783.89484406 180334092.02581692 0 180334092.02581692 -217162698.79431486 0 0 0 0 -27884503.477872849 -127267931.0638184 0 -127267931.0638184 180849770.12720871 0 0 0 0 483490406.43395996 -73821262.284528017 0 -73821262.284528017 -78027866.202802181 0 0 0 0 99086914.42010498 121306337.57383823 0 121306337.57383823 -78486631.083994627 0 0 0 0 -239543282.42315865 97887105.609049827 0 97887105.609049827 117360057.21494436 0 0 0 0 82689192.99260664 -156395968.00787753 0 -156395968.00787753 452076596.19289327 0 0 0 0 170533420.79708862 108429247.12322366 0 108429247.12322366 111986718.58641911 0 0 0 0 543047473.60408401 -745748560.80832422 0 -745748560.80832422 314252584.98798585 0 0 0 0 643891053.66899681 -537044073.51174879 0 -537044073.51174879 170359161.88193798 0 0 0 0 -853649808.86730194 82487592.113268375 0 82487592.113268375 48336485.262962103 0 0 0 0 -853344005.47433472 89853731.57610178 0 89853731.57610178 -6330819.317007184 0 0 0 0 -2513712.7714528516 -1050612.8135799821 0 -1050612.8135799821 1180838.0711484479 0 0 0 0 -1240745706.1917801 418043796.52439332 0 418043796.52439332 -148128289.94732761 0 0 0 0 -951925306.30319214 172577440.57383037 0 172577440.57383037 33491305.907115936 0 0 0 0 -1153103115.6781464 118996812.15935278 0 118996812.15935278 189175217.29941201 0 0 0 0 -2083133389.8585739 645912631.93738568 0 645912631.93738568 32490349.557905197 0 0 0 0 -850806.62131998688 -395833.13865146786 0 -395833.13865146786 139646.32353565074 0 0 0 0 -1543757370.6110897 -355814640.94981539 0 -355814640.94981539 -69949657.933394909 0 0 0 0 -822048045.70141602 -326711477.53189194 0 -326711477.53189194 317871818.37008238 0 0 0 0 -1263344835.7836895 -118491517.57272001 0 -118491517.57272001 265950393.79773951 0 0 0 0 -1230640187.6347837 -270739097.12849009 0 -270739097.12849009 -54190943.536732197 0 0 0 0 -1650050904.911705 -391964286.7281245 0 -391964286.7281245 184772153.10510826 0 0 0 0 -1387432247.4437637 -18617845.325254448 0 -18617845.325254448 30395551.545702167 0 0 0 0 -587369278.64945984 -139316606.22444749 0 -139316606.22444749 13957624.18847096 0 0 0 0 -681214955.29481506 -40312138.128705978 0 -40312138.128705978 -36898434.668399811 0 0 0 0 -286617129.51398468 84498144.879213631 0 84498144.879213631 -141439305.66954577 0 0 0 0 20077230.517776489 -112740384.81093025 0 -112740384.81093025 -32128446.554668486 0 0 0 0 -254682380.46188354 313414410.86063254 0 313414410.86063254 8822705.3304853439 0 0 0 0 -350046713.90145874 201520119.18530554 0 201520119.18530554 46345051.018334389 0 0 0 0 -76103381.184356689 -14361213.912182689 0 -14361213.912182689 142335783.60520411 0 0 0 0 -407967901.06282043 120661940.01056069 0 120661940.01056069 -27827209.262363911 0 0 0 0 -381593765.21944046 261332641.86332622 0 261332641.86332622 -27019038.990091324 0 0 0 0 -423231688.45185852 199804193.12526262 0 199804193.12526262 -88315259.13766855 0 0 0 0 -433972685.85610962 212602435.81977522 0 212602435.81977522 1140575.3784711361 0 0 0 0 -470697969.67770386 202825821.68030119 0 202825821.68030119 19521244.965587258 0 0 0 0 -478332701.65446472 244183573.55578685 0 244183573.55578685 49189919.713391781 0 0 0 0 -499803562.60112762 242508784.5765717 0 242508784.5765717 87151537.472253799 0 0 0 0 -460175911.50073242 270920083.46832263 0 270920083.46832263 50568978.473311663 0 0 0 0 -386268584.72083282 223833200.1469748 0 223833200.1469748 37831799.448822021 0 0 0 0 -480873864.99867249 344797775.36149836 0 344797775.36149836 14090254.068627596 0 0 0 0 -717609679.67205811 221734478.05804867 0 221734478.05804867 86104111.23576355 0 0 0 0 -1121184680.7059784 -295299552.56070614 0 -295299552.56070614 -149284925.49947929 0 0 0 0 -1132123878.26577 38921925.589243412 0 38921925.589243412 -142667658.12279522 0 0 0 0 -1003237999.973114 -179989075.25789857 0 -179989075.25789857 6927676.4626483917 0 0 0 0 -698903180.55708313 42649200.544897079 0 42649200.544897079 -70093572.937155157 0 0 0 0 -491645380.34355927 -198510805.74675441 0 -198510805.74675441 -31523335.84216404 0 0 0 0 -632952338.95133972 -197757645.47805119 0 -197757645.47805119 -91986295.448141783 0 0 0 0 -575291662.72956085 6299080.0838623047 0 6299080.0838623047 -40758552.922106266 0 0 0 0 -1017148329.8690338 -129756237.9115448 0 -129756237.9115448 -2237780.9087085724 0 0 0 0 -1606890311.8919907 -129079380.31097674 0 -129079380.31097674 168261279.58514404 0 0 0 0 -989128795.89431 16546547.082720757 0 16546547.082720757 -13727913.015445709 0 0 0 0 -935116.99295074586 551609.36693251505 0 551609.36693251505 587779.55402252311 0 0 0 0 -1038739171.7960281 -219370613.35687947 0 -219370613.35687947 -152336087.29258156 0 0 0 0 -959836.24914836697 755311.13327193446 0 755311.13327193446 158884.00206729118 0 0 0 0 -276324257.8510437 283987181.43863893 0 283987181.43863893 19764818.903484821 0 0 0 0 -400364174.48498535 -116933605.81650615 0 -116933605.81650615 -34386931.43727684 0 0 0 0 -937844428.55775452 -300774339.37116885 0 -300774339.37116885 113216116.63474751 0 0 0 0 -810689278.94102478 126587079.74563026 0 126587079.74563026 230045104.99716306 0 0 0 0 -975966003.90716553 -85843056.23353219 0 -85843056.23353219 224487633.86155224 0 0 0 0 -1330010240.1724567 42222925.515918195 0 42222925.515918195 227773592.16905594 0 0 0 0 -1012129398.7304916 -23623224.622428477 0 -23623224.622428477 20769549.537556887 0 0 0 0 -1241759118.9492722 48198659.464254975 0 48198659.464254975 -77753896.535420537 0 0 0 0 -1850754.5438378304 1513523.5589137934 0 1513523.5589137934 304288.03184002824 0 0 0 0 -1010238482.2446289 -25197294.437987089 0 -25197294.437987089 -20834541.129714489 0 0 0 0 -1025507378.5199966 -39548248.29801935 0 -39548248.29801935 27426272.083652973 0 0 0 0 -1028807314.8913193 -36179463.315892339 0 -36179463.315892339 60718985.671212196 0 0 0 0 -1990805.318177803 1362230.8688125126 0 1362230.8688125126 1245026.8158908803 0 0 0 0 -418272577.31705475 98235004.549314514 0 98235004.549314514 -140268641.23939985 0 0 0 0 -1024111.3404161036 811715.37197703496 0 811715.37197703496 184415.58475201507 0 0 0 0 -655023074.6245575 -211905187.15412202 0 -211905187.15412202 -89180632.29374671 0 0 0 0 -1099185915.9188538 49061319.457990646 0 49061319.457990646 -14497135.508824155 0 0 0 0 -1058964556.6048203 -274558473.09786522 0 -274558473.09786522 -86226609.284693241 0 0 0 0 -713916459.22557831 20475454.95066762 0 20475454.95066762 -64493800.435576499 0 0 0 0 -1477329995.6974182 -120836187.99232179 0 -120836187.99232179 142900429.20131493 0 0 0 0 -714693656.6259613 17693244.896024704 0 17693244.896024704 112534536.41539925 0 0 0 0 -237858654.25850296 -249132018.55207944 0 -249132018.55207944 125542596.20424128 0 0 0 0 -507139268.2713623 152698362.06357348 0 152698362.06357348 42151627.154367596 0 0 0 0 -4966307.2919307165 3624494.7147868313 0 3624494.7147868313 -1463478.7037320819 0 0 0 0 -110293654.8469696 455438375.99444652 0 455438375.99444652 88119067.411499977 0 0 0 0 -149462083.00337219 -71606796.252423286 0 -71606796.252423286 408470820.30551386 0 0 0 0 220297941.67330933 -146640279.81773973 0 -146640279.81773973 63700845.024769545 0 0 0 0 -55268677.754623413 29817373.555085182 0 29817373.555085182 -35584985.271154881 0 0 0 0 -2165548.9635315239 1413397.1954066176 0 1413397.1954066176 -553279.83857240668 0 0 0 0 235742714.54218805 444449836.26380414 0 444449836.26380414 -73761897.88739872 0 0 0 0 -2065617948.1074677 -688976952.43663335 0 -688976952.43663335 298890362.99612069 0 0 0 0 -526477929.29949903 -150842843.81208014 0 -150842843.81208014 -106519361.01190126 0 0 0 0 -1146806349.3837662 -244039778.67382419 0 -244039778.67382419 -2350279.7839546204 0 0 0 0 -2217107.6032303441 1603130.0335049145 0 1603130.0335049145 339229.89729587617 0 0 0 0 -1458942649.2903442 -137446906.23344266 0 -137446906.23344266 171563672.85677314 0 0 0 0 -1190814684.2097092 -124943617.94253373 0 -124943617.94253373 125511011.64340037 0 0 0 0 -876050753.71942902 144236495.49754763 0 144236495.49754763 75836893.006638214 0 0 0 0 -1151984256.808918 -76108645.588375479 0 -76108645.588375479 -31744918.586139597 0 0 0 0 -763726519.78964615 136544552.93042067 0 136544552.93042067 -1071123117.4944124 0 0 0 0 -1247687663.3007889 -62447090.947028935 0 -62447090.947028935 18511213.477048099 0 0 0 0 -1712613224.3564148 256680139.63080001 0 256680139.63080001 311611942.60681057 0 0 0 0 -1735030.7614577929 966197.8628921546 0 966197.8628921546 -864587.43669443659 0 0 0 0 -1218519167.1559677 -77564130.021584481 0 -77564130.021584481 -57129945.312549472 0 0 0 0 -1219378115.5387559 12993665.631300541 0 12993665.631300541 3338164.5365231037 0 0 0 0 -1531886162.5865173 -94630000.679211497 0 -94630000.679211497 40285574.638259441 0 0 0 0 -1147269583.259819 -33125971.583738923 0 -33125971.583738923 -77586279.23575598 0 0 0 0 -747152.85320560448 173938.26646329835 0 173938.26646329835 -544658.42822891579 0 0 0 0 -776689017.17194366 -47283969.617537439 0 -47283969.617537439 227559972.67917395 0 0 0 0 -766499322.66533279 -74924323.745910585 0 -74924323.745910585 106202528.56584191 0 0 0 0 -681736719.2203598 41744249.175100505 0 41744249.175100505 67455266.594645858 0 0 0 0 -374593223.72514343 109230477.41273475 0 109230477.41273475 18101747.422191858 0 0 0 0 -661255449.52941895 84885920.521734595 0 84885920.521734595 21708444.57402882 0 0 0 0 -371015590.01195526 90480299.722790003 0 90480299.722790003 -60961183.980447292 0 0 0 0 -169494683.33477783 24861639.93434906 0 24861639.93434906 -63440670.328994736 0 0 0 0 -213232279.29234314 34917603.725317061 0 34917603.725317061 -28724451.227909565 0 0 0 0 -93886959.603534698 283122630.0863027 0 283122630.0863027 -103037968.49788046 0 0 0 0 -903660592.22669983 93168157.297236919 0 93168157.297236919 335383666.36762476 0 0 0 0 -621445271.6063385 565140493.31693387 0 565140493.31693387 -90713704.504332483 0 0 0 0 -834613710.74342346 336599837.32876348 0 336599837.32876348 -33552727.355853319 0 0 0 0 -396684862.01826477 198157076.76641512 0 198157076.76641512 -76323354.499163151 0 0 0 0 -366510189.25733185 130245329.1575273 0 130245329.1575273 -101867959.3122319 0 0 0 0 -416669926.87304688 148615277.69971836 0 148615277.69971836 -40375618.753062248 0 0 0 0 -426335841.99005127 171585131.7562604 0 171585131.7562604 -35151939.555515051 0 0 0 0 -447900735.07476807 154457628.7897014 0 154457628.7897014 -67886735.009957492 0 0 0 0 -438853761.49728394 184499099.01407954 0 184499099.01407954 -48469726.556304097 0 0 0 0 -411892918.13316345 150562859.23894864 0 150562859.23894864 -92356193.258765817 0 0 0 0 -419023417.05406189 160211239.02255958 0 160211239.02255958 -102569157.57342839 0 0 0 0 -503324373.62045288 183984192.40022558 0 183984192.40022558 -72880606.370905235 0 0 0 0 -482556526.78487587 96600218.918147415 0 96600218.918147415 -131776973.72269589 0 0 0 0 -680515450.05113983 60199899.521172851 0 60199899.521172851 -90946489.36665976 0 0 0 0 -523538156.06088257 117879681.78062341 0 117879681.78062341 -116992682.96779573 0 0 0 0 -527820875.94688416 133942383.95002401 0 133942383.95002401 -82353028.578766868 0 0 0 0 -720725778.83368683 112930393.0329628 0 112930393.0329628 -40713237.521571189 0 0 0 0 -834098838.60097504 54991611.62685132 0 54991611.62685132 -53403569.761154711 0 0 0 0 -764834483.77436829 14897399.142229915 0 14897399.142229915 -88874160.288465306 0 0 0 0 -716679037.15342712 99324647.798053503 0 99324647.798053503 -99580247.284635708 0 0 0 0 -734118350.57818604 21603566.425221667 0 21603566.425221667 -94919568.391350091 0 0 0 0 -762979758.73625183 84918818.065767333 0 84918818.065767333 -148440948.51478633 0 0 0 0 -837561670.04613113 -27093618.233106926 0 -27093618.233106926 -156893249.61266434 0 0 0 0 -1065312374.9285431 -38696824.721194267 0 -38696824.721194267 -54071019.298523426 0 0 0 0 -1095171132.5377274 -169490.59299871325 0 -169490.59299871325 -17985995.354021847 0 0 0 0 -1038491836.4301834 81052519.834895045 0 81052519.834895045 -34225488.889565468 0 0 0 0 -1092500981.6060104 -52587586.067518294 0 -52587586.067518294 -23400639.896169819 0 0 0 0 -1136169375.8371582 20899321.333501399 0 20899321.333501399 4371492.8304570317 0 0 0 0 -988350156.50877428 39737424.478197053 0 39737424.478197053 -59082298.626996279 0 0 0 0 -990834619.57662964 67248300.247052908 0 67248300.247052908 11012751.11667493 0 0 0 0 -781373017.25793457 117057531.75778919 0 117057531.75778919 -67983826.620192885 0 0 0 0 -950329731.20323181 5626039.2240260243 0 5626039.2240260243 -19581142.002952218 0 0 0 0 -772120125.19908142 91502291.057919204 0 91502291.057919204 -18253882.731044531 0 0 0 0 -586672965.76625061 106749869.09197748 0 106749869.09197748 -83275435.026775181 0 0 0 0 -828128490.60477448 164758769.28402343 0 164758769.28402343 13484451.340281814 0 0 0 0 -555989683.0769577 220112787.62266582 0 220112787.62266582 -65664755.922024965 0 0 0 0 -592446552.1550827 217731106.20316595 0 217731106.20316595 -60018399.340493962 0 0 0 0 -1274589.2893093638 -330210.31167852134 0 -330210.31167852134 -337633.64157620788 0 0 0 0 -457620973.51524734 84391021.673960388 0 84391021.673960388 -91789676.367935836 0 0 0 0 -574615005.82751465 142292936.66002297 0 142292936.66002297 -29511533.783027023 0 0 0 0 -585671431.0714314 125432834.54686807 0 125432834.54686807 -4864968.0222052932 0 0 0 0 -8199390.8164138794 401776.66860210046 0 401776.66860210046 -1100627.6039397786 0 0 0 0 -10393.424940288067 195.6955069154501 0 195.6955069154501 -2581.2938204700267 0 0 0 0 -2035360.3627983015 -182714.20908043906 0 -182714.20908043906 73140.212824293907 0 0 0 0 -7682166.3264389038 3148228.9973983304 0 3148228.9973983304 -73187.378786586109 0 0 0 0 -594606271.89588165 205924525.41064709 0 205924525.41064709 -69617764.588652149 0 0 0 0 -2746689.6697805524 -227573.96319736168 0 -227573.96319736168 -208764.7380169243 0 0 0 0 -1399587.6885396801 -507142.32596286386 0 -507142.32596286386 -343195.73320252507 0 0 0 0 -772227583.44522095 107747468.16178332 0 107747468.16178332 -78251055.630659491 0 0 0 0 -594388273.45031357 210003359.97151566 0 210003359.97151566 -118574132.30804425 0 0 0 0 -835761623.90745544 198312592.71939808 0 198312592.71939808 -76298304.428322613 0 0 0 0 -682378477.31241608 263064211.25722659 0 263064211.25722659 4818503.2987511158 0 0 0 0 -1223308969.9977875 244162307.05245477 0 244162307.05245477 -58765895.821711093 0 0 0 0 -1202233638.6904144 -20840371.17725163 0 -20840371.17725163 -38267951.976871796 0 0 0 0 -1070858168.7386169 91004205.289469689 0 91004205.289469689 -22507761.806381941 0 0 0 0 -830493239.66218281 102938646.6142621 0 102938646.6142621 -54028867.368632674 0 0 0 0 -1048058119.5882854 15943286.114932515 0 15943286.114932515 -50621788.508592486 0 0 0 0 -1163371891.724823 -11995153.45619911 0 -11995153.45619911 -28494820.568175554 0 0 0 0 -1175179681.4130173 2863148.2751033604 0 2863148.2751033604 -17566226.82334286 0 0 0 0 -1170520977.0549269 -7471072.7461437359 0 -7471072.7461437359 -67841917.296737909 0 0 0 0 -1228794162.9751434 -25409233.63845012 0 -25409233.63845012 -13479481.183219753 0 0 0 0 -1251219489.8355083 50636314.411358081 0 50636314.411358081 -82710999.774827719 0 0 0 0 -1218115082.7820244 69011376.845833734 0 69011376.845833734 -55568935.118555248 0 0 0 0 -1244730070.2494621 18714082.624606341 0 18714082.624606341 -130566163.01663209 0 0 0 0 -1430339449.5458832 137421408.38807806 0 137421408.38807806 -112078.79849839697 0 0 0 0 -1397793288.6526337 -19340311.080404691 0 -19340311.080404691 -70509317.9039478 0 0 0 0 -1556671819.1678391 196730044.17262089 0 196730044.17262089 8230368.1608386636 0 0 0 0 -759853.79069458321 -248641.16748087853 0 -248641.16748087853 -124923.52552527197 0 0 0 0 -643866062.28951263 232074879.94247514 0 232074879.94247514 -210945359.29866153 0 0 0 0 -7839457.1239967346 -154865.03090032181 0 -154865.03090032181 -4776.2167217603364 0 0 0 0 -1303194773.932251 12889254.562641362 0 12889254.562641362 8159369.0063508116 0 0 0 0 -1640294.8791088816 47707.8776005283 0 47707.8776005283 113186.37602736469 0 0 0 0 -12614.209146264941 614.49552585557103 0 614.49552585557103 -843.62105615072574 0 0 0 0 -6369438.0546112061 1078848.6822288395 0 1078848.6822288395 -224432.94747377723 0 0 0 0 -9434610.9084472656 1989361.5137071656 0 1989361.5137071656 -86271.730060899572 0 0 0 0 -9097193.2017059326 2063311.9231837024 0 2063311.9231837024 -77099.521482421784 0 0 0 0 -887169070.54255676 141560088.10303891 0 141560088.10303891 -12025183.632357251 0 0 0 0 -435856294.46601105 30941942.936748862 0 30941942.936748862 -67945371.000947237 0 0 0 0 -647490007.32907295 6084452.0823368803 0 6084452.0823368803 12157035.595018744 0 0 0 0 -401561786.41064453 27903348.292378426 0 27903348.292378426 -8461539.6870211959 0 0 0 0 -636573153.99883509 74219772.960459679 0 74219772.960459679 -92236151.818100512 0 0 0 0 -691632513.05187988 -61517437.269555748 0 -61517437.269555748 -19104111.922296166 0 0 0 0 -1390527849.6532364 56484791.736206859 0 56484791.736206859 311101.57258856297 0 0 0 0 -1207183167.277092 52440697.320604905 0 52440697.320604905 -72809924.583548844 0 0 0 0 -1094826477.9344559 -36882373.96535717 0 -36882373.96535717 -62023197.276436165 0 0 0 0 -1104514073.5727234 -30758817.946602121 0 -30758817.946602121 13307410.866601527 0 0 0 0 -1101634050.1721535 -28031903.529036392 0 -28031903.529036392 -31962.008284728927 0 0 0 0 -972695633.10450363 97073517.176148012 0 97073517.176148012 -615167.59916260839 0 0 0 0 -816879465.40220642 -28253667.211030684 0 -28253667.211030684 42089.494677947303 0 0 0 0 -637189839.61592102 -28830968.79843238 0 -28830968.79843238 -13964085.616337374 0 0 0 0 -464547751.74563599 -46235239.924505495 0 -46235239.924505495 -70448.360570246354 0 0 0 0 -655084609.20593643 101451161.61161992 0 101451161.61161992 -28164215.212508202 0 0 0 0 -378793057.86512756 51340756.837439075 0 51340756.837439075 -2800676.484273836 0 0 0 0 -216787810.67007828 -48040767.454799347 0 -48040767.454799347 -4413.1257786746319 0 0 0 0 -226001619.59083557 -13025104.460853159 0 -13025104.460853159 36214555.35635519 0 0 0 0 -229832373.62797546 -32849068.396584123 0 -32849068.396584123 -45489223.972193927 0 0 0 0 -39733463.169754028 -45802446.24709744 0 -45802446.24709744 -17886.174008240137 0 0 0 0 -141472606.01425171 12043055.355000168 0 12043055.355000168 3009452.8022023216 0 0 0 0 -110628462.96177673 -52856153.648426756 0 -52856153.648426756 -4496657.6551115513 0 0 0 0 -34994298.599498749 7069180.813138634 0 7069180.813138634 22487202.526989996 0 0 0 0 -170972.62251369283 -151238.03578957915 0 -151238.03578957915 -38935.359392938961 0 0 0 0 -108941064.64805603 -52258035.545488507 0 -52258035.545488507 42179060.507676691 0 0 0 0 -118586493.11048698 -29958430.889612809 0 -29958430.889612809 18327710.946429133 0 0 0 0 47451320.21156311 2737097.1998784542 0 2737097.1998784542 -73624702.140401602 0 0 0 0 -131839720.48138428 -23313193.718997955 0 -23313193.718997955 46673655.414022803 0 0 0 0 -11925299.165267944 -73873961.517361939 0 -73873961.517361939 -87703355.628466368 0 0 0 0 82500122.583587646 -113100657.06028038 0 -113100657.06028038 -83016863.927121878 0 0 0 0 -431979121.40917206 -3406728.5130523443 0 -3406728.5130523443 41074569.036360443 0 0 0 0 8273.054352261126 -183512.63193172961 0 -183512.63193172961 -105282.0822891476 0 0 0 0 -274513967.35155487 -16160597.500986665 0 -16160597.500986665 -43100077.488750696 0 0 0 0 -251372273.75532913 -72514448.864700139 0 -72514448.864700139 -17589500.774122477 0 0 0 0 -411373689.27569389 1879986.7893669605 0 1879986.7893669605 -15853951.405472755 0 0 0 0 -286002645.97288513 -43790781.703181386 0 -43790781.703181386 -55907425.049405575 0 0 0 0 -279224485.96374512 -7034318.3668897152 0 -7034318.3668897152 -40646404.565998912 0 0 0 0 -287111120.58760071 -33869484.363345385 0 -33869484.363345385 -12505083.750753641 0 0 0 0 -233837624.48190308 -39629479.60897851 0 -39629479.60897851 -42969056.127394915 0 0 0 0 -220135828.26478577 -72552148.187843561 0 -72552148.187843561 -6138292.9372403622 0 0 0 0 -245415418.11419678 -88667376.016695976 0 -88667376.016695976 7852351.1039440632 0 0 0 0 -243147193.69243622 -19912240.403735876 0 -19912240.403735876 34396187.467034101 0 0 0 0 -231287669.23634195 -75951852.090667427 0 -75951852.090667427 17550463.699351788 0 0 0 0 -189903462.35662746 -46546547.269215658 0 -46546547.269215658 -732120.17948961258 0 0 0 0 -188357688.88847351 -57237604.676006079 0 -57237604.676006079 -20581731.129108667 0 0 0 0 -280734747.72652435 -68441837.720549598 0 -68441837.720549598 10461964.610057116 0 0 0 0 -44623335.923026085 10671066.653587416 0 10671066.653587416 -24448886.288680792 0 0 0 0 -79480.547626424581 -686485.66484772786 0 -686485.66484772786 48239.296518838149 0 0 0 0 -52405260.336853027 -92005621.634826422 0 -92005621.634826422 -48117116.146825671 0 0 0 0 -2055817.634185791 -27186661.410965174 0 -27186661.410965174 -13126641.845484972 0 0 0 0 -3733590.2661056519 22205138.614812464 0 22205138.614812464 22394419.613164753 0 0 0 0 -96892589.213882446 -6544061.8519444466 0 -6544061.8519444466 9055535.0218682289 0 0 0 0 -56819537.976852417 -39218404.750609159 0 -39218404.750609159 5471527.1480969191 0 0 0 0 -94563536.430969238 -33540115.699512243 0 -33540115.699512243 -6452484.8463478088 0 0 0 0 -120674374.43405533 28662568.979616761 0 28662568.979616761 24558377.676336765 0 0 0 0 -406812822.55741119 53299824.417296886 0 53299824.417296886 22855820.805893421 0 0 0 0 -440667.61277953163 -296743.75032604672 0 -296743.75032604672 53105.129763970384 0 0 0 0 892016.57358646393 65365783.835203707 0 65365783.835203707 232189648.1252594 0 0 0 0 12808.299599092454 -375216.93938243762 0 -375216.93938243762 52309.193618994905 0 0 0 0 -1118385.9004695266 -802530.51912763342 0 -802530.51912763342 191291.87344728922 0 0 0 0 -10379457.385864258 -32706403.424412489 0 -32706403.424412489 136436855.34251976 0 0 0 0 -56085642.292266846 -90624205.171987534 0 -90624205.171987534 167392022.96247029 0 0 0 0 -172666983.66880798 -122644143.80086613 0 -122644143.80086613 239749008.23336029 0 0 0 0 -50372928.665344238 -117384775.73220348 0 -117384775.73220348 -6146288.1617088318 0 0 0 0 -44384033.954147339 -229214505.83396411 0 -229214505.83396411 -62924254.945896149 0 0 0 0 -237067524.08392334 -61856606.577803135 0 -61856606.577803135 4007386.4383671284 0 0 0 0 -230376210.15337372 -73409512.794477701 0 -73409512.794477701 -16603541.047026634 0 0 0 0 45608148.177463531 -227234756.30459523 0 -227234756.30459523 -91565216.720404625 0 0 0 0 73992074.2996521 -160468328.14352512 0 -160468328.14352512 -47045546.309782982 0 0 0 0 -120278526.56283569 -287402180.87870383 0 -287402180.87870383 -20389053.417050362 0 0 0 0 -32153000.328643799 -220113734.27317095 0 -220113734.27317095 -63107809.517052412 0 0 0 0 -57962908.413970947 -230131963.93732357 0 -230131963.93732357 23287876.404872894 0 0 0 0 -742396.46240252256 27715.423311525956 0 27715.423311525956 109498.81478229654 0 0 0 0 -41632830.175364494 139688082.99164885 0 139688082.99164885 -125628714.08278608 0 0 0 0 -164989345.34192657 148285387.05248451 0 148285387.05248451 159294574.38107777 0 0 0 0 -196665772.7971344 60333644.83150959 0 60333644.83150959 54291365.639963627 0 0 0 0 -210689301.79478455 -62907233.802676678 0 -62907233.802676678 128396813.281394 0 0 0 0 -112440258.13274002 -123163890.3821398 0 -123163890.3821398 56742108.231665611 0 0 0 0 -185583348.05665588 -56678581.488656044 0 -56678581.488656044 919220.48617267609 0 0 0 0 -215397903.8290329 -108005916.81414407 0 -108005916.81414407 19118916.195110798 0 0 0 0 -310503112.80912781 -158145266.0297575 0 -158145266.0297575 -63311421.906560659 0 0 0 0 -204262737.6896019 -50435938.972598076 0 -50435938.972598076 37673309.33079195 0 0 0 0 -44181048.152900696 -16327443.790442407 0 -16327443.790442407 55537036.263905525 0 0 0 0 -38502733.254390717 6197940.4306529164 0 6197940.4306529164 59557361.794857979 0 0 0 0 -57763933.923339844 -9787895.9497895241 0 -9787895.9497895241 47157555.867005825 0 0 0 0 -23250635.377563477 -13370298.856298447 0 -13370298.856298447 39462589.130830765 0 0 0 0 -23448071.155517578 -32023411.662727356 0 -32023411.662727356 29402071.033463478 0 0 0 0 -4481406.0501966476 -31593285.462872088 0 -31593285.462872088 7990560.6348781586 0 0 0 0 -3753609.7012615204 -24709311.609093294 0 -24709311.609093294 9655322.7897987366 0 0 0 0 -6449015.9075956345 -27619913.776818007 0 -27619913.776818007 39352992.274672508 0 0 0 0 -8288690.3708496094 -12611149.299374104 0 -12611149.299374104 46148253.902293205 0 0 0 0 -7327816.0836620033 -944256.69823225914 0 -944256.69823225914 361522.22114401241 0 0 0 0 -13969400.122657776 -24526611.266835451 0 -24526611.266835451 85591447.845876694 0 0 0 0 -1337163.853600502 -26546992.9376854 0 -26546992.9376854 58409407.886571884 0 0 0 0 -35366152.35848999 928268.58265328407 0 928268.58265328407 98080367.009349823 0 0 0 0 -1313578.5256002471 -1949050.3099682368 0 -1949050.3099682368 162138.19818772899 0 0 0 0 -6021926.4171447754 -18527979.754550457 0 -18527979.754550457 9984933.1163144112 0 0 0 0 -5602424.661026001 3828145.2615966797 0 3828145.2615966797 64793930.506891012 0 0 0 0 27077968.089679718 16554050.203124642 0 16554050.203124642 -5604365.9867396355 0 0 0 0 -11601875.719497681 -4946888.7030525208 0 -4946888.7030525208 63008407.083673477 0 0 0 0 -7738815.2747497559 27815434.773012638 0 27815434.773012638 23816780.488868713 0 0 0 0 -33467219.819885254 174967732.38284492 0 174967732.38284492 -28305915.347122192 0 0 0 0 -218242085.69944763 114287141.71298504 0 114287141.71298504 -37545513.338383079 0 0 0 0 1444729.7102737427 85243447.594474077 0 85243447.594474077 -88976032.368873596 0 0 0 0 -356167.89680645615 -187135.05746373581 0 -187135.05746373581 -24239.78815780062 0 0 0 0 -90726298.771917343 206245231.24535888 0 206245231.24535888 66990723.065244675 0 0 0 0 -13420159.126693726 -37937797.044608474 0 -37937797.044608474 21415218.988994122 0 0 0 0 -118384690.73869324 134119662.67001867 0 134119662.67001867 198246522.90263414 0 0 0 0 -82005226.664337158 -31614820.094679356 0 -31614820.094679356 200098172.08690271 0 0 0 0 -43972709.116905212 33296876.900681973 0 33296876.900681973 84876648.086149216 0 0 0 0 -57841865.138946533 13245484.659058094 0 13245484.659058094 64498998.620903909 0 0 0 0 -67074310.094299316 61857563.137921333 0 61857563.137921333 54218240.453646183 0 0 0 0 -65322725.422042847 69999075.753403187 0 69999075.753403187 68170777.712522984 0 0 0 0 -81309527.657989502 5019486.1641869545 0 5019486.1641869545 65874258.941554546 0 0 0 0 -76909283.013000488 13674554.266703129 0 13674554.266703129 80585897.441861153 0 0 0 0 -69734440.721103668 -18399241.823207259 0 -18399241.823207259 31714231.038312435 0 0 0 0 -154607581.91286469 -26026901.836104274 0 -26026901.836104274 33859296.987829447 0 0 0 0 -98814832.418258667 1736572.7836858034 0 1736572.7836858034 67830737.343643665 0 0 0 0 -49801713.333450317 18943097.222638249 0 18943097.222638249 5917276.0083858371 0 0 0 0 -36741374.540977478 -10791564.210857749 0 -10791564.210857749 9538527.9653358459 0 0 0 0 -944728.54087919742 -876203.07361113653 0 -876203.07361113653 -107003.13126693293 0 0 0 0 33538302.771469116 -19384773.579465508 0 -19384773.579465508 -23125380.89466995 0 0 0 0 -62877291.699310303 14883139.633261561 0 14883139.633261561 -14275148.971059084 0 0 0 0 -252282023.69880676 12815018.589384675 0 12815018.589384675 -14295327.732803321 0 0 0 0 -390708.77871477231 -288005.55579741672 0 -288005.55579741672 -9896.94147490873 0 0 0 0 -122552285.50821686 -120821962.02964699 0 -120821962.02964699 -117486208.03439081 0 0 0 0 -56083987.931655884 -68315919.330067277 0 -68315919.330067277 -34414757.069368839 0 0 0 0 -2421466.3314285278 -32984472.851201773 0 -32984472.851201773 -124052415.11465847 0 0 0 0 -61594778.399421692 -49382885.631945729 0 -49382885.631945729 -36472039.279217005 0 0 0 0 -31428244.486862183 -41790219.023776293 0 -41790219.023776293 -6120201.2211161852 0 0 0 0 -22468972.826293945 -38836959.757707596 0 -38836959.757707596 -5720237.3506770134 0 0 0 0 -65936246.688520908 -40326550.620492347 0 -40326550.620492347 25325063.014211178 0 0 0 0 -64261405.873031616 -7046778.7096481323 0 -7046778.7096481323 46106975.48297739 0 0 0 0 -24140416.293411255 -41769848.519789219 0 -41769848.519789219 -1905.2281272411346 0 0 0 0 -17725409.600387573 -59258177.976350784 0 -59258177.976350784 -35257757.685364485 0 0 0 0 6990497.1739349365 -39259792.981750965 0 -39259792.981750965 -20153754.485616446 0 0 0 0 24451201.711952209 -34080180.581867456 0 -34080180.581867456 -55116655.172287166 0 0 0 0 -3229984.8142223358 -32555889.952119127 0 -32555889.952119127 -38236123.889279366 0 0 0 0 42801486.006668091 -12357124.751725078 0 -12357124.751725078 -62035727.843140244 0 0 0 0 -14794646.540771484 14332338.303914309 0 14332338.303914309 -24310450.814802706 0 0 0 0 -35006269.938362122 -24233352.303068906 0 -24233352.303068906 -52205530.482885838 0 0 0 0 -34924544.308052063 320234.1749471426 0 320234.1749471426 -244810606.68169498 0 0 0 0 -11857710.745864868 13657360.5064255 0 13657360.5064255 -96088683.205682278 0 0 0 0 -99657200.782333374 44442105.699934542 0 44442105.699934542 -8199489.9519561529 0 0 0 0 -32772204.192352295 -8601318.6204875112 0 -8601318.6204875112 33384170.119230509 0 0 0 0 -18367919.854812622 34825248.947504222 0 34825248.947504222 -6531147.1131321788 0 0 0 0 50363016.616893768 51744636.029051259 0 51744636.029051259 -3287800.8665726185 0 0 0 0 44671917.568108559 -7513433.2936264537 0 -7513433.2936264537 13274675.254902363 0 0 0 0 18080877.61769104 25041675.570551813 0 25041675.570551813 24190477.872459292 0 0 0 0 33331145.895950317 10234140.381423473 0 10234140.381423473 -32104692.782553911 0 0 0 0 20671584.42937851 20616381.845153585 0 20616381.845153585 -147319061.12929952 0 0 0 0 -101574916.70168304 -135331201.67769659 0 -135331201.67769659 -119331730.68588758 0 0 0 0 -201323557.06858826 68698304.257926464 0 68698304.257926464 -21786512.934038997 0 0 0 0 -106884006.06639194 -15114355.973951012 0 -15114355.973951012 46544524.030028343 0 0 0 0 -83206849.909454346 -13826460.574022233 0 -13826460.574022233 45367778.198122233 0 0 0 0 42180423.249647141 5203571.0113951489 0 5203571.0113951489 17862930.983258843 0 0 0 0 31593743.974258423 -67020218.962251402 0 -67020218.962251402 17305153.889275469 0 0 0 0 -12385873.155929565 -120930150.19250634 0 -120930150.19250634 53571359.260517888 0 0 0 0 -350526.97055569291 -283660.93352195621 0 -283660.93352195621 -22114.678840664448 0 0 0 0 -63192488.206279755 9620713.0894415379 0 9620713.0894415379 61564020.420617819 0 0 0 0 -294944.91604492068 -161439.19944648631 0 -161439.19944648631 150074.09077294974 0 0 0 0 55986001.24307251 -37888391.457295299 0 -37888391.457295299 26363.04888247346 0 0 0 0 -144561620.09501648 31899667.480722848 0 31899667.480722848 57838780.701077543 0 0 0 0 11318101.339118958 -6614002.1995884031 0 -6614002.1995884031 11669110.172079664 0 0 0 0 76117876.862411499 35796175.442367673 0 35796175.442367673 1371950.3449440002 0 0 0 0 63151647.886291504 -20626512.803694248 0 -20626512.803694248 46572393.158010371 0 0 0 0 116954390.38818359 -1477605.9313032627 0 -1477605.9313032627 15969789.499139674 0 0 0 0 56188454.997421265 16410738.692045644 0 16410738.692045644 48068180.168329507 0 0 0 0 81540533.863922119 55270852.280404985 0 55270852.280404985 54521095.266605556 0 0 0 0 24167.802616834641 -10048.057349477895 0 -10048.057349477895 2314.9145280708399 0 0 0 0 26411169.226211548 13894917.840166926 0 13894917.840166926 18401989.708179355 0 0 0 0 -64858999.682678223 -6069193.2479755282 0 -6069193.2479755282 44761610.121325791 0 0 0 0 -77127250.827629089 -27102367.876386955 0 -27102367.876386955 70441556.724674046 0 0 0 0 -5581622.5640678406 -48946472.722947717 0 -48946472.722947717 39995909.523820162 0 0 0 0 57183294.523376465 -26324970.577555656 0 -26324970.577555656 38643672.866801947 0 0 0 0 62104395.134643555 -99352135.171487302 0 -99352135.171487302 -100224.22952187534 0 0 0 0 -161311381.81420326 -23704481.455396429 0 -23704481.455396429 85324170.209903657 0 0 0 0 -93578971.350601196 -92345034.314899236 0 -92345034.314899236 49251280.33973217 0 0 0 0 168494584.48166656 9090682.0089931488 0 9090682.0089931488 -18252966.38263765 0 0 0 0 207790.23352400772 -141051.02792713046 0 -141051.02792713046 -17974.847062929515 0 0 0 0 183898.40246200562 -108851.80564042107 0 -108851.80564042107 -2.1412154438016984 0 0 0 0 150992.0570602417 -92548.07847588064 0 -92548.07847588064 67059.523039207794 0 0 0 0 48519.305967107415 -42988.500471932814 0 -42988.500471932814 89474.072420579017 0 0 0 0 -765922.94329071045 -844656.25750398228 0 -844656.25750398228 1457364.1512684315 0 0 0 0 -1181252.472946167 778539.92062141665 0 778539.92062141665 -76425.987888465461 0 0 0 0 -1577795.8315696716 -176858.9348322876 0 -176858.9348322876 3546052.3043950321 0 0 0 0 128746.78492355347 -52984.447588463248 0 -52984.447588463248 92.556578056812484 0 0 0 0 2186026.5432739258 1103377.4227215485 0 1103377.4227215485 -750720.25876042363 0 0 0 0 32692.500705033541 -14112.412220956758 0 -14112.412220956758 38392.261247580747 0 0 0 0 -147618.38658905029 -125568.34278579619 0 -125568.34278579619 61131.4655973802 0 0 0 0 -500967.05288696289 36145.059157197356 0 36145.059157197356 -284.13750287544281 0 0 0 0 803544.36561584473 -3557514.8457678994 0 -3557514.8457678994 3776716.4951236178 0 0 0 0 -839266.99314880371 -1503042.0695860866 0 -1503042.0695860866 6430460.8338900525 0 0 0 0 67726.781902775168 208652.3710898268 0 208652.3710898268 -90198.728867075799 0 0 0 0 2144216.8835144043 -1987271.8868848141 0 -1987271.8868848141 4578678.9344321769 0 0 0 0 6824032.5344390869 -2667010.8669301709 0 -2667010.8669301709 951346.07545360876 0 0 0 0 2131485.4065475464 -3111195.7428590255 0 -3111195.7428590255 2200049.4501678068 0 0 0 0 2352462.1078033447 1010820.7018239247 0 1010820.7018239247 -443753.08109958918 0 0 0 0 1092294.4591343626 25302.560833511874 0 25302.560833511874 -191558.81925264833 0 0 0 0 4780136.6881542206 1458766.4326101094 0 1458766.4326101094 -4355053.0733649731 0 0 0 0 3438624.5256195068 -2401245.3994133472 0 -2401245.3994133472 1049403.213305831 0 0 0 0 55421.190216064453 -1057424.1144564669 0 -1057424.1144564669 209516.18103432315 0 0 0 0 492201.73527315259 -145472.56712430343 0 -145472.56712430343 -320071.89607281558 0 0 0 0 433337.33203125 -1436698.1278703737 0 -1436698.1278703737 334327.96191204007 0 0 0 0 399207.7397762686 -725686.12243639305 0 -725686.12243639305 559009.15419941023 0 0 0 0 40589692.178474426 -22079692.788922995 0 -22079692.788922995 -11695131.607702136 0 0 0 0 62691549.59538269 3886583.2960735559 0 3886583.2960735559 -29424087.131226778 0 0 0 0 331453.55945154652 -397358.99438871071 0 -397358.99438871071 157654.3020815276 0 0 0 0 -27341964.251571655 15588457.364940822 0 15588457.364940822 17305156.680521227 0 0 0 0 -63812251.138412476 -13560254.962756084 0 -13560254.962756084 6647172.9910335448 0 0 0 0 -25648357.015258789 -4649687.6784674805 0 -4649687.6784674805 8551020.6384475436 0 0 0 0 -23689447.696710587 -3083416.5893085906 0 -3083416.5893085906 13048.771356628497 0 0 0 0 -26437712.432655334 -1532350.3427418219 0 -1532350.3427418219 2589196.4463353399 0 0 0 0 -22556906.121088028 -6500327.779493046 0 -6500327.779493046 3108450.4526975891 0 0 0 0 -28565580.834503174 -8724973.1685351525 0 -8724973.1685351525 2865564.5544521715 0 0 0 0 -14825560.253471375 -5271757.8630065182 0 -5271757.8630065182 6853.3428906766003 0 0 0 0 -3116642.1468238831 -3363938.4688940938 0 -3363938.4688940938 -1810830.1899036532 0 0 0 0 -14226393.10710907 -13242986.356690276 0 -13242986.356690276 -4805607.632929828 0 0 0 0 -12366574.916992188 -19199989.147703502 0 -19199989.147703502 -19950596.066974565 0 0 0 0 -5439514.0746002197 -2018111.7040580765 0 -2018111.7040580765 -2164116.1642893986 0 0 0 0 -3075517.1312789917 -1171813.8596642001 0 -1171813.8596642001 577535.61437849049 0 0 0 0 650339.76843261719 -847662.96338200849 0 -847662.96338200849 -876613.18934169039 0 0 0 0 -38788.178671963513 -84180.088953789324 0 -84180.088953789324 101868.90269706078 0 0 0 0 8682056.161315918 -3554266.4889531475 0 -3554266.4889531475 -4754.2879826672552 0 0 0 0 -13267482.857757568 -6405894.6672438513 0 -6405894.6672438513 -691597.33597783465 0 0 0 0 237602.54854678363 -191880.88080675155 0 -191880.88080675155 129769.38148169995 0 0 0 0 7158374.9875793457 3308792.781570415 0 3308792.781570415 2081356.5146704603 0 0 0 0 13203.352321580052 -5676.7752435570583 0 -5676.7752435570583 10076.127542540908 0 0 0 0 2223958.6628570557 -6308285.6018104581 0 -6308285.6018104581 1833594.871791061 0 0 0 0 1325616.4904632568 -4660237.227744408 0 -4660237.227744408 5292386.8065838842 0 0 0 0 1352446.111541748 -210683.48909717816 0 -210683.48909717816 -765900.54253956466 0 0 0 0 413607.27467772365 -272894.31103937887 0 -272894.31103937887 84072.974542359982 0 0 0 0 485262.52867126465 -966804.51296535647 0 -966804.51296535647 -6409.6826600134373 0 0 0 0 2133545.5461502075 -2149834.0048797233 0 -2149834.0048797233 2653208.308109696 0 0 0 0 1762921.1105258092 -699609.77403978165 0 -699609.77403978165 -384698.71759015101 0 0 0 0 5328761.6964454651 -3041614.7377828062 0 -3041614.7377828062 -901973.69275128841 0 0 0 0 3494809.7571563721 -1816148.7952835709 0 -1816148.7952835709 1866643.4814915657 0 0 0 0 6288326.4046974182 -10860244.288272321 0 -10860244.288272321 -14669374.692896008 0 0 0 0 -3778287.9800338745 7022278.4043776989 0 7022278.4043776989 -1877956.7766654789 0 0 0 0 -1731413.7836225964 -1043951.3421146721 0 -1043951.3421146721 661098.03832745389 0 0 0 0 -7370640.9878540039 -2406821.3999320269 0 -2406821.3999320269 22484003.035133045 0 0 0 0 -633495.08297143877 -220979.46600082936 0 -220979.46600082936 322674.64574615291 0 0 0 0 -16400427.227256775 -22935401.816403002 0 -22935401.816403002 -20622026.261743665 0 0 0 0 -8346775.3022842407 22193308.14589864 0 22193308.14589864 -49962424.359957486 0 0 0 0 -10114780.488357544 10447969.552778184 0 10447969.552778184 -22882609.461566925 0 0 0 0 -11384752.143463135 -27924784.943272084 0 -27924784.943272084 -36002556.229995728 0 0 0 0 -2794691.5167694092 -59412.345384001732 0 -59412.345384001732 -37347305.642719865 0 0 0 0 -140725275.80366516 -34598262.837715223 0 -34598262.837715223 -4413796.3143274337 0 0 0 0 -215134.64632819593 -10092.365760196 0 -10092.365760196 83322.577550358925 0 0 0 0 -64639995.241985321 41876838.338424101 0 41876838.338424101 15254586.102159731 0 0 0 0 -171861.61271945015 -94378.61300060153 0 -94378.61300060153 13629.829517363367 0 0 0 0 -73445265.836380005 -54907938.988678686 0 -54907938.988678686 -40798162.165804982 0 0 0 0 -78909913.20917511 166727421.78834522 0 166727421.78834522 18433835.100496769 0 0 0 0 -153284868.78016663 -5605382.0309920274 0 -5605382.0309920274 18481351.532903269 0 0 0 0 -72830802.769126892 751651.10004034638 0 751651.10004034638 12406869.537041426 0 0 0 0 -9195780.7766399384 5521135.5902189128 0 5521135.5902189128 12681066.70170927 0 0 0 0 -9688319.3762737103 -1267901.7104987903 0 -1267901.7104987903 649068.62739485735 0 0 0 0 -20182125.896263123 -8323363.0016165376 0 -8323363.0016165376 43699820.711522579 0 0 0 0 -12500596.387756348 14582969.970552564 0 14582969.970552564 5769112.6242779493 0 0 0 0 -9204046.2210884094 1438811.4467275739 0 1438811.4467275739 26140566.456749558 0 0 0 0 -1564402.9211349487 8040785.4577167034 0 8040785.4577167034 -3717735.253356576 0 0 0 0 -2684661.207694944 -896700.07171930373 0 -896700.07171930373 892745.9309952812 0 0 0 0 13729037.322845459 -8258739.4722882509 0 -8258739.4722882509 -344536.5757329464 0 0 0 0 -1822744.7007751465 7900595.5705777854 0 7900595.5705777854 667641.66337442398 0 0 0 0 -5228545.8003997803 463308.78274926543 0 463308.78274926543 129589.32182049751 0 0 0 0 65496563.323234558 -171138160.26743805 0 -171138160.26743805 217154371.62172627 0 0 0 0 87907339.478507996 -105928470.68666041 0 -105928470.68666041 61221403.690695524 0 0 0 0 87625387.155643463 -244683994.07281351 0 -244683994.07281351 418472527.20260644 0 0 0 0 -8875831.0915605575 -2136351.7524867659 0 -2136351.7524867659 203265.10769267473 0 0 0 0 -104282023.8086853 -36449637.968822837 0 -36449637.968822837 477225758.55753374 0 0 0 0 193782448.26443863 -67078308.337967992 0 -67078308.337967992 4374076.1327815056 0 0 0 0 20168323.378112793 -129050128.22139597 0 -129050128.22139597 -3530738.2321071625 0 0 0 0 56131036.539737701 -10216574.613232523 0 -10216574.613232523 -254128757.98006439 0 0 0 0 -586845889.17157745 303382453.73970246 0 303382453.73970246 -347397571.44234753 0 0 0 0 183044189.47053528 -376620228.84562516 0 -376620228.84562516 -323662090.31737566 0 0 0 0 122914451.57660484 203439350.21011803 0 203439350.21011803 493012716.69187689 0 0 0 0 -104784539.34901428 -647725591.77110863 0 -647725591.77110863 887847367.08054805 0 0 0 0 -41696309.044342041 -16531924.628915548 0 -16531924.628915548 -12138010.348781586 0 0 0 0 -6240511.9425354004 4928315.71403265 0 4928315.71403265 -68857831.578966141 0 0 0 0 12654227.834075928 -31478221.131793499 0 -31478221.131793499 -78919358.704769015 0 0 0 0 2164741.0510864258 -8947065.4301371574 0 -8947065.4301371574 -61691002.085091352 0 0 0 0 -6201732.7804718018 -13531722.687221766 0 -13531722.687221766 9625184.464922905 0 0 0 0 -7858487.0553131104 -25480299.152754307 0 -25480299.152754307 -13277558.974654734 0 0 0 0 -14564573.740585327 -9171008.7712011337 0 -9171008.7712011337 527921.86260843277 0 0 0 0 4679997.6985473633 -13451920.470341206 0 -13451920.470341206 -23309117.651049614 0 0 0 0 4961248.755645752 -14955643.823670387 0 -14955643.823670387 -26646784.680125237 0 0 0 0 7428459.9812927246 -21710338.130664349 0 -21710338.130664349 -11717325.885053396 0 0 0 0 7015333.4684143066 -26425200.057405472 0 -26425200.057405472 -4733650.6570820808 0 0 0 0 8466957.0095024109 -35071325.104261398 0 -35071325.104261398 -19704080.71277523 0 0 0 0 17377266.109054565 -32524607.381691456 0 -32524607.381691456 -40435107.592365265 0 0 0 0 1205331.6376342773 -12826907.63048315 0 -12826907.63048315 -27454436.817950964 0 0 0 0 19768127.752105713 -27434253.702392101 0 -27434253.702392101 -30351072.206277609 0 0 0 0 14019862.599304199 -15748802.568861485 0 -15748802.568861485 -53486396.461651802 0 0 0 0 16302765.354949951 -52743151.469362259 0 -52743151.469362259 -932845.27781867981 0 0 0 0 15089510.258178711 -14753231.73295033 0 -14753231.73295033 5372980.6872057915 0 0 0 0 12958068.486328125 -35436714.240926743 0 -35436714.240926743 -42933185.927915335 0 0 0 0 29704884.503364563 -17435724.047468364 0 -17435724.047468364 -23614616.522674084 0 0 0 0 22565177.389251709 -21262342.571032286 0 -21262342.571032286 -27972780.396235466 0 0 0 0 24633310.609558105 -32757387.163822651 0 -32757387.163822651 -40496688.390792251 0 0 0 0 -2817553.094619751 1339344.2258501053 0 1339344.2258501053 -4542171.2878870964 0 0 0 0 -11917759.846298218 15477086.197826385 0 15477086.197826385 -8303240.3462619781 0 0 0 0 -25891704.890075684 -37652955.500696659 0 -37652955.500696659 -49240122.84944725 0 0 0 0 226894.40259264782 -164987.64439813793 0 -164987.64439813793 -220749.27404011763 0 0 0 0 27399.356985986233 -33786.172440314665 0 -33786.172440314665 41135.875163086923 0 0 0 0 1737870.380859375 5082037.8576036692 0 5082037.8576036692 -12815090.712372303 0 0 0 0 1843795.6042079926 -6952765.2216460407 0 -6952765.2216460407 -6648369.6723022461 0 0 0 0 9653056.4398117065 -563595.04453349113 0 -563595.04453349113 -3686217.9073283672 0 0 0 0 11574559.903236389 -18272959.46082139 0 -18272959.46082139 3389913.3966741562 0 0 0 0 8131419.3249664307 -16111066.589479685 0 -16111066.589479685 6509855.149435997 0 0 0 0 8639630.7028961182 -14449395.986553431 0 -14449395.986553431 -20893631.458414078 0 0 0 0 6688134.3288116455 -13633872.230001807 0 -13633872.230001807 3527111.2056436539 0 0 0 0 -4656343.7320861816 -29664998.426337481 0 -29664998.426337481 4222217.3757610321 0 0 0 0 11338892.310623169 -16497816.946362734 0 -16497816.946362734 1469363.5905621052 0 0 0 0 -1419526.094039917 -17238369.400413752 0 -17238369.400413752 24176850.744331837 0 0 0 0 -9655856.8463021666 -1314706.5082365731 0 -1314706.5082365731 747893.43172133807 0 0 0 0 -2641718.9892578125 -26354000.130079746 0 -26354000.130079746 30475757.633304596 0 0 0 0 31866397.445953369 -143885890.52305412 0 -143885890.52305412 289520176.03638482 0 0 0 0 -4848095.4960291311 -818152.22559149191 0 -818152.22559149191 1552642.8745532769 0 0 0 0 -7243670.2616786361 -3258911.7062616143 0 -3258911.7062616143 -387373.79811185057 0 0 0 0 -9017954.4742240906 1472908.2323454022 0 1472908.2323454022 7569741.65695858 0 0 0 0 -975276.71087348461 -215228.33935746923 0 -215228.33935746923 501919.64704362443 0 0 0 0 82926690.236156464 -147333397.5027473 0 -147333397.5027473 125974154.36405039 0 0 0 0 51954603.987937927 -130533421.00969887 0 -130533421.00969887 215217688.44306469 0 0 0 0 76141743.188339233 -112718837.04200649 0 -112718837.04200649 206889784.81031513 0 0 0 0 -14417312.555908203 -5028889.2805628777 0 -5028889.2805628777 99097818.040976524 0 0 0 0 45734540.001190186 -88800498.488576412 0 -88800498.488576412 96457752.747680664 0 0 0 0 35375993.278808594 -87193534.703500748 0 -87193534.703500748 102401421.29334545 0 0 0 0 84465690.515625 -152919419.61826801 0 -152919419.61826801 145595314.08377028 0 0 0 0 -8459919.0312205553 -1294991.1462423652 0 -1294991.1462423652 395799.63361681404 0 0 0 0 60792804.339569092 -84234394.888103962 0 -84234394.888103962 -53686067.705216169 0 0 0 0 2300046.5653686523 1351210.7505440712 0 1351210.7505440712 7067960.7938792706 0 0 0 0 -54375786.482910156 -2529679.4486093521 0 -2529679.4486093521 45071237.21333313 0 0 0 0 -11173236.754516602 -29697299.050566673 0 -29697299.050566673 65838513.188549519 0 0 0 0 -235668.59878349304 -7801564.9907116592 0 -7801564.9907116592 37317826.033960819 0 0 0 0 -13739442.179611206 -28538576.515149832 0 -28538576.515149832 27301408.048418999 0 0 0 0 1185667.3405761719 -22689995.01478529 0 -22689995.01478529 8598487.907835722 0 0 0 0 -625059.32731628418 -15121507.740470409 0 -15121507.740470409 21587744.108052731 0 0 0 0 -2367512.6307220459 -12203848.370766878 0 -12203848.370766878 10197473.451133728 0 0 0 0 -2693445.9029998779 -26418627.538370132 0 -26418627.538370132 34893038.413550377 0 0 0 0 7340337.3509063721 -18852449.95540905 0 -18852449.95540905 36613536.988243341 0 0 0 0 -1609382.6569213867 -8171767.2292466164 0 -8171767.2292466164 62318001.349166393 0 0 0 0 17879.468858450651 -3326383.4718506942 0 -3326383.4718506942 250274.44807519161 0 0 0 0 15696142.219650269 -22676575.843258858 0 -22676575.843258858 -9092189.5848323107 0 0 0 0 17329193.17665863 -23231732.846086979 0 -23231732.846086979 134439683.80430269 0 0 0 0 -4090915.4003753662 -3871263.3311467171 0 -3871263.3311467171 176678091.27809298 0 0 0 0 18399935.838825226 -20008041.119258583 0 -20008041.119258583 129598087.12642002 0 0 0 0 59302.783415108919 -918846.87333671469 0 -918846.87333671469 96949.716731066001 0 0 0 0 17613247.042610168 -4185360.0448827744 0 -4185360.0448827744 204422113.03411007 0 0 0 0 -2625258.0578155518 -68963270.234203339 0 -68963270.234203339 345347707.38134813 0 0 0 0 39745691.285079956 -39139468.670010209 0 -39139468.670010209 54268181.890776873 0 0 0 0 57226702.633477211 -88548202.13213405 0 -88548202.13213405 123596518.99091387 0 0 0 0 53381182.148238182 -41515021.218162253 0 -41515021.218162253 127966578.15865469 0 0 0 0 31668467.069572449 -42752371.537971675 0 -42752371.537971675 20100053.096271515 0 0 0 0 28979438.022270203 -68842070.996292353 0 -68842070.996292353 99254638.928138137 0 0 0 0 39889132.526298523 -89368452.557923436 0 -89368452.557923436 -22500115.133802772 0 0 0 0 6266545.4409533571 -67952350.132488698 0 -67952350.132488698 -35676203.413300395 0 0 0 0 14331471.430786133 -72108664.585673273 0 -72108664.585673273 39964723.19647494 0 0 0 0 57209040.746301651 -18986589.699975401 0 -18986589.699975401 -14287142.895615339 0 0 0 0 148921414.07163239 -28306485.686916351 0 -28306485.686916351 -126382010.77508938 0 0 0 0 239282.33261623979 -1017388.0063341297 0 -1017388.0063341297 -1829772.6818258478 0 0 0 0 31927377.283474565 13382298.089167811 0 13382298.089167811 -41990941.923945069 0 0 0 0 31118097.063438416 -30375422.240876555 0 -30375422.240876555 -19232061.9682163 0 0 0 0 71041886.40020752 -1884975.2877550125 0 -1884975.2877550125 -21203896.520745754 0 0 0 0 8483129.2382125854 -18957438.848501801 0 -18957438.848501801 -22726943.591788411 0 0 0 0 69410355.037437439 -34857122.188091874 0 -34857122.188091874 16827018.010297298 0 0 0 0 4431670.1497573853 -27392848.623772144 0 -27392848.623772144 29439462.610273838 0 0 0 0 43075187.466453552 -58932714.351562738 0 -58932714.351562738 111968953.39279842 0 0 0 0 40841335.981552124 -44442069.627894998 0 -44442069.627894998 35273146.27903533 0 0 0 0 111394126.79008484 -57345345.818217993 0 -57345345.818217993 30636241.514030695 0 0 0 0 108623628.95779419 -147556258.33467889 0 -147556258.33467889 188153373.04256654 0 0 0 0 127101192.42906475 -61409720.825185865 0 -61409720.825185865 99197515.987508774 0 0 0 0 53021420.98595047 -80140601.595080197 0 -80140601.595080197 83987279.884241581 0 0 0 0 61593762.673477173 -111321172.87488794 0 -111321172.87488794 191920746.55081677 0 0 0 0 36178538.663574219 -76559509.783697605 0 -76559509.783697605 91437423.560753584 0 0 0 0 50611362.179328918 -24329506.926177263 0 -24329506.926177263 -9874556.5081913471 0 0 0 0 1635941.5255889893 -72988263.839474678 0 -72988263.839474678 83888883.982715011 0 0 0 0 84091395.850803375 -26276876.411917984 0 -26276876.411917984 -88375139.639239311 0 0 0 0 -712231.30601955578 -672673.04706130549 0 -672673.04706130549 -781265.15147971641 0 0 0 0 -33001619.964581966 97189565.45766215 0 97189565.45766215 -103961132.50316572 0 0 0 0 42998483.325889587 3183990.8121056557 0 3183990.8121056557 -67455085.968471944 0 0 0 0 -14759651.275163174 -28160215.055091724 0 -28160215.055091724 -2593888.274951458 0 0 0 0 -667938937.44953632 315234899.17552644 0 315234899.17552644 -40300060.868798733 0 0 0 0 -38623959.108230591 160548429.49766922 0 160548429.49766922 -238862008.72304001 0 0 0 0 -334051.99777411297 -147539.27538876608 0 -147539.27538876608 -194090.25376581401 0 0 0 0 -81690671.596076965 48615256.661550522 0 48615256.661550522 -32252884.407832474 0 0 0 0 -187434376.65869904 42887541.308901787 0 42887541.308901787 146555910.73139477 0 0 0 0 -174469185.12443161 86638412.269253969 0 86638412.269253969 -50510739.992758751 0 0 0 0 -399730.93936747266 -265706.72262004763 0 -265706.72262004763 -3007731.6622984735 0 0 0 0 -298461402.47421265 116791793.60488415 0 116791793.60488415 -10674601.154721737 0 0 0 0 -231892700.74253845 128002733.84412289 0 128002733.84412289 -64589552.697964847 0 0 0 0 -252699684.22031784 81956343.791042566 0 81956343.791042566 -3617692.8996949196 0 0 0 0 -113995125.00049591 102039016.21205592 0 102039016.21205592 -13532126.221422493 0 0 0 0 -111931317.69814777 78244452.819913089 0 78244452.819913089 -355578988.16787529 0 0 0 0 -93307393.241340637 45790401.383305311 0 45790401.383305311 -114547483.24895 0 0 0 0 -314529.71365381731 -61302.200530838221 0 -61302.200530838221 -2026692.0464818329 0 0 0 0 -288667837.38027191 -482557034.2297678 0 -482557034.2297678 69816183.553649426 0 0 0 0 -476616.17394541577 -1147512.3447682355 0 -1147512.3447682355 -1556737.39402955 0 0 0 0 -19645604.283279419 64872174.365358472 0 64872174.365358472 -55237409.073162079 0 0 0 0 -102214613.29486084 296872670.4179039 0 296872670.4179039 -37441158.437441349 0 0 0 0 -219183007.13523865 -155804246.01914883 0 -155804246.01914883 -226207842.31461096 0 0 0 0 -39754.789555856027 -123751.94475378469 0 -123751.94475378469 -1336352.0861365767 0 0 0 0 -316506284.58967972 -107260341.59461582 0 -107260341.59461582 -73320118.247104645 0 0 0 0 229357817.97601318 223326997.92759299 0 223326997.92759299 -329815104.47438258 0 0 0 0 -191815765.69023514 207851729.07570583 0 207851729.07570583 -133710082.00907493 0 0 0 0 74961438.208900452 60737411.284914136 0 60737411.284914136 -52659073.473088443 0 0 0 0 -218366456.93429279 -103343781.75922343 0 -103343781.75922343 -66547639.119883537 0 0 0 0 -234780365.03730011 -9687765.0661129951 0 -9687765.0661129951 26118993.276899338 0 0 0 0 -112470177.2919693 55158049.015395641 0 55158049.015395641 -27264939.287899971 0 0 0 0 -73297917.547348022 36688751.40093708 0 36688751.40093708 -73273736.761459827 0 0 0 0 59558173.460599899 26556472.828551814 0 26556472.828551814 -90815083.121158838 0 0 0 0 -293980.66955403797 -948686.14526803046 0 -948686.14526803046 -3505814.6858447092 0 0 0 0 -54426757.282268524 -14062731.443676114 0 -14062731.443676114 -8461459.0845842361 0 0 0 0 -144048618.08383179 76805600.401756287 0 76805600.401756287 -32931610.01717186 0 0 0 0 352682.09003253281 37617.550768079236 0 37617.550768079236 -545874.56105836947 0 0 0 0 48131366.894088745 -8800419.6355252266 0 -8800419.6355252266 21561485.572082374 0 0 0 0 -181720119.16718292 -28245384.420897961 0 -28245384.420897961 -5307261.3526158333 0 0 0 0 -207514629.85658264 -90850452.922204494 0 -90850452.922204494 -43474802.902415037 0 0 0 0 -183476571.0570755 -66756047.973156452 0 -66756047.973156452 -127745686.2917037 0 0 0 0 -77011356.402915955 41757713.282384396 0 41757713.282384396 -408157443.78114891 0 0 0 0 -112625515.11730194 4566655.8600158691 0 4566655.8600158691 -175010178.07252455 0 0 0 0 -201324624.71102142 -102687722.3245821 0 -102687722.3245821 -75594368.179836273 0 0 0 0 -137736.49763839645 -35269.960848802701 0 -35269.960848802701 -807280.89144917438 0 0 0 0 -262911632.45344543 -174274084.20255065 0 -174274084.20255065 -166400093.97756577 0 0 0 0 -185163973.34968853 -110278665.82415932 0 -110278665.82415932 -387686943.69067097 0 0 0 0 154172278.25738907 -148945552.24946928 0 -148945552.24946928 -458398003.48660469 0 0 0 0 -199069575.71260834 287933570.88755202 0 287933570.88755202 61646477.069361687 0 0 0 0 -93030317.972747803 -44555947.941553593 0 -44555947.941553593 241002742.09141445 0 0 0 0 -83933729.880599022 88958017.240366042 0 88958017.240366042 -57513105.742793083 0 0 0 0 -185994201.34249878 80193905.984161377 0 80193905.984161377 -42452146.385504246 0 0 0 0 39926063.932258606 -33771483.577156544 0 -33771483.577156544 35467471.972015619 0 0 0 0 -161303320.05263519 114727123.21562219 0 114727123.21562219 -2195756.5962963104 0 0 0 0 -66343015.633392334 18843396.838252068 0 18843396.838252068 -13287342.592268467 0 0 0 0 -179209370.13774109 68836172.636814594 0 68836172.636814594 70555137.03174305 0 0 0 0 -192926505.71121216 89747129.18407917 0 89747129.18407917 110263964.07584381 0 0 0 0 35466874.459674835 87025587.114318132 0 87025587.114318132 194683703.06269526 0 0 0 0 -836446.50016655028 -241573.61402789131 0 -241573.61402789131 1249699.3221555445 0 0 0 0 89844941.089187622 -113924971.18391132 0 -113924971.18391132 78397760.95871973 0 0 0 0 -5029928.7483100891 -7074751.7320919037 0 -7074751.7320919037 5866388.8988876343 0 0 0 0 -1124789.2033675089 -1312277.189707296 0 -1312277.189707296 364197.78393463418 0 0 0 0 -121286996.21385956 41189934.085379601 0 41189934.085379601 -8988702.3680877686 0 0 0 0 -118290432.57397461 43102744.879848003 0 43102744.879848003 -23884429.244190216 0 0 0 0 -129319561.99569702 23125969.66672647 0 23125969.66672647 8955999.5404119492 0 0 0 0 -96804501.516334534 19373788.084296703 0 19373788.084296703 -10714281.955066681 0 0 0 0 -143910917.72831807 51663068.129883423 0 51663068.129883423 4953321.3807506561 0 0 0 0 -208601741.46458626 132876801.0960238 0 132876801.0960238 -1116633.0380182266 0 0 0 0 -293564.18625007197 -143545.642311031 0 -143545.642311031 271272.75156355929 0 0 0 0 -154667381.8434124 116280824.32943273 0 116280824.32943273 -54999464.39687252 0 0 0 0 -129565518.45179749 35630313.300252914 0 35630313.300252914 -68577084.090021133 0 0 0 0 -100846819.11886883 45189632.401157498 0 45189632.401157498 -20793734.61277771 0 0 0 0 1701851.5095443726 682875.66033315659 0 682875.66033315659 -1578897.3418450356 0 0 0 0 309732.67467474937 -18513566.47698921 0 -18513566.47698921 9917473.6105051041 0 0 0 0 63256583.005104065 -98983905.896502495 0 -98983905.896502495 14382528.124309063 0 0 0 0 -971978.29764957353 -2595130.9182232469 0 -2595130.9182232469 -4584242.7898684628 0 0 0 0 83195008.068401337 -40035815.949281931 0 -40035815.949281931 -21682297.160017967 0 0 0 0 7722903.7075653076 -37534183.542581081 0 -37534183.542581081 -4252577.3420698643 0 0 0 0 -24230542.174194336 -28902376.190161228 0 -28902376.190161228 78682612.928960323 0 0 0 0 -94899739.371063232 -36181596.576523542 0 -36181596.576523542 2967599.2786866724 0 0 0 0 -2766569.1077270508 -41372243.134554625 0 -41372243.134554625 1694773.748966217 0 0 0 0 22714236.145046234 -54599230.409388363 0 -54599230.409388363 -127204819.07219076 0 0 0 0 8449453.6810073853 -31194630.443413258 0 -31194630.443413258 48145966.063756466 0 0 0 0 -2484279.0787453875 -3956476.2791773435 0 -3956476.2791773435 -4564997.6965122502 0 0 0 0 3175263.6900939941 -85812499.511120319 0 -85812499.511120319 77438745.279891148 0 0 0 0 -24119270.666290283 -17570372.366371155 0 -17570372.366371155 49568793.451907158 0 0 0 0 -22288703.596786499 395844.90007066727 0 395844.90007066727 71009894.644152164 0 0 0 0 -63701745.714828491 -34398919.66303277 0 -34398919.66303277 51252226.358074784 0 0 0 0 -27938401.386810303 -58238472.910727024 0 -58238472.910727024 63528795.908878446 0 0 0 0 -60204594.066986084 40662723.215390205 0 40662723.215390205 92898998.681613684 0 0 0 0 -67084069.998962402 66242839.639986992 0 66242839.639986992 -2087428.4865922928 0 0 0 0 7598460.4065856934 -21879755.234500408 0 -21879755.234500408 51436605.115189314 0 0 0 0 -52418254.87437439 -2485111.4479012489 0 -2485111.4479012489 46013443.645625114 0 0 0 0 9965953.5741443634 51886140.715604998 0 51886140.715604998 47003051.494592667 0 0 0 0 -12226378.553108215 18752974.681007624 0 18752974.681007624 18677724.666542292 0 0 0 0 203791.96600341797 21961533.159871578 0 21961533.159871578 -23535810.793477058 0 0 0 0 -65468296.795684814 52078692.559982061 0 52078692.559982061 -37347205.731271386 0 0 0 0 -38484934.474716187 -5937952.3942266703 0 -5937952.3942266703 -86924298.403506279 0 0 0 0 -28001645.941329956 -5234369.2341326475 0 -5234369.2341326475 -2825759.3846755028 0 0 0 0 -79642421.803543091 -26090760.888764024 0 -26090760.888764024 -4314486.071513325 0 0 0 0 -196758555.28877258 -54784738.844001234 0 -54784738.844001234 -88186135.2788167 0 0 0 0 -17610358.295066833 37007847.19222489 0 37007847.19222489 -210599838.34705329 0 0 0 0 4785048.6648731232 -11801484.462601393 0 -11801484.462601393 -136888854.19798636 0 0 0 0 582561.41332244873 -127169423.1110383 0 -127169423.1110383 -137873428.07089216 0 0 0 0 -29996076.587753296 -42851189.967966795 0 -42851189.967966795 6182787.8068095148 0 0 0 0 -23443314.894126892 162088465.94206661 0 162088465.94206661 -337404488.05173755 0 0 0 0 397174.46883533895 -395549.331961371 0 -395549.331961371 -950397.88758219883 0 0 0 0 2456641.2039251328 49953301.928941295 0 49953301.928941295 -150215847.0448966 0 0 0 0 74910146.763748169 63477614.771199644 0 63477614.771199644 -183810824.94197822 0 0 0 0 30976933.738616943 -32411810.800042868 0 -32411810.800042868 -120228730.71393156 0 0 0 0 59732570.189750671 -19051865.863530993 0 -19051865.863530993 -114946384.13982487 0 0 0 0 -8112562.2948875427 21633081.036142766 0 21633081.036142766 -124157265.91592669 0 0 0 0 5727499.6192016602 -68385575.63918674 0 -68385575.63918674 -329467016.41021454 0 0 0 0 -12138427.988803864 -4820284.0970396996 0 -4820284.0970396996 12553709.608564854 0 0 0 0 8067564.3221893311 -2313458.3939709663 0 -2313458.3939709663 -3640092.2980995178 0 0 0 0 4409325.8746366501 9880188.6995118856 0 9880188.6995118856 79860595.885155678 0 0 0 0 13730346.650497437 8261590.0809414387 0 8261590.0809414387 -39325107.469540596 0 0 0 0 -2924501.0391576141 -927614.68695984269 0 -927614.68695984269 -228413.42600854044 0 0 0 0 -5175257.1351089478 7461708.2413454056 0 7461708.2413454056 -19967437.974837303 0 0 0 0 -5642089.3813247681 -2086069.912904501 0 -2086069.912904501 -15559740.69722271 0 0 0 0 10475464.443389893 -47479479.054224491 0 -47479479.054224491 18249808.217975616 0 0 0 0 -10974409.852306366 2203009.5932307243 0 2203009.5932307243 10558206.371168137 0 0 0 0 -3026189.6843725219 -516990.95685567427 0 -516990.95685567427 96696.169789268635 0 0 0 0 -2536022.4808358699 -53244.61415124312 0 -53244.61415124312 155272.1938820146 0 0 0 0 -50666141.459938049 -40599067.858487606 0 -40599067.858487606 24301893.82462883 0 0 0 0 26758343.330880165 1201078.4686994553 0 1201078.4686994553 -50901520.933760643 0 0 0 0 -5663332.9770622253 11753467.858734608 0 11753467.858734608 -7564142.1882247925 0 0 0 0 36978005.511872292 -30725521.093216777 0 -30725521.093216777 -18124607.679405212 0 0 0 0 -670741.79803573713 -132515.26573907584 0 -132515.26573907584 -900842.45012271171 0 0 0 0 10528201.135004044 3250409.2853127718 0 3250409.2853127718 -15905293.987725258 0 0 0 0 20906318.264335632 5350101.1899371147 0 5350101.1899371147 -24174630.314893723 0 0 0 0 -40944442.55846405 22577925.200573444 0 22577925.200573444 -27335607.874471664 0 0 0 0 8864387.3575382233 -805772.12818670273 0 -805772.12818670273 -22802041.241427422 0 0 0 0 10033823.293327332 -715699.67306637764 0 -715699.67306637764 -22798191.168359756 0 0 0 0 31705713.454582214 -11618358.009473801 0 -11618358.009473801 -27106178.361165524 0 0 0 0 13389125.855457306 -2154184.7494478226 0 -2154184.7494478226 -31290948.935616493 0 0 0 0 14844762.533753395 21425583.551544428 0 21425583.551544428 -44898088.419975281 0 0 0 0 37700896.882217407 5522839.0783286095 0 5522839.0783286095 -42218039.37782836 0 0 0 0 -118166.50852007791 -169758.55368663184 0 -169758.55368663184 -973663.93818154559 0 0 0 0 37418348.475616455 44610395.867616177 0 44610395.867616177 1799569.7339061499 0 0 0 0 54079450.920707703 23114870.696244121 0 23114870.696244121 -88389928.733722687 0 0 0 0 42451022.29706955 -69048690.28712678 0 -69048690.28712678 -23356396.488394022 0 0 0 0 42954876.323028564 -65378701.830942154 0 -65378701.830942154 -110533671.22853684 0 0 0 0 -191094455.67166138 -161065025.91955519 0 -161065025.91955519 -139595278.77665329 0 0 0 0 -207468331.15770531 -280581391.10262758 0 -280581391.10262758 -86260121.515472412 0 0 0 0 475270702.12650299 286850502.42290497 0 286850502.42290497 -20680820.474740982 0 0 0 0 242770854.87471008 -784670652.18733311 0 -784670652.18733311 -492571021.80423927 0 0 0 0 148267307.3388443 -21651747.156359673 0 -21651747.156359673 -255254702.48077822 0 0 0 0 151918463.81565094 138334740.7308774 0 138334740.7308774 26207184.350673676 0 0 0 0 -188530389.6583252 12526168.643694401 0 12526168.643694401 -4952817.457652092 0 0 0 0 -2047041.2228775062 -2279709.9680753592 0 -2279709.9680753592 -1098975.9458988146 0 0 0 0 -877827112.71485901 -139884759.14661169 0 -139884759.14661169 80863265.499150753 0 0 0 0 -444100622.8609848 206351654.03352213 0 206351654.03352213 -93684387.132064342 0 0 0 0 -1370439250.0081482 -544038643.5930233 0 -544038643.5930233 -25892089.331001282 0 0 0 0 -1322155.5243487433 -819687.84275156399 0 -819687.84275156399 -395737.39494025917 0 0 0 0 -240815220.52497864 -602395126.07784653 0 -602395126.07784653 24214077.108226776 0 0 0 0 -1500139570.9919434 -363039593.79138565 0 -363039593.79138565 237966549.21316528 0 0 0 0 -1331106251.0962143 373122834.43443823 0 373122834.43443823 -48036170.960172892 0 0 0 0 -664857.77986792102 -814967.97506541759 0 -814967.97506541759 -661787.84669425292 0 0 0 0 -187662215.65174866 -574391016.73419857 0 -574391016.73419857 -523791507.35381746 0 0 0 0 135457606.55871582 138530681.10978603 0 138530681.10978603 113497430.27292252 0 0 0 0 -925245309.77026749 -139509580.63964868 0 -139509580.63964868 -102071979.01018143 0 0 0 0 -370556187.97608948 10528251.809123993 0 10528251.809123993 -76309341.318628669 0 0 0 0 -555750243.54842758 106335526.75116134 0 106335526.75116134 1929703.1890802383 0 0 0 0 -487545475.64706421 194991815.8463397 0 194991815.8463397 -138505914.60040474 0 0 0 0 -274321834.32613373 93314535.85545826 0 93314535.85545826 2431726.7062349319 0 0 0 0 -170703407.01416779 43043896.020567894 0 43043896.020567894 -23471031.103971481 0 0 0 0 -430869340.02692413 32934868.033032417 0 32934868.033032417 50552338.15007782 0 0 0 0 -401982932.99163437 19619681.753896952 0 19619681.753896952 16278621.641750336 0 0 0 0 -407050404.8371582 -22442222.184274197 0 -22442222.184274197 62517035.277699471 0 0 0 0 21349799.189891815 82522342.569599152 0 82522342.569599152 235420871.14197636 0 0 0 0 -2939241.8062214404 -1160195.3813959099 0 -1160195.3813959099 -386795.44697717414 0 0 0 0 4440627.9006195068 -35840044.720020294 0 -35840044.720020294 -1195505.7263665199 0 0 0 0 -107741893.9037323 168368433.84544945 0 168368433.84544945 -139834227.86382961 0 0 0 0 74833273.950202942 4628937.1343636513 0 4628937.1343636513 -100796899.73488808 0 0 0 0 -166696031.85044861 54918186.766376495 0 54918186.766376495 -27102755.860478401 0 0 0 0 15946640.219436646 60481927.399242401 0 60481927.399242401 -101229822.5348568 0 0 0 0 146267.85242692754 -44268.345664383844 0 -44268.345664383844 -174348.42662427668 0 0 0 0 -36310465.221450806 13864968.703100681 0 13864968.703100681 -10151749.460279465 0 0 0 0 -27381784.014621735 2452685.5755183697 0 2452685.5755183697 -43219795.779508591 0 0 0 0 332937.22928563505 -87643.898575642146 0 -87643.898575642146 -346661.90513090091 0 0 0 0 -143933317.19369125 -3450241.515213728 0 -3450241.515213728 -1925123.0561733246 0 0 0 0 -96622434.913749695 66595969.015655518 0 66595969.015655518 -33516140.387424469 0 0 0 0 -96159652.789596558 -49038832.713272095 0 -49038832.713272095 -7409566.0793194771 0 0 0 0 -27381690.315698624 44483647.675796032 0 44483647.675796032 -11464321.409197807 0 0 0 0 -421117689.88365936 -20015786.660461664 0 -20015786.660461664 73891813.835905075 0 0 0 0 -286041226.12438202 1885098.2802214622 0 1885098.2802214622 25327733.879254341 0 0 0 0 -256676711.62029266 56687641.642558098 0 56687641.642558098 -8622931.1142129898 0 0 0 0 -258951979.78894043 -14968585.312970161 0 -14968585.312970161 19864584.991534233 0 0 0 0 -267764582.3052597 15199706.90216732 0 15199706.90216732 29474500.828806162 0 0 0 0 -347258268.5404129 -50329821.934232235 0 -50329821.934232235 18402875.298849106 0 0 0 0 -279286505.5366621 307794676.08319974 0 307794676.08319974 355099502.7323761 0 0 0 0 -543800493.4377594 18232550.208333969 0 18232550.208333969 70206288.502759933 0 0 0 0 -161173729.91359711 -159657894.39633703 0 -159657894.39633703 61558656.281375885 0 0 0 0 -647778174.31899261 -503591663.79050112 0 -503591663.79050112 -176981279.07727623 0 0 0 0 -3223578.3961389437 451463.90332533675 0 451463.90332533675 224787.26248172618 0 0 0 0 -278793153.05519104 406155506.0295577 0 406155506.0295577 -189475923.863796 0 0 0 0 -760986861.6293869 165201922.07520485 0 165201922.07520485 -217090105.00329781 0 0 0 0 -1077433075.1274567 -1161517072.7042389 0 -1161517072.7042389 -1507021345.2011604 0 0 0 0 -1858185602.899826 87724171.84396553 0 87724171.84396553 1251045363.6414356 0 0 0 0 15063499.806301117 24200521.125119209 0 24200521.125119209 46972696.337517738 0 0 0 0 -25834022.747245789 9708445.3833360672 0 9708445.3833360672 43040765.876884222 0 0 0 0 -33115419.821609497 33080810.403850079 0 33080810.403850079 40054262.214527369 0 0 0 0 -8446291.6556330323 270143.94916115119 0 270143.94916115119 645458.34887027764 0 0 0 0 -65358698.526042938 -12923062.726097107 0 -12923062.726097107 165210736.45021915 0 0 0 0 -300536714.16265869 251765367.87484407 0 251765367.87484407 594530537.39431739 0 0 0 0 -110503430.28108215 -54228003.313754082 0 -54228003.313754082 643919646.46272302 0 0 0 0 -11560609.200261347 -548112.93540380243 0 -548112.93540380243 967053.68764562299 0 0 0 0 -29644073.682975769 19381109.725212574 0 19381109.725212574 115581172.26514173 0 0 0 0 -1823044.8296604156 4266162.3273643255 0 4266162.3273643255 45565381.68390274 0 0 0 0 -22462819.442558289 11722901.878231049 0 11722901.878231049 45697754.80909083 0 0 0 0 5570659.3747558594 21779536.611130238 0 21779536.611130238 -16124202.175123215 0 0 0 0 -18100341.596572876 28474466.132674217 0 28474466.132674217 -17544360.09911418 0 0 0 0 370766.21237175539 -79341.118376479484 0 -79341.118376479484 -336776.42800446786 0 0 0 0 -5851124.2661962509 15871670.987326622 0 15871670.987326622 -29435713.841621399 0 0 0 0 1508387.8893203735 6732520.4892997742 0 6732520.4892997742 -26438148.287086487 0 0 0 0 -10592635.079238892 24461884.76488924 0 24461884.76488924 -37972475.445743561 0 0 0 0 -12294914.098548889 24139130.169536591 0 24139130.169536591 -39465746.917567931 0 0 0 0 -6226495.8263931274 8154541.1853480339 0 8154541.1853480339 -17396478.742920876 0 0 0 0 -362917.08924865723 8103489.5082075596 0 8103489.5082075596 -18776978.0403862 0 0 0 0 -2484926.384098053 5419140.1318013668 0 5419140.1318013668 -20382271.308438301 0 0 0 0 -7158191.7767000198 10031982.542677641 0 10031982.542677641 -17237255.047266006 0 0 0 0 4748057.9583435059 9295728.8201255798 0 9295728.8201255798 -21193799.352874279 0 0 0 0 197030.22798715904 -43250.569204929285 0 -43250.569204929285 -171382.70100637339 0 0 0 0 7538206.1812973022 22685171.345565796 0 22685171.345565796 -4796393.4756402969 0 0 0 0 -11650282.803527832 18091447.77271986 0 18091447.77271986 23988619.157729149 0 0 0 0 -7764478.4533004761 7145344.1113572121 0 7145344.1113572121 20348803.137322426 0 0 0 0 1168703.8668251038 16905917.841234207 0 16905917.841234207 29966579.722457886 0 0 0 0 -1314658.5273666382 18864795.715865135 0 18864795.715865135 38524288.662653923 0 0 0 0 -18995459.382444382 32245724.765208602 0 32245724.765208602 30255338.215073586 0 0 0 0 -8808831.5974693298 19785950.287312746 0 19785950.287312746 42000249.22943306 0 0 0 0 -215755799.88317871 -179068284.46403122 0 -179068284.46403122 147004425.19905186 0 0 0 0 -13182755.828766204 -1147142.8468366254 0 -1147142.8468366254 1534586.9452329476 0 0 0 0 -10771389.358413696 10953626.548308372 0 10953626.548308372 53595023.331825256 0 0 0 0 -11751800.239544868 -1354454.137503624 0 -1354454.137503624 19411981.540262222 0 0 0 0 -12513769.221496582 935905.32302284241 0 935905.32302284241 35390764.029436827 0 0 0 0 44801147.36384201 -32789186.470122814 0 -32789186.470122814 -166494.0974817276 0 0 0 0 196841223.04157257 -202356722.15899467 0 -202356722.15899467 48587924.663421631 0 0 0 0 -156293.31982729584 -912821.99016523361 0 -912821.99016523361 111304.81115570571 0 0 0 0 20327925.052810669 -5102869.775551796 0 -5102869.775551796 -17689730.287148952 0 0 0 0 6155194.0457992554 4756649.2325401306 0 4756649.2325401306 -12981558.226174355 0 0 0 0 74157479.873342514 -143693839.01017067 0 -143693839.01017067 -32820447.330183029 0 0 0 0 69851613.85134697 -165916509.69233185 0 -165916509.69233185 29305820.186979294 0 0 0 0 166130802.38200378 -75752079.182484388 0 -75752079.182484388 109150370.35560554 0 0 0 0 -3155615.8747444153 43374061.974746108 0 43374061.974746108 127492443.4107914 0 0 0 0 -25412654.560097456 -240946400.29925552 0 -240946400.29925552 155252759.59685898 0 0 0 0 -237297.30920721591 -357404.85234804451 0 -357404.85234804451 181802.80235041864 0 0 0 0 -23631197.778930664 -170642099.62267637 0 -170642099.62267637 125191311.94413263 0 0 0 0 148964605.71434021 -277657534.76369047 0 -277657534.76369047 58996620.274691105 0 0 0 0 247975714.67791748 -29896207.754935265 0 -29896207.754935265 209013727.79378033 0 0 0 0 110813153.97792816 -180234772.47648573 0 -180234772.47648573 10495191.506886482 0 0 0 0 20385448.682907104 -169372484.01503992 0 -169372484.01503992 171897190.86270404 0 0 0 0 62644915.847702026 -214960650.07001734 0 -214960650.07001734 48222190.506967545 0 0 0 0 -130147044.65507507 -227647053.46318245 0 -227647053.46318245 458513122.52814245 0 0 0 0 -239474247.18261719 131041634.61061645 0 131041634.61061645 -82773147.730068207 0 0 0 0 -105380815.69300842 -111993888.73887491 0 -111993888.73887491 6117574.7824573517 0 0 0 0 -66168675.542293549 -72685615.43513 0 -72685615.43513 -127793064.02258968 0 0 0 0 -50656820.863891602 -86537223.432459831 0 -86537223.432459831 14596491.240618646 0 0 0 0 54715433.391036987 -106070742.37253284 0 -106070742.37253284 -56722186.658601761 0 0 0 0 31445629.079772949 -163965483.39831185 0 -163965483.39831185 81383609.37964797 0 0 0 0 -10046717.010871887 -141218511.46224856 0 -141218511.46224856 -71948564.267591476 0 0 0 0 10328706.897888184 -110913201.21458089 0 -110913201.21458089 -73168349.970601082 0 0 0 0 -70271843.539505005 -23627277.449994802 0 -23627277.449994802 -70614448.833648518 0 0 0 0 -23922326.196746826 -940591.77965259552 0 -940591.77965259552 -87917758.548716068 0 0 0 0 -317384495.20716858 -14507186.011469603 0 -14507186.011469603 -159831720.55462265 0 0 0 0 -113295837.43579102 -82613677.120800018 0 -82613677.120800018 -148748875.87069035 0 0 0 0 -198053494.60874939 75786173.883913755 0 75786173.883913755 -141877664.40284589 0 0 0 0 -230029446.36309814 20932548.391687393 0 20932548.391687393 -100238441.05149758 0 0 0 0 -233312486.64639282 50679512.004063845 0 50679512.004063845 -197104860.2776475 0 0 0 0 -491583484.11984253 38881184.210411787 0 38881184.210411787 -109618412.78577042 0 0 0 0 -359422221.59130859 89541290.002831221 0 89541290.002831221 -155734105.10795641 0 0 0 0 -287225693.25287628 12842043.48894459 0 12842043.48894459 -96212378.484236121 0 0 0 0 -351266761.90542603 -3270891.1482980251 0 -3270891.1482980251 -146370605.79218245 0 0 0 0 -452010959.83978271 110051425.43644094 0 110051425.43644094 -114638808.96296886 0 0 0 0 -221215278.41627502 83926656.55091089 0 83926656.55091089 -100743993.21036091 0 0 0 0 -101514306.99604797 -10976536.362375975 0 -10976536.362375975 -60811625.854166269 0 0 0 0 -25504171.754455566 -49715176.069970727 0 -49715176.069970727 -79111460.765378237 0 0 0 0 -96778156.401779175 -9593745.4447214603 0 -9593745.4447214603 -146246277.03664398 0 0 0 0 -57253500.075408936 29589501.192402124 0 29589501.192402124 -81355565.27078253 0 0 0 0 50493348.838287354 -33392097.871394396 0 -33392097.871394396 -108420208.78939056 0 0 0 0 136309895.97106934 -53131490.772601843 0 -53131490.772601843 -72550045.841483593 0 0 0 0 45051525.415740967 -62461465.897439241 0 -62461465.897439241 -11265869.105705738 0 0 0 0 41520950.773590088 -12235451.426062703 0 -12235451.426062703 -36832441.541179717 0 0 0 0 173711724.45619202 -58672928.4578017 0 -58672928.4578017 -43081103.494720936 0 0 0 0 127770290.18173218 -60672001.727921009 0 -60672001.727921009 515355.30969667435 0 0 0 0 183879956.2167511 -64305041.99229455 0 -64305041.99229455 -12301103.766860485 0 0 0 0 129640143.29360962 -108080424.57468176 0 -108080424.57468176 95772213.210670948 0 0 0 0 34620284.010513306 -99492878.96444726 0 -99492878.96444726 54419387.354732871 0 0 0 0 33416801.924835205 -73227062.177262306 0 -73227062.177262306 -13960252.800953209 0 0 0 0 139416556.78570175 -81138019.121443152 0 -81138019.121443152 -45315545.421645164 0 0 0 0 -1093676982.5531311 -166445842.71572065 0 -166445842.71572065 382338907.40224504 0 0 0 0 -243123004.46429443 527120774.12372112 0 527120774.12372112 -326978770.78493404 0 0 0 0 -586368394.52382278 7788208.5569255352 0 7788208.5569255352 -408922221.51424885 0 0 0 0 -644482567.81725311 232844152.96495962 0 232844152.96495962 -291872944.42564774 0 0 0 0 -455955791.88568878 -175965167.13590753 0 -175965167.13590753 -539235953.84593964 0 0 0 0 -304768.60016835388 -528431.4677347932 0 -528431.4677347932 -1732898.5102670612 0 0 0 0 -215609475.57498932 343389961.69719362 0 343389961.69719362 -197189193.78135681 0 0 0 0 102686035.42781067 369932869.18616486 0 369932869.18616486 -321510859.24973822 0 0 0 0 -204485921.17322159 328918575.90300214 0 328918575.90300214 -247308391.80336952 0 0 0 0 108605616.81645203 132230813.46106118 0 132230813.46106118 265149685.33035111 0 0 0 0 -256563659.73163605 439955767.45841825 0 439955767.45841825 125806835.7917366 0 0 0 0 133633855.88557434 318872251.05340314 0 318872251.05340314 -284977680.79489517 0 0 0 0 474678149.16737366 220311630.90435177 0 220311630.90435177 -71916436.067371368 0 0 0 0 -242163.55281196488 -383807.07898950204 0 -383807.07898950204 -758442.22312710481 0 0 0 0 79693232.942157745 440069988.71898371 0 440069988.71898371 -183077050.74704504 0 0 0 0 -1494554152.7726212 173231949.1519134 0 173231949.1519134 54113014.270449638 0 0 0 0 114919529.09889793 339259449.55578607 0 339259449.55578607 -260825848.56497002 0 0 0 0 -382964415.84127045 -35849862.042346478 0 -35849862.042346478 245824897.92697811 0 0 0 0 -18519524.343353271 282042023.99393177 0 282042023.99393177 -364211523.49644899 0 0 0 0 -373957103.23405457 -100185287.54482126 0 -100185287.54482126 88638234.722033978 0 0 0 0 149515641.07987213 -121663572.41020751 0 -121663572.41020751 -24208607.1203022 0 0 0 0 -837450898.00997925 499745786.94722462 0 499745786.94722462 -194863178.47259855 0 0 0 0 -355932092.20317841 25829399.735042334 0 25829399.735042334 -153614675.61339092 0 0 0 0 -494209294.11468506 196946748.98758364 0 196946748.98758364 -149431737.38534427 0 0 0 0 -743026808.86361313 79399941.862229943 0 79399941.862229943 -48112571.292140961 0 0 0 0 -811066103.85296249 194797191.50118697 0 194797191.50118697 11970995.037810802 0 0 0 0 -1082937892.2258949 342360189.34778035 0 342360189.34778035 -77380335.486653328 0 0 0 0 -957601171.65391541 -82435616.155153632 0 -82435616.155153632 -75313202.90472126 0 0 0 0 -741317448.10890198 71775090.992914677 0 71775090.992914677 -47754320.769407749 0 0 0 0 -491686421.41122437 42670337.009090185 0 42670337.009090185 -243518078.39817715 0 0 0 0 -779791593.24334717 63616393.82693103 0 63616393.82693103 -13957649.114818215 0 0 0 0 -628741945.43652344 82421484.807598472 0 82421484.807598472 -99872511.2214849 0 0 0 0 -453864999.61883545 43803639.41304183 0 43803639.41304183 -188057479.18234944 0 0 0 0 -621542174.16893959 3793446.8094813228 0 3793446.8094813228 -368252669.70194912 0 0 0 0 -524286981.59256744 -220762030.46906033 0 -220762030.46906033 -94693389.319333151 0 0 0 0 6734894.9561386108 -7266603.4829826951 0 -7266603.4829826951 2656974.1811282933 0 0 0 0 -2284719.4234478269 -715370.48081101105 0 -715370.48081101105 -283067.76506972214 0 0 0 0 -398237.24741808325 99298.742421671748 0 99298.742421671748 -62955.966648344474 0 0 0 0 42094830.150179386 114399767.06452216 0 114399767.06452216 265689114.92884851 0 0 0 0 -762500073.82188416 186010775.64379191 0 186010775.64379191 -42118041.930576801 0 0 0 0 -769072.32035752479 -346901.44249287993 0 -346901.44249287993 -2162879.5665507014 0 0 0 0 -6427549.3762839437 1055776.0962687787 0 1055776.0962687787 760075.37410811207 0 0 0 0 7865176.5183029175 291464335.9193027 0 291464335.9193027 124868747.35030419 0 0 0 0 4374296.2273292542 -14424171.332314402 0 -14424171.332314402 743502.82922530174 0 0 0 0 3303125.5036468506 -12605897.884662092 0 -12605897.884662092 11424376.052816004 0 0 0 0 -759277.7798538208 -8300359.2746649384 0 -8300359.2746649384 8257726.9753301144 0 0 0 0 -9179923.6775436401 -18684362.622367233 0 -18684362.622367233 -656475.42641532421 0 0 0 0 -14235437.27148056 -30906498.907492235 0 -30906498.907492235 36059382.145417571 0 0 0 0 -481093291.67556 -106737540.8571732 0 -106737540.8571732 1091287279.6702862 0 0 0 0 -8959132.3034168482 14985.041223044973 0 14985.041223044973 977916.70763711201 0 0 0 0 -7733293.5645446777 3704748.3088717461 0 3704748.3088717461 -1309426.886398375 0 0 0 0 -2993026.932144165 3353388.4634947181 0 3353388.4634947181 -6269919.4932730198 0 0 0 0 -4456257.1499347687 -530378.56804058701 0 -530378.56804058701 3260325.9911717176 0 0 0 0 -10023905.589096069 6743043.5506654382 0 6743043.5506654382 -4507605.9387654066 0 0 0 0 -4919719.7621917725 6559386.9996082783 0 6559386.9996082783 -11576580.272939682 0 0 0 0 -2806669.4736556113 -2766661.3826542539 0 -2766661.3826542539 -12296984.307736874 0 0 0 0 2683637.0327606201 -4193443.6798776388 0 -4193443.6798776388 -20704004.159133255 0 0 0 0 3264476.0659446716 -8429103.0651878715 0 -8429103.0651878715 -3712630.6105597019 0 0 0 0 7636232.6680450439 -8575370.4542896003 0 -8575370.4542896003 -1589127.9103659987 0 0 0 0 7739814.0091091394 -3337295.2119941795 0 -3337295.2119941795 -416316.09555482864 0 0 0 0 6714136.9881896973 -6902929.3266180754 0 -6902929.3266180754 -3596127.7070782185 0 0 0 0 7706914.7666778564 -4629435.3230230212 0 -4629435.3230230212 -8553052.8717314005 0 0 0 0 23434172.920524597 -6131485.243246749 0 -6131485.243246749 -4293894.535753116 0 0 0 0 -627408290.87194061 -65692765.594450913 0 -65692765.594450913 27602134.001571536 0 0 0 0 -1410480.1110647055 -754658.80610409379 0 -754658.80610409379 -128010.83073180588 0 0 0 0 -711953865.32823181 14585215.667837501 0 14585215.667837501 12271241.913873196 0 0 0 0 -518028683.66699982 -29268068.800864875 0 -29268068.800864875 10986909.131574064 0 0 0 0 -520508091.94151306 6670765.0648176968 0 6670765.0648176968 28010943.253533542 0 0 0 0 -478111293.96039629 -20933584.884417877 0 -20933584.884417877 -26840750.294402987 0 0 0 0 -478340515.14563131 -19817048.74584619 0 -19817048.74584619 34338973.79484427 0 0 0 0 -486125936.65676117 -53953298.72155273 0 -53953298.72155273 -18522.082943008576 0 0 0 0 53946595.575759888 -70967644.374213874 0 -70967644.374213874 -442586.82811239117 0 0 0 0 -616119497.60234833 -14220321.213546172 0 -14220321.213546172 37217439.603505179 0 0 0 0 -1100768.2201854046 -518649.86767041683 0 -518649.86767041683 -42428.781413302408 0 0 0 0 -1398542.6822738647 -7256786.1755756587 0 -7256786.1755756587 10065803.880243525 0 0 0 0 -8617667.1444625854 4816984.8638690263 0 4816984.8638690263 1008973.7690085843 0 0 0 0 -129029.08048534393 -51521.643114462495 0 -51521.643114462495 46351.327729243065 0 0 0 0 -4132001.3335876465 -504462.4128270931 0 -504462.4128270931 -11202.441040742819 0 0 0 0 1037426.7161998749 11667518.459436595 0 11667518.459436595 -1508044.7534423769 0 0 0 0 -11844192.768478394 10153823.307003781 0 10153823.307003781 2184462.0405358858 0 0 0 0 -216891.25488986447 -131407.66213811934 0 -131407.66213811934 -14902.158902772433 0 0 0 0 -7818164.9310073853 6534071.5554649979 0 6534071.5554649979 -672021.31211588159 0 0 0 0 -25970069.48418951 6049061.4245532611 0 6049061.4245532611 2006330.8197673368 0 0 0 0 34330187.415248871 5822682.0280865766 0 5822682.0280865766 -17483707.428765513 0 0 0 0 -69761890.393951416 -23678766.45583877 0 -23678766.45583877 -40337036.389284611 0 0 0 0 13075841.041664124 39891954.697654165 0 39891954.697654165 -46554225.558200687 0 0 0 0 201554558.91897202 -36129133.596895315 0 -36129133.596895315 -55788748.186640367 0 0 0 0 52814908.151519775 12194161.656838715 0 12194161.656838715 -16552716.778564095 0 0 0 0 152240362.28636551 -19284791.919480324 0 -19284791.919480324 -24797241.833324194 0 0 0 0 139044891.50191879 -46698494.747717142 0 -46698494.747717142 -61715637.960042 0 0 0 0 50972562.043521881 -645637.72497873753 0 -645637.72497873753 -80961517.165738344 0 0 0 0 -71212286.193496704 7086486.7184318304 0 7086486.7184318304 -40504041.749877214 0 0 0 0 31894054.820358276 -33568779.582817316 0 -33568779.582817316 -79207685.212710381 0 0 0 0 -188910959.17359924 47775094.663389117 0 47775094.663389117 -36799505.677276254 0 0 0 0 -121717361.27784729 -22858632.409042358 0 -22858632.409042358 -70390577.917010307 0 0 0 0 -65638695.910118103 18496578.262266129 0 18496578.262266129 -97411160.291791677 0 0 0 0 -447942980.15817261 92978517.63025111 0 92978517.63025111 -38483514.770503551 0 0 0 0 -385005942.20113373 -45495210.719574846 0 -45495210.719574846 -17786100.288596421 0 0 0 0 -223037722.4067688 -3611505.5929490328 0 -3611505.5929490328 -35449702.364542663 0 0 0 0 -332564884.58402252 48796806.260717884 0 48796806.260717884 8733868.6273623109 0 0 0 0 -163850813.01091766 -53367486.116137244 0 -53367486.116137244 -16552756.023541152 0 0 0 0 -352031943.76445007 30255630.733806636 0 30255630.733806636 -7534566.6191378487 0 0 0 0 -291719764.64833069 -58195045.103890561 0 -58195045.103890561 2071.8278461658629 0 0 0 0 -69131770.152877808 48835380.853964061 0 48835380.853964061 -8414643.3155094385 0 0 0 0 -2632481.0258140564 -63417128.687118016 0 -63417128.687118016 113011.02576625621 0 0 0 0 43246137.784172058 -22793207.783217356 0 -22793207.783217356 11709558.349477947 0 0 0 0 301507183.38248444 56594862.417216003 0 56594862.417216003 -27811059.397657514 0 0 0 0 -5181408.7016525269 -7887009.8944871016 0 -7887009.8944871016 -16748.956300262034 0 0 0 0 -8771585.9790420532 -9570730.0039092544 0 -9570730.0039092544 9355172.9938924089 0 0 0 0 -53568.331180144101 -361019.72262453288 0 -361019.72262453288 -36618.837034482196 0 0 0 0 -11418843.418716431 -2906805.8273574226 0 -2906805.8273574226 2630955.7809266858 0 0 0 0 -10160258.177612305 -4975828.9859085325 0 -4975828.9859085325 4603972.694432972 0 0 0 0 -10086508.453027725 -3485721.0318530416 0 -3485721.0318530416 1395627.6237229221 0 0 0 0 -10148123.346832275 -2997182.2083705734 0 -2997182.2083705734 1904573.3377920869 0 0 0 0 -10310340.207015991 -3288665.4067966463 0 -3288665.4067966463 2158790.9526511617 0 0 0 0 -10128300.121818542 -3568799.8551821052 0 -3568799.8551821052 710732.40231253207 0 0 0 0 -8702373.8946838379 -3681557.6687769163 0 -3681557.6687769163 537848.88872609474 0 0 0 0 -10594379.044929504 -2815780.6638605902 0 -2815780.6638605902 1838819.328996392 0 0 0 0 -57356.824322051369 -105633.94022023305 0 -105633.94022023305 -11262.890020373807 0 0 0 0 -7040504.6509208679 2918395.5430347454 0 2918395.5430347454 -11998906.901354343 0 0 0 0 -11681843.595176697 -2568995.6223967234 0 -2568995.6223967234 2254753.0076027401 0 0 0 0 -11081380.976791382 -2240499.9351378921 0 -2240499.9351378921 838543.24125274643 0 0 0 0 -9255612.3401641846 -2281547.9462777032 0 -2281547.9462777032 158907.8540683575 0 0 0 0 -4058217.7987213135 -2723739.3805859103 0 -2723739.3805859103 -1482278.642123716 0 0 0 0 272781173.89463806 50876678.853354335 0 50876678.853354335 -30530048.306128979 0 0 0 0 -248419.37197777256 -699827.53622225672 0 -699827.53622225672 227284.25458424506 0 0 0 0 -161494.19208072871 -499279.80470956117 0 -499279.80470956117 -66880.665461481811 0 0 0 0 -7804895.7348861694 -4158550.3229272589 0 -4158550.3229272589 6300749.2285823971 0 0 0 0 -14140787.942077637 -3285814.454184087 0 -3285814.454184087 1959920.1675294377 0 0 0 0 -11909241.069892883 -5507637.9259201372 0 -5507637.9259201372 759682.55458017811 0 0 0 0 -7194411.9255867004 -5813081.3855557293 0 -5813081.3855557293 -1037437.7960272096 0 0 0 0 -568288.4291407913 -252375.10130457208 0 -252375.10130457208 674837.55288143887 0 0 0 0 -16724121.534080505 2931666.6061692014 0 2931666.6061692014 1761888.2071217224 0 0 0 0 -793014.4094619751 -2804768.3271564613 0 -2804768.3271564613 170596.91756125819 0 0 0 0 -305991.32711616717 -1430137.9319093116 0 -1430137.9319093116 -125172.39067015424 0 0 0 0 180886359.06340027 -41390173.977498531 0 -41390173.977498531 -21417089.365393832 0 0 0 0 203303092.41974068 -27759541.905308932 0 -27759541.905308932 -19943778.414532661 0 0 0 0 -650401.0049974937 -611216.11931904405 0 -611216.11931904405 578078.93346226099 0 0 0 0 -7944623.8948669434 -4216219.775708586 0 -4216219.775708586 -626343.71957962215 0 0 0 0 -8786199.2916564941 -1817944.6927304976 0 -1817944.6927304976 -376699.41091051325 0 0 0 0 -16655937.742134094 -1879117.6707385927 0 -1879117.6707385927 1273473.7629914954 0 0 0 0 -12152172.471054077 -3961366.9163702372 0 -3961366.9163702372 -1352673.7052173223 0 0 0 0 -12821976.405456543 -214307.11298416927 0 -214307.11298416927 653383.5288737556 0 0 0 0 -10611996.641181946 -1703743.1340041887 0 -1703743.1340041887 -2715337.784648255 0 0 0 0 -8849.2653699442744 -5645.0773067381233 0 -5645.0773067381233 6990.4154465644424 0 0 0 0 -9259586.5964603424 -5373227.9175513312 0 -5373227.9175513312 -3327746.1020191293 0 0 0 0 -5567919.2813262939 3516490.0802247217 0 3516490.0802247217 7289255.8640569691 0 0 0 0 -9339048.7962226868 -1919899.8783488108 0 -1919899.8783488108 1435836.4408191126 0 0 0 0 -10454084.621643066 -1614616.3909109065 0 -1614616.3909109065 1901397.171556762 0 0 0 0 -7469206.4724502563 -1010207.877087645 0 -1010207.877087645 1401251.2269254201 0 0 0 0 -9626983.1332855225 -2823136.7971990961 0 -2823136.7971990961 11352.544770828774 0 0 0 0 -5586291.6812515259 -1617074.75515448 0 -1617074.75515448 -8467.1744386936007 0 0 0 0 -4968047.8139877319 -1148359.8019755972 0 -1148359.8019755972 -222656.68333620531 0 0 0 0 -4526.0470488891006 -3531.2799344239756 0 -3531.2799344239756 626.24480826118372 0 0 0 0 -1124360.1237030029 -2679931.4814385194 0 -2679931.4814385194 -3923974.6107800263 0 0 0 0 309639.60069274902 449953.96883700398 0 449953.96883700398 1881.1113269162211 0 0 0 0 -334226.82965087891 -507829.81332208402 0 -507829.81332208402 -2468572.3748150235 0 0 0 0 -1507464.3747406006 -1916648.1029342581 0 -1916648.1029342581 -163811.7710447344 0 0 0 0 -1113975.4624252319 -116538.62667022552 0 -116538.62667022552 1350218.6646977761 0 0 0 0 -1698969.405960083 605643.82582725305 0 605643.82582725305 235031.23852369178 0 0 0 0 158919.98992919922 -214988.13103948045 0 -214988.13103948045 595925.89631521725 0 0 0 0 -8175628.1653327942 -5496026.0535014439 0 -5496026.0535014439 -847325.21864715824 0 0 0 0 -102227.49880218506 387549.38475637813 0 387549.38475637813 1043953.3230879247 0 0 0 0 -927699.21849441528 -1570339.5013975422 0 -1570339.5013975422 -493544.72776557645 0 0 0 0 -761883.00374603271 1229702.1960936955 0 1229702.1960936955 -3760.3338639810509 0 0 0 0 -9089.2083458527923 -3369.8677087249234 0 -3369.8677087249234 2204.6476627341217 0 0 0 0 90277.833011627197 -1505450.7739391653 0 -1505450.7739391653 -489806.97469117306 0 0 0 0 -359136.44541931152 -236489.76619910379 0 -236489.76619910379 1370390.0263018035 0 0 0 0 -6894.7629374116659 -2543.1112852608785 0 -2543.1112852608785 2227.6855850820407 0 0 0 0 -1622481.7691879272 -970110.65619724221 0 -970110.65619724221 3121211.852354113 0 0 0 0 -13283572.788986206 -5961008.943378469 0 -5961008.943378469 -846534.8330526147 0 0 0 0 -496561.53214263916 -908247.70814759424 0 -908247.70814759424 1487071.7761623724 0 0 0 0 -245942.29225158691 -652105.12483481318 0 -652105.12483481318 2234168.2954672123 0 0 0 0 856807.95671749115 -230484.79067980737 0 -230484.79067980737 1799779.3958697007 0 0 0 0 -598920.63097381592 -907254.95812236005 0 -907254.95812236005 1936669.3855172484 0 0 0 0 4970.4940032958984 -430879.82263030298 0 -430879.82263030298 451696.90596161038 0 0 0 0 -93489.123006753623 -126196.22071022354 0 -126196.22071022354 114318.80235467564 0 0 0 0 -387037.00104522705 -333646.33007507905 0 -333646.33007507905 2542733.750017147 0 0 0 0 -10614974.630279541 23863785.948347326 0 23863785.948347326 7250492.7044976503 0 0 0 0 -11264860.722770691 743320.61931105703 0 743320.61931105703 -52441.489825688303 0 0 0 0 21393.107561074197 45902.106064291671 0 45902.106064291671 -64209.542010094417 0 0 0 0 -30974985.888275146 -635605.81570181996 0 -635605.81570181996 272399.33663891256 0 0 0 0 -140018.15689123422 13565.986028796062 0 13565.986028796062 -48014.737566697964 0 0 0 0 -832609.9595413208 966325.2089217857 0 966325.2089217857 5690084.1359391594 0 0 0 0 -29481.567208908498 -32771.387468451634 0 -32771.387468451634 33181.871639083169 0 0 0 0 -1314988.837600708 -1760863.9785488769 0 -1760863.9785488769 3110994.0009111096 0 0 0 0 -36022.21443939209 -270154.30126965605 0 -270154.30126965605 6867.9609194397926 0 0 0 0 -596029.45799255371 -1247001.5404188596 0 -1247001.5404188596 -1092681.1227229051 0 0 0 0 -1640231.6593780518 -774946.97088777646 0 -774946.97088777646 -477558.85711149126 0 0 0 0 -1608260.1560058594 -704339.75182366837 0 -704339.75182366837 -1001420.7066617087 0 0 0 0 -3329952.835357666 -2832631.7497026436 0 -2832631.7497026436 -1798644.4274028279 0 0 0 0 -2788358.9974365234 -2901649.2638438046 0 -2901649.2638438046 -2773462.281334132 0 0 0 0 -4695549.2045593262 -1877063.1078282669 0 -1877063.1078282669 129421.71384598315 0 0 0 0 -4072089.2270050049 -1633843.8246217296 0 -1633843.8246217296 896585.89041142166 0 0 0 0 -5373479.0292205811 -2882425.8118237574 0 -2882425.8118237574 188334.18263677508 0 0 0 0 -4052229.1665496826 -1786311.7965256646 0 -1786311.7965256646 1401950.5212725848 0 0 0 0 -2394301.4653739929 -1096134.4596825046 0 -1096134.4596825046 432048.62520576268 0 0 0 0 -1701980.9239616394 -772258.80719206296 0 -772258.80719206296 1632910.9371295869 0 0 0 0 223330.66331481934 -810117.31942392141 0 -810117.31942392141 -370197.14910519309 0 0 0 0 -2386844.832611084 -2040289.8835973442 0 -2040289.8835973442 -256357.82048435509 0 0 0 0 21698087.252166748 -11970022.926068299 0 -11970022.926068299 -6340983.7478570044 0 0 0 0 -2255133.9794249535 -1989036.4587168253 0 -1989036.4587168253 980193.39742531627 0 0 0 0 -1319115.3740052618 495436.92417932674 0 495436.92417932674 -9718.4241971051779 0 0 0 0 -2147018.4026708603 -271865.54151269887 0 -271865.54151269887 2765999.2786757648 0 0 0 0 -171607.22751494497 -198320.71222154237 0 -198320.71222154237 144858.18192235861 0 0 0 0 -2727579.1611022949 -3142132.628260687 0 -3142132.628260687 1600248.5093351156 0 0 0 0 -3734281.0637817383 -1253298.2345221713 0 -1253298.2345221713 1933404.705577001 0 0 0 0 -5152850.7477722168 -1818529.590746358 0 -1818529.590746358 3142491.3655178994 0 0 0 0 -5886684.5656585693 -1725507.5884467512 0 -1725507.5884467512 2224216.5436979532 0 0 0 0 -5092470.379737854 -1931870.4914773218 0 -1931870.4914773218 1927098.9028866291 0 0 0 0 -4849854.7128143311 -2302288.4492307454 0 -2302288.4492307454 1230602.693889901 0 0 0 0 -3259733.5162811279 -1998582.6897798181 0 -1998582.6897798181 1090239.6808284819 0 0 0 0 5728954.368927002 12201795.187035158 0 12201795.187035158 -6316282.5004068911 0 0 0 0 -28290742.320495605 18703094.560373995 0 18703094.560373995 6009974.9614431262 0 0 0 0 -12570117.524085999 2334044.4090507627 0 2334044.4090507627 -9703821.4972218871 0 0 0 0 -634368.87593933195 258573.22684395872 0 258573.22684395872 -188494.14862976602 0 0 0 0 209321.80508422852 -816825.0636819005 0 -816825.0636819005 203046.44242935628 0 0 0 0 -3969188.2542285919 -24961279.875935338 0 -24961279.875935338 9399427.085401684 0 0 0 0 -54316914.753334045 6369154.2845772207 0 6369154.2845772207 20367911.029659003 0 0 0 0 20411400.300380707 -20277105.847218949 0 -20277105.847218949 -41802043.667937458 0 0 0 0 22067752.939498901 19731682.863091804 0 19731682.863091804 -40902923.307297848 0 0 0 0 -39079126.264762878 38813279.357873254 0 38813279.357873254 -24211560.096210875 0 0 0 0 3636729.8124694824 55408.729685775936 0 55408.729685775936 -19677881.848136298 0 0 0 0 -23641.920714519918 -82884.193090779707 0 -82884.193090779707 -101723.66901016948 0 0 0 0 -5084589.255355835 6735761.9484882057 0 6735761.9484882057 5654102.4693753421 0 0 0 0 -6585333.3894958496 -25740121.069004133 0 -25740121.069004133 -6538568.7390880957 0 0 0 0 -7911793.1016244888 -8643361.9587172326 0 -8643361.9587172326 41778429.48089096 0 0 0 0 -216378.5956203714 637060.71245045494 0 637060.71245045494 63501.827635417474 0 0 0 0 -1670395.1085357666 196487.45761221647 0 196487.45761221647 3569003.8996552229 0 0 0 0 -2742525.932018891 1339254.7504643141 0 1339254.7504643141 395072.32995551691 0 0 0 0 -2350686.8641545475 -144220.6020796448 0 -144220.6020796448 547583.61313107028 0 0 0 0 -47725945.102485657 31949623.834626317 0 31949623.834626317 47384264.969249532 0 0 0 0 1405429.1444320679 19661701.773930192 0 19661701.773930192 -45184759.316123784 0 0 0 0 -3808778.9962941259 1299486.0564045161 0 1299486.0564045161 32775.969835788943 0 0 0 0 9058221.7105789185 13220685.858752131 0 13220685.858752131 -92745720.381353855 0 0 0 0 -5895275.753112793 16537475.07809639 0 16537475.07809639 -35755721.362468719 0 0 0 0 -4557790.4541931152 -2065279.3927814215 0 -2065279.3927814215 1729067.8915816117 0 0 0 0 -1892636.9583644867 313841.93841993809 0 313841.93841993809 2237014.3139497638 0 0 0 0 -3669575.7259838618 220764.7778409943 0 220764.7778409943 374842.15383923019 0 0 0 0 -5136017.7711486816 -2152503.8587985411 0 -2152503.8587985411 1775698.0656229109 0 0 0 0 -5600155.0867614746 -2309654.5157467127 0 -2309654.5157467127 2366661.9421473891 0 0 0 0 -1150131.8720397949 -397376.17834401131 0 -397376.17834401131 1507118.4717276096 0 0 0 0 -2128947.7317237332 445814.48828247096 0 445814.48828247096 147543.02290708985 0 0 0 0 20523863.425827026 22827863.585193314 0 22827863.585193314 13716203.33900521 0 0 0 0 -10655356.581798553 15658989.619740725 0 15658989.619740725 -16032071.837711096 0 0 0 0 -10836971.0181427 15946459.627085924 0 15946459.627085924 -13747528.578795075 0 0 0 0 -2514544.9277525693 297764.81573518412 0 297764.81573518412 794227.86928637419 0 0 0 0 -3989600.9790039062 1587167.6715192199 0 1587167.6715192199 3773060.3849589527 0 0 0 0 -4111525.8465199023 -491409.9011958167 0 -491409.9011958167 1714864.2274887834 0 0 0 0 -3877113.0282506719 1513690.1040794384 0 1513690.1040794384 1625276.7495225966 0 0 0 0 -6793356.8352661133 -974119.25987559557 0 -974119.25987559557 2219490.8689410686 0 0 0 0 -7165039.3418579102 -1083323.6163054705 0 -1083323.6163054705 2013528.8186878562 0 0 0 0 -5011472.1862158775 -1231906.7456932818 0 -1231906.7456932818 1936611.4647714049 0 0 0 0 -5657788.5370178223 -1661956.1495134085 0 -1661956.1495134085 2064863.0648916811 0 0 0 0 -8404649.8477325439 140114.58792268485 0 140114.58792268485 2346332.4222628661 0 0 0 0 -7757638.9744262695 -1249848.9734955095 0 -1249848.9734955095 2438825.715415068 0 0 0 0 -5074465.4395365268 582070.03587696888 0 582070.03587696888 2286390.7326539736 0 0 0 0 -6884838.6757209301 503563.96150442259 0 503563.96150442259 1603561.0302106589 0 0 0 0 -5111333.047454834 563158.7938117981 0 563158.7938117981 7444948.6235216856 0 0 0 0 -1872486.7100296021 -381245.14847290516 0 -381245.14847290516 1818003.8531293869 0 0 0 0 -3359296.5198822021 -1580685.777515918 0 -1580685.777515918 5030778.5345795155 0 0 0 0 298633.75372314453 -142409.83488559723 0 -142409.83488559723 7519819.2999657393 0 0 0 0 -1887605.5504760742 1784486.3630695343 0 1784486.3630695343 1390891.42648983 0 0 0 0 -1883183.2866821289 1770430.8286225796 0 1770430.8286225796 455527.20890218019 0 0 0 0 -24231814.925079346 -9874901.2483658791 0 -9874901.2483658791 16629703.23966217 0 0 0 0 -3942344.6776553169 -1483887.7435196973 0 -1483887.7435196973 2662319.6314061992 0 0 0 0 15492.441025339067 -114919.47768714465 0 -114919.47768714465 113938.15000651016 0 0 0 0 -8972294.2197721098 -406146.56502813101 0 -406146.56502813101 1859135.8414316936 0 0 0 0 -15417043.052406311 6350656.7039999962 0 6350656.7039999962 3981857.2146682739 0 0 0 0 -12428591.437409814 -2999746.152929157 0 -2999746.152929157 3891836.6107079335 0 0 0 0 -10636355.738128662 4228374.1420707703 0 4228374.1420707703 3067533.3557515144 0 0 0 0 -11898252.943786621 6552768.3489074707 0 6552768.3489074707 3650477.6770687103 0 0 0 0 -6782933.2605980784 3964419.0578713045 0 3964419.0578713045 2319017.5221036514 0 0 0 0 -550633.12244772166 3282.6477397717535 0 3282.6477397717535 400615.70069942204 0 0 0 0 -14278701.438446045 -12842100.773077965 0 -12842100.773077965 13978937.764709473 0 0 0 0 -10644337.773071289 -17927874.064081192 0 -17927874.064081192 57964833.297704697 0 0 0 0 -14217344.525290281 -883896.7738247891 0 -883896.7738247891 3162903.1361476621 0 0 0 0 7583677.1637573242 -34637289.165883064 0 -34637289.165883064 44371212.159571648 0 0 0 0 -13032995.331787109 -4495183.9474258423 0 -4495183.9474258423 41364899.652697563 0 0 0 0 -4987570.313659668 13146340.490851402 0 13146340.490851402 29033081.506462097 0 0 0 0 -4877066.2778625488 -16072097.956272125 0 -16072097.956272125 33285273.14994812 0 0 0 0 -10208134.594818115 -6264073.348777771 0 -6264073.348777771 17630166.35098362 0 0 0 0 -2066846.3395690918 -11172378.187862396 0 -11172378.187862396 10907811.064275742 0 0 0 0 -1161075.5579223633 -13088059.127035141 0 -13088059.127035141 12591658.444683075 0 0 0 0 56091.675689697266 -11708695.382478714 0 -11708695.382478714 9059752.8791236877 0 0 0 0 2102884.4065246582 -15997538.986497879 0 -15997538.986497879 17556955.678623438 0 0 0 0 78996.303001403809 -15198346.92430687 0 -15198346.92430687 17427342.392217636 0 0 0 0 -5722720.3215332031 -10304958.004868031 0 -10304958.004868031 1480647.6139736176 0 0 0 0 540221.8016070528 -447416.74486469105 0 -447416.74486469105 -84420.933869932313 0 0 0 0 21495194.377007484 -23045494.443012625 0 -23045494.443012625 3798118.3697280884 0 0 0 0 9938878.1315612793 -11982305.465099335 0 -11982305.465099335 -6043173.0736852884 0 0 0 0 7341358.3459320068 -17564158.092447758 0 -17564158.092447758 2122564.4986381531 0 0 0 0 -521593.08154296875 -10008389.719888687 0 -10008389.719888687 7777539.3697004318 0 0 0 0 5302221.6063537598 -14964932.563009262 0 -14964932.563009262 -966872.64554214478 0 0 0 0 1182654.9985122681 -14541661.356516361 0 -14541661.356516361 -958676.82069206238 0 0 0 0 2175456.8991088867 -8999398.3483934402 0 -8999398.3483934402 -2488047.7010450363 0 0 0 0 4950923.1508636475 -8524846.8499412537 0 -8524846.8499412537 -2415748.8482913971 0 0 0 0 5969966.1527404785 -8564766.8234062195 0 -8564766.8234062195 -5536374.3620569706 0 0 0 0 9113341.3467063904 -6283304.9289065599 0 -6283304.9289065599 -4377321.6903076172 0 0 0 0 -24606302.323659897 -1260792.6780396104 0 -1260792.6780396104 -806570.66480636597 0 0 0 0 -25265087.743927002 -8936277.2824244499 0 -8936277.2824244499 73008.804538726807 0 0 0 0 9321396.6196899414 -18190041.592691898 0 -18190041.592691898 -5347474.1432440281 0 0 0 0 -4037527.0137017742 125749.36931897327 0 125749.36931897327 1144596.3140347979 0 0 0 0 -2463872.8419870511 -1811354.4499017745 0 -1811354.4499017745 1566300.7824121728 0 0 0 0 -8945080.8201904297 23187.720717594028 0 23187.720717594028 2535997.2592948973 0 0 0 0 -12626407.738433838 3168337.9491114616 0 3168337.9491114616 2419123.1262111664 0 0 0 0 20978426.025558472 1820365.6029667854 0 1820365.6029667854 -13011835.105438232 0 0 0 0 -17866556.30556488 -6374592.0599029064 0 -6374592.0599029064 52200.200260162354 0 0 0 0 -3022206.9620197732 411251.76105320081 0 411251.76105320081 1604023.0264986358 0 0 0 0 -9737402.5684051514 237592.83597725257 0 237592.83597725257 2564379.4922917336 0 0 0 0 -7431977.3251228333 1906805.973493454 0 1906805.973493454 1499056.7240915373 0 0 0 0 3257641.4570159912 -4402960.0344362259 0 -4402960.0344362259 4161478.185634613 0 0 0 0 457729.64927739277 -1386670.9106769301 0 -1386670.9106769301 -72485.014300037175 0 0 0 0 4201881.1613769531 -5090799.8944630623 0 -5090799.8944630623 -1059147.5813713074 0 0 0 0 5289619.3956604004 -7166856.8365983963 0 -7166856.8365983963 -679324.20139086246 0 0 0 0 -2636661.257522583 -3893398.8488302231 0 -3893398.8488302231 -200678.33906936646 0 0 0 0 2984682.8763427734 -7039792.6056113243 0 -7039792.6056113243 4574209.1937637329 0 0 0 0 9147616.7950439453 -1673422.7381315231 0 -1673422.7381315231 -2290287.7683877945 0 0 0 0 -808757.85661172774 -2970491.214940019 0 -2970491.214940019 706322.95564085105 0 0 0 0 -298407.00568694621 161307.81708814204 0 161307.81708814204 135228.48233687319 0 0 0 0 188571849.49468327 -96422145.729539692 0 -96422145.729539692 13144137.895638704 0 0 0 0 -1681837.6452560425 -956625.91196548939 0 -956625.91196548939 -102167.10054588318 0 0 0 0 -17813944.503517151 -2807694.2220132351 0 -2807694.2220132351 -430592.04034042358 0 0 0 0 -298888.43399468437 -2607407.565708546 0 -2607407.565708546 1645409.9396698652 0 0 0 0 174336900.19863892 -46569762.771981716 0 -46569762.771981716 26990197.491057754 0 0 0 0 -11221213.17779541 3099484.6112489495 0 3099484.6112489495 1428189.186196655 0 0 0 0 -12443643.706863403 -703201.76612204127 0 -703201.76612204127 2456444.8891207725 0 0 0 0 -10645587.397766113 -981376.48877871409 0 -981376.48877871409 1312852.4517849423 0 0 0 0 -10652736.042456388 -2636862.5217953799 0 -2636862.5217953799 1353982.875430733 0 0 0 0 -7613056.6785430908 -1820382.9376675114 0 -1820382.9376675114 1793209.3033885509 0 0 0 0 -7593288.5578460693 -1816712.4029130191 0 -1816712.4029130191 1456291.2379440665 0 0 0 0 -5984077.2593231201 -1995147.8732811883 0 -1995147.8732811883 1658053.7092899531 0 0 0 0 -7707495.3388996124 -1639277.9394762246 0 -1639277.9394762246 2343314.0494371653 0 0 0 0 -7619430.0825939178 -1114090.1124888831 0 -1114090.1124888831 2273276.3254571408 0 0 0 0 -9091710.8096313477 -96779.307630084455 0 -96779.307630084455 2547457.3110346198 0 0 0 0 -9808957.6606369019 -1406379.0744105242 0 -1406379.0744105242 2395345.7257476151 0 0 0 0 -1774112824.4724693 -143703108.42103305 0 -143703108.42103305 338050073.76990777 0 0 0 0 -2201947343.320653 -1013793403.2166337 0 -1013793403.2166337 67171138.626355812 0 0 0 0 -1470499325.7702332 -768282432.26418984 0 -768282432.26418984 236521358.69352645 0 0 0 0 -3011758.2490498237 -443833.55680946261 0 -443833.55680946261 1124583.6696251165 0 0 0 0 -1374638117.8754997 -152667846.72099817 0 -152667846.72099817 -1378600.931298783 0 0 0 0 -1347331122.7869568 -255453213.72968602 0 -255453213.72968602 215638061.34013695 0 0 0 0 -1746108051.9830399 -64455159.396954775 0 -64455159.396954775 162757547.30546004 0 0 0 0 -2112929.7064666003 -502992.04475449398 0 -502992.04475449398 423972.65708248824 0 0 0 0 -1915644374.2907047 502602024.66221327 0 502602024.66221327 12769710.831724346 0 0 0 0 -1248031869.5218258 337668499.93267787 0 337668499.93267787 -1062012.3517270088 0 0 0 0 -1239311534.5380726 192421314.16927522 0 192421314.16927522 163392916.56346607 0 0 0 0 -1360269.8889973536 -175941.33425031044 0 -175941.33425031044 513065.4869020168 0 0 0 0 -922973689.13333893 361793530.20034945 0 361793530.20034945 734270240.09491277 0 0 0 0 -792183755.17755127 -367278040.29699469 0 -367278040.29699469 -185237604.10357815 0 0 0 0 -1578792553.3328171 -1145630003.6052582 0 -1145630003.6052582 -428653738.44103241 0 0 0 0 -750249498.18218994 -41231637.42999506 0 -41231637.42999506 150873513.84712976 0 0 0 0 -240847155.68527222 522073724.31268483 0 522073724.31268483 204516540.22970885 0 0 0 0 -309538102.35730362 202944318.18895435 0 202944318.18895435 79751204.968813181 0 0 0 0 -1631399.9008428082 -1780078.1790054757 0 -1780078.1790054757 -1131616.54464497 0 0 0 0 49660358.704319 -177034377.86402941 0 -177034377.86402941 -171790522.04145408 0 0 0 0 8176820.2135848999 -7410466.7860808307 0 -7410466.7860808307 -8749452.126213761 0 0 0 0 -14078081.304595947 6084478.0911048651 0 6084478.0911048651 6960506.8491394296 0 0 0 0 -651136230.57881165 70857396.807706982 0 70857396.807706982 -7841066.9217801392 0 0 0 0 -638649908.54485321 -11309273.223135829 0 -11309273.223135829 72807622.975414664 0 0 0 0 -2299047.1894920133 -1411886.1461333781 0 -1411886.1461333781 -432159.18583892577 0 0 0 0 3014340.1364631653 -3843299.9241493307 0 -3843299.9241493307 2749.3865607042026 0 0 0 0 -6228176.3169670105 -4335273.4510380076 0 -4335273.4510380076 -1717.9559122269013 0 0 0 0 -809557.9571647644 368935.03733606031 0 368935.03733606031 958920.23563757166 0 0 0 0 -5903242.8398590088 -3438577.784131289 0 -3438577.784131289 3549254.3580093589 0 0 0 0 -5880040.3776769638 -3231122.4316284014 0 -3231122.4316284014 -435484.84224317223 0 0 0 0 -19467335.786392212 -390121.57316241623 0 -390121.57316241623 5925444.687617545 0 0 0 0 -11501200.695340157 3545939.2120078681 0 3545939.2120078681 1556916.9881681944 0 0 0 0 -12774034.063751221 -2067478.9327175715 0 -2067478.9327175715 2824822.2387373354 0 0 0 0 -407164.63231760683 -53425.839213427156 0 -53425.839213427156 -11880.84028835253 0 0 0 0 -13390679.253677368 1741008.3892264743 0 1741008.3892264743 6452.4260472792112 0 0 0 0 -10722073.011138916 -229199.08821323066 0 -229199.08821323066 1459291.7051331208 0 0 0 0 -21540656.372024536 -1505249.4719022512 0 -1505249.4719022512 3269663.1715688761 0 0 0 0 -18068123.926177979 -455544.28837843705 0 -455544.28837843705 1742526.3095017269 0 0 0 0 -15472618.169509888 4749247.0328553915 0 4749247.0328553915 3240572.0806098236 0 0 0 0 -18335897.236633301 -553492.52217202995 0 -553492.52217202995 -4214505.5329598989 0 0 0 0 -40502974.657104492 13930807.783880278 0 13930807.783880278 -13613723.534836739 0 0 0 0 -22698242.720550537 -9939129.8012326322 0 -9939129.8012326322 958967.5222404981 0 0 0 0 343539.99022960663 -4967114.46118112 0 -4967114.46118112 2025188.9188293624 0 0 0 0 -48891.445811986923 2669.8069971036166 0 2669.8069971036166 -13526.307002767946 0 0 0 0 -21146870.943313599 6785961.6993572637 0 6785961.6993572637 -651657.12655882351 0 0 0 0 -34519866.777923584 14806794.550831283 0 14806794.550831283 -1188802.0651484057 0 0 0 0 -25460386.692596436 -10196575.046097742 0 -10196575.046097742 -4857619.1116969064 0 0 0 0 -4256429.4186019897 -2904551.2979199905 0 -2904551.2979199905 -2499562.2298795767 0 0 0 0 -584740.72222807258 -127643.80078452826 0 -127643.80078452826 -20494.492256959551 0 0 0 0 551185.71111297607 -773133.66753580049 0 -773133.66753580049 -11607844.78547067 0 0 0 0 -246988.43943722174 30883.218328902498 0 30883.218328902498 162275.40284170592 0 0 0 0 -16744764.076698303 7244424.769914262 0 7244424.769914262 244665.67288045585 0 0 0 0 -1734937.6078033447 -3548061.3147792965 0 -3548061.3147792965 2019209.3972799964 0 0 0 0 -1432075.1713231956 -244500.70335156843 0 -244500.70335156843 368091.05559442623 0 0 0 0 -454394.0168838501 -1371267.4420779943 0 -1371267.4420779943 732016.21947461367 0 0 0 0 -258147.62831949443 -470006.4150718376 0 -470006.4150718376 -319904.37127130275 0 0 0 0 -10857247.578086853 13016682.200991238 0 13016682.200991238 -3246708.7455899417 0 0 0 0 -12454772.916542053 -2719327.2992358506 0 -2719327.2992358506 4113356.2231458146 0 0 0 0 -19120024.400588989 20813897.546713457 0 20813897.546713457 -5513911.5992586128 0 0 0 0 -2602475.5833129883 350235.9162363261 0 350235.9162363261 -51727.185465618968 0 0 0 0 437400.64324951172 -3202674.9817522168 0 -3202674.9817522168 -262431.81463396549 0 0 0 0 -31362465.480743408 12218897.406700566 0 12218897.406700566 -7578961.7206451893 0 0 0 0 -130513.86526727676 -266966.33832118846 0 -266966.33832118846 -240505.49956572021 0 0 0 0 500170.86744225025 792732.781403278 0 792732.781403278 -360900.5958750248 0 0 0 0 310878.51589293405 65763.890753038228 0 65763.890753038228 -271133.32680869644 0 0 0 0 -1245221.7876120615 -969771.9995585233 0 -969771.9995585233 -584578.59508034133 0 0 0 0 912086.88553285599 -358419.60018798523 0 -358419.60018798523 -2855223.2689515054 0 0 0 0 -3141438.9519195557 -3253445.5630684495 0 -3253445.5630684495 -135475.4526386857 0 0 0 0 3775790.5509262085 -3104374.808279749 0 -3104374.808279749 -7143857.3348095417 0 0 0 0 -7323568.8736066818 -10648621.526865803 0 -10648621.526865803 6144366.4388464391 0 0 0 0 -3046930.2867889404 -4591128.1567288414 0 -4591128.1567288414 -117027.24256546795 0 0 0 0 -3333404.8632354736 -2208076.6827564538 0 -2208076.6827564538 -5464953.7570048422 0 0 0 0 -3998259.1465454102 2701288.4505531192 0 2701288.4505531192 12296241.305114985 0 0 0 0 -4995573.0334882736 -834378.19773948193 0 -834378.19773948193 4301671.0926983953 0 0 0 0 -3221333.3206518069 1229950.6264254535 0 1229950.6264254535 -66081.173080655281 0 0 0 0 16016694.719924927 25500606.730545998 0 25500606.730545998 -252711107.53246677 0 0 0 0 -343355.29727683216 -165206.38401239365 0 -165206.38401239365 128027.55330827646 0 0 0 0 -85987347.111513138 259578977.29362807 0 259578977.29362807 -826816848.02419281 0 0 0 0 -102647.3196799662 41073.694234527647 0 41073.694234527647 -39818.238786370493 0 0 0 0 -3183344.4730911255 -1228980.1806715429 0 -1228980.1806715429 2948896.6960796714 0 0 0 0 -805605.30293673021 -528668.95490051433 0 -528668.95490051433 240981.02252078999 0 0 0 0 -187040036.30094528 87530553.779102534 0 87530553.779102534 7002746.5589999557 0 0 0 0 -158980583.65223217 91095390.985833615 0 91095390.985833615 -49145925.298954129 0 0 0 0 -106041323.13175201 112366178.33543038 0 112366178.33543038 -82533789.134024143 0 0 0 0 -107133416.53189087 96110353.688948393 0 96110353.688948393 -318498397.93597746 0 0 0 0 -558145419.00567627 145407868.45696926 0 145407868.45696926 108492359.60799074 0 0 0 0 18669008.900382996 20483687.774215341 0 20483687.774215341 -93587076.346564144 0 0 0 0 -211150483.10703659 40149884.482805386 0 40149884.482805386 -85179657.302858114 0 0 0 0 -226537251.681633 -99843127.576018572 0 -99843127.576018572 -165387285.06863046 0 0 0 0 63186054.172424793 70320017.312057227 0 70320017.312057227 -121867372.31535196 0 0 0 0 -320154044.20360565 -50189527.035753846 0 -50189527.035753846 18160432.113338038 0 0 0 0 -489731407.32167816 80643907.993074894 0 80643907.993074894 96317325.195620775 0 0 0 0 -1082677.0373033024 -77307.100704947487 0 -77307.100704947487 476265.37924642384 0 0 0 0 -618893249.60400867 -431251222.56649983 0 -431251222.56649983 -243075665.91366196 0 0 0 0 -609410385.48298264 -574538625.48720026 0 -574538625.48720026 35146823.577085972 0 0 0 0 -910287493.89849091 -426261215.50307029 0 -426261215.50307029 110278869.45401639 0 0 0 0 -2067583.1523678042 -448411.50450295955 0 -448411.50450295955 1184089.7959762609 0 0 0 0 -209765776.18921661 -251315913.91228521 0 -251315913.91228521 -293207977.11863846 0 0 0 0 -261735324.20880127 -113075222.57817492 0 -113075222.57817492 -134569833.76224732 0 0 0 0 -84126410.770240784 -38574049.360844612 0 -38574049.360844612 -152632107.17805141 0 0 0 0 -168341426.49557114 -110538712.66447686 0 -110538712.66447686 -105569849.11465013 0 0 0 0 -94370151.040309906 -55158999.585506499 0 -55158999.585506499 43486116.907077074 0 0 0 0 40765462.900779724 -85135191.394069552 0 -85135191.394069552 -105577342.06437795 0 0 0 0 -133290767.96411896 -140506902.62927526 0 -140506902.62927526 114619144.96144557 0 0 0 0 -101097663.03118134 -107220161.61392096 0 -107220161.61392096 -204200044.15937629 0 0 0 0 -1099425.252984222 -418518.83911072277 0 -418518.83911072277 772535.88558690122 0 0 0 0 -158778797.32016373 -263159236.66703257 0 -263159236.66703257 -173991163.53025404 0 0 0 0 -58341356.506942749 -122816267.87787247 0 -122816267.87787247 -121868744.12320477 0 0 0 0 -831935452.27383423 -1285908362.6456575 0 -1285908362.6456575 -1141716623.097872 0 0 0 0 -2201399040.6941237 -1063660065.6607145 0 -1063660065.6607145 191437702.65561578 0 0 0 0 -2198958969.8507385 -1065910568.3853459 0 -1065910568.3853459 190169166.02415758 0 0 0 0 -398086503.29722595 12282708.192427874 0 12282708.192427874 123782103.63859627 0 0 0 0 -1775624934.2271996 -823301488.91967857 0 -823301488.91967857 -169965609.97478911 0 0 0 0 -926282865.29798079 -337793864.41440058 0 -337793864.41440058 55738786.294437528 0 0 0 0 -798827872.12148666 -361052826.88183564 0 -361052826.88183564 49794142.211421728 0 0 0 0 -3098514.806802161 -785599.52711022086 0 -785599.52711022086 1300781.4035900307 0 0 0 0 -1408894120.205616 498028929.97445893 0 498028929.97445893 291169864.30378962 0 0 0 0 -1304445738.4055557 301701955.6790545 0 301701955.6790545 189234313.99470174 0 0 0 0 -2205536682.341877 864527460.67791951 0 864527460.67791951 137801637.70357624 0 0 0 0 -2200421217.0055351 1609458864.382823 0 1609458864.382823 -983634618.19272721 0 0 0 0 -3870496.8335478045 -319129.57019668352 0 -319129.57019668352 -989286.06714180415 0 0 0 0 -844614942.47748566 656532995.07319975 0 656532995.07319975 -316861374.22082007 0 0 0 0 -846926236.21238816 429426466.41825509 0 429426466.41825509 -119738342.82525873 0 0 0 0 -9123412.1926601976 -2047108.4040593831 0 -2047108.4040593831 -807296.00935851014 0 0 0 0 38683934.874725342 -268658270.44347668 0 -268658270.44347668 177463919.80337453 0 0 0 0 85889544.525307655 -12096332.615787879 0 -12096332.615787879 53582846.995393991 0 0 0 0 -262088482.80244595 -51401970.650149502 0 -51401970.650149502 134735358.69637817 0 0 0 0 -274045089.42944717 250605634.20783728 0 250605634.20783728 -156466844.96963048 0 0 0 0 -899167726.33531189 488085732.92838424 0 488085732.92838424 -110051199.00321889 0 0 0 0 -369834373.68040085 89972466.783935666 0 89972466.783935666 -5134711.12680161 0 0 0 0 -598441533.37189484 208320750.51826698 0 208320750.51826698 -23837977.706001818 0 0 0 0 -134527353.04353714 57003491.710158288 0 57003491.710158288 -33205308.888877518 0 0 0 0 -24191095.107559204 -79675100.63059096 0 -79675100.63059096 95198616.163723171 0 0 0 0 -13343555.447951052 -3362383.5408424269 0 -3362383.5408424269 -239245.9135148577 0 0 0 0 -208724336.61248398 151795732.94552565 0 151795732.94552565 -34633964.084776431 0 0 0 0 12714190.823974609 -82452029.803291097 0 -82452029.803291097 -55913396.661819711 0 0 0 0 -17856521.622886658 -222592508.28008282 0 -222592508.28008282 387016597.79397023 0 0 0 0 -11990204.099797327 -3016423.261670975 0 -3016423.261670975 -479053.60725141293 0 0 0 0 -177415864.70240784 -103407079.2288239 0 -103407079.2288239 46092147.40505743 0 0 0 0 -70250583.317398071 -96997950.986842394 0 -96997950.986842394 -195149141.76296878 0 0 0 0 -383450693.95451355 -53615632.180111676 0 -53615632.180111676 -147001260.69589472 0 0 0 0 -442220895.9720459 379731921.48607183 0 379731921.48607183 -716809247.07869816 0 0 0 0 -238594531.09938049 179364037.68769503 0 179364037.68769503 -139714698.95351124 0 0 0 0 -211099025.66712952 50575594.390636086 0 50575594.390636086 305183328.32733798 0 0 0 0 96641604.897247314 -53154886.245456696 0 -53154886.245456696 44330100.461694717 0 0 0 0 -52683089.129013062 -173893613.92453337 0 -173893613.92453337 418235698.10266662 0 0 0 0 21051318.038635254 12547150.515241385 0 12547150.515241385 125596095.33231258 0 0 0 0 -92761008.662052155 93107836.285384297 0 93107836.285384297 108471251.57568741 0 0 0 0 -283694180.003479 171393505.65917301 0 171393505.65917301 -66331129.393363953 0 0 0 0 -27958946.715843201 -6957469.1486642361 0 -6957469.1486642361 36696150.924585342 0 0 0 0 -286854343.23803711 82265113.374236584 0 82265113.374236584 -78178256.373215675 0 0 0 0 84979012.678077698 -77827421.990106106 0 -77827421.990106106 -606336903.37550831 0 0 0 0 -278557754.8258667 60003171.432442188 0 60003171.432442188 -207789906.48160934 0 0 0 0 -14814204.826828003 -9600513.7046787739 0 -9600513.7046787739 -98255997.024545193 0 0 0 0 -14201774.670978546 114043227.45429438 0 114043227.45429438 -106443081.9416554 0 0 0 0 -49115445.535430908 77846390.230821133 0 77846390.230821133 131898190.39456081 0 0 0 0 -6848960.743057251 28332327.015172839 0 28332327.015172839 60954288.545737028 0 0 0 0 -13801579.989126347 -3283694.3243704401 0 -3283694.3243704401 5420.2687591925351 0 0 0 0 -18264254.350120544 -43955125.975253105 0 -43955125.975253105 216722227.47882849 0 0 0 0 54275176.293432236 -87570499.126057744 0 -87570499.126057744 -25727454.775274754 0 0 0 0 99119085.47204113 -2787379.1977613233 0 -2787379.1977613233 -28231841.199966073 0 0 0 0 -19977033.407531738 26106683.988998652 0 26106683.988998652 60817776.862354755 0 0 0 0 -5166039.2639274597 -26776426.800803781 0 -26776426.800803781 60249532.774832129 0 0 0 0 -34471431.751728058 -72506291.997354656 0 -72506291.997354656 38034435.607068479 0 0 0 0 73956453.5072155 72355258.39259389 0 72355258.39259389 -26571743.27458936 0 0 0 0 67768599.461693764 72865318.786485881 0 72865318.786485881 -53586066.582910061 0 0 0 0 64535156.137687683 12019142.282965183 0 12019142.282965183 -5887201.9554444402 0 0 0 0 189749052.7619381 -61900774.650635079 0 -61900774.650635079 -16724905.053220749 0 0 0 0 -2267686.8942192346 414962.30885518901 0 414962.30885518901 1109330.927064043 0 0 0 0 71358949.185739517 14463773.314018294 0 14463773.314018294 -14007585.384087563 0 0 0 0 61572211.300033569 20426281.037348688 0 20426281.037348688 -5057565.7614600062 0 0 0 0 53181345.693580627 33487408.57261467 0 33487408.57261467 -16368894.349058151 0 0 0 0 40248599.637702942 42547163.779735982 0 42547163.779735982 -124747.43731889129 0 0 0 0 41686082.439834595 36528571.272527859 0 36528571.272527859 7854687.8460531533 0 0 0 0 10062743.890450478 72356634.170084536 0 72356634.170084536 -13798597.841524601 0 0 0 0 -1109357.529045105 62417420.584303707 0 62417420.584303707 33038512.644323125 0 0 0 0 9386547.9171981812 77557703.303790629 0 77557703.303790629 14147828.117956519 0 0 0 0 36756525.12892437 58992261.598511763 0 58992261.598511763 -24081287.881348968 0 0 0 0 35037902.503914833 73274701.561001539 0 73274701.561001539 -53563519.868968487 0 0 0 0 38941318.272140503 54718996.10467267 0 54718996.10467267 -20441865.076704502 0 0 0 0 81159752.339759827 12504106.478787065 0 12504106.478787065 -24949911.031901836 0 0 0 0 60630348.065576077 39307151.206901804 0 39307151.206901804 -42685669.846024871 0 0 0 0 -29698611.80683136 55488125.048149765 0 55488125.048149765 -33301913.423593521 0 0 0 0 -29202884.99817276 90203126.250813589 0 90203126.250813589 -75817209.723438382 0 0 0 0 -29851577.920471191 21142543.793137491 0 21142543.793137491 -106762688.54105037 0 0 0 0 -30271033.748306274 82811498.295048356 0 82811498.295048356 -13934440.879571021 0 0 0 0 19152390.441955566 124637830.81387348 0 124637830.81387348 21659696.597978584 0 0 0 0 16316361.771652222 71241109.141539022 0 71241109.141539022 -41935062.99540735 0 0 0 0 -161585977.74294281 -6051392.5558961034 0 -6051392.5558961034 -33002099.523888327 0 0 0 0 -137351427.15401077 -21307476.999457151 0 -21307476.999457151 -116834174.68714535 0 0 0 0 -160717323.02893829 16048853.061725587 0 16048853.061725587 -71302410.724155307 0 0 0 0 -528905775.94631195 73345533.112259507 0 73345533.112259507 -16214868.377789259 0 0 0 0 -80869239.028419495 54782452.307568371 0 54782452.307568371 -9349346.861304462 0 0 0 0 -146337649.70984268 -15121800.754012883 0 -15121800.754012883 -26152318.882089853 0 0 0 0 -235722347.69626236 -23091863.876758128 0 -23091863.876758128 -64166869.21797502 0 0 0 0 -1053971506.2306366 64412906.422024518 0 64412906.422024518 118630053.28862381 0 0 0 0 -584773124.67551041 -61083426.292350531 0 -61083426.292350531 7435936.2352849841 0 0 0 0 -567126348.28901672 -89840135.764102459 0 -89840135.764102459 -35293355.008158207 0 0 0 0 -626856699.39855576 -170399.05852818489 0 -170399.05852818489 25710732.952624634 0 0 0 0 -472664952.44485092 -83439781.138608426 0 -83439781.138608426 9842737.7010147721 0 0 0 0 -434143079.7819252 -226599585.92013103 0 -226599585.92013103 -102169718.64574434 0 0 0 0 -1126633233.1134567 -272309194.47912157 0 -272309194.47912157 82291393.098382175 0 0 0 0 -1132702177.0349143 -194656873.51528046 0 -194656873.51528046 149820996.88637424 0 0 0 0 -1777500802.5074692 -476537677.39236486 0 -476537677.39236486 214287370.66961825 0 0 0 0 -1528034752.2715645 -371882221.91974324 0 -371882221.91974324 111132700.52372201 0 0 0 0 -2205220986.9079895 -348189217.68371546 0 -348189217.68371546 277695079.58921766 0 0 0 0 -1926588765.1860247 -119571327.31923907 0 -119571327.31923907 455228111.79709053 0 0 0 0 -2204403614.7549667 -178749667.44821626 0 -178749667.44821626 491945505.62232369 0 0 0 0 -1770326212.0346527 43662697.568505943 0 43662697.568505943 405092879.52058536 0 0 0 0 -1520034362.7478561 121676376.53814827 0 121676376.53814827 425550056.19511557 0 0 0 0 -1127884393.8586502 299226597.27641201 0 299226597.27641201 156171877.41908675 0 0 0 0 -2204662607.2860632 371545176.33962512 0 371545176.33962512 454377116.84118152 0 0 0 0 -1791097.4284515381 12411764.885028362 0 12411764.885028362 24017890.517698839 0 0 0 0 -16286213.117473602 11230639.929023623 0 11230639.929023623 38120278.848639965 0 0 0 0 -7845763.2974401936 377375.66940989345 0 377375.66940989345 3435964.1611078801 0 0 0 0 -1391576.9781981781 1622087.175619103 0 1622087.175619103 1556547.4920790303 0 0 0 0 30091693.620269775 54989988.264320135 0 54989988.264320135 -7371024.073009491 0 0 0 0 -7454223.2843017578 18333155.774899483 0 18333155.774899483 -3125512.8969043493 0 0 0 0 -24467669.808612823 4694842.8890869617 0 4694842.8890869617 3721019.5191893578 0 0 0 0 43343307.271682739 -10084344.851722717 0 -10084344.851722717 314476.76046538353 0 0 0 0 -63281467.417175293 9898894.4542856216 0 9898894.4542856216 23955694.375387102 0 0 0 0 30210381.431350708 16096270.63123107 0 16096270.63123107 1745266.8228315711 0 0 0 0 26669508.614835739 30357899.271520942 0 30357899.271520942 -1506764.5015170574 0 0 0 0 39027001.436686039 30330047.338204224 0 30330047.338204224 -6338828.072067976 0 0 0 0 -7459693.1341059357 15628157.36903258 0 15628157.36903258 2687043.5079212189 0 0 0 0 4922223.8307342529 20107856.884057403 0 20107856.884057403 8671076.9515105486 0 0 0 0 -8462684.621383667 21982937.395599008 0 21982937.395599008 11441998.087562442 0 0 0 0 -14497016.234268188 -488745.68920230865 0 -488745.68920230865 10797034.262168884 0 0 0 0 -20003176.612754822 11450281.672619462 0 11450281.672619462 9262344.395272851 0 0 0 0 -8626780.6638723016 2616603.4284067545 0 2616603.4284067545 5746301.8633571016 0 0 0 0 -8574669.8815654851 36800.737568009179 0 36800.737568009179 3857561.1816642871 0 0 0 0 -14268367.781562805 1574023.3264298439 0 1574023.3264298439 17559841.572662354 0 0 0 0 -12298731.455558777 5880622.1014041901 0 5880622.1014041901 12000881.681434631 0 0 0 0 -8310106.8612937927 -2644847.2482891083 0 -2644847.2482891083 23174742.717317581 0 0 0 0 -5528186.9507390857 -930956.04057332315 0 -930956.04057332315 1898426.5094507765 0 0 0 0 -18000731.163467407 -7168508.8778553009 0 -7168508.8778553009 42635945.548807144 0 0 0 0 -7726599.6119995117 3737801.9123153687 0 3737801.9123153687 4438571.0329289436 0 0 0 0 -3270336.2195730433 2014128.7678975463 0 2014128.7678975463 2115914.162962202 0 0 0 0 -11793695.080436707 12515258.927913189 0 12515258.927913189 -2312693.3505109549 0 0 0 0 -11029490.77432251 20593317.486728907 0 20593317.486728907 -3345660.0058259964 0 0 0 0 -5632423.741645813 -962845.40952110291 0 -962845.40952110291 4213658.5748331547 0 0 0 0 -4651332.4042214192 3166724.490358118 0 3166724.490358118 5527913.3451737594 0 0 0 0 -7844451.5124740601 2792428.3672094345 0 2792428.3672094345 2521192.0186272264 0 0 0 0 -17666159.91292572 14890533.321451902 0 14890533.321451902 7121237.9685726166 0 0 0 0 -11729830.229438782 8082471.9269533157 0 8082471.9269533157 6734455.125377655 0 0 0 0 -7165466.4936239123 1913793.082562156 0 1913793.082562156 4360383.3275068011 0 0 0 0 -18576343.27140522 12258684.534857988 0 12258684.534857988 13210513.1919384 0 0 0 0 -15838429.579986572 6252442.5106811523 0 6252442.5106811523 13421100.773839533 0 0 0 0 -14146155.545883179 1213710.5708885193 0 1213710.5708885193 17049268.198993564 0 0 0 0 -16451696.757049561 6418524.6716985703 0 6418524.6716985703 26502379.268803596 0 0 0 0 -16407543.822555542 7176987.0981112719 0 7176987.0981112719 15906156.293664932 0 0 0 0 -16345768.942886353 532221.26894569397 0 532221.26894569397 17343219.70646286 0 0 0 0 -8118913.7517700195 -1393674.9806308746 0 -1393674.9806308746 -10766.683656692505 0 0 0 0 -5057078.4987182617 -549229.97910308838 0 -549229.97910308838 164171.48976707458 0 0 0 0 -957449.06116374955 1261010.2419593818 0 1261010.2419593818 2268201.8926523998 0 0 0 0 -16017024.406021118 6960988.5594158173 0 6960988.5594158173 10842576.294034958 0 0 0 0 -16068467.065887451 659172.91469192505 0 659172.91469192505 10604395.017421722 0 0 0 0 -4917174.2618152946 -307315.31855471805 0 -307315.31855471805 562225.20662996918 0 0 0 0 -1243737.8421020508 1391746.4905881882 0 1391746.4905881882 1619237.1897754669 0 0 0 0 -6717961.9024654403 1908916.1010681204 0 1908916.1010681204 3848216.1262578615 0 0 0 0 -4174591.9266942162 35251.16447204724 0 35251.16447204724 589719.61531634524 0 0 0 0 -5213996.712890625 1330670.3239217997 0 1330670.3239217997 1872135.3798565865 0 0 0 0 -7541018.0980377197 -3247705.2942764759 0 -3247705.2942764759 3134252.9191406444 0 0 0 0 -4102154.6415252686 1247666.4409714937 0 1247666.4409714937 1774703.2303345203 0 0 0 0 -4906499.4355621338 537218.00704813004 0 537218.00704813004 3531079.1270773411 0 0 0 0 -2446295.6107406616 1076804.2236507535 0 1076804.2236507535 444888.05719995499 0 0 0 0 -4768993.6446933746 2001660.214811556 0 2001660.214811556 735342.47305119038 0 0 0 0 -3895210.3119123653 1465628.2260219548 0 1465628.2260219548 2389849.428816176 0 0 0 0 -4832965.2059936523 447762.82712745667 0 447762.82712745667 899250.13123869896 0 0 0 0 -1937815.4848137945 1782567.1717988104 0 1782567.1717988104 1718164.8731613252 0 0 0 0 -3842639.8737961929 -34808.669874634594 0 -34808.669874634594 590263.38548150787 0 0 0 0 -125879.041004939 992799.8157562837 0 992799.8157562837 710335.95884817583 0 0 0 0 310409.64086914062 1539265.0547614098 0 1539265.0547614098 -4612035.6068077087 0 0 0 0 -8175880.1966552734 -1217553.6901858449 0 -1217553.6901858449 455291.36669254303 0 0 0 0 39322.286313448101 1188433.4319047946 0 1188433.4319047946 704164.81344867591 0 0 0 0 -3600351.3076324463 -156450.61175005138 0 -156450.61175005138 1184050.7247148752 0 0 0 0 2318687.1748199463 1267997.9472193718 0 1267997.9472193718 5218866.9559879303 0 0 0 0 -5692642.8782349601 2040097.8528193589 0 2040097.8528193589 4187217.0611740318 0 0 0 0 -11177611.15207503 1828291.7012889646 0 1828291.7012889646 8594915.4347833879 0 0 0 0 -27892678.679580688 6956747.4766412973 0 6956747.4766412973 5654321.5506222248 0 0 0 0 -21365953.78527832 638246.08713173866 0 638246.08713173866 2978547.4420440197 0 0 0 0 -23321674.210800171 664010.33897829056 0 664010.33897829056 3449515.1430315971 0 0 0 0 -20159962.195285797 4754169.6138362885 0 4754169.6138362885 3494458.280731678 0 0 0 0 -13149822.595046997 6155587.5138050318 0 6155587.5138050318 4192665.8694579601 0 0 0 0 -16056773.095867157 9109944.2774217129 0 9109944.2774217129 2035874.2910070419 0 0 0 0 -14593516.201916695 12629563.118837386 0 12629563.118837386 -3651968.8603825569 0 0 0 0 -22946285.937805176 19639999.760388374 0 19639999.760388374 3538767.7576773167 0 0 0 0 -21249566.1224823 25823201.168326497 0 25823201.168326497 11136981.488532782 0 0 0 0 -10127950.07144928 31105264.915186524 0 31105264.915186524 -9997859.6884303093 0 0 0 0 -20869553.053081512 37190924.701968849 0 37190924.701968849 34766149.592966557 0 0 0 0 -28797856.605117798 23434169.766057134 0 23434169.766057134 10899555.938383579 0 0 0 0 -27840957.941947937 21329467.597067237 0 21329467.597067237 15527456.921334267 0 0 0 0 -30656488.55862236 17562754.57317695 0 17562754.57317695 10676288.413853168 0 0 0 0 7988815.1289520264 34731431.395353794 0 34731431.395353794 -43587545.194227278 0 0 0 0 -9214295.9661254883 36542674.358639061 0 36542674.358639061 9263504.9422066212 0 0 0 0 -8840830.9108810425 33201203.623055339 0 33201203.623055339 8786175.5483017713 0 0 0 0 -19955936.378074646 29741166.306631207 0 29741166.306631207 73998274.228628516 0 0 0 0 -5925602.3062362671 62670808.599870443 0 62670808.599870443 7096920.496747613 0 0 0 0 -12552043.885848999 11978725.12754786 0 11978725.12754786 62608391.611857593 0 0 0 0 -45640343.690803528 28013272.43950069 0 28013272.43950069 60797019.906269431 0 0 0 0 -14036770.132728186 -3210838.8061535535 0 -3210838.8061535535 314674.75597279065 0 0 0 0 -6511129.451795578 -22358988.651637241 0 -22358988.651637241 101735790.40768409 0 0 0 0 -19985805.328861028 28782887.476876006 0 28782887.476876006 20992563.158188343 0 0 0 0 -57962927.171226501 8968280.7240905166 0 8968280.7240905166 25515542.33646965 0 0 0 0 -36696497.747093201 -8849754.5523473024 0 -8849754.5523473024 -10786809.119259357 0 0 0 0 -30125612.282058716 9449143.2715907097 0 9449143.2715907097 42387667.398006797 0 0 0 0 -33161684.240333557 19035034.015593052 0 19035034.015593052 22581872.945377827 0 0 0 0 -49571280.37424469 25180154.214330733 0 25180154.214330733 59646496.68710804 0 0 0 0 11303003.899055481 11684460.040763676 0 11684460.040763676 25379389.130045652 0 0 0 0 -94991388.862983704 -6342879.8283712268 0 -6342879.8283712268 48000235.444598615 0 0 0 0 239150.63829813898 307074.90579029545 0 307074.90579029545 -111193.27144598507 0 0 0 0 38242185.536804199 40096267.146000862 0 40096267.146000862 -6757635.6555743217 0 0 0 0 -90386558.39251709 -47651568.201512098 0 -47651568.201512098 7276877.9656650424 0 0 0 0 49742883.06375885 68591896.750525594 0 68591896.750525594 5758806.3730297089 0 0 0 0 18362288.212646484 58690822.766930699 0 58690822.766930699 44420370.844466925 0 0 0 0 -37500472.652679443 -107085956.63712245 0 -107085956.63712245 30829808.316975117 0 0 0 0 6332252.7325291634 26248494.21053987 0 26248494.21053987 8150180.3765205145 0 0 0 0 -70496734.605941772 -107713941.73516583 0 -107713941.73516583 33429405.823385864 0 0 0 0 -891139.54317584634 -391317.64815054648 0 -391317.64815054648 738552.43820846605 0 0 0 0 -14130842.522414017 -2994164.5308424365 0 -2994164.5308424365 1049506.1814035242 0 0 0 0 -18448862.46559906 76306912.457823396 0 76306912.457823396 -61325923.603142738 0 0 0 0 -86980312.942596436 151888541.67520213 0 151888541.67520213 78056002.759564877 0 0 0 0 -31547686.805023193 -20127599.483522892 0 -20127599.483522892 24704885.301974416 0 0 0 0 -25167165.400316238 -50556813.499771118 0 -50556813.499771118 103295395.30871391 0 0 0 0 -26712983.823204041 -18863472.429548264 0 -18863472.429548264 20977543.390754223 0 0 0 0 -33312995.579322815 -608429.19708776474 0 -608429.19708776474 601207.88799333572 0 0 0 0 -15791065.834564209 -5820075.3462147713 0 -5820075.3462147713 -196606.25557184219 0 0 0 0 -16159024.656768799 -12271918.436009884 0 -12271918.436009884 -3973011.0000858307 0 0 0 0 -20720596.76776123 -3230548.9281172752 0 -3230548.9281172752 -10637378.235320091 0 0 0 0 -17553577.696594238 -8586497.7482771873 0 -8586497.7482771873 -12675741.811161757 0 0 0 0 -20165609.52671814 -5749784.546462059 0 -5749784.546462059 211746.17814874649 0 0 0 0 -14952069.66532135 1584758.6081947088 0 1584758.6081947088 36286101.004202485 0 0 0 0 -22313645.04246521 -21448036.321932077 0 -21448036.321932077 16781838.198323965 0 0 0 0 35164138.597503662 -47489542.526930094 0 -47489542.526930094 -238679850.77012038 0 0 0 0 -104628120.18951416 -55175892.426503658 0 -55175892.426503658 207298726.39503014 0 0 0 0 -3189393.2767181396 -15015472.423604727 0 -15015472.423604727 -18820614.189547166 0 0 0 0 -55778929.121414185 -76592223.557127237 0 -76592223.557127237 -9940725.708643645 0 0 0 0 -56304358.562911987 134076165.09542286 0 134076165.09542286 -43706540.198104262 0 0 0 0 -135630570.44111633 -367825787.23734212 0 -367825787.23734212 -19288126.504541159 0 0 0 0 -156745446.28851318 196863097.19803786 0 196863097.19803786 428036059.38149929 0 0 0 0 -14705187.429145813 42227781.959765911 0 42227781.959765911 98922532.099310637 0 0 0 0 2006837.1902980804 -32182406.645166397 0 -32182406.645166397 12664238.448647976 0 0 0 0 -7131154.195892334 -13504183.9480443 0 -13504183.9480443 -3700898.5089359283 0 0 0 0 -3524025.8280371781 -1006816.6995431576 0 -1006816.6995431576 894108.09384301142 0 0 0 0 -12572192.822868347 -12234640.584999084 0 -12234640.584999084 -1361072.3566060066 0 0 0 0 -2391836.7563058175 -179559.07080985419 0 -179559.07080985419 1574025.6643088893 0 0 0 0 -12224824.537605286 -8324938.4485643506 0 -8324938.4485643506 19309798.62449646 0 0 0 0 -26657079.606163025 -7847357.6298336983 0 -7847357.6298336983 10782068.066529185 0 0 0 0 -50174029.765669823 2161331.685382396 0 2161331.685382396 47218782.749415398 0 0 0 0 -36684551.933437347 -26392633.175932944 0 -26392633.175932944 34698255.980958462 0 0 0 0 -35040633.645355225 -36700970.323251724 0 -36700970.323251724 65110910.2931633 0 0 0 0 -51161034.35848999 -4908104.8895072937 0 -4908104.8895072937 66684445.407794863 0 0 0 0 -27587671.509109497 2230912.9899141788 0 2230912.9899141788 12190593.065478444 0 0 0 0 -9885262.8497211114 727991.71049339138 0 727991.71049339138 5792097.87127019 0 0 0 0 75463483.159212112 -2108080.1494374499 0 -2108080.1494374499 2277084.0607557297 0 0 0 0 -31367961.485485077 7747626.4390518069 0 7747626.4390518069 4900951.7792692184 0 0 0 0 55607726.779905319 14567413.210339498 0 14567413.210339498 13300858.64132452 0 0 0 0 -11179218.403248612 4316685.9135287721 0 4316685.9135287721 4565164.0481800875 0 0 0 0 -12306160.212286768 -10349364.133647967 0 -10349364.133647967 -2169436.7110432382 0 0 0 0 -16340876.367023945 -18549728.867499828 0 -18549728.867499828 9975789.3340940475 0 0 0 0 -14888206.050506592 -9206536.9361481667 0 -9206536.9361481667 -2939953.948104322 0 0 0 0 -11015458.357062317 -1446873.1018471604 0 -1446873.1018471604 4386106.2780031674 0 0 0 0 -101339238.90621662 7713193.9920387268 0 7713193.9920387268 48773929.811664581 0 0 0 0 -30541262.944232941 -14667364.969935417 0 -14667364.969935417 23082323.349327087 0 0 0 0 37888132.056266785 26551048.260270044 0 26551048.260270044 6571916.4906526953 0 0 0 0 -30091355.525124997 -9137166.5499657989 0 -9137166.5499657989 27953676.772731781 0 0 0 0 -12200639.606443491 6374734.4673648151 0 6374734.4673648151 8392616.5516035724 0 0 0 0 -21667110.366701126 -8137400.5537272096 0 -8137400.5537272096 5465703.1260690689 0 0 0 0 -19793440.837985992 -2881669.3483846784 0 -2881669.3483846784 3589844.663895607 0 0 0 0 -15576663.379943848 -8369361.9004750252 0 -8369361.9004750252 468282.94413232803 0 0 0 0 -10699275.133009061 -8828459.3239664119 0 -8828459.3239664119 -2533863.7093441719 0 0 0 0 -15302634.374797821 -5185519.9573807716 0 -5185519.9573807716 -1145093.3182549477 0 0 0 0 58207795.591350555 -67338659.210907459 0 -67338659.210907459 -19046989.549546242 0 0 0 0 -15746249.238307953 -4058812.6764044762 0 -4058812.6764044762 -1855664.1407670975 0 0 0 0 -5339281.4070959762 -3938164.4990161993 0 -3938164.4990161993 368410.73069685372 0 0 0 0 -18327735.675327301 -13608128.17197299 0 -13608128.17197299 -2922516.3102827072 0 0 0 0 -17852540.474723816 -4324900.213411808 0 -4324900.213411808 1717152.7615603209 0 0 0 0 -17949731.234737396 -13720012.218184233 0 -13720012.218184233 -3940064.6665430069 0 0 0 0 -17508890.871177673 -14449540.246654034 0 -14449540.246654034 -2793345.1652259827 0 0 0 0 -9577820.566239357 -5879298.1329982281 0 -5879298.1329982281 -1120107.8508529663 0 0 0 0 -6853662.6031951904 -4830475.3018927574 0 -4830475.3018927574 -3656599.3656492233 0 0 0 0 -13140767.294431686 -16264976.384656668 0 -16264976.384656668 -13565771.609729767 0 0 0 0 -15393608.915267944 -5796560.1728329659 0 -5796560.1728329659 2036726.246411562 0 0 0 0 -10160608.018846512 -2438413.6311653256 0 -2438413.6311653256 2841155.9611504078 0 0 0 0 -5876406.4347762503 -4213964.4467745554 0 -4213964.4467745554 2739399.1890336699 0 0 0 0 -1822504.7645425275 -3423221.0426024264 0 -3423221.0426024264 1807481.6894834063 0 0 0 0 -15293278.159925461 -3463864.4812979698 0 -3463864.4812979698 6995436.3412926197 0 0 0 0 -17006164.970510483 -9324770.495010972 0 -9324770.495010972 8411621.4223814011 0 0 0 0 4763932.5997314453 -8480558.9608006477 0 -8480558.9608006477 30099800.783657193 0 0 0 0 -7458931.9869022369 -2552916.4598677158 0 -2552916.4598677158 5032365.4587287903 0 0 0 0 -4276870.4800548553 -9121065.6058175564 0 -9121065.6058175564 -1993835.0603866577 0 0 0 0 -155092.390346542 2242390.2706816336 0 2242390.2706816336 1574899.247077391 0 0 0 0 -3611002.0656661987 4883701.3690547943 0 4883701.3690547943 3075662.2861671448 0 0 0 0 -1248127.0051574707 536475.30248260498 0 536475.30248260498 2010660.267870903 0 0 0 0 -1949756.1444468163 -784879.12482633151 0 -784879.12482633151 1507549.0031721778 0 0 0 0 -14327249.619596619 -2627453.3503164425 0 -2627453.3503164425 4014925.6183722001 0 0 0 0 -9753191.4540922754 2768873.533015199 0 2768873.533015199 5150788.2128814813 0 0 0 0 -6837308.9178085327 5437587.6769294739 0 5437587.6769294739 3869237.0658311844 0 0 0 0 -30838295.649860382 -9051485.9611896873 0 -9051485.9611896873 26583766.824471474 0 0 0 0 -9090271.3952484131 5029591.8384222984 0 5029591.8384222984 5918207.6599292755 0 0 0 0 -14306623.504165649 15698800.786406398 0 15698800.786406398 62648193.433510542 0 0 0 0 16232789.034934521 -44580826.202904463 0 -44580826.202904463 22578922.598697603 0 0 0 0 -15059293.116600674 -1193388.9267626377 0 -1193388.9267626377 3858744.6752973781 0 0 0 0 6890760.8860015869 31127226.308796763 0 31127226.308796763 28279177.188378811 0 0 0 0 -17470183.444900513 -2624161.5276765823 0 -2624161.5276765823 19817530.887787819 0 0 0 0 -9678026.9779949188 5073749.8987765312 0 5073749.8987765312 27421523.23443222 0 0 0 0 -26063724.042743683 15683786.643439293 0 15683786.643439293 15060467.847885132 0 0 0 0 -10105973.790554047 6674336.3958313465 0 6674336.3958313465 10122269.706480026 0 0 0 0 -3652245.8741787076 8853908.6217400506 0 8853908.6217400506 -1911655.8669395447 0 0 0 0 -9131193.0575408936 11654612.518054962 0 11654612.518054962 6022332.7739143372 0 0 0 0 -10577139.92804718 15661059.043315887 0 15661059.043315887 -4034175.4591293335 0 0 0 0 -6953253.8747711182 9375401.4784812927 0 9375401.4784812927 -3372159.1617797613 0 0 0 0 -748098.44267806783 734915.91668990534 0 734915.91668990534 1424693.5605346703 0 0 0 0 -6717079.7079086304 10639615.952031136 0 10639615.952031136 -2379055.8630561829 0 0 0 0 -262055.58365701139 184147.34666603082 0 184147.34666603082 516093.10062680114 0 0 0 0 -21373128.845104218 32747525.379233837 0 32747525.379233837 -35066417.136229515 0 0 0 0 -62463168.40587616 22211065.967510223 0 22211065.967510223 10060926.678489447 0 0 0 0 -27134974.225517273 -36739267.414219856 0 -36739267.414219856 -43569737.381409407 0 0 0 0 -58027932.785888672 -23291888.145020962 0 -23291888.145020962 -3951716.0840740204 0 0 0 0 -41388034.565483093 -19473508.394884109 0 -19473508.394884109 -4822253.4078569412 0 0 0 0 -13362068.621162415 -19473239.784109116 0 -19473239.784109116 -6850248.836974144 0 0 0 0 -6439838.5188598633 -13837431.675019741 0 -13837431.675019741 -19093825.832685471 0 0 0 0 -6267596.5675354004 -6055065.0116848946 0 -6055065.0116848946 -6112766.5895137787 0 0 0 0 -23743301.015792847 -32308120.878139496 0 -32308120.878139496 -22488704.5048244 0 0 0 0 -24999631.429847717 -24100585.203870773 0 -24100585.203870773 -7863811.7377090454 0 0 0 0 -27384018.061454773 -26283031.334463596 0 -26283031.334463596 1473189.1605730057 0 0 0 0 -21492064.63438797 -19765207.334459305 0 -19765207.334459305 -6495321.8623609543 0 0 0 0 -20982008.184745789 -20627976.14321661 0 -20627976.14321661 -5292389.1109037399 0 0 0 0 -7614914.4454650879 -18635403.027507305 0 -18635403.027507305 -7522599.2621700764 0 0 0 0 -15104585.043504715 -10785710.434237123 0 -10785710.434237123 21229574.319094658 0 0 0 0 -10464142.329689026 -21228710.306186199 0 -21228710.306186199 -28018325.43333292 0 0 0 0 -41351988.392456055 -30726969.481368065 0 -30726969.481368065 140640.78234291077 0 0 0 0 -36319453.761219978 -12297161.479601026 0 -12297161.479601026 12015227.472827911 0 0 0 0 -50456486.38835144 -17865140.157243252 0 -17865140.157243252 69843975.966218948 0 0 0 0 -49517938.374188423 -6434031.0966104269 0 -6434031.0966104269 18538746.463209152 0 0 0 0 17738914.775184631 -21905159.474556923 0 -21905159.474556923 21941629.519281149 0 0 0 0 -31051569.311286926 1257915.8733720779 0 1257915.8733720779 13280987.779256344 0 0 0 0 4572063.8826293945 24015670.830901146 0 24015670.830901146 25231247.652225018 0 0 0 0 -19317868.356170654 30804825.5038836 0 30804825.5038836 -69362449.039062023 0 0 0 0 -1223217.1289845221 -1222799.672184166 0 -1222799.672184166 -175748.57058840242 0 0 0 0 -46395735.803764343 23895851.3554492 0 23895851.3554492 46385094.100916386 0 0 0 0 1052388.5890197754 4898580.838722229 0 4898580.838722229 -117602232.12088108 0 0 0 0 314667222.75817871 -168896173.34712219 0 -168896173.34712219 -164483288.98828411 0 0 0 0 -33464230.083259583 17602942.746440887 0 17602942.746440887 -17023328.390005112 0 0 0 0 -5310833.8026018552 -6307615.8502329905 0 -6307615.8502329905 2972704.4098587008 0 0 0 0 -3710502.0497589707 -3231402.9607909075 0 -3231402.9607909075 -498915.99399455625 0 0 0 0 -10098679.158477783 -24288966.46865654 0 -24288966.46865654 -31361904.864808083 0 0 0 0 -16812164.295478821 -32503491.333248138 0 -32503491.333248138 -22970226.597352505 0 0 0 0 -29743503.531974792 -32195319.426921844 0 -32195319.426921844 -7185214.8053860664 0 0 0 0 -6487287.8703114633 -9755460.9536427483 0 -9755460.9536427483 5741265.7515937593 0 0 0 0 -4022666.6359863281 -10708070.949178696 0 -10708070.949178696 13197442.221035004 0 0 0 0 -17832261.711639404 -12313613.950497627 0 -12313613.950497627 325073.85933366418 0 0 0 0 193013.85487365723 -12368336.762529373 0 -12368336.762529373 2288303.6942405701 0 0 0 0 -4421064.5837936401 -9387553.7860488892 0 -9387553.7860488892 9705514.3761405945 0 0 0 0 -2921712.8626327515 -9088556.0338973999 0 -9088556.0338973999 5529671.532409668 0 0 0 0 -1912096.0572738647 -11887082.272920609 0 -11887082.272920609 8908245.2587852478 0 0 0 0 -19103057.478820801 6959754.8884630203 0 6959754.8884630203 3687313.9436168671 0 0 0 0 -12732621.22505188 -202352.52360486984 0 -202352.52360486984 3817818.602973938 0 0 0 0 -17216685.672351837 6871022.7627153397 0 6871022.7627153397 3316193.4610095024 0 0 0 0 -17364942.646737337 3334885.2635188401 0 3334885.2635188401 -2443289.6692390442 0 0 0 0 -14826144.276540756 12335684.892508507 0 12335684.892508507 5538397.8449707031 0 0 0 0 -17029324.176927567 6657547.8964290619 0 6657547.8964290619 2922750.1624183655 0 0 0 0 -26394745.822357178 11844120.077219009 0 11844120.077219009 1506202.4243507385 0 0 0 0 -34597476.159843445 -1675011.8454437256 0 -1675011.8454437256 3777190.9594345093 0 0 0 0 -31565815.394416809 -518855.70412063599 0 -518855.70412063599 4600766.7559757233 0 0 0 0 -31800443.720984459 -289836.48768615723 0 -289836.48768615723 4386425.0530891418 0 0 0 0 -8705271.3398005702 -6025949.341026213 0 -6025949.341026213 -781448.35781670385 0 0 0 0 -21358986.591174126 -15789517.784442663 0 -15789517.784442663 3495824.0192584991 0 0 0 0 -28003201.971871376 -18301818.782221317 0 -18301818.782221317 3370673.8655948639 0 0 0 0 -44426856.412567139 -21369579.031053543 0 -21369579.031053543 3451145.6962528229 0 0 0 0 -2699393.9425830618 -573949.61688414589 0 -573949.61688414589 2347437.6412554812 0 0 0 0 -7241204.3960015774 -17750562.357510634 0 -17750562.357510634 -37608600.357057571 0 0 0 0 6506908.75440979 7560209.6618833542 0 7560209.6618833542 11671278.661166668 0 0 0 0 -19207850.863024965 -3648083.8628288168 0 -3648083.8628288168 8834845.3626233544 0 0 0 0 -7134619.4306182861 -14637141.497990608 0 -14637141.497990608 -26179153.937134743 0 0 0 0 -30651024.94934082 -42699007.992092133 0 -42699007.992092133 -20433268.532708168 0 0 0 0 -13847831.105574608 -31304658.462429464 0 -31304658.462429464 -39758272.610784531 0 0 0 0 -12987823.281356812 -25274923.96482563 0 -25274923.96482563 -13101423.809182167 0 0 0 0 -25824336.600296021 -36051987.086495578 0 -36051987.086495578 -25553856.014385819 0 0 0 0 -49100181.826942444 -8398493.5224461555 0 -8398493.5224461555 26462037.914940834 0 0 0 0 5232347.8902893066 6377727.0624027252 0 6377727.0624027252 3862041.9492588043 0 0 0 0 -14618479.035217285 2988573.9342107773 0 2988573.9342107773 8926567.5063257217 0 0 0 0 12969984.302444458 1270603.8106985092 0 1270603.8106985092 260508.11294937134 0 0 0 0 -4550262.9685516357 -13695046.89618206 0 -13695046.89618206 -13316723.737299919 0 0 0 0 -21960712.031898499 -29301264.221461296 0 -29301264.221461296 -2944608.600851059 0 0 0 0 -16580809.372722626 -30245110.706570148 0 -30245110.706570148 -13847230.690246582 0 0 0 0 -3786272.8930435181 -1587520.0299787521 0 -1587520.0299787521 6178365.9119586945 0 0 0 0 -5949247.3370189033 -7061937.9410900986 0 -7061937.9410900986 -1083510.9657053098 0 0 0 0 4583822.2738342285 -3263389.9749622345 0 -3263389.9749622345 6259835.3084630966 0 0 0 0 12786318.985923409 -4974134.0374777615 0 -4974134.0374777615 2881435.7573776245 0 0 0 0 -7966822.0858960012 -2925321.0403125128 0 -2925321.0403125128 255650.7190210307 0 0 0 0 -20248350.217023849 2564541.6569685936 0 2564541.6569685936 202899.45932674408 0 0 0 0 -19113014.820934296 3774377.0466184616 0 3774377.0466184616 563986.94300222397 0 0 0 0 -19247079.309597015 2837133.2288930416 0 2837133.2288930416 -5745375.3798370361 0 0 0 0 -6971914.6014111508 -6927941.3132302929 0 -6927941.3132302929 314809.07951466122 0 0 0 0 750390.9892578125 -2208496.0624923706 0 -2208496.0624923706 -93366.499984025955 0 0 0 0 -8827740.418717837 -3139449.5152053759 0 -3139449.5152053759 -1574769.8325049453 0 0 0 0 2735597.6456336975 -18577120.445926189 0 -18577120.445926189 -15782294.885765076 0 0 0 0 -6542157.5047576055 -6458448.0454565017 0 -6458448.0454565017 2174938.9386267299 0 0 0 0 -25625759.871471405 -12413644.067648888 0 -12413644.067648888 3144512.4847741127 0 0 0 0 -16631816.088190533 -1724313.7315316768 0 -1724313.7315316768 2858669.4879078455 0 0 0 0 -4724696.9722178541 -3230231.5592390429 0 -3230231.5592390429 -4168436.2138183299 0 0 0 0 -1608226.0594041571 -1622993.0777475899 0 -1622993.0777475899 296307.81055832538 0 0 0 0 25288324.108398438 8365521.4925861359 0 8365521.4925861359 -17991795.118234634 0 0 0 0 -29553070.862784386 -69704784.181646228 0 -69704784.181646228 -47931350.056107521 0 0 0 0 -28638221.743286133 -34592164.864961624 0 -34592164.864961624 18558304.479854167 0 0 0 0 -23524706.526947021 -196462.25568389893 0 -196462.25568389893 18763964.584476471 0 0 0 0 -18449567.752457619 -13709782.848166406 0 -13709782.848166406 -2781357.3282632828 0 0 0 0 -13681726.101121902 -6086498.6904847622 0 -6086498.6904847622 118011.27652740479 0 0 0 0 -18550998.275939941 -14012312.25074482 0 -14012312.25074482 -2591362.9464533329 0 0 0 0 -16331625.578248024 -1109844.2387137413 0 -1109844.2387137413 -2931145.5777959824 0 0 0 0 -2156954.5018528476 -128764.94073192845 0 -128764.94073192845 151038.7643237384 0 0 0 0 -295791197.24103165 17758024.596190453 0 17758024.596190453 134848225.53212357 0 0 0 0 205309557.27418137 5983770.4590997696 0 5983770.4590997696 -345837360.84422302 0 0 0 0 -47328004.39283371 -128099080.12959576 0 -128099080.12959576 -116009285.08100891 0 0 0 0 -199700645.47455215 -92222087.886053085 0 -92222087.886053085 19442559.189044952 0 0 0 0 -26882573.676048279 -5679764.0755519867 0 -5679764.0755519867 48027341.225191116 0 0 0 0 65728025.898849487 -1137580.1059341431 0 -1137580.1059341431 53721569.301336288 0 0 0 0 -223717881.32936192 120397803.04189932 0 120397803.04189932 2985129.7382469177 0 0 0 0 185903050.62335968 -79968420.244457245 0 -79968420.244457245 -46581377.542850494 0 0 0 0 -7962713.0964077422 -6981088.4434769703 0 -6981088.4434769703 -3100848.1414304608 0 0 0 0 66028218.142036438 83698028.823883057 0 83698028.823883057 113007331.75837708 0 0 0 0 40965961.660865784 33877339.02312088 0 33877339.02312088 50387648.992599487 0 0 0 0 -706467.10419630818 -9321941.870364178 0 -9321941.870364178 -445729.32676966535 0 0 0 0 -21993824.72462368 -37599044.428028107 0 -37599044.428028107 8083120.1226119995 0 0 0 0 -12368641.914105415 -24025330.121366501 0 -24025330.121366501 -27321871.631828308 0 0 0 0 -2797079.3761358261 -10195041.373086929 0 -10195041.373086929 -101821639.45913696 0 0 0 0 -16538575.914356232 -36859390.66627121 0 -36859390.66627121 -56820933.577764511 0 0 0 0 -8247424.1741542816 8194081.4895153046 0 8194081.4895153046 -652482.98166561127 0 0 0 0 -670767.24040603638 -68974093.281442642 0 -68974093.281442642 -146515414.3740921 0 0 0 0 24290040.519866943 -91437326.449502945 0 -91437326.449502945 -22833828.588612556 0 0 0 0 -21680193.621459961 -77827921.138825417 0 -77827921.138825417 -25698359.898807526 0 0 0 0 -48449214.802745819 -54037438.626041412 0 -54037438.626041412 -23525019.288300514 0 0 0 0 -17640045.026432037 -70472707.768705368 0 -70472707.768705368 -33526718.203765869 0 0 0 0 -6005869.1779546738 -75179022.351802826 0 -75179022.351802826 -75918837.550720215 0 0 0 0 7648177.6994366646 -42305372.961834431 0 -42305372.961834431 -61678169.437950134 0 0 0 0 -39034010.497660637 -46907978.964644432 0 -46907978.964644432 -40350395.887779236 0 0 0 0 -90929303.477298737 -42539807.873939514 0 -42539807.873939514 -24904364.946925163 0 0 0 0 -91336045.525408506 -38362477.325947285 0 -38362477.325947285 -18428172.814281464 0 0 0 0 -39078504.645961881 -11363667.328957319 0 -11363667.328957319 -41453232.691520691 0 0 0 0 -41253613.026262283 -45560797.030498505 0 -45560797.030498505 -41049999.724147797 0 0 0 0 -92430791.452117443 -60985438.250206947 0 -60985438.250206947 -28898380.774131775 0 0 0 0 -50630341.569450378 -57870007.52538681 0 -57870007.52538681 -27276134.130044937 0 0 0 0 -56858799.907281876 -52594052.18046093 0 -52594052.18046093 -1924293.4361076355 0 0 0 0 -65822105.473646164 -37873866.623966217 0 -37873866.623966217 -25173168.790131807 0 0 0 0 -6845273.4333026549 -561754.02887803968 0 -561754.02887803968 -526037.54799995897 0 0 0 0 -15383391.650390148 -9285265.5129253864 0 -9285265.5129253864 -1685366.1177845001 0 0 0 0 -7461198.2095928192 -17179626.889547348 0 -17179626.889547348 -30582629.127426147 0 0 0 0 -33228192.154453278 -59493272.258323669 0 -59493272.258323669 -22255630.248149872 0 0 0 0 -7881906.2479953766 7861360.3455600739 0 7861360.3455600739 5159603.1634874344 0 0 0 0 -33550397.378853321 -59331544.574705243 0 -59331544.574705243 70055173.657329559 0 0 0 0 -1327644.3490042686 -42367382.931231499 0 -42367382.931231499 54834888.28543067 0 0 0 0 -27708821.581030369 -35793746.995700359 0 -35793746.995700359 137880238.57874489 0 0 0 0 -42022460.999197394 -1664903.4805707932 0 -1664903.4805707932 71599671.304639816 0 0 0 0 -87652465.573814392 -36895708.266033173 0 -36895708.266033173 -33946299.23610878 0 0 0 0 -24724522.584001064 40885302.966092587 0 40885302.966092587 175615405.76970482 0 0 0 0 -3818782.7327905609 104520.84037308441 0 104520.84037308441 -495465.34808942163 0 0 0 0 -64041270.413279533 -51422210.587533951 0 -51422210.587533951 -47798516.65049839 0 0 0 0 -3649397.9693479128 -6681446.6288134614 0 -6681446.6288134614 -2049901.8270654264 0 0 0 0 -9001422.8013801575 -4713410.1086211205 0 -4713410.1086211205 590638.94636821747 0 0 0 0 46740609.986375809 37909163.640454292 0 37909163.640454292 56947800.048066854 0 0 0 0 -14214828.377571095 -241213.19712649379 0 -241213.19712649379 -1296497.2856128439 0 0 0 0 -9017506.0921802521 -4809121.4972815514 0 -4809121.4972815514 1477276.9828327298 0 0 0 0 -5799053.2213268969 -7302562.7124980921 0 -7302562.7124980921 -1526419.8610484903 0 0 0 0 -5076224.5439872742 -6497617.2589592934 0 -6497617.2589592934 3685477.2383956909 0 0 0 0 265169.58307201788 -2395963.6451737997 0 -2395963.6451737997 -652111.00237909367 0 0 0 0 -70029338.746555328 63381145.252121925 0 63381145.252121925 87994362.452974796 0 0 0 0 -20444526.093645096 -65421497.341032982 0 -65421497.341032982 122623397.65084267 0 0 0 0 487801.44508578815 160307.60233365837 0 160307.60233365837 -675010.53588911984 0 0 0 0 -2033909.8546239138 -49003775.644073009 0 -49003775.644073009 77831382.703943253 0 0 0 0 -5893339.1133769508 -4756038.8615813293 0 -4756038.8615813293 -1322157.3368555829 0 0 0 0 3575775.3981904089 -2237842.5871756673 0 -2237842.5871756673 17931130.064279556 0 0 0 0 -5455303.0675086975 -4671493.7331337929 0 -4671493.7331337929 447818.23262786865 0 0 0 0 -12518510.484332094 -1854581.0901007941 0 -1854581.0901007941 -1453189.5570958448 0 0 0 0 -4061810.9489212036 10122282.087834358 0 10122282.087834358 378422.85164928436 0 0 0 0 192432797.80015516 -169853878.86598015 0 -169853878.86598015 105866095.95881557 0 0 0 0 -25257877.278734803 27937158.814828396 0 27937158.814828396 337264986.43369675 0 0 0 0 -2732035.4456970547 -845200.13978797989 0 -845200.13978797989 493758.29540037084 0 0 0 0 125832705.49940062 -83643618.668357849 0 -83643618.668357849 12491001.99718678 0 0 0 0 40872092.492099047 -224754080.25988483 0 -224754080.25988483 316069638.95483589 0 0 0 0 -78773889.971101522 -57090291.681553841 0 -57090291.681553841 140270333.56896174 0 0 0 0 -54457854.352829933 -119165370.7836411 0 -119165370.7836411 220216542.50671577 0 0 0 0 -142555597.04735419 -29978560.005041838 0 -29978560.005041838 228632942.8844471 0 0 0 0 -125288607.44655919 73925771.567612648 0 73925771.567612648 459137939.59986973 0 0 0 0 200445663.44749701 -266034152.8901968 0 -266034152.8901968 221255191.45812798 0 0 0 0 -33531963.95032692 -163015133.95064735 0 -163015133.95064735 482876554.8035574 0 0 0 0 -74328821.841628611 -1744436.2107498646 0 -1744436.2107498646 165084821.0204525 0 0 0 0 -28118419.969345212 13053051.473669052 0 13053051.473669052 158130989.10770655 0 0 0 0 20500291.387756705 77684085.71068716 0 77684085.71068716 93779039.747714996 0 0 0 0 -61365204.320907235 -23516809.436058044 0 -23516809.436058044 201370878.71984673 0 0 0 0 -127785191.17345951 25735086.971440315 0 25735086.971440315 233037105.63492012 0 0 0 0 -186073845.12062573 112393565.37262058 0 112393565.37262058 144254261.37649727 0 0 0 0 -103890667.67475152 75788294.284287453 0 75788294.284287453 110852174.18808556 0 0 0 0 -75209492.588304043 72346867.931666374 0 72346867.931666374 97632166.524674416 0 0 0 0 -73028314.669262439 104061416.1845789 0 104061416.1845789 59814177.003372192 0 0 0 0 -24095171.579744577 102141994.97964096 0 102141994.97964096 -80842261.212721825 0 0 0 0 -119581410.76182462 138831374.84979343 0 138831374.84979343 48055986.090389252 0 0 0 0 -11204622.095168829 79723707.466550827 0 79723707.466550827 -42916916.169237137 0 0 0 0 -48184413.757317238 120160151.99819453 0 120160151.99819453 -11088441.962890625 0 0 0 0 -47615274.045496523 136328553.09176949 0 136328553.09176949 -63648903.298782349 0 0 0 0 -187353689.86483693 205881451.79800224 0 205881451.79800224 -37760423.068674088 0 0 0 0 -115084589.8451585 101689129.14659214 0 101689129.14659214 94465806.184813499 0 0 0 0 8951609.9273297787 28867338.166481018 0 28867338.166481018 -130726852.17877769 0 0 0 0 -212732930.88660812 179019632.27279472 0 179019632.27279472 -38408081.090522766 0 0 0 0 -24426257.355278462 155619243.80583668 0 155619243.80583668 -232435423.07135296 0 0 0 0 -69335318.574759126 192339246.8389101 0 192339246.8389101 -439771968.44575024 0 0 0 0 15794092.463265598 72552978.633141041 0 72552978.633141041 -62364765.184741974 0 0 0 0 -10649273.269588709 63349948.919587135 0 63349948.919587135 -61538185.31218338 0 0 0 0 -44953431.986732244 -125450770.95545197 0 -125450770.95545197 161642562.63826275 0 0 0 0 -74094166.5030725 -120829143.78752899 0 -120829143.78752899 26915052.86303997 0 0 0 0 -207602871.84783268 -201378465.32678223 0 -201378465.32678223 126961791.18077087 0 0 0 0 -372502190.43449116 81918477.945713997 0 81918477.945713997 214106141.79603553 0 0 0 0 -59777665.752014399 -44160563.765608788 0 -44160563.765608788 -14167737.245372772 0 0 0 0 -353087848.22434306 75354989.29954052 0 75354989.29954052 -42465877.30100441 0 0 0 0 -549074469.21105099 -165123873.87163258 0 -165123873.87163258 -302139767.08220482 0 0 0 0 -474570401.52461338 399445261.78666115 0 399445261.78666115 -223848635.23962212 0 0 0 0 -713110484.447258 408972805.31569672 0 408972805.31569672 -459895184.24543142 0 0 0 0 -276004895.86077285 -220744494.54759145 0 -220744494.54759145 -21210956.793706894 0 0 0 0 -357246999.88224077 47039668.10565567 0 47039668.10565567 -89656992.325059891 0 0 0 0 -93637764.346416712 -68585662.388138771 0 -68585662.388138771 -248076048.67079639 0 0 0 0 18052066.631164789 -62594010.548315048 0 -62594010.548315048 -82109456.448370934 0 0 0 0 25928338.15104413 -158704084.66347218 0 -158704084.66347218 142186607.61833191 0 0 0 0 -107092212.89246309 -149658561.21484399 0 -149658561.21484399 53350348.784036636 0 0 0 0 47579456.953172445 -207638143.99380302 0 -207638143.99380302 -22455992.578495026 0 0 0 0 -96148200.215333402 -215318617.92194295 0 -215318617.92194295 124151843.45988464 0 0 0 0 114407002.11874235 -276242473.56141949 0 -276242473.56141949 81115684.438751221 0 0 0 0 42580498.901213467 -189410500.10607433 0 -189410500.10607433 159892661.43069458 0 0 0 0 13134796.428581715 -267283131.15465307 0 -267283131.15465307 203166402.41368675 0 0 0 0 25910163.552489042 -284831499.69435024 0 -284831499.69435024 103852524.64586854 0 0 0 0 147133797.91893005 -206644590.16856384 0 -206644590.16856384 221024963.58316803 0 0 0 0 334729032.80216718 -186906716.95539188 0 -186906716.95539188 109492839.33750153 0 0 0 0 140961292.30831444 -257518337.21799278 0 -257518337.21799278 116447665.43884659 0 0 0 0 159134350.02128428 -132215715.16507053 0 -132215715.16507053 61522857.214754105 0 0 0 0 265246234.5316588 -268039328.61719513 0 -268039328.61719513 165745901.02673721 0 0 0 0 385308128.41447628 -288682861.85934806 0 -288682861.85934806 113665466.06272125 0 0 0 0 -56730916.258386374 -12495484.654901505 0 -12495484.654901505 43190081.257160187 0 0 0 0 315317670.38257456 -188852339.2734623 0 -188852339.2734623 199865930.48677254 0 0 0 0 49810521.938400984 -39753994.154805183 0 -39753994.154805183 -12722302.980784416 0 0 0 0 -38295568.007017136 178305117.20193672 0 178305117.20193672 -71894535.718401909 0 0 0 0 -1824512.4833856651 -1932985.146736301 0 -1932985.146736301 -1706419.4309882224 0 0 0 0 -61883313.583520889 69387916.434604645 0 69387916.434604645 -149773019.57824707 0 0 0 0 -87305483.017665863 90292919.457187176 0 90292919.457187176 63479101.123985291 0 0 0 0 -10794225.908548335 -5799578.4018947361 0 -5799578.4018947361 2683724.8262613798 0 0 0 0 -29620245.71244812 -52948335.653575897 0 -52948335.653575897 12163503.717506409 0 0 0 0 -8036278.9224090576 -8660964.2750234604 0 -8660964.2750234604 10907973.707775116 0 0 0 0 -108620033.12019348 -35565438.626016617 0 -35565438.626016617 69072694.222015977 0 0 0 0 -79495351.751207352 -10759260.291507721 0 -10759260.291507721 15054315.184064865 0 0 0 0 -109800442.54343605 62327857.519115925 0 62327857.519115925 -24245767.045710564 0 0 0 0 -8514301.4277496338 21195260.847043991 0 21195260.847043991 -26410827.322448373 0 0 0 0 -2705410.903335609 309292.3507718402 0 309292.3507718402 3183384.2828621874 0 0 0 0 -4154839.3765162956 -3534824.7043620115 0 -3534824.7043620115 -2078114.1494999109 0 0 0 0 -88974831.272054672 16258822.332342148 0 16258822.332342148 18159502.754377365 0 0 0 0 -78649749.331535339 16525534.801002502 0 16525534.801002502 -4405363.2226371765 0 0 0 0 13658902.655603409 71944845.254899025 0 71944845.254899025 22069146.100322723 0 0 0 0 33328373.649898529 41201525.775989532 0 41201525.775989532 -27236068.111923218 0 0 0 0 -125135635.68387222 51345322.445110321 0 51345322.445110321 80331140.393390656 0 0 0 0 -100349522.59288788 -12346153.4141469 0 -12346153.4141469 -5905930.5776290894 0 0 0 0 -63438439.88923645 -6194059.8894748688 0 -6194059.8894748688 -14393386.866334915 0 0 0 0 -3980398.4950714111 -9984070.6777648926 0 -9984070.6777648926 9451876.6583404541 0 0 0 0 -2135795.6969146729 -11373816.943649292 0 -11373816.943649292 10367849.980163574 0 0 0 0 -5893829.4380493164 -10364842.226938248 0 -10364842.226938248 11703164.385665894 0 0 0 0 -2879081.6861572266 -12759892.633729935 0 -12759892.633729935 11696597.092382193 0 0 0 0 -4495280.7518844604 -11825102.538894653 0 -11825102.538894653 11790899.86132431 0 0 0 0 -4101974.3516082764 -11663036.309623718 0 -11663036.309623718 11670501.428680837 0 0 0 0 -4096901.5971012115 -11623616.033101559 0 -11623616.033101559 11254177.106632233 0 0 0 0 -3234559.9010162354 -11522435.23992157 0 -11522435.23992157 11242403.456552982 0 0 0 0 -4007128.571603775 -11923552.006201506 0 -11923552.006201506 11121751.334125519 0 0 0 0 -3970670.8577144146 -11227978.198371291 0 -11227978.198371291 9753127.0750312805 0 0 0 0 -3116672.3905639648 -12679613.595212936 0 -12679613.595212936 12293700.427829742 0 0 0 0 -11337464.690756703 -4734717.9721332742 0 -4734717.9721332742 6117487.3427697606 0 0 0 0 -1952195.5433044434 -12950459.19275856 0 -12950459.19275856 11373471.134967804 0 0 0 0 -16870579.739444733 -12779673.386259079 0 -12779673.386259079 -32921516.312004089 0 0 0 0 -80047561.714302063 -17447611.136423111 0 -17447611.136423111 -17190751.859367371 0 0 0 0 -4551980.2555015218 550623.21356350253 0 550623.21356350253 1566458.8596436917 0 0 0 0 -51431470.498191833 -14424763.562343597 0 -14424763.562343597 -18788213.527661324 0 0 0 0 5121438.004114151 19997685.232124805 0 19997685.232124805 -39215704.381240845 0 0 0 0 -28461789.433433533 27770535.671356201 0 27770535.671356201 -12423831.741249084 0 0 0 0 -7772937.6697826385 46864279.034003258 0 46864279.034003258 2500540.950088501 0 0 0 0 -51556846.843978882 35521527.433080673 0 35521527.433080673 -47307140.977767944 0 0 0 0 -13856841.273750305 7213701.3876609802 0 7213701.3876609802 -46774032.934017181 0 0 0 0 -48069606.420448303 19661864.752220154 0 19661864.752220154 -42798126.014178276 0 0 0 0 -32178585.256690979 6845224.4691486359 0 6845224.4691486359 -35973681.132228851 0 0 0 0 -22044793.838878632 29102708.100114822 0 29102708.100114822 -66453975.814445496 0 0 0 0 -22850386.519584656 14030504.156114578 0 14030504.156114578 -75225822.930233002 0 0 0 0 -14639281.259662867 26819881.955255389 0 26819881.955255389 -58289688.779785156 0 0 0 0 -45853949.712509155 -9397063.9663963318 0 -9397063.9663963318 -69879040.329971313 0 0 0 0 -48978311.024925232 -20242125.497991562 0 -20242125.497991562 3417438.3655689955 0 0 0 0 -63514909.883850098 54189727.679091454 0 54189727.679091454 49161718.261127472 0 0 0 0 -94501647.908740997 32510698.221764565 0 32510698.221764565 51108645.180622101 0 0 0 0 -144212558.38650131 -16141793.462643623 0 -16141793.462643623 24493776.642389297 0 0 0 0 -2314975.2376325214 -2104949.0479780226 0 -2104949.0479780226 1833142.4800021548 0 0 0 0 -43352240.223297119 11412507.630126953 0 11412507.630126953 -31775778.473628998 0 0 0 0 -34319835.905883789 11864471.687656403 0 11864471.687656403 -31793228.090202332 0 0 0 0 -84541.788383483887 -19922053.527084351 0 -19922053.527084351 -15363758.393088341 0 0 0 0 -64745291.280067444 -2225890.8225097656 0 -2225890.8225097656 4775136.7323198318 0 0 0 0 -18091014.845748901 2873339.2342729568 0 2873339.2342729568 -5279166.5728530884 0 0 0 0 -14006080.537203789 30473613.372040272 0 30473613.372040272 234830281.35584259 0 0 0 0 -33634431.846225739 17875126.557471275 0 17875126.557471275 -17590376.117393494 0 0 0 0 -9450330.1841831282 -3462554.4073185823 0 -3462554.4073185823 -171581.82975975145 0 0 0 0 -40776993.639019012 51674683.138959885 0 51674683.138959885 -88499306.502498627 0 0 0 0 -19048363.303726196 11641747.070770264 0 11641747.070770264 -16760872.366481066 0 0 0 0 -18138770.388736725 4363759.6387119293 0 4363759.6387119293 8411374.9720215797 0 0 0 0 12968430.894367218 -11919986.88494873 0 -11919986.88494873 -66051679.94367981 0 0 0 0 10957844.437759399 -801232.97691917419 0 -801232.97691917419 -81945942.138769627 0 0 0 0 -29772899.836658716 -164885578.23763561 0 -164885578.23763561 187206934.2812252 0 0 0 0 106121826.70655045 -235765934.37190688 0 -235765934.37190688 212906049.50034714 0 0 0 0 -27714925.327785492 3818630.4288964272 0 3818630.4288964272 18878536.362003326 0 0 0 0 -6278235.6801024424 -2969809.5943760606 0 -2969809.5943760606 -336375.55474701058 0 0 0 0 97993825.041925669 -277880346.34698391 0 -277880346.34698391 200407372.07152867 0 0 0 0 -2415577.5300141815 -950326.40547460294 0 -950326.40547460294 1201545.5687705535 0 0 0 0 -85914654.036220551 32945651.318015099 0 32945651.318015099 -14885665.359371185 0 0 0 0 -74130273.830986023 12252400.099004745 0 12252400.099004745 -23602101.503585815 0 0 0 0 -2205529661.127243 -85820440.118054092 0 -85820440.118054092 211212285.85561582 0 0 0 0 -1578542329.8398781 -536567231.75231373 0 -536567231.75231373 423554145.51807964 0 0 0 0 -1184734608.7562523 320474503.61231494 0 320474503.61231494 498519848.19301748 0 0 0 0 -1568086307.7553787 744512577.43342984 0 744512577.43342984 45697998.824772269 0 0 0 0 -2583651896.8705635 1050030814.3054507 0 1050030814.3054507 100584140.03880715 0 0 0 0 -900347498.53681731 301985008.38457072 0 301985008.38457072 -37489608.493399292 0 0 0 0 -2435827175.942337 -780881233.82921124 0 -780881233.82921124 -564845812.82750356 0 0 0 0 -2204706661.8333969 -296699773.55888832 0 -296699773.55888832 -458875610.50544935 0 0 0 0 -2340623672.8550148 147215711.22297537 0 147215711.22297537 -1577339004.0515466 0 0 0 0 -2296077843.0102825 12255853.869109042 0 12255853.869109042 -205501969.87514895 0 0 0 0 -2088093239.0995417 -694070957.16734552 0 -694070957.16734552 202834908.08112767 0 0 0 0 -1512395468.8999786 -1205602046.3455727 0 -1205602046.3455727 -547223858.51809621 0 0 0 0 -712602368.32470322 587433627.88204551 0 587433627.88204551 -616608995.51996696 0 0 0 0 -2682110256.2086868 -394442630.54784846 0 -394442630.54784846 91388949.706038773 0 0 0 0 -3756034.0412160195 590259.66189492564 0 590259.66189492564 205570.16100251922 0 0 0 0 259748448.49174881 -121521961.22803998 0 -121521961.22803998 -101205565.7604022 0 0 0 0 -1102754496.8364334 -871907103.97733343 0 -871907103.97733343 -243645339.47880653 0 0 0 0 -68204860.321455956 -10301858.210211881 0 -10301858.210211881 -259507309.94203934 0 0 0 0 -853995869.98849487 -331190292.97150028 0 -331190292.97150028 31239418.89003646 0 0 0 0 -199765458.14990234 -455054596.76933408 0 -455054596.76933408 -363987800.75699818 0 0 0 0 64333093.464500427 35530583.997382775 0 35530583.997382775 -8827308.9148789644 0 0 0 0 -97961343.244194031 -131211627.78107831 0 -131211627.78107831 -59870297.617402375 0 0 0 0 -9660896.1557004601 1606834.4523869306 0 1606834.4523869306 1061017.0664441888 0 0 0 0 14859333.21377182 3998745.7200977802 0 3998745.7200977802 43960125.585991859 0 0 0 0 -81887230.684757233 -1507957.8573060036 0 -1507957.8573060036 123523368.51079226 0 0 0 0 -246230858.37489891 15379058.552123517 0 15379058.552123517 376124888.82564247 0 0 0 0 -14466114.227111816 -53821304.268662617 0 -53821304.268662617 3216258.9185232818 0 0 0 0 -188930.09340540692 1001068.7679639114 0 1001068.7679639114 1100727.5392692285 0 0 0 0 29959665.874568939 79486749.357830405 0 79486749.357830405 -117612314.12254131 0 0 0 0 -904650863.95242894 260419218.04868856 0 260419218.04868856 5558504.3710664511 0 0 0 0 -937959096.79090118 289436396.80875695 0 289436396.80875695 3845532.2858798802 0 0 0 0 21327665.240989685 -157630361.21499264 0 -157630361.21499264 -91088891.395735502 0 0 0 0 91862594.0182724 -26052200.60723418 0 -26052200.60723418 -309144800.74335694 0 0 0 0 -126640537.96741867 276222084.74271035 0 276222084.74271035 -260503058.03172851 0 0 0 0 15080102.686981201 47972.671293258667 0 47972.671293258667 -48253276.807184935 0 0 0 0 2413115.7398063671 1546252.0502546087 0 1546252.0502546087 1349416.845544586 0 0 0 0 17934979.287353516 -88846678.650024772 0 -88846678.650024772 94208894.627349257 0 0 0 0 -28703.116455078125 -2311474.3174831867 0 -2311474.3174831867 -20524963.467058182 0 0 0 0 -12729683.68493565 8754066.6764820702 0 8754066.6764820702 7207076.814674465 0 0 0 0 -3208998.2411973034 -7938750.5010964368 0 -7938750.5010964368 -2172017.8466611817 0 0 0 0 -39360480.071556091 -10752655.513824672 0 -10752655.513824672 -747428.63043454289 0 0 0 0 -37746217.250730991 -2042522.8203529976 0 -2042522.8203529976 5645469.455053091 0 0 0 0 -13345658.467563093 -2648689.231438634 0 -2648689.231438634 8103253.0117640495 0 0 0 0 -46352270.281211853 -20818196.736665189 0 -20818196.736665189 895019.20708703995 0 0 0 0 5106452.0106506348 -22028567.693867594 0 -22028567.693867594 -1729015.4836111665 0 0 0 0 -2330085.4814529419 -15939299.921214819 0 -15939299.921214819 -428474.6953612566 0 0 0 0 17193907.304039001 -20088585.680439651 0 -20088585.680439651 -47520747.175954282 0 0 0 0 -2750881.2084102631 -27514294.605671406 0 -27514294.605671406 21679426.910663605 0 0 0 0 -65500166.44757843 133428596.23555404 0 133428596.23555404 340387132.77450317 0 0 0 0 -13742165.961022589 1453432.52738531 0 1453432.52738531 2698781.3126023575 0 0 0 0 -15947108.066923141 -18165549.806126833 0 -18165549.806126833 40311674.481158972 0 0 0 0 -19977925.282276154 185449316.8129046 0 185449316.8129046 250336616.29127824 0 0 0 0 -1387420.1313400269 62068230.111769214 0 62068230.111769214 82718791.072010398 0 0 0 0 -111722634.72459197 83176607.974543586 0 83176607.974543586 80116271.326653615 0 0 0 0 -38963272.059997559 69603500.142346188 0 69603500.142346188 78044579.033052355 0 0 0 0 81896228.165153503 43421044.966668144 0 43421044.966668144 81385068.933288485 0 0 0 0 127506970.84854126 97435281.06386745 0 97435281.06386745 261649171.47872251 0 0 0 0 -33294572.377342224 96000169.359107748 0 96000169.359107748 261976405.24800339 0 0 0 0 44543195.337032318 148377623.48225808 0 148377623.48225808 103981060.77066633 0 0 0 0 -2920260.4253387516 -6940761.6462971037 0 -6940761.6462971037 1041296.8986965226 0 0 0 0 810084.34943771362 -30134617.040210269 0 -30134617.040210269 39549334.252520889 0 0 0 0 -61904976.877166748 -48676055.078362584 0 -48676055.078362584 -32780096.684601396 0 0 0 0 -516457.06936305761 -1964571.512435335 0 -1964571.512435335 20718.457667512994 0 0 0 0 -41026364.632104874 -22733067.166710742 0 -22733067.166710742 -591750.36708915234 0 0 0 0 -12966702.056266785 -10775004.286903143 0 -10775004.286903143 22962331.686831951 0 0 0 0 -701281.77670943597 -293856.22796097584 0 -293856.22796097584 20091.963696100473 0 0 0 0 -21348482.705612183 18965591.775168657 0 18965591.775168657 5301010.5095017552 0 0 0 0 -80552853.487407684 15854833.573328815 0 15854833.573328815 21549306.067013264 0 0 0 0 -12761350.979433011 8165614.3896144554 0 8165614.3896144554 7726631.4635246499 0 0 0 0 -103388018.89481354 8782260.5895543247 0 8782260.5895543247 89194088.370656937 0 0 0 0 -122785488.07419586 89596803.051438868 0 89596803.051438868 240111726.89012957 0 0 0 0 -12155418.793907166 -2103935.8031503186 0 -2103935.8031503186 15126999.845300153 0 0 0 0 -36432624.667877197 90992025.304117531 0 90992025.304117531 65559276.076566264 0 0 0 0 -24771543.082885742 70214136.701592222 0 70214136.701592222 78262956.277417749 0 0 0 0 -12670232.791368887 7471120.3337636339 0 7471120.3337636339 8259938.6322139585 0 0 0 0 10219782.074615479 38560195.568933815 0 38560195.568933815 32229989.336631939 0 0 0 0 -66966998.930511951 124407134.23215961 0 124407134.23215961 37214629.316253662 0 0 0 0 8484434.70378685 45223048.587624907 0 45223048.587624907 27071651.136770785 0 0 0 0 18391598.364277363 11632427.62928915 0 11632427.62928915 -24052003.300376892 0 0 0 0 -180886026.91504478 9580304.8378067017 0 9580304.8378067017 3149811.2908573151 0 0 0 0 -189085577.73792803 -53888618.290639639 0 -53888618.290639639 7819074.2752609253 0 0 0 0 138861751.59050465 38352755.790909767 0 38352755.790909767 53708279.776111603 0 0 0 0 -102137823.26613998 27617806.891113281 0 27617806.891113281 -25541022.844482422 0 0 0 0 1004292.4029284918 1269791.2521965657 0 1269791.2521965657 840038.94841661584 0 0 0 0 -136930483.72384167 -24416248.638736725 0 -24416248.638736725 -20273619.147878647 0 0 0 0 -153242388.53571796 -49778937.266410828 0 -49778937.266410828 -10743832.968048096 0 0 0 0 -101823646.51926231 -50174098.47722435 0 -50174098.47722435 -25383665.394323349 0 0 0 0 -148642888.6669836 -77434512.682492256 0 -77434512.682492256 -34348092.22898674 0 0 0 0 -176963640.24315357 -55206498.532161713 0 -55206498.532161713 -14177606.697274208 0 0 0 0 -151163686.78814673 -60452956.318971634 0 -60452956.318971634 -13246124.093004227 0 0 0 0 117438297.55342102 85951602.84498024 0 85951602.84498024 17284541.743545532 0 0 0 0 5312489.1817468163 3442809.3506226903 0 3442809.3506226903 1593695.6025385419 0 0 0 0 -64348550.119011402 -4361372.420044899 0 -4361372.420044899 -22796556.959278107 0 0 0 0 42817883.145364285 27575750.504195213 0 27575750.504195213 16291477.003566742 0 0 0 0 -199741090.90154839 21086831.37502861 0 21086831.37502861 8427021.9284569025 0 0 0 0 -74860996.620250225 1460241.0854949951 0 1460241.0854949951 22557885.66910553 0 0 0 0 43776315.359942436 21039363.794494629 0 21039363.794494629 28901740.656223297 0 0 0 0 -441738641.80774021 -100758818.36973953 0 -100758818.36973953 19682765.919094086 0 0 0 0 119913534.56288338 -48298737.79928875 0 -48298737.79928875 -57285555.045379639 0 0 0 0 -449024398.77863026 -189172597.49686623 0 -189172597.49686623 126298108.77555084 0 0 0 0 -222193997.84543371 -273102970.74374199 0 -273102970.74374199 -201391518.96974325 0 0 0 0 -89014883.637269795 -58176681.495272577 0 -58176681.495272577 -54249110.560358047 0 0 0 0 -146017887.64200497 -136386714.39835548 0 -136386714.39835548 -155740847.98407269 0 0 0 0 -19060112.720578909 146464692.75527191 0 146464692.75527191 141445094.86473465 0 0 0 0 -1295942.6054206546 75729.508377021644 0 75729.508377021644 -163686.80167720048 0 0 0 0 -116082375.09057236 189213665.85491085 0 189213665.85491085 169297926.6801548 0 0 0 0 -136871033.43495893 54613790.007055283 0 54613790.007055283 215501600.46181107 0 0 0 0 -144281133.26777792 84961990.473854065 0 84961990.473854065 115358743.60641098 0 0 0 0 -581339368.74737167 95979127.704380035 0 95979127.704380035 228819627.76968765 0 0 0 0 -109610001.72596645 -39240727.302261829 0 -39240727.302261829 -11033879.550435066 0 0 0 0 -503311875.16829407 245870702.16382611 0 245870702.16382611 -49605182.137733459 0 0 0 0 -61805075.873947144 -688554962.28448105 0 -688554962.28448105 66239652.713755131 0 0 0 0 -1331131.9472233937 1166955.977937866 0 1166955.977937866 1435366.1202662336 0 0 0 0 1174765.4654795045 871879.29982500221 0 871879.29982500221 328552.35532374214 0 0 0 0 -11784666.656031132 -22599530.672094345 0 -22599530.672094345 -28935080.838970184 0 0 0 0 6085967.0460238401 12062538.603933558 0 12062538.603933558 2317573.7165995738 0 0 0 0 -158849161.73982143 -2716481.5528473854 0 -2716481.5528473854 67267665.032173157 0 0 0 0 -3421785.3412375962 5943303.2144633466 0 5943303.2144633466 5777472.3751909742 0 0 0 0 -50409349.537094116 38218758.339204788 0 38218758.339204788 13952269.22717762 0 0 0 0 -66924735.620946646 79068907.81893158 0 79068907.81893158 48990041.098262787 0 0 0 0 -70660420.337219 77951407.784772873 0 77951407.784772873 102005380.9888773 0 0 0 0 -54670361.029799223 87094172.320632935 0 87094172.320632935 28779842.084568024 0 0 0 0 -55324362.093505144 85454398.496012688 0 85454398.496012688 50481768.93732357 0 0 0 0 -65216007.023917913 63355129.639154434 0 63355129.639154434 2678488.6041431427 0 0 0 0 -19707024.179915667 62316238.644136429 0 62316238.644136429 1342375.7893562317 0 0 0 0 -23333627.145748615 72630286.838535309 0 72630286.838535309 -27815099.841686249 0 0 0 0 -2297492.3070778847 46388651.39201355 0 46388651.39201355 -38963167.569595337 0 0 0 0 -4613071.2205345631 33105767.47539556 0 33105767.47539556 -5396874.9034080505 0 0 0 0 -12737716.199007154 14114819.048215628 0 14114819.048215628 23608525.269199371 0 0 0 0 3386349.2098484039 8529243.7605361938 0 8529243.7605361938 8447511.4093723297 0 0 0 0 -16258133.91329813 28438591.352146149 0 28438591.352146149 -5332521.1764998436 0 0 0 0 -29606792.64248085 51222354.642433167 0 51222354.642433167 -10886443.768491745 0 0 0 0 -23915092.810602963 25250203.437185526 0 25250203.437185526 -6996801.2839584351 0 0 0 0 436660.74031575816 1530562.2738276706 0 1530562.2738276706 700223.71957195667 0 0 0 0 -49211000.825240374 33197979.848656654 0 33197979.848656654 1602655.3417186737 0 0 0 0 -5049836.4329052232 6141795.0396635681 0 6141795.0396635681 7005213.694023462 0 0 0 0 5682869.4060974121 10744254.305490851 0 10744254.305490851 1774881.587729305 0 0 0 0 -11808463.115581512 11529776.528296962 0 11529776.528296962 33577140.235516489 0 0 0 0 7042461.5445709229 29780512.454965413 0 29780512.454965413 29993384.865971863 0 0 0 0 65833889.27040863 -53826753.260541439 0 -53826753.260541439 -96428067.509383202 0 0 0 0 47131485.095413208 47501967.029313326 0 47501967.029313326 -1561619.3133984804 0 0 0 0 41769621.214103699 55977301.80710566 0 55977301.80710566 47967968.673461139 0 0 0 0 6363923.544046402 16764557.283364639 0 16764557.283364639 -9584050.0709600449 0 0 0 0 -2273484.432050705 9394900.2935232222 0 9394900.2935232222 59415248.481414557 0 0 0 0 -9186079.8774790913 4049670.9831940634 0 4049670.9831940634 6322296.8582728058 0 0 0 0 3514275.1314787269 -16118422.145440817 0 -16118422.145440817 31213846.563881874 0 0 0 0 -10686833.784013681 4621140.5723055992 0 4621140.5723055992 5892622.6645565359 0 0 0 0 -3670311.4255962372 4032275.5708398819 0 4032275.5708398819 3812562.687546134 0 0 0 0 -6831177.9802542906 2067416.5502119823 0 2067416.5502119823 5959399.3007050222 0 0 0 0 -45615910.116102219 -17609750.867601141 0 -17609750.867601141 101304543.45121542 0 0 0 0 -13118932.049758129 3555167.1005235878 0 3555167.1005235878 2678561.000336362 0 0 0 0 -64437540.28955555 10536975.173694849 0 10536975.173694849 43499453.391735613 0 0 0 0 -4224735.5448629819 2563230.5786510999 0 2563230.5786510999 3483028.2074938999 0 0 0 0 14431583.048339844 40355586.120408118 0 40355586.120408118 24149895.474937558 0 0 0 0 137317925.78718567 39820295.807758689 0 39820295.807758689 -35646320.480207205 0 0 0 0 172157.70616023708 312641.466037401 0 312641.466037401 76907.368800551922 0 0 0 0 -107932943.10999298 84593767.000800341 0 84593767.000800341 137262630.12494606 0 0 0 0 -103083293.78180695 57381307.821720839 0 57381307.821720839 46173528.37762928 0 0 0 0 -19168521.733922958 100385864.59965375 0 100385864.59965375 -18022070.42103231 0 0 0 0 100111949.56386423 357778.3789473027 0 357778.3789473027 2684079.2279195786 0 0 0 0 -3527836.1315097809 70578233.607919097 0 70578233.607919097 -858649.06441926956 0 0 0 0 552544.31279245624 968178.84598258231 0 968178.84598258231 343706.27001631999 0 0 0 0 -26735117.300178528 26043275.857410789 0 26043275.857410789 -29794280.017344236 0 0 0 0 10921227.722795486 87226183.842136145 0 87226183.842136145 -37604489.842108488 0 0 0 0 79517.721221923828 81231400.005726218 0 81231400.005726218 35173246.596282363 0 0 0 0 103874709.72367477 78667645.377589941 0 78667645.377589941 -27051983.933602333 0 0 0 0 25361858.97297287 51242098.212499529 0 51242098.212499529 -6800943.7944123745 0 0 0 0 36412934.287902832 24935931.631587982 0 24935931.631587982 -12191710.00628221 0 0 0 0 14134669.065282822 10535441.204672575 0 10535441.204672575 11074239.791969538 0 0 0 0 -43103608.644462585 13158320.172838569 0 13158320.172838569 70717706.55444169 0 0 0 0 1162074.4428380458 654516.54979011137 0 654516.54979011137 236218.963158831 0 0 0 0 41729080.935863495 14910546.952941298 0 14910546.952941298 -7439818.2649857998 0 0 0 0 28395585.640678406 29415851.388690889 0 29415851.388690889 -14237187.725885093 0 0 0 0 31993777.603126526 20347057.105014443 0 20347057.105014443 -10943445.832423091 0 0 0 0 36504953.419563293 20436628.973147511 0 20436628.973147511 -11809611.846558213 0 0 0 0 -3833291.788269043 16389954.670651913 0 16389954.670651913 13130819.881554842 0 0 0 0 3879310.0095998794 1966144.5313928723 0 1966144.5313928723 602507.91167803947 0 0 0 0 22967392.223079681 10460862.77607888 0 10460862.77607888 1746614.5438657999 0 0 0 0 -5340777.3678207397 6767724.5244562626 0 6767724.5244562626 11085599.838155746 0 0 0 0 1528284.5910907537 15249669.666831722 0 15249669.666831722 6563682.9298638431 0 0 0 0 7318391.0031967163 7345073.1564700603 0 7345073.1564700603 5697082.5220141411 0 0 0 0 2292477.6194418659 1825991.4464534642 0 1825991.4464534642 690850.39403830795 0 0 0 0 -1569372.8985798331 -187109.58200432919 0 -187109.58200432919 1570271.5058261277 0 0 0 0 8156283.2821044922 17931887.532239199 0 17931887.532239199 8907525.0457177162 0 0 0 0 -2089797.8941268921 345143.09243988991 0 345143.09243988991 1601956.0980889797 0 0 0 0 155627945.61529732 13379789.466099441 0 13379789.466099441 -64709287.410037756 0 0 0 0 -7853133.5992469788 93145027.681570113 0 93145027.681570113 -41769085.277490139 0 0 0 0 64393346.953575134 -28476720.440263212 0 -28476720.440263212 -6682560.8583841324 0 0 0 0 142452903.47731018 23020325.532243967 0 23020325.532243967 -36577524.641975641 0 0 0 0 96448011.457443237 21503613.408212423 0 21503613.408212423 10267992.814846039 0 0 0 0 218445674.87994385 103063888.63277197 0 103063888.63277197 22964773.444828987 0 0 0 0 59245.40059326496 77539.017463158816 0 77539.017463158816 120385.11263151653 0 0 0 0 -278204895.68295288 10872983.068014085 0 10872983.068014085 -47975151.792280316 0 0 0 0 -126295108.15154266 7440025.9945293665 0 7440025.9945293665 -51765140.831380665 0 0 0 0 -216374495.64446259 118977691.18409389 0 118977691.18409389 4679458.9342888594 0 0 0 0 -311704346.91240311 191611996.30098712 0 191611996.30098712 -107039944.40306568 0 0 0 0 -533754106.8361702 -30165097.34883979 0 -30165097.34883979 -6618676.6000417471 0 0 0 0 -1114394622.4727936 420221328.5782764 0 420221328.5782764 -22501489.156147361 0 0 0 0 -1368022413.0649414 -578450004.25199485 0 -578450004.25199485 8687625.5110110044 0 0 0 0 -688220062.69737625 -213444757.12206471 0 -213444757.12206471 75830974.167516649 0 0 0 0 -384272394.01663971 76487380.46764636 0 76487380.46764636 28054296.267590463 0 0 0 0 -175637532.28136826 -10541196.031685323 0 -10541196.031685323 -12117871.861503422 0 0 0 0 83271464.650047302 50771830.537164629 0 50771830.537164629 -4655207.6790861785 0 0 0 0 -330770083.46522903 -70758833.242708147 0 -70758833.242708147 137136377.94711977 0 0 0 0 8632419.7881641388 48876824.482345983 0 48876824.482345983 33551446.970179394 0 0 0 0 -9034179.5221212842 2483462.1073244759 0 2483462.1073244759 598748.45887581387 0 0 0 0 -265019958.40850735 -177466399.62829044 0 -177466399.62829044 -72955382.336722076 0 0 0 0 -492260638.70067215 -149682762.8812032 0 -149682762.8812032 106681005.32415003 0 0 0 0 -311942547.72574997 -81146066.528406873 0 -81146066.528406873 46716154.896070324 0 0 0 0 -480637943.89711189 -166263850.89360386 0 -166263850.89360386 -68545639.672482535 0 0 0 0 -763185380.524683 -509246005.43686062 0 -509246005.43686062 -158767015.55001128 0 0 0 0 -2197962633.3100443 -1299980579.3320835 0 -1299980579.3320835 -590071369.07211971 0 0 0 0 -2203248991.310997 -391620039.02450114 0 -391620039.02450114 315095257.93859869 0 0 0 0 -2178280.0876027085 -85908.300253381953 0 -85908.300253381953 766468.86549369397 0 0 0 0 -743281366.53088951 233522253.51513702 0 233522253.51513702 503573677.33960402 0 0 0 0 -590523800.42799854 -343664453.79145718 0 -343664453.79145718 64688254.14900589 0 0 0 0 -594227838.03072739 -361069755.39628994 0 -361069755.39628994 15839573.052464217 0 0 0 0 -1195076.7268349528 185696.00459392555 0 185696.00459392555 177266.16155351666 0 0 0 0 -436377582.99553299 715766503.45154798 0 715766503.45154798 389522941.12383509 0 0 0 0 -2202088948.8231602 -877808962.65616965 0 -877808962.65616965 235452463.78902718 0 0 0 0 -926590351.33599186 -433834312.48302704 0 -433834312.48302704 333082546.66856694 0 0 0 0 -1537957872.4573936 85372628.49623844 0 85372628.49623844 922236604.99065113 0 0 0 0 -1154823857.1870079 672567904.03040481 0 672567904.03040481 49456143.140534759 0 0 0 0 -1271915488.5284128 -303506002.58115792 0 -303506002.58115792 1134099452.5948956 0 0 0 0 -1508498733.1240997 83492195.972230911 0 83492195.972230911 921728239.36650431 0 0 0 0 172187606.73764706 828535232.37289071 0 828535232.37289071 -234346114.81766096 0 0 0 0 113786125.20446014 391320448.98112869 0 391320448.98112869 1270611283.5241508 0 0 0 0 -304368553.40906334 215062004.23994684 0 215062004.23994684 489591912.6606679 0 0 0 0 799329140.18317032 -190213633.59550619 0 -190213633.59550619 769400093.97596526 0 0 0 0 -111834022.27675247 -26907388.877771616 0 -26907388.877771616 751956709.20975697 0 0 0 0 1196653463.5252838 665270289.95499659 0 665270289.95499659 377478759.11496162 0 0 0 0 449340670.71595383 787353686.25237381 0 787353686.25237381 370448275.22568977 0 0 0 0 310384979.81781769 640816118.73230529 0 640816118.73230529 269241372.98790216 0 0 0 0 -390822088.98860931 909738008.93763971 0 909738008.93763971 171737677.43857723 0 0 0 0 -458536794.78232193 120682011.30458909 0 120682011.30458909 462441659.92394888 0 0 0 0 -4141040.5094856322 2053811.8222521849 0 2053811.8222521849 2150937.4893687302 0 0 0 0 -284519881.54238129 460874912.76634026 0 460874912.76634026 -435448402.89136857 0 0 0 0 -892193251.94358635 312752540.51451313 0 312752540.51451313 -188708236.03685069 0 0 0 0 -722512158.91475296 973383189.59441292 0 973383189.59441292 -255150085.75575215 0 0 0 0 -1027365109.8830433 538312625.26609659 0 538312625.26609659 -565072494.13942289 0 0 0 0 -2206472299.4075751 727350946.19941533 0 727350946.19941533 365458096.35976887 0 0 0 0 -430222279.1318512 196919471.20412564 0 196919471.20412564 -294479889.21276379 0 0 0 0 -2201159511.0052109 1352069076.080075 0 1352069076.080075 -964875323.1637696 0 0 0 0 -4101199.405115935 2057395.7242453604 0 2057395.7242453604 1679965.6013176439 0 0 0 0 -2180373803.7965384 1353635286.506676 0 1353635286.506676 -311054316.91960067 0 0 0 0 -183302278.94905853 604763939.66192746 0 604763939.66192746 -1556068752.1247299 0 0 0 0 -3300665.9856392983 1252756.0989181234 0 1252756.0989181234 -402751.47444267356 0 0 0 0 79576534.030971527 80584219.288974807 0 80584219.288974807 -715011897.72605002 0 0 0 0 -172522068.54232979 388049366.27904516 0 388049366.27904516 -449646428.45530397 0 0 0 0 -296064944.6421206 492327211.68537819 0 492327211.68537819 -532604240.36527789 0 0 0 0 -150048867.36440605 228125533.77676979 0 228125533.77676979 -347971482.69876075 0 0 0 0 -126381688.47455502 108714602.86337331 0 108714602.86337331 -123849098.94928825 0 0 0 0 -42226910.631695867 -19787928.271753132 0 -19787928.271753132 -40538702.793440819 0 0 0 0 5662864.7406101227 91334314.164379507 0 91334314.164379507 -280287754.56817567 0 0 0 0 -175986028.50786209 256136080.9166137 0 256136080.9166137 -258486660.0361864 0 0 0 0 -108287862.04071283 160737221.94170445 0 160737221.94170445 -158468939.09887576 0 0 0 0 -71951014.982452869 198521555.37335038 0 198521555.37335038 -334381467.19291353 0 0 0 0 -185830174.0797081 292260293.13982868 0 292260293.13982868 -278620339.5977807 0 0 0 0 -178618650.84248829 262939135.46082938 0 262939135.46082938 -457425936.00643492 0 0 0 0 -96108961.697009087 275673756.75820661 0 275673756.75820661 -406354281.64202213 0 0 0 0 -338501550.3010807 314736651.13977647 0 314736651.13977647 -341978378.47190964 0 0 0 0 -2302905383.7923279 246705593.58521605 0 246705593.58521605 333364501.34327227 0 0 0 0 -2613949.3162690569 842225.256291128 0 842225.256291128 371474.64137961611 0 0 0 0 254900641.54433441 1216626333.802371 0 1216626333.802371 753675736.04105973 0 0 0 0 -1419355525.1700315 -1044229637.1579072 0 -1044229637.1579072 55602159.466325283 0 0 0 0 -314692988.36333513 751246621.00027597 0 751246621.00027597 425568794.14949751 0 0 0 0 -120684941.63414741 1150631125.9917507 0 1150631125.9917507 750626178.19662952 0 0 0 0 -3501401.8566885409 1966455.8638463677 0 1966455.8638463677 1817154.6236481767 0 0 0 0 -200292143.81345987 402629600.79970932 0 402629600.79970932 -475231708.63299692 0 0 0 0 -235152647.77101064 316195784.05315095 0 316195784.05315095 -358574112.98182583 0 0 0 0 -57414176.498013973 267169639.92970061 0 267169639.92970061 -439877536.50227976 0 0 0 0 -95779114.643315315 237493713.23183513 0 237493713.23183513 -408127063.99497646 0 0 0 0 -6774375.2617399096 201741019.1138382 0 201741019.1138382 -598742566.62581086 0 0 0 0 2767562.7867929935 239293154.14337397 0 239293154.14337397 -451640803.83790016 0 0 0 0 -46441212.963940501 366198576.33330452 0 366198576.33330452 -508270095.51335621 0 0 0 0 -58586228.522515535 277613386.19602174 0 277613386.19602174 -234478125.45219159 0 0 0 0 39264799.679519951 296041352.39115763 0 296041352.39115763 -149147283.63746703 0 0 0 0 62636572.170719862 268731194.91695642 0 268731194.91695642 -240352029.23086321 0 0 0 0 -79747581.517057478 184572886.38385874 0 184572886.38385874 -61382497.15585804 0 0 0 0 -18231846.415877581 299579715.65544915 0 299579715.65544915 -423622068.0120616 0 0 0 0 -110233978.17115545 287291811.8167212 0 287291811.8167212 -240804900.8742466 0 0 0 0 -57088571.630257607 195260566.87715328 0 195260566.87715328 -286968461.5681833 0 0 0 0 -52661326.474876404 111043138.88417476 0 111043138.88417476 -152597531.77268183 0 0 0 0 -88934683.908779621 229668735.49367028 0 229668735.49367028 -129390716.9780581 0 0 0 0 -27120593.862498283 18502330.103840202 0 18502330.103840202 -51620413.170690119 0 0 0 0 -72469582.53313756 144437434.99292967 0 144437434.99292967 -7638651.9818041325 0 0 0 0 -85693743.742692947 168482342.22709167 0 168482342.22709167 -160532839.1300683 0 0 0 0 -70955329.538757324 28766221.782030821 0 28766221.782030821 -17599775.730611324 0 0 0 0 -2021053.4427347183 3214710.7147650719 0 3214710.7147650719 -17423022.375901222 0 0 0 0 -29006728.232601166 34659312.945363045 0 34659312.945363045 -176085978.26502666 0 0 0 0 -34996088.849110126 28138200.478129387 0 28138200.478129387 -26423895.990619659 0 0 0 0 -12032314.651379347 -4465774.9365715981 0 -4465774.9365715981 -14908303.023498058 0 0 0 0 17110491.551691771 -4635196.2046614885 0 -4635196.2046614885 -10856067.705992937 0 0 0 0 -5974152.5117839957 -654659.99625188322 0 -654659.99625188322 4679623.7084095292 0 0 0 0 5631420.7235082388 -18517089.654016078 0 -18517089.654016078 -6371379.0188236237 0 0 0 0 12158016.097794354 -8345442.0346601009 0 -8345442.0346601009 -6947333.2152087688 0 0 0 0 -4785837.7433619499 5415604.4040999413 0 5415604.4040999413 -1821716.517619729 0 0 0 0 -21656474.131062984 32055732.192612827 0 32055732.192612827 -24090642.777386203 0 0 0 0 -8608267.3151175976 14945995.813954592 0 14945995.813954592 13203213.570160031 0 0 0 0 1977340.469196856 16015489.575027645 0 16015489.575027645 7105614.3893332481 0 0 0 0 -664332.73475710617 605094.44649011106 0 605094.44649011106 378256.98973183346 0 0 0 0 181378947.52320224 119784322.6456646 0 119784322.6456646 160642006.66173503 0 0 0 0 -13684913.627530098 9178310.2701069713 0 9178310.2701069713 11328907.535412788 0 0 0 0 -2162999.8490902781 11567438.916973293 0 11567438.916973293 6859395.6642047167 0 0 0 0 -56628151.752010584 187295763.21716273 0 187295763.21716273 254349171.84019208 0 0 0 0 -50602733.165512323 152521798.1751796 0 152521798.1751796 -108251051.68983579 0 0 0 0 -26172503.674563587 54661825.611679614 0 54661825.611679614 79515670.652930856 0 0 0 0 -117050021.26567459 94290504.998104021 0 94290504.998104021 238072802.34632754 0 0 0 0 -19897793.443514824 176979112.01863185 0 176979112.01863185 150004962.41428339 0 0 0 0 -50823155.080376148 92338668.584847033 0 92338668.584847033 222334678.9281604 0 0 0 0 -3254949.5001954283 6115702.3782905582 0 6115702.3782905582 2949567.5570974257 0 0 0 0 -3688749.5949221989 3954386.7224929123 0 3954386.7224929123 2324267.563772684 0 0 0 0 -3575366.2139360905 3436143.9016691148 0 3436143.9016691148 1943607.907544136 0 0 0 0 -6932638.8183016777 4791347.5611133575 0 4791347.5611133575 9472524.7203161716 0 0 0 0 -6552284.3436812535 16941795.125863075 0 16941795.125863075 -4897742.4715442657 0 0 0 0 -3022783.3254080694 5552264.6990771312 0 5552264.6990771312 1413476.5877645514 0 0 0 0 322446.09944820404 6572503.7033090591 0 6572503.7033090591 -6537920.0679935813 0 0 0 0 -974250.43170414772 1340746.2357034257 0 1340746.2357034257 -170887.77578728902 0 0 0 0 -115646214.52138221 -193137148.86979899 0 -193137148.86979899 300709756.90544009 0 0 0 0 -440679.41548228264 47459812.532829106 0 47459812.532829106 107798781.17950559 0 0 0 0 -355777861.93347216 209991346.8571434 0 209991346.8571434 -78139728.649876595 0 0 0 0 -216518908.87761807 -134728121.19760376 0 -134728121.19760376 -157465253.66182709 0 0 0 0 -181501865.65018225 -2117426.3252584934 0 -2117426.3252584934 96489901.455179334 0 0 0 0 -245561961.91001749 199510862.63536096 0 199510862.63536096 -160149876.44243133 0 0 0 0 -103787077.38321686 235436383.6397469 0 235436383.6397469 -151047543.30168462 0 0 0 0 -756469448.24055815 555715220.94445562 0 555715220.94445562 -496306107.59007883 0 0 0 0 -149741157.98939681 168645331.57864571 0 168645331.57864571 -373132388.11941528 0 0 0 0 -485863618.32035971 -152146122.24837518 0 -152146122.24837518 -521805381.12383747 0 0 0 0 -184654674.31101465 140826139.86409163 0 140826139.86409163 -266548950.99899817 0 0 0 0 -294982299.72191238 223378801.44287634 0 223378801.44287634 76917602.105266333 0 0 0 0 -491549334.48754644 599029689.70438933 0 599029689.70438933 -636629032.97610617 0 0 0 0 -473445739.46103907 17735021.770730376 0 17735021.770730376 621801256.54820347 0 0 0 0 180987.51242804527 260475987.03542185 0 260475987.03542185 -1466597674.8681774 0 0 0 0 -948546.59009273513 977556.17698274576 0 977556.17698274576 -142290.92366842559 0 0 0 0 26431950.656844139 35722395.287150383 0 35722395.287150383 329071447.97605896 0 0 0 0 -749680083.75261641 298729372.97981024 0 298729372.97981024 451979838.66558361 0 0 0 0 -327022849.94187111 38523215.108137503 0 38523215.108137503 256816382.3237009 0 0 0 0 -326769424.17942351 26388556.119373217 0 26388556.119373217 413804176.88879919 0 0 0 0 -446411106.61358213 77302872.238372922 0 77302872.238372922 288616280.16373968 0 0 0 0 -414191475.35317552 211215565.97985235 0 211215565.97985235 79388923.351446629 0 0 0 0 -307200573.52712917 39064444.985107601 0 39064444.985107601 42589061.716333151 0 0 0 0 -168865915.04789591 70912557.396417797 0 70912557.396417797 14649873.140581369 0 0 0 0 -268016396.17610788 61329737.789152309 0 61329737.789152309 209892507.41907477 0 0 0 0 -291496989.73814631 -6978252.6284220219 0 -6978252.6284220219 155309496.32435787 0 0 0 0 3643886.8974328041 42347867.772467971 0 42347867.772467971 -43966201.484688044 0 0 0 0 -105744859.28211498 -135406368.80902722 0 -135406368.80902722 221696507.83885586 0 0 0 0 -372488.73636271199 30745.708506639116 0 30745.708506639116 96511.491119065089 0 0 0 0 -1031253.3487232272 248896.89072428748 0 248896.89072428748 247992.91891725716 0 0 0 0 -47864187.914733648 61488365.835830003 0 61488365.835830003 267154245.87799323 0 0 0 0 112964036.03851652 98438384.17108357 0 98438384.17108357 167140980.65902555 0 0 0 0 98997673.573992729 98097799.749892354 0 98097799.749892354 261286661.54894251 0 0 0 0 -13045215.665781736 102579432.28257117 0 102579432.28257117 528925935.15470421 0 0 0 0 -4959791.0851287842 42265269.544704437 0 42265269.544704437 723000525.66552544 0 0 0 0 -13072096.684016228 71710175.998559713 0 71710175.998559713 201946091.2915082 0 0 0 0 111836115.78388214 228108756.04453909 0 228108756.04453909 446313464.74405468 0 0 0 0 30887308.039461613 -21428042.071513176 0 -21428042.071513176 375590959.1326592 0 0 0 0 -2528066.7556395438 2746908.0875193812 0 2746908.0875193812 -207048.10854566214 0 0 0 0 184352778.28943253 289601676.79661918 0 289601676.79661918 427121749.74088573 0 0 0 0 -33740014.171844721 148840270.29627609 0 148840270.29627609 -527991702.73720932 0 0 0 0 -522654.37110198196 318947.17234126199 0 318947.17234126199 364531.09690821415 0 0 0 0 17937628.879575729 235723213.53008604 0 235723213.53008604 574742584.96482253 0 0 0 0 11092643.700566977 153680062.56403732 0 153680062.56403732 -539366073.05810547 0 0 0 0 -5541084.5951116253 448409.13083893905 0 448409.13083893905 1163396.5802677928 0 0 0 0 -2280843.4803713183 3135795.7748215501 0 3135795.7748215501 1749721.5013702516 0 0 0 0 -56846350.894748449 191655670.59858465 0 191655670.59858465 -408081179.11869955 0 0 0 0 -63117495.245078087 166670446.68863344 0 166670446.68863344 -507207642.6140399 0 0 0 0 260515727.83598781 103014846.53968281 0 103014846.53968281 41324593.192189157 0 0 0 0 217137588.06280422 218255999.57657236 0 218255999.57657236 -263893382.67188805 0 0 0 0 -1315337964.9156771 -751688914.10241151 0 -751688914.10241151 -166173040.01203847 0 0 0 0 -1289722278.2074463 -1379736674.8608594 0 -1379736674.8608594 -589555670.66457415 0 0 0 0 -1192070537.9382687 -750926109.99219728 0 -750926109.99219728 -398153179.11674786 0 0 0 0 -2481227.2010061573 -661.5726151044073 0 -661.5726151044073 463299.00467195123 0 0 0 0 -1272438370.1340451 -619661573.60368752 0 -619661573.60368752 -104293548.44519125 0 0 0 0 -199492870.30380166 289960201.42419815 0 289960201.42419815 484397374.24618244 0 0 0 0 22348983.811180353 58058110.708410382 0 58058110.708410382 510470915.60172713 0 0 0 0 151100076.75151491 35280928.908093035 0 35280928.908093035 270108988.13361156 0 0 0 0 45055264.985991001 78811697.869605482 0 78811697.869605482 278736026.44737411 0 0 0 0 -91188849.001921654 -81259526.851130337 0 -81259526.851130337 327714331.4396106 0 0 0 0 -640010638.38747025 338208696.71190798 0 338208696.71190798 64110791.98856248 0 0 0 0 -391744966.37384224 377626501.55103958 0 377626501.55103958 17886418.451097846 0 0 0 0 -1372434.7495346069 145206882.24676552 0 145206882.24676552 42759451.636988133 0 0 0 0 -662938.17651660508 241087.63748473511 0 241087.63748473511 165498.2244790101 0 0 0 0 -19073553.608109474 46887312.133265257 0 46887312.133265257 447090266.13764143 0 0 0 0 -975999812.52864933 -194448546.6069113 0 -194448546.6069113 459482502.9900046 0 0 0 0 -1153388754.2465582 -228907376.13976112 0 -228907376.13976112 16582600.832474571 0 0 0 0 -3110897.7633382725 1570400.8666608001 0 1570400.8666608001 -60510.47982952914 0 0 0 0 -1145739925.0680795 -145541981.64047289 0 -145541981.64047289 731180604.72274303 0 0 0 0 -1342611105.4589548 -117059801.48000473 0 -117059801.48000473 -37254644.050376654 0 0 0 0 -770781148.48827744 168544215.13971969 0 168544215.13971969 88926514.081145167 0 0 0 0 -744046973.62447071 122522792.33837092 0 122522792.33837092 164255645.89616415 0 0 0 0 -919951079.35283136 37637946.003013313 0 37637946.003013313 201081723.80029124 0 0 0 0 -2387492.4854533346 1311439.2777170406 0 1311439.2777170406 284255.12293987966 0 0 0 0 -2205500807.609941 -239681806.41725063 0 -239681806.41725063 131531987.65713561 0 0 0 0 -2201172275.7637205 162763560.78709143 0 162763560.78709143 392477401.15935236 0 0 0 0 -1220314305.1213474 299278455.29121715 0 299278455.29121715 14533771.379035234 0 0 0 0 -1409707538.1076007 28117463.130080163 0 28117463.130080163 221394871.84888193 0 0 0 0 -1802706443.8213711 544377157.46129322 0 544377157.46129322 307010908.72687209 0 0 0 0 -1450458405.2353168 80344645.226838097 0 80344645.226838097 501336636.92952311 0 0 0 0 -1986056083.6841359 -674671449.01178932 0 -674671449.01178932 687479837.50324821 0 0 0 0 -1174230926.5559978 -589669988.44743562 0 -589669988.44743562 -262447799.7418294 0 0 0 0 -1006602637.0176449 -234162584.27061653 0 -234162584.27061653 -447464719.84784698 0 0 0 0 -1808760406.1366653 545849539.07870579 0 545849539.07870579 -726644841.69113374 0 0 0 0 -1050307189.8266153 -693684263.80144072 0 -693684263.80144072 -471108816.64533663 0 0 0 0 -912881395.50668108 -356036255.0104177 0 -356036255.0104177 -486016628.94722939 0 0 0 0 -3790827.8013286516 1258518.7909923734 0 1258518.7909923734 1221932.9830971374 0 0 0 0 -1130841357.236445 -646878748.85571623 0 -646878748.85571623 -239194561.64732528 0 0 0 0 -959569745.97891355 -613216300.28844118 0 -613216300.28844118 -401554063.00740957 0 0 0 0 -1194863134.7354832 -546172774.13361716 0 -546172774.13361716 -397460368.83670807 0 0 0 0 -250442.87928876991 114894.68334111385 0 114894.68334111385 397132.12546400866 0 0 0 0 -6219337.9908065796 71000057.460343122 0 71000057.460343122 823727558.79571223 0 0 0 0 1117057019.8578835 1403630949.9999373 0 1403630949.9999373 2401577176.8933697 0 0 0 0 -2200173514.4294786 93195667.258806556 0 93195667.258806556 1193595051.7042093 0 0 0 0 -158655.6406675661 2294475.3225200488 0 2294475.3225200488 -432438.06433847174 0 0 0 0 -212967689.11489797 345087621.97065949 0 345087621.97065949 -549607418.90472543 0 0 0 0 -1437766703.6051388 -294085071.58566958 0 -294085071.58566958 736794684.85740709 0 0 0 0 -152035572.31038466 144881689.55472732 0 144881689.55472732 94853067.126624107 0 0 0 0 35533945.08342135 56805581.703840256 0 56805581.703840256 112945698.82131088 0 0 0 0 -166510074.88574725 141095464.8036623 0 141095464.8036623 124461008.07953739 0 0 0 0 -217604772.29062223 226446862.3185935 0 226446862.3185935 70149770.789839029 0 0 0 0 -252459400.94348145 151441906.03773308 0 151441906.03773308 106016621.24965191 0 0 0 0 -239543097.05376017 211064703.90613842 0 211064703.90613842 60829337.610213757 0 0 0 0 -213880821.20644689 64502036.104157448 0 64502036.104157448 71883105.070433617 0 0 0 0 -163641809.82275569 5746044.7885100842 0 5746044.7885100842 141085959.6715889 0 0 0 0 -108801884.00281906 104267073.28069401 0 104267073.28069401 77520650.987739563 0 0 0 0 -61213946.318572521 -87535180.291923523 0 -87535180.291923523 94269225.436918259 0 0 0 0 -102954101.39498663 -117742215.08170176 0 -117742215.08170176 111391201.16776276 0 0 0 0 -156798896.93530464 -30240892.958950996 0 -30240892.958950996 63807719.321224213 0 0 0 0 -84118579.665060997 -123046284.56533527 0 -123046284.56533527 40247015.369653702 0 0 0 0 -99827082.666965723 -103509743.39821625 0 -103509743.39821625 178254667.48073578 0 0 0 0 -16039036.650370598 -135637994.21131086 0 -135637994.21131086 111603032.33810997 0 0 0 0 10935232.808754921 -139304984.99069786 0 -139304984.99069786 174367488.28429866 0 0 0 0 71586808.824676991 -203964512.55957413 0 -203964512.55957413 240081779.55283737 0 0 0 0 -13340422.598440886 66331218.187150002 0 66331218.187150002 86632547.335861206 0 0 0 0 -48572845.225791216 -45190285.187238693 0 -45190285.187238693 161422731.23503351 0 0 0 0 24550856.009243965 -28420007.687577248 0 -28420007.687577248 154712120.68662548 0 0 0 0 4964709.8760100007 62532657.968908787 0 62532657.968908787 232384262.98753738 0 0 0 0 144527289.59600246 -125974562.33490276 0 -125974562.33490276 217721747.42372513 0 0 0 0 136680182.06645119 -151814441.74713993 0 -151814441.74713993 555439234.38009453 0 0 0 0 223134903.74022219 -95483857.584835529 0 -95483857.584835529 227476041.80196762 0 0 0 0 36062588.636201188 -209768268.90728214 0 -209768268.90728214 241798846.22471428 0 0 0 0 244620014.99656773 -31617623.501502037 0 -31617623.501502037 299084431.49645519 0 0 0 0 282160665.79094696 -270113681.04323483 0 -270113681.04323483 245368466.09903717 0 0 0 0 92403224.902614594 -347177642.735075 0 -347177642.735075 356540156.64633942 0 0 0 0 -43391311.88833499 50534122.793814182 0 50534122.793814182 95139774.172502518 0 0 0 0 21225427.487660408 -151031118.99393845 0 -151031118.99393845 440224593.57486153 0 0 0 0 -245425.78176523902 448516.02158681978 0 448516.02158681978 533204.93147168867 0 0 0 0 628341853.46084213 -472391676.97336197 0 -472391676.97336197 276033369.69480133 0 0 0 0 427775890.67989063 -425135748.5105896 0 -425135748.5105896 474910157.08804703 0 0 0 0 220299533.97841617 -196679918.65557957 0 -196679918.65557957 312654828.82008362 0 0 0 0 593807582.43832302 -276908617.05508542 0 -276908617.05508542 157397641.359478 0 0 0 0 101963930.1312249 -88955586.420716286 0 -88955586.420716286 199507016.3518014 0 0 0 0 117317624.59677821 -77093231.37480998 0 -77093231.37480998 48757005.015720367 0 0 0 0 -63292029.554341435 6253310.4841413498 0 6253310.4841413498 168395787.62284279 0 0 0 0 249129303.88378778 -183275562.65668106 0 -183275562.65668106 218135739.94740868 0 0 0 0 58073130.023207724 -3791124.256114006 0 -3791124.256114006 266740164.01696086 0 0 0 0 -123249219.46543586 106008386.70164013 0 106008386.70164013 179026438.61967278 0 0 0 0 79201067.327179849 -2055851.0909714699 0 -2055851.0909714699 95144557.66692543 0 0 0 0 -105121109.40546465 154612079.02498722 0 154612079.02498722 28005875.986330986 0 0 0 0 -225321718.14806628 107851916.63250351 0 107851916.63250351 101099598.20537376 0 0 0 0 -47118839.371917009 48701208.453992844 0 48701208.453992844 -35939126.643759727 0 0 0 0 -176838064.55685836 10638288.450860739 0 10638288.450860739 67036647.216985703 0 0 0 0 -163731098.11531031 49993575.243984103 0 49993575.243984103 -191235715.3534584 0 0 0 0 -396667358.16665411 172732950.2881422 0 172732950.2881422 -10986832.604848862 0 0 0 0 -441872683.02730846 89563362.076001167 0 89563362.076001167 -34261029.350669861 0 0 0 0 -617314697.42796707 246486838.04298592 0 246486838.04298592 -138415620.84552193 0 0 0 0 -786951110.4253273 224209323.27025795 0 224209323.27025795 -102644421.61890411 0 0 0 0 -345804484.77563953 57765481.708196163 0 57765481.708196163 -312045826.74184036 0 0 0 0 -1262874662.0602808 227828599.02479649 0 227828599.02479649 -34387086.837451935 0 0 0 0 -1089127277.8497047 155859461.77910614 0 155859461.77910614 -54476758.855636597 0 0 0 0 -857735910.49015999 26167924.502129078 0 26167924.502129078 -139507873.26041412 0 0 0 0 -23081.969325572121 1394143.9343864741 0 1394143.9343864741 -621224.52726310119 0 0 0 0 34425220.902683362 -99891778.099498749 0 -99891778.099498749 -194563670.45084953 0 0 0 0 -29416.536781010916 79391.179330172483 0 79391.179330172483 91274.193747701822 0 0 0 0 -603036089.55983734 65327286.354885101 0 65327286.354885101 -153522276.46933603 0 0 0 0 -1032246576.1455526 -115098854.65084267 0 -115098854.65084267 61673100.914909363 0 0 0 0 -2027389.4937076236 802725.65704593272 0 802725.65704593272 5505918.2028279835 0 0 0 0 -619737053.064569 47875310.291303635 0 47875310.291303635 43930770.174855232 0 0 0 0 -593203528.1020124 21773030.310925007 0 21773030.310925007 48383384.515188217 0 0 0 0 -7772038.5883693695 -23347346.433202505 0 -23347346.433202505 66075474.801438332 0 0 0 0 -256570376.92452633 181697045.20985043 0 181697045.20985043 9492829.6878566742 0 0 0 0 -225058901.2098408 148270863.11558375 0 148270863.11558375 -44120094.302097321 0 0 0 0 -397206247.58017778 127334804.88013363 0 127334804.88013363 55805317.767436028 0 0 0 0 -437845064.1290164 190507506.03090763 0 190507506.03090763 -12248092.023107529 0 0 0 0 28243655.45795083 -10267382.109894753 0 -10267382.109894753 -49518607.164258003 0 0 0 0 -80436341.729144454 21778366.389062881 0 21778366.389062881 -8801218.1687161922 0 0 0 0 -2504216.6640905146 4148976.1125811948 0 4148976.1125811948 900918.42742503481 0 0 0 0 16447988.269935608 -996184.6973388195 0 -996184.6973388195 -6818383.1648904681 0 0 0 0 27073423.599828914 42799591.837655038 0 42799591.837655038 -123547900.18140411 0 0 0 0 -11421349.875761509 11610971.924414277 0 11610971.924414277 -5751213.6959176809 0 0 0 0 -15955480.816202164 24797277.333977461 0 24797277.333977461 71556095.47592628 0 0 0 0 -93273942.856631279 55073531.238376498 0 55073531.238376498 123222985.55268145 0 0 0 0 75155091.639531374 -158749863.11030734 0 -158749863.11030734 -40913993.384066343 0 0 0 0 27231411.545539379 -110125175.81210637 0 -110125175.81210637 172188189.75505579 0 0 0 0 142558062.04868984 -58425209.974202991 0 -58425209.974202991 -37930310.723129988 0 0 0 0 11041498.40883708 -50861629.47891736 0 -50861629.47891736 8542780.3048987389 0 0 0 0 61845247.835047245 -64793086.580405712 0 -64793086.580405712 20369499.851582766 0 0 0 0 31701079.880132198 29703306.493118763 0 29703306.493118763 -167980748.64746881 0 0 0 0 -69796730.16940546 -84749375.960556567 0 -84749375.960556567 -287690732.19835663 0 0 0 0 -340742840.96351051 186571445.66626596 0 186571445.66626596 72979494.936206818 0 0 0 0 -330264648.26770937 105560754.95000085 0 105560754.95000085 49123429.835353851 0 0 0 0 -1026670.4246149714 467228.86390931485 0 467228.86390931485 3533646.2346364139 0 0 0 0 -341464179.82796907 75027588.233537197 0 75027588.233537197 306219.16382718086 0 0 0 0 -210729383.61330128 88788213.770894289 0 88788213.770894289 28304026.028342724 0 0 0 0 -200190372.11152816 208860879.66229081 0 208860879.66229081 47401202.944573879 0 0 0 0 -247264679.26023126 184406018.86121726 0 184406018.86121726 35202607.125639915 0 0 0 0 -450866.28733994236 575405.86078417697 0 575405.86078417697 1704284.1505951355 0 0 0 0 -9268685.4092917442 150478334.54410982 0 150478334.54410982 -17484758.282835484 0 0 0 0 6777892.6530983448 57486959.483583689 0 57486959.483583689 67165078.651286125 0 0 0 0 354255307.38629103 103373049.33560729 0 103373049.33560729 -139232953.57642531 0 0 0 0 -118406.11248287768 352690.1228382797 0 352690.1228382797 448481.0501688174 0 0 0 0 -100539569.91486168 227916954.18876982 0 227916954.18876982 -70098273.474667549 0 0 0 0 -158163277.29666698 158476491.65467656 0 158476491.65467656 -27576312.242334366 0 0 0 0 -217432794.51647854 313167376.52366054 0 313167376.52366054 -189586554.6511884 0 0 0 0 229668872.14916682 50056691.269344911 0 50056691.269344911 -175909003.06144667 0 0 0 0 -6154303.7698049545 128251939.58537412 0 128251939.58537412 -14931644.899016142 0 0 0 0 -73668267.837666988 116245514.52851796 0 116245514.52851796 50841045.436089993 0 0 0 0 -64528392.764511943 130686320.33250523 0 130686320.33250523 -3184358.6470804214 0 0 0 0 -261053690.93575764 116965047.15017307 0 116965047.15017307 111555496.2911725 0 0 0 0 -237506485.58971071 185927173.39345276 0 185927173.39345276 41953858.163493812 0 0 0 0 -116329910.22644377 97045183.256203651 0 97045183.256203651 52279942.930935144 0 0 0 0 -168738795.99202776 141488028.28269976 0 141488028.28269976 36760547.676614761 0 0 0 0 25047777.808001518 -11666812.159241438 0 -11666812.159241438 -86778081.140104949 0 0 0 0 -182594427.31423759 103799262.82754779 0 103799262.82754779 -58009662.188910455 0 0 0 0 -83840130.193465352 118684397.86222804 0 118684397.86222804 -260315813.81587362 0 0 0 0 -47680001.408961296 25790408.907343984 0 25790408.907343984 -29506989.651581794 0 0 0 0 -125413043.92932487 -6410613.1406161785 0 -6410613.1406161785 -143277283.88735294 0 0 0 0 80944933.110515118 188898140.35496283 0 188898140.35496283 -16084877.473354101 0 0 0 0 -49192331.963093042 -96552788.837965846 0 -96552788.837965846 -62161902.952743292 0 0 0 0 -7069243.4197191 -108131218.44742471 0 -108131218.44742471 -367554541.21943069 0 0 0 0 6510354.825193949 -114800438.26622073 0 -114800438.26622073 -543958867.87346876 0 0 0 0 -225738742.0875566 -66056734.697597265 0 -66056734.697597265 -356768212.05981374 0 0 0 0 -307460833.13816595 122301126.91297328 0 122301126.91297328 -789811522.74193501 0 0 0 0 -382668701.82584333 -271545862.06231248 0 -271545862.06231248 -496795940.32758439 0 0 0 0 -570077419.87410641 2869206.5736632943 0 2869206.5736632943 -545284589.97549355 0 0 0 0 -424856598.92942476 115086257.79130304 0 115086257.79130304 -225749282.25753713 0 0 0 0 -481939059.36259985 272336786.92757577 0 272336786.92757577 -617078165.5408206 0 0 0 0 -166643904.16355324 122814513.90111232 0 122814513.90111232 -543673851.24644279 0 0 0 0 -277548841.81669474 241973621.63451314 0 241973621.63451314 -73542055.328877687 0 0 0 0 -286110148.46213031 151481575.25119162 0 151481575.25119162 -102495626.52859163 0 0 0 0 -407418678.01932037 276021528.85959244 0 276021528.85959244 -230297735.74456349 0 0 0 0 -496283640.64632636 71367478.337860465 0 71367478.337860465 -95630929.726415634 0 0 0 0 -428687904.61090904 147539405.35212803 0 147539405.35212803 -39254544.076153755 0 0 0 0 -338531613.26823348 80483287.10937731 0 80483287.10937731 10549435.671035767 0 0 0 0 -341281787.04860127 246261087.92879963 0 246261087.92879963 -20258966.323430061 0 0 0 0 -249264817.13376594 181621738.15560293 0 181621738.15560293 25124317.951132774 0 0 0 0 -246242068.39328885 242309805.07217669 0 242309805.07217669 24177672.887020111 0 0 0 0 -188870441.52881527 -146389021.47037816 0 -146389021.47037816 -82817766.833812714 0 0 0 0 -272394906.91638708 -68406652.019019604 0 -68406652.019019604 -14625654.29970488 0 0 0 0 -188767311.89698744 -131085796.09241343 0 -131085796.09241343 -29790243.664941788 0 0 0 0 -94958144.184562206 -141490027.52256393 0 -141490027.52256393 -31764497.733793259 0 0 0 0 -166632068.48334312 -85023701.680914402 0 -85023701.680914402 -13875609.84731102 0 0 0 0 -182422508.0304904 -88000151.497855186 0 -88000151.497855186 34106042.587743759 0 0 0 0 -249669496.9728837 -54066431.481078148 0 -54066431.481078148 60019049.014594078 0 0 0 0 -321009794.05494213 115652561.72641659 0 115652561.72641659 50733716.9126091 0 0 0 0 -199543293.50870919 -365929.79195261002 0 -365929.79195261002 2658848.3170003891 0 0 0 0 -260164140.1999681 -78235021.380858898 0 -78235021.380858898 -87532127.91271019 0 0 0 0 -380933752.68184209 22518220.770320415 0 22518220.770320415 -220881.26273393631 0 0 0 0 -401094138.76283407 -52763314.405188084 0 -52763314.405188084 -87804606.78732872 0 0 0 0 -397088023.30109334 -6089288.0741512775 0 -6089288.0741512775 -45777173.964380264 0 0 0 0 -543045765.4552654 75076300.803824663 0 75076300.803824663 -84340183.932953119 0 0 0 0 -469482206.88394213 102876930.50643468 0 102876930.50643468 -217295707.45878744 0 0 0 0 -462162997.35528177 -133838471.83887792 0 -133838471.83887792 -189100991.51683092 0 0 0 0 -349037417.13164663 -210012628.05509281 0 -210012628.05509281 -191232755.05608082 0 0 0 0 -217680143.12351322 -209561683.20586777 0 -209561683.20586777 -292510664.98689938 0 0 0 0 -268397683.46742773 -113096074.70927882 0 -113096074.70927882 -89942232.608504295 0 0 0 0 -163250630.79940987 -156015378.74424899 0 -156015378.74424899 -136171755.94995022 0 0 0 0 -162787736.15873384 -164026536.53977025 0 -164026536.53977025 -256035670.78893709 0 0 0 0 -409271395.47312802 -340083128.15056545 0 -340083128.15056545 -538198138.7104938 0 0 0 0 -321774314.66537428 -166384063.54568172 0 -166384063.54568172 -283685258.65829682 0 0 0 0 -106993235.87196302 -149215359.34586018 0 -149215359.34586018 -538459772.15835619 0 0 0 0 -824379534.96811807 107235015.1602484 0 107235015.1602484 -217294519.25669831 0 0 0 0 -742045346.46842003 -85230525.848368883 0 -85230525.848368883 -197060659.21832833 0 0 0 0 -1369050242.5917308 157398393.14192957 0 157398393.14192957 -364215739.87991196 0 0 0 0 -652357658.04415083 -14352664.112667978 0 -14352664.112667978 -340994057.35775268 0 0 0 0 -10439412.671070218 5960706.4308527708 0 5960706.4308527708 -631308433.59518671 0 0 0 0 -622407116.43814862 242020260.10794383 0 242020260.10794383 -1371149859.7923763 0 0 0 0 -601384140.33570766 -510415117.66456795 0 -510415117.66456795 -997362006.696383 0 0 0 0 -1316528736.4550891 -431627354.07192421 0 -431627354.07192421 -713228100.80748224 0 0 0 0 -75734398.796071053 -94923089.506705046 0 -94923089.506705046 -597367357.12772083 0 0 0 0 -259929735.36056995 -76639973.373226404 0 -76639973.373226404 -612991165.88223529 0 0 0 0 -257265660.41989446 -98720750.348821759 0 -98720750.348821759 -434945892.43231833 0 0 0 0 -32168234.638427734 136438189.05946779 0 136438189.05946779 -588661479.70662022 0 0 0 0 -47963798.977574348 73551502.799017906 0 73551502.799017906 -365955936.05633807 0 0 0 0 26168310.946996689 14822346.502325773 0 14822346.502325773 -433387945.61964822 0 0 0 0 -28597802.78965044 114159425.42999589 0 114159425.42999589 -350790656.50242043 0 0 0 0 -52017202.659831285 6070850.2978246808 0 6070850.2978246808 -388668093.24707937 0 0 0 0 55887229.291496277 -55837503.062700182 0 -55837503.062700182 -331205219.30143392 0 0 0 0 21785589.987383366 13442857.030658126 0 13442857.030658126 -308974824.52799129 0 0 0 0 81718831.541169167 6548286.9968979359 0 6548286.9968979359 -245424546.90489483 0 0 0 0 79213864.245193481 195677.29761266708 0 195677.29761266708 -259175160.20896196 0 0 0 0 107406938.6384716 -49948230.217841625 0 -49948230.217841625 -248599068.90412307 0 0 0 0 60483842.940393448 34944089.432207584 0 34944089.432207584 -319267911.54867244 0 0 0 0 80219358.962927341 -17630020.593497917 0 -17630020.593497917 -273512678.39202332 0 0 0 0 88343660.23522377 -99677061.757300615 0 -99677061.757300615 -252379045.34804678 0 0 0 0 67484894.81914711 -111774278.56265223 0 -111774278.56265223 -257831978.67403427 0 0 0 0 22066835.118613243 -88028557.157643557 0 -88028557.157643557 -229881771.00384307 0 0 0 0 897045.29581356049 -137795537.93123889 0 -137795537.93123889 -345769855.19370264 0 0 0 0 -41979601.729068756 -90226569.577218413 0 -90226569.577218413 -310425074.41250229 0 0 0 0 -107687321.15230125 -137071878.42087328 0 -137071878.42087328 -330719789.82502186 0 0 0 0 848091.22134304047 -87304821.403828084 0 -87304821.403828084 -476593663.63726264 0 0 0 0 17360677.50831604 -34824750.779396385 0 -34824750.779396385 -310378472.49135268 0 0 0 0 60824185.029917598 -72591792.923957139 0 -72591792.923957139 -239785309.86725569 0 0 0 0 163779365.79612732 -42488747.169870138 0 -42488747.169870138 -241089967.88197371 0 0 0 0 124150633.00338745 -26258712.541840911 0 -26258712.541840911 -218747921.98346102 0 0 0 0 130392671.89448524 -68594918.084528431 0 -68594918.084528431 -159987740.17602658 0 0 0 0 84111768.768592834 -109724868.48307347 0 -109724868.48307347 -128356386.28165507 0 0 0 0 110599065.19685555 -50937246.343101546 0 -50937246.343101546 -78859295.323391616 0 0 0 0 143176541.35988617 -14310343.784584716 0 -14310343.784584716 -162034156.98750836 0 0 0 0 147239384.15545088 -116452373.48966339 0 -116452373.48966339 -288347041.18908548 0 0 0 0 125805862.62658262 -198458180.14817303 0 -198458180.14817303 140377500.67423952 0 0 0 0 185228620.78509903 -100910788.63351464 0 -100910788.63351464 -100090993.99834907 0 0 0 0 134645840.24270821 -219105657.56359243 0 -219105657.56359243 -4046610.1385531425 0 0 0 0 105448814.19517899 -104449143.65457225 0 -104449143.65457225 7110540.650621891 0 0 0 0 125086611.14051723 -116428555.07013798 0 -116428555.07013798 -146751632.3326664 0 0 0 0 97247169.408746719 -172886462.67522931 0 -172886462.67522931 -8996864.7969512939 0 0 0 0 101262016.4747982 -230057149.01247215 0 -230057149.01247215 16699996.345308304 0 0 0 0 115941851.17272758 -206037274.02106142 0 -206037274.02106142 44067382.702461243 0 0 0 0 123527534.55604935 -215347324.02833939 0 -215347324.02833939 17765708.961521327 0 0 0 0 195164832.41760793 -137173851.3222023 0 -137173851.3222023 37688325.545256615 0 0 0 0 196770495.85240364 -176692299.79908466 0 -176692299.79908466 12927501.08092308 0 0 0 0 -1240518.7849025726 -180768900.11957359 0 -180768900.11957359 -156957638.20560861 0 0 0 0 -11364559.728253365 -187527539.1671977 0 -187527539.1671977 -72696240.008738041 0 0 0 0 -65075560.296732903 -198287093.4052093 0 -198287093.4052093 -283536359.28026915 0 0 0 0 -41019370.627420425 -138689943.86463332 0 -138689943.86463332 -135954960.60274327 0 0 0 0 31110558.337561607 -159001036.33960187 0 -159001036.33960187 -274935680.74419737 0 0 0 0 36671392.559741974 -117640648.18052125 0 -117640648.18052125 -133124435.71138144 0 0 0 0 49946143.240848541 -153700537.79045916 0 -153700537.79045916 -67264289.612127304 0 0 0 0 74755122.90136528 -164930285.44369364 0 -164930285.44369364 -168674128.65030622 0 0 0 0 48988396.198587418 -165717622.64180794 0 -165717622.64180794 -70179874.460569382 0 0 0 0 46080504.814174652 -211343290.15749502 0 -211343290.15749502 -13727794.816049576 0 0 0 0 104833799.25460434 -186736077.40988016 0 -186736077.40988016 -85991147.977795124 0 0 0 0 98210192.158828735 -230277545.32146072 0 -230277545.32146072 27103501.751669884 0 0 0 0 84373731.613899231 -187024555.00616837 0 -187024555.00616837 1674110.9652385712 0 0 0 0 6282617.1099796295 -206108500.68929911 0 -206108500.68929911 5818656.9558992386 0 0 0 0 -16027055.863936186 -151391884.2013948 0 -151391884.2013948 19380973.303247452 0 0 0 0 -77929814.555075645 -168900730.67020416 0 -168900730.67020416 -151790175.88314724 0 0 0 0 -79125222.006092548 -150240148.22245216 0 -150240148.22245216 -53466799.629281044 0 0 0 0 -105183636.12874889 -133036628.04884148 0 -133036628.04884148 33367129.401088715 0 0 0 0 -27104507.781774521 -184162918.86859131 0 -184162918.86859131 -56075775.142469823 0 0 0 0 -24093971.122559547 -152462412.47703362 0 -152462412.47703362 32211272.052739978 0 0 0 0 -39064644.351606369 -155321334.06448889 0 -155321334.06448889 104124518.90259171 0 0 0 0 25639720.695783615 -182604247.72701931 0 -182604247.72701931 26341423.117675781 0 0 0 0 15765980.605731964 -191173752.07633209 0 -191173752.07633209 82838888.332422256 0 0 0 0 14827099.149811745 -171970930.52262926 0 -171970930.52262926 174958591.20458412 0 0 0 0 -38136861.301110744 -156101364.20465851 0 -156101364.20465851 197905897.1910038 0 0 0 0 31770820.843723297 -160824997.39295101 0 -160824997.39295101 103828576.52489263 0 0 0 0 -4974040.0242087841 -218698625.80342472 0 -218698625.80342472 290633667.62955666 0 0 0 0 5029120.5938682556 -159434575.75666237 0 -159434575.75666237 193807230.51192665 0 0 0 0 -4455724.2862691879 -169144980.77729511 0 -169144980.77729511 285436608.9715004 0 0 0 0 96152077.377815247 -159054884.5749855 0 -159054884.5749855 176739462.98231697 0 0 0 0 -45472896.676841736 -200210270.15294838 0 -200210270.15294838 387202810.93604088 0 0 0 0 27399789.039104462 -144098941.20345497 0 -144098941.20345497 298925040.01176071 0 0 0 0 41240887.576089382 -96816992.507420778 0 -96816992.507420778 393186090.19380951 0 0 0 0 -31657548.830883026 -132560086.92616844 0 -132560086.92616844 394345843.97347629 0 0 0 0 -30416193.303167343 -147566375.39879799 0 -147566375.39879799 448161827.93916321 0 0 0 0 -46428993.104505539 -215334480.24847603 0 -215334480.24847603 307290917.70148468 0 0 0 0 167060031.39182901 -164350353.80671835 0 -164350353.80671835 333398956.41008377 0 0 0 0 190452907.12797403 -229369324.59353828 0 -229369324.59353828 269339011.35489273 0 0 0 0 86194388.459838867 -208236588.7512207 0 -208236588.7512207 396364221.77591705 0 0 0 0 106898120.52693939 -202640474.82378769 0 -202640474.82378769 397343270.65539455 0 0 0 0 399828174.15834045 -274542257.82911682 0 -274542257.82911682 369574795.15015078 0 0 0 0 142181631.55659485 -215045095.61873245 0 -215045095.61873245 288007273.1104126 0 0 0 0 77977930.528675079 -152736039.5095787 0 -152736039.5095787 237286393.86600673 0 0 0 0 216083474.60678291 -135059814.59110546 0 -135059814.59110546 238184675.36758232 0 0 0 0 162409189.39329052 -193044908.88248444 0 -193044908.88248444 153770885.50219917 0 0 0 0 113462690.01752472 -225393989.34723473 0 -225393989.34723473 204066588.17072296 0 0 0 0 178530172.96388626 -192628980.83250618 0 -192628980.83250618 215761782.65370369 0 0 0 0 114010107.86146545 -218097217.92703056 0 -218097217.92703056 268110630.73640442 0 0 0 0 125208181.61529732 -194172809.44276905 0 -194172809.44276905 153831384.30578995 0 0 0 0 95889123.446678162 -220495758.43411362 0 -220495758.43411362 108959096.4424839 0 0 0 0 120368793.01947212 -231274131.85400629 0 -231274131.85400629 112160744.17986488 0 0 0 0 85024309.517295837 -162879591.07539177 0 -162879591.07539177 94163977.695928574 0 0 0 0 80119763.185970306 -211619045.74166584 0 -211619045.74166584 114898262.73723888 0 0 0 0 109587863.7683959 -177115212.22740424 0 -177115212.22740424 149823318.94327545 0 0 0 0 66295435.579999924 -178614131.87909508 0 -178614131.87909508 18414960.314976692 0 0 0 0 52259382.045304298 -205010812.94126797 0 -205010812.94126797 56299171.83823204 0 0 0 0 104183178.87101364 -191792998.19910812 0 -191792998.19910812 59598458.535491943 0 0 0 0 107163840.74382019 -202296356.31532574 0 -202296356.31532574 52112982.18074894 0 0 0 0 106921317.41544533 -236470115.90294456 0 -236470115.90294456 71809616.742899895 0 0 0 0 85847552.364524841 -198902698.20258045 0 -198902698.20258045 110070112.02635193 0 0 0 0 86295043.971641541 -194052243.96106625 0 -194052243.96106625 133276988.71585655 0 0 0 0 166614253.63191795 -170811547.25584888 0 -170811547.25584888 61702065.735086441 0 0 0 0 71331569.050418854 -159458860.62403679 0 -159458860.62403679 65730649.183928728 0 0 0 0 8117058.1427687407 -23592075.077572852 0 -23592075.077572852 35265989.785215378 0 0 0 0 16887489.878713608 -105435607.26481152 0 -105435607.26481152 189518748.28219223 0 0 0 0 25116578.632760048 -90242071.254349709 0 -90242071.254349709 174207671.8052597 0 0 0 0 98003121.313569069 -228266707.97103024 0 -228266707.97103024 197362908.66905212 0 0 0 0 53893303.144271851 -185649211.3664341 0 -185649211.3664341 215509151.64671898 0 0 0 0 103767523.48450279 -227258766.91770077 0 -227258766.91770077 138007810.94512177 0 0 0 0 122338790.81972504 -216558844.13770103 0 -216558844.13770103 188198596.08072662 0 0 0 0 60528528.646076202 -166794840.36912823 0 -166794840.36912823 124630150.53310728 0 0 0 0 67233305.805831909 -212548174.80796051 0 -212548174.80796051 260475009.35335541 0 0 0 0 86275267.857017517 -201426141.69368362 0 -201426141.69368362 255829703.84933853 0 0 0 0 4804934.985206604 -100873663.25031662 0 -100873663.25031662 322743794.95388794 0 0 0 0 -36848060.649906158 -77707288.622268677 0 -77707288.622268677 384874922.840271 0 0 0 0 49224355.419013977 -206876617.02734947 0 -206876617.02734947 538852537.00224304 0 0 0 0 11123829.87121582 -118871110.84505463 0 -118871110.84505463 337323926.49227524 0 0 0 0 -42687370.323602676 -96394481.916570663 0 -96394481.916570663 540445461.38161469 0 0 0 0 -42340990.483329773 -95647684.610027313 0 -95647684.610027313 532617124.97633362 0 0 0 0 -17223303.027887121 -4489520.3621131349 0 -4489520.3621131349 2550679.8317022594 0 0 0 0 -20151884.076583862 -1279692.7825808525 0 -1279692.7825808525 -1283968.4025201797 0 0 0 0 -16198576.555145264 -11911870.1388731 0 -11911870.1388731 7142981.2733268738 0 0 0 0 -17338365.404159546 -9997222.5678730011 0 -9997222.5678730011 10128738.606082916 0 0 0 0 -42374013.041557312 -4957420.0655661821 0 -4957420.0655661821 64439588.809402466 0 0 0 0 -42369630.480449677 -2139730.9166898727 0 -2139730.9166898727 22570935.6235466 0 0 0 0 -16884265.294141769 -52728713.81152153 0 -52728713.81152153 19718441.115205765 0 0 0 0 -29362303.943016052 -21540099.8263731 0 -21540099.8263731 40267213.921216011 0 0 0 0 -34131321.076568604 -80920222.179510117 0 -80920222.179510117 -2201793.9353752136 0 0 0 0 -17219956.332809448 -14078343.839496613 0 -14078343.839496613 4244080.0376701355 0 0 0 0 -19615228.325614929 -12839278.720005035 0 -12839278.720005035 8460443.0210142136 0 0 0 0 -7455274.443107605 -18853646.674649239 0 -18853646.674649239 6164115.2324290276 0 0 0 0 -5269374.2894058228 -10804964.353048325 0 -10804964.353048325 -1723339.0754575729 0 0 0 0 -13935654.073095322 -7510135.3910415173 0 -7510135.3910415173 2574703.8073978424 0 0 0 0 -157522437.32140732 366681998.6221962 0 366681998.6221962 52322968.341521621 0 0 0 0 -231621867.44597554 -81385357.060175896 0 -81385357.060175896 770440.7567653656 0 0 0 0 20018029.526817322 -176259386.02248573 0 -176259386.02248573 197121448.25193214 0 0 0 0 -381803.40952066751 -583673.42200423591 0 -583673.42200423591 -705531.08309639245 0 0 0 0 45571003.804308891 -283925911.90292454 0 -283925911.90292454 286435378.40309525 0 0 0 0 -49917472.263967514 -405350521.52409935 0 -405350521.52409935 132030143.05853319 0 0 0 0 -96296563.249227524 -359850630.47047424 0 -359850630.47047424 313187775.02264404 0 0 0 0 33000273.575859964 -287744070.86118162 0 -287744070.86118162 352228512.54820251 0 0 0 0 -312036249.28222084 -483942345.37628555 0 -483942345.37628555 337218932.18627357 0 0 0 0 -125576635.22758722 -287999086.32447124 0 -287999086.32447124 534968541.84458923 0 0 0 0 -449090774.99783373 -134852071.20687056 0 -134852071.20687056 790015274.0234375 0 0 0 0 315880388.73688316 101174266.36266613 0 101174266.36266613 517581155.43710327 0 0 0 0 -11587301.944503412 -7179487.1068162201 0 -7179487.1068162201 -1423427.4970308188 0 0 0 0 38663044.756333351 -246547255.27527237 0 -246547255.27527237 -159380093.12008286 0 0 0 0 363231518.65367126 134444448.58364868 0 134444448.58364868 112498666.67416763 0 0 0 0 171062586.05891418 -316458886.3758297 0 -316458886.3758297 583366395.11668396 0 0 0 0 40526930.978675842 -242821057.58874893 0 -242821057.58874893 680947524.73124504 0 0 0 0 1426608.9327826835 -4164948.993522726 0 -4164948.993522726 -899306.30549290846 0 0 0 0 -474052101.28816223 271785640.7430439 0 271785640.7430439 -32982103.581970215 0 0 0 0 -280021433.21191406 148275317.44452286 0 148275317.44452286 37848898.470624924 0 0 0 0 -49232801.044303894 402843007.91614532 0 402843007.91614532 5398339.1888313293 0 0 0 0 -1026078704.111496 403077228.63586617 0 403077228.63586617 266140509.17013693 0 0 0 0 -1154675045.5564651 135311160.18798256 0 135311160.18798256 366496595.83224201 0 0 0 0 -612326634.83766556 90102165.54776001 0 90102165.54776001 230345107.07801628 0 0 0 0 -731535612.19017029 70532298.892271042 0 70532298.892271042 368761444.52603632 0 0 0 0 -660750891.53135681 332354974.97899246 0 332354974.97899246 275410774.33573627 0 0 0 0 -537628467.76527786 259197073.5807333 0 259197073.5807333 157057151.88062668 0 0 0 0 -564103054.7774353 140891138.87065411 0 140891138.87065411 101919546.18245792 0 0 0 0 -556672276.22355652 167427221.03139305 0 167427221.03139305 134038805.3535862 0 0 0 0 -356346823.20263672 -31991377.942318916 0 -31991377.942318916 268549336.31973648 0 0 0 0 -639223488.64425278 228254847.82495403 0 228254847.82495403 394028.7098236084 0 0 0 0 -1004148878.8678513 -60974764.763999939 0 -60974764.763999939 153905645.49999237 0 0 0 0 -609528460.58536661 66529953.228730753 0 66529953.228730753 162448739.52037048 0 0 0 0 -609039107.27775574 205992489.42122459 0 205992489.42122459 186901637.56530666 0 0 0 0 -85522585.381580353 -144653071.26407576 0 -144653071.26407576 -14143232.678520203 0 0 0 0 -482084011.1958313 34377214.824207306 0 34377214.824207306 153729740.09616852 0 0 0 0 -598202255.38354492 -295238181.5723381 0 -295238181.5723381 86656227.953647614 0 0 0 0 -665110546.54216003 -272140089.0306263 0 -272140089.0306263 79869855.804176331 0 0 0 0 -654770250.58171082 -254897971.55468941 0 -254897971.55468941 108596352.57061005 0 0 0 0 -1280974053.7059479 -358083141.83851624 0 -358083141.83851624 95226684.039608002 0 0 0 0 -864298.51325472444 -528542.83032123558 0 -528542.83032123558 290169.78038954735 0 0 0 0 -237517609.37968445 -181853990.8814106 0 -181853990.8814106 -68230154.781841278 0 0 0 0 -133209970.79910278 289183872.6028595 0 289183872.6028595 781637904.2115097 0 0 0 0 -255044838.18247986 -437409338.36798286 0 -437409338.36798286 180720066.64627838 0 0 0 0 -221991150.65203476 -447784476.1157012 0 -447784476.1157012 12712237.649196625 0 0 0 0 -468430386.13807678 -381834462.99586105 0 -381834462.99586105 220815952.10214233 0 0 0 0 -543840034.00676727 -525505880.50605965 0 -525505880.50605965 -48146084.436813354 0 0 0 0 -157428899.78619385 42423221.722019196 0 42423221.722019196 535383810.07770538 0 0 0 0 -106435325.16706848 -122949208.23556137 0 -122949208.23556137 157225557.96264648 0 0 0 0 -98937544.131820679 -76526475.134500504 0 -76526475.134500504 426180145.96595478 0 0 0 0 24503599.246923923 -1198205870.4418168 0 -1198205870.4418168 -73338681.664487839 0 0 0 0 -32699956.872131348 34943552.782205582 0 34943552.782205582 280373750.82840347 0 0 0 0 -33869647.069625854 19755951.622377396 0 19755951.622377396 83176293.72912693 0 0 0 0 20147148.149543762 26099538.950147629 0 26099538.950147629 -29727360.119940758 0 0 0 0 -3863295.2809510683 -267249.93732958473 0 -267249.93732958473 2030863.2963702949 0 0 0 0 -16273108.790989134 -3518860.1618296811 0 -3518860.1618296811 2845204.8886002311 0 0 0 0 17229810.658496857 53642133.675019264 0 53642133.675019264 104677935.19383049 0 0 0 0 -213273565.53575134 -388918590.95093536 0 -388918590.95093536 318358490.76302147 0 0 0 0 259907041.59380341 -18279836.113999844 0 -18279836.113999844 -169691242.34362507 0 0 0 0 -139653623.18264389 -48324191.550834656 0 -48324191.550834656 -4053745.3518447876 0 0 0 0 -26178153.521705627 -28469422.011940002 0 -28469422.011940002 -70597160.785747528 0 0 0 0 -11515833.89323625 -3561204.8186110868 0 -3561204.8186110868 2366947.7947248258 0 0 0 0 17710205.891098022 -51330187.779399395 0 -51330187.779399395 62576836.544820786 0 0 0 0 -7378726.4066607319 917241.87863187306 0 917241.87863187306 5116012.8317923555 0 0 0 0 242595576.66006088 -117761984.27846742 0 -117761984.27846742 12839419.521359205 0 0 0 0 131061598.13197803 -88478523.332346916 0 -88478523.332346916 8338546.6518287659 0 0 0 0 -293624768.43789673 -117633352.54002285 0 -117633352.54002285 14619258.095518112 0 0 0 0 -165542099.26727676 -100326316.38025045 0 -100326316.38025045 -40056576.78350544 0 0 0 0 -269704413.9539566 -141114743.35543394 0 -141114743.35543394 8605713.0586891174 0 0 0 0 -461390274.88912964 -262600049.16725349 0 -262600049.16725349 153207745.36571312 0 0 0 0 -432278287.30158997 -177511711.21354008 0 -177511711.21354008 87051235.420459747 0 0 0 0 -462803370.40311432 -294950656.0222826 0 -294950656.0222826 66225606.671302795 0 0 0 0 -354620152.73527336 -279537380.69892979 0 -279537380.69892979 -24903998.477542877 0 0 0 0 -604250396.85787201 506243025.71296883 0 506243025.71296883 96513404.724256516 0 0 0 0 -6578384.4261932373 -127383738.57484627 0 -127383738.57484627 -462518409.65672302 0 0 0 0 -4195568.6479783058 -1232284.2493480672 0 -1232284.2493480672 603810.16565347835 0 0 0 0 -449590763.3942337 -443209014.41078186 0 -443209014.41078186 -103419531.17139053 0 0 0 0 -122843452.95769882 -634910854.81968117 0 -634910854.81968117 -1430226175.4566956 0 0 0 0 -485557561.21149063 -372275312.72969484 0 -372275312.72969484 156618749.79483032 0 0 0 0 322729029.52913284 -710843037.54074097 0 -710843037.54074097 -3075845080.9213409 0 0 0 0 -839587905.21000671 -1268693320.9272194 0 -1268693320.9272194 -753945781.65759659 0 0 0 0 -2078227106.5111923 -1252766333.4997606 0 -1252766333.4997606 1477331660.0102692 0 0 0 0 145763994.49994922 109499798.27091312 0 109499798.27091312 104697847.39502716 0 0 0 0 -13849908.881782886 13723694.272054967 0 13723694.272054967 -9774090.8895524032 0 0 0 0 -164942401.1703949 266556088.95584774 0 266556088.95584774 317457148.44868374 0 0 0 0 134121577.34310891 128422408.48600516 0 128422408.48600516 109709211.30840683 0 0 0 0 -954592628.31957626 184220871.20052814 0 184220871.20052814 933641979.38888931 0 0 0 0 180879265.11091852 126881308.15019035 0 126881308.15019035 98580604.247854233 0 0 0 0 377603628.5536561 291416784.07616329 0 291416784.07616329 219949711.80489588 0 0 0 0 -89879072.788126469 -168198639.7431035 0 -168198639.7431035 363932179.74643898 0 0 0 0 185403738.01860189 102770965.45107341 0 102770965.45107341 86520394.553527832 0 0 0 0 -338009371.8455143 -198438193.65002322 0 -198438193.65002322 -119612606.6609478 0 0 0 0 -395785683.97567368 -190307808.39307022 0 -190307808.39307022 -70140637.155853271 0 0 0 0 -507266947.94428253 -236154623.38913155 0 -236154623.38913155 -54944038.662059784 0 0 0 0 -523691549.39469814 -207756982.87767053 0 -207756982.87767053 -14134669.63961792 0 0 0 0 -484726474.64271545 -346267378.99625921 0 -346267378.99625921 -108726826.6043151 0 0 0 0 -623858829.42843628 -299438431.44862914 0 -299438431.44862914 -54809463.382101059 0 0 0 0 82954165.782148361 626552189.95244598 0 626552189.95244598 127117661.56990051 0 0 0 0 292489497.33524132 631178066.57948303 0 631178066.57948303 -42291042.644577026 0 0 0 0 -1382950.1957300811 531953.26487800479 0 531953.26487800479 849172.09629768133 0 0 0 0 -12865104.704169972 12825581.779940115 0 12825581.779940115 -7529412.8342432156 0 0 0 0 -689669987.48490143 -154625762.72393203 0 -154625762.72393203 -99424359.382231712 0 0 0 0 -661209074.97199249 -188294388.71518421 0 -188294388.71518421 -61725256.948406219 0 0 0 0 -641335679.70614624 -68212679.78920722 0 -68212679.78920722 -236160629.33907318 0 0 0 0 49294583.889026642 158936500.647892 0 158936500.647892 78993511.028633118 0 0 0 0 32135463.838979721 -334935579.38465118 0 -334935579.38465118 764792811.1827507 0 0 0 0 155475357.81537151 300103037.64894676 0 300103037.64894676 214141843.35723686 0 0 0 0 205008402.18435955 359744618.00252151 0 359744618.00252151 -29501508.313083649 0 0 0 0 359688363.73836136 639320669.26544952 0 639320669.26544952 -311615494.90621948 0 0 0 0 195224138.78663635 327169700.51313972 0 327169700.51313972 -83995121.977661133 0 0 0 0 193183157.96864414 471565801.00602341 0 471565801.00602341 -679113566.97193336 0 0 0 0 -286580845.01778793 631455484.77844429 0 631455484.77844429 -260023552.04266357 0 0 0 0 483407409.73151207 222789113.49614811 0 222789113.49614811 -64796232.258552551 0 0 0 0 -3736532.1121061607 1821994.9151281295 0 1821994.9151281295 3089421.5086268759 0 0 0 0 158953855.78258514 -155094610.60735154 0 -155094610.60735154 31050075.418205738 0 0 0 0 -307458807.60120392 -40632466.62612772 0 -40632466.62612772 -15366998.162813187 0 0 0 0 -437579764.47533035 -134546709.21567917 0 -134546709.21567917 -8050602.0794024765 0 0 0 0 -429468260.78526306 -171565052.09404659 0 -171565052.09404659 18474268.485316277 0 0 0 0 -547372676.1414299 -118110863.36159849 0 -118110863.36159849 -87425291.859717369 0 0 0 0 -451279979.05663681 -91074423.225337863 0 -91074423.225337863 -109449239.31064606 0 0 0 0 -530265274.04302979 -158340266.77556038 0 -158340266.77556038 -163489943.76754379 0 0 0 0 -485896928.28311157 -338970610.65009797 0 -338970610.65009797 -373833174.86748517 0 0 0 0 -453127650.07034302 -197279913.61761999 0 -197279913.61761999 -169335378.43743896 0 0 0 0 -519878205.82788086 -158775589.75339079 0 -158775589.75339079 -400550848.90366268 0 0 0 0 -520984904.5539093 -169417596.43547034 0 -169417596.43547034 -173780835.79549408 0 0 0 0 -496140096.49996185 -378672663.42949438 0 -378672663.42949438 -238104615.48528448 0 0 0 0 -426254891.37104988 -207233074.99990094 0 -207233074.99990094 137205321.35947943 0 0 0 0 -432863384.06681061 -159431022.23474503 0 -159431022.23474503 -99996143.600327492 0 0 0 0 -383068409.25900269 -121795335.19053006 0 -121795335.19053006 -46306310.765205979 0 0 0 0 600226948.11795998 -185439613.14379895 0 -185439613.14379895 -17084910.027697682 0 0 0 0 -1185566.7640361676 1142405.9914571266 0 1142405.9914571266 1057629.7484648072 0 0 0 0 137762747.02450562 32208449.469175279 0 32208449.469175279 -21235698.505019307 0 0 0 0 -188942388.49488449 -589181407.57005394 0 -589181407.57005394 235617437.87880766 0 0 0 0 -212569456.81907272 -64436573.249902964 0 -64436573.249902964 -315482378.28986931 0 0 0 0 283998223.90693665 -245476917.29391855 0 -245476917.29391855 -322269249.76874733 0 0 0 0 600108434.47276402 42813424.724147797 0 42813424.724147797 -72983137.617477417 0 0 0 0 -569467308.19108582 -486192621.46326208 0 -486192621.46326208 -140668770.31158352 0 0 0 0 -599633677.39600754 -419565229.85904503 0 -419565229.85904503 -141578338.6054306 0 0 0 0 -11059485.019789709 10970450.623861095 0 10970450.623861095 -5703891.400579636 0 0 0 0 -610244616.27097321 -414471115.41263819 0 -414471115.41263819 -33143020.265497446 0 0 0 0 -547399886.5710144 -321089714.17024291 0 -321089714.17024291 21274040.875308573 0 0 0 0 -355236594.25520706 -334135989.19338477 0 -334135989.19338477 -53200552.189027727 0 0 0 0 -565832784.32978487 -486687398.04353881 0 -486687398.04353881 -10638815.393570423 0 0 0 0 -496320962.45277405 -389485426.95162767 0 -389485426.95162767 76652182.623053789 0 0 0 0 -414139191.74152184 -461960518.86123198 0 -461960518.86123198 -53449511.31714201 0 0 0 0 500515785.04040718 69776586.977973938 0 69776586.977973938 -22055311.328594208 0 0 0 0 437412010.53243923 -8001367.1037044525 0 -8001367.1037044525 74019900.479852676 0 0 0 0 -589181508.26988792 -354894416.28760707 0 -354894416.28760707 -799856130.8478241 0 0 0 0 -626270706.44303131 -214786974.67532158 0 -214786974.67532158 -5462143.6206483841 0 0 0 0 -565705.92799049243 219617.15054352582 0 219617.15054352582 -184446.53264149185 0 0 0 0 -3051353.4235898484 5515959.8308746964 0 5515959.8308746964 -7559147.6538288724 0 0 0 0 -203954492.83740234 -227448854.26532221 0 -227448854.26532221 -160443845.49041557 0 0 0 0 -107383083.59902191 -330996782.54258633 0 -330996782.54258633 -459396071.02768779 0 0 0 0 52220134.554421186 -140777865.55294618 0 -140777865.55294618 -246807160.72173071 0 0 0 0 -2258606.3269271851 -139705448.75246763 0 -139705448.75246763 -234629338.42078733 0 0 0 0 258995884.68586922 23889848.125272751 0 23889848.125272751 -189779956.71137619 0 0 0 0 -68453683.509161472 -74023259.701460361 0 -74023259.701460361 -313169445.53261566 0 0 0 0 134642464.59538174 124399920.88581848 0 124399920.88581848 -135578897.01136875 0 0 0 0 287087652.12066364 51366756.265237808 0 51366756.265237808 -134724813.67448711 0 0 0 0 158029602.26630497 29018599.078056812 0 29018599.078056812 -30688238.05872345 0 0 0 0 311316317.0657568 -36539740.514349937 0 -36539740.514349937 178297604.73199463 0 0 0 0 647943940.71900177 -200994966.68119431 0 -200994966.68119431 30691860.001525879 0 0 0 0 452609591.25271893 10034337.780633926 0 10034337.780633926 -103465356.97919846 0 0 0 0 359376196.59556675 10557600.873048782 0 10557600.873048782 -54586450.646083832 0 0 0 0 491529372.81579399 -52032603.066757202 0 -52032603.066757202 -81005083.924766541 0 0 0 0 329210769.09372044 -64075442.002490997 0 -64075442.002490997 -122704884.00712585 0 0 0 0 371481996.87137127 -139816175.84997082 0 -139816175.84997082 -10425404.316478729 0 0 0 0 384680919.79744816 -111021972.7439518 0 -111021972.7439518 29476267.812705994 0 0 0 0 347819790.73949766 -54757614.792303562 0 -54757614.792303562 -127097550.21995926 0 0 0 0 430528554.01158428 -62884808.634727478 0 -62884808.634727478 -129103513.05816078 0 0 0 0 144325486.4876833 -88545725.049729347 0 -88545725.049729347 -59386883.836470604 0 0 0 0 82072830.0336321 184501288.17849386 0 184501288.17849386 -315699628.0423317 0 0 0 0 -26319450.29413414 210312625.77164841 0 210312625.77164841 -162945348.00973701 0 0 0 0 -314917166.65436149 316424627.12343931 0 316424627.12343931 -196795748.25392342 0 0 0 0 -345918879.84769726 154206731.02668476 0 154206731.02668476 -319825123.52743149 0 0 0 0 -526227976.24516487 5463531.7721357346 0 5463531.7721357346 -302256394.4120245 0 0 0 0 50871091.919862151 147770192.37597656 0 147770192.37597656 -520456476.80437469 0 0 0 0 -1179865753.5959978 -805358100.59179401 0 -805358100.59179401 -788925659.59644699 0 0 0 0 -316275869.65021777 -194176516.44774628 0 -194176516.44774628 -357143460.34759903 0 0 0 0 -1997112575.9306843 -332803642.89756012 0 -332803642.89756012 29429738.629593372 0 0 0 0 -585948973.59340382 -74145953.446012497 0 -74145953.446012497 -6738813.0660610199 0 0 0 0 -197819.74424025489 -893405.74927887274 0 -893405.74927887274 -2369616.9759939257 0 0 0 0 78283822.000279188 188205846.11835098 0 188205846.11835098 -1129021490.7812958 0 0 0 0 -61129352.39376545 -841439690.64543629 0 -841439690.64543629 -1455315043.551908 0 0 0 0 -1861089115.9798789 -191927686.34221077 0 -191927686.34221077 -124773378.95297337 0 0 0 0 121300095.45854855 -47141929.669193268 0 -47141929.669193268 -1318762796.7900496 0 0 0 0 -744923278.06384897 416487522.96097755 0 416487522.96097755 880640359.02329063 0 0 0 0 -5091477.6336174812 -1030383.0365587138 0 -1030383.0365587138 1509147.3667512564 0 0 0 0 186131689.62897909 -161942809.58362627 0 -161942809.58362627 -181348283.56653023 0 0 0 0 -30360528.191617012 71018652.333219528 0 71018652.333219528 234727849.94825411 0 0 0 0 -80372475.75347662 5183363.2735948563 0 5183363.2735948563 188765547.15177751 0 0 0 0 -57296800.150099993 8004115.644785881 0 8004115.644785881 180734146.53034496 0 0 0 0 -63951248.262229681 -8141989.4464797974 0 -8141989.4464797974 148937963.65608025 0 0 0 0 -79435276.062473834 187083766.22994995 0 187083766.22994995 451156927.30589497 0 0 0 0 -16853714.926246166 29019150.644043446 0 29019150.644043446 140559680.73001194 0 0 0 0 -501618662.34731108 36518614.032910347 0 36518614.032910347 276016091.4102478 0 0 0 0 -174933103.15327179 -230735876.48261547 0 -230735876.48261547 -56286235.434530258 0 0 0 0 -30925222.048912525 524908238.33934116 0 524908238.33934116 -45009649.809975624 0 0 0 0 -2193375.7535315556 -378533.93514762074 0 -378533.93514762074 594825.54490255984 0 0 0 0 466341132.70505047 92206390.248168945 0 92206390.248168945 -356141746.47029209 0 0 0 0 -22454188.01523304 48033910.740519047 0 48033910.740519047 -120329165.58791161 0 0 0 0 124526031.6769371 -83815037.566486359 0 -83815037.566486359 -11372804.261508942 0 0 0 0 -79106335.284095764 -37439719.200963974 0 -37439719.200963974 172924636.6454277 0 0 0 0 -1323004.5167845339 -2096334.1823635036 0 -2096334.1823635036 611372.68004382215 0 0 0 0 62493457.604207039 50108066.553281069 0 50108066.553281069 22861783.867908478 0 0 0 0 -54632593.594682693 -261089076.54335117 0 -261089076.54335117 -141564962.39858913 0 0 0 0 -251218578.3741703 -387823941.29438972 0 -387823941.29438972 -180872555.095438 0 0 0 0 19209565.362493515 -148704322.10881805 0 -148704322.10881805 -248719418.75897503 0 0 0 0 -23927783.94464922 -150799456.3685503 0 -150799456.3685503 -108717355.04712677 0 0 0 0 37727206.552262783 -109192940.37883949 0 -109192940.37883949 -27745669.449638367 0 0 0 0 -39867635.039132118 75640608.019216537 0 75640608.019216537 -85472961.175144196 0 0 0 0 -12236695.846176147 -563480903.21263027 0 -563480903.21263027 -496431828.29523754 0 0 0 0 61991205.408847094 -75222672.787398338 0 -75222672.787398338 -770537040.27770996 0 0 0 0 -187313455.65210199 -508556352.74664783 0 -508556352.74664783 -358581818.69049263 0 0 0 0 -5132611.8232020745 -1720284.1086631725 0 -1720284.1086631725 1818159.6948252534 0 0 0 0 -556173563.42426538 -282696747.06942225 0 -282696747.06942225 422899864.00475979 0 0 0 0 -2344397.0015866384 -1226505.9447939403 0 -1226505.9447939403 1009093.5022984752 0 0 0 0 -298396429.66528416 -681774930.38384843 0 -681774930.38384843 -610419637.9104085 0 0 0 0 -96692807.51792717 -516875323.3039403 0 -516875323.3039403 -360701275.40097523 0 0 0 0 -84237087.280179977 -214709296.41937685 0 -214709296.41937685 -210413148.39784813 0 0 0 0 -654302734.1481781 -360900750.70851326 0 -360900750.70851326 -201903579.07185647 0 0 0 0 -187874670.40533638 -150088617.35650015 0 -150088617.35650015 -193247246.33565855 0 0 0 0 -242865044.63015699 -35979773.7634027 0 -35979773.7634027 -416362431.70154572 0 0 0 0 -485241014.22476864 -265917331.0341202 0 -265917331.0341202 -69439090.961949348 0 0 0 0 -179422313.87590027 -223599878.80291748 0 -223599878.80291748 -165742040.07894039 0 0 0 0 -139005121.15655661 -214798445.91478884 0 -214798445.91478884 -163838817.47322369 0 0 0 0 -227095873.38759375 -328232300.04708362 0 -328232300.04708362 -388966319.46893692 0 0 0 0 -403942603.92329216 87024956.496720076 0 87024956.496720076 136863943.12938666 0 0 0 0 -112315222.40852523 -25749010.588679254 0 -25749010.588679254 -14264225.39198494 0 0 0 0 -104015783.04019928 193060055.49845648 0 193060055.49845648 119317290.37843895 0 0 0 0 26166233.125771523 -7684326.7794289589 0 -7684326.7794289589 71337925.980436325 0 0 0 0 -6340737.2721233368 71422445.53542614 0 71422445.53542614 19532900.651667595 0 0 0 0 -96735453.242547989 35858717.638768911 0 35858717.638768911 12625008.909923077 0 0 0 0 934853.55213236809 31199982.689460278 0 31199982.689460278 -6691454.1142864227 0 0 0 0 -2210655.247303009 77580622.001566947 0 77580622.001566947 96102867.17298758 0 0 0 0 6309983.716047287 24982716.888602197 0 24982716.888602197 32930000.227879465 0 0 0 0 -69592620.631320477 35983497.628499836 0 35983497.628499836 77786628.120569944 0 0 0 0 -94550679.141483307 -16103979.586463928 0 -16103979.586463928 52000013.753586292 0 0 0 0 -81000512.97429657 24050244.424018383 0 24050244.424018383 42901564.294560671 0 0 0 0 -81805699.7763834 35494674.960396171 0 35494674.960396171 -6474903.3047780991 0 0 0 0 -193709756.90200043 -53519294.698033094 0 -53519294.698033094 30459224.217196941 0 0 0 0 -220627707.28462029 -67736842.481400073 0 -67736842.481400073 72101106.540771365 0 0 0 0 -88940636.457092285 -12762354.364145517 0 -12762354.364145517 41011362.839959204 0 0 0 0 -76049000.090569019 -108372578.42221686 0 -108372578.42221686 -1418383.6920537949 0 0 0 0 -250779731.7854557 -215264824.75050259 0 -215264824.75050259 -70283993.021987319 0 0 0 0 -153982162.87458754 -125777792.32178417 0 -125777792.32178417 11778167.749637604 0 0 0 0 117640651.77421319 89692520.865507126 0 89692520.865507126 34313406.801282883 0 0 0 0 -154376522.41393805 -40492525.773442745 0 -40492525.773442745 97465239.035835266 0 0 0 0 -1526855.5321771204 319589.93714941724 0 319589.93714941724 1216087.2269394202 0 0 0 0 168178435.6510222 86866506.98592186 0 86866506.98592186 12919826.491124153 0 0 0 0 137168318.08754015 120818821.94356728 0 120818821.94356728 41337920.928515434 0 0 0 0 141933978.50039217 83284597.304641724 0 83284597.304641724 22495008.758184433 0 0 0 0 118513817.5470506 84147804.607442856 0 84147804.607442856 64488594.104925156 0 0 0 0 155853086.90012324 150737618.65062046 0 150737618.65062046 120532520.89382744 0 0 0 0 -2629550.5929161604 820506.24921504501 0 820506.24921504501 1748170.5569828302 0 0 0 0 112771375.30476665 140561979.52945709 0 140561979.52945709 137860841.76368523 0 0 0 0 116078179.93576789 106457400.64278126 0 106457400.64278126 126029627.98167038 0 0 0 0 134400663.4847587 137390296.96612152 0 137390296.96612152 95187832.133331299 0 0 0 0 -29410650.075196028 9639648.2684476376 0 9639648.2684476376 110940211.97413349 0 0 0 0 17572877.715289593 33424355.781108141 0 33424355.781108141 95587165.882005692 0 0 0 0 -44742795.670161247 29663613.007930756 0 29663613.007930756 97185016.548907042 0 0 0 0 21531846.090390682 40123537.234467506 0 40123537.234467506 -22161567.840939522 0 0 0 0 -89692171.80987978 99090084.789883494 0 99090084.789883494 -7182836.3683261871 0 0 0 0 -55829630.18933773 -9231788.9592044353 0 -9231788.9592044353 -55385519.593350649 0 0 0 0 -8405373.7686834335 46889742.635270715 0 46889742.635270715 9924646.9730806351 0 0 0 0 5607666.5416984558 22229510.894554496 0 22229510.894554496 12303581.709646851 0 0 0 0 8947698.0943002701 26941306.865909576 0 26941306.865909576 -18767627.200319052 0 0 0 0 -2288178.1083877087 39876937.707427651 0 39876937.707427651 20474438.106203556 0 0 0 0 -29946294.470016479 35376098.569672406 0 35376098.569672406 167115735.58107901 0 0 0 0 10276274.868228912 28328538.582151771 0 28328538.582151771 25198029.883819818 0 0 0 0 -5338121.5015554428 44299313.768025637 0 44299313.768025637 84129763.166555882 0 0 0 0 4355655.4510822296 20179127.637562037 0 20179127.637562037 91284810.839371264 0 0 0 0 -38304272.772005558 15447574.469481409 0 15447574.469481409 92970541.334646702 0 0 0 0 -9218166.3447888382 -3844935.055387659 0 -3844935.055387659 6006540.1855862979 0 0 0 0 -6233774.5232820511 57431354.418176174 0 57431354.418176174 115091273.16917384 0 0 0 0 214274061.39413118 -33545838.845081687 0 -33545838.845081687 -19411823.332715988 0 0 0 0 -15343673.298697697 7927789.1022929428 0 7927789.1022929428 -5826507.1674499279 0 0 0 0 11446223.761706889 131289147.94601443 0 131289147.94601443 8280031.0577015877 0 0 0 0 -137198992.98748064 191313085.62712669 0 191313085.62712669 -42972174.313620329 0 0 0 0 20072611.548449993 -22880638.069510698 0 -22880638.069510698 -28268751.57030201 0 0 0 0 -2862940.6682702973 -1169128.9268031856 0 -1169128.9268031856 1839095.8110847874 0 0 0 0 -11860609.765639782 133573062.56955385 0 133573062.56955385 20380371.893284082 0 0 0 0 -138112652.04499722 177084674.71611214 0 177084674.71611214 50312288.943835497 0 0 0 0 -230420208.29949367 -3442005.525236249 0 -3442005.525236249 244702899.05224133 0 0 0 0 130163422.4137305 37958673.074490547 0 37958673.074490547 25007792.596155167 0 0 0 0 -197610633.14501405 130451360.15581155 0 130451360.15581155 97842779.359837532 0 0 0 0 -13333469.646839544 11785071.914181102 0 11785071.914181102 -10661946.40361036 0 0 0 0 359229651.54394138 523571347.66853619 0 523571347.66853619 -523570179.44492722 0 0 0 0 186373744.21925271 80059519.76853013 0 80059519.76853013 9286864.6005635262 0 0 0 0 196968102.05198479 18787967.992477894 0 18787967.992477894 26184592.994651794 0 0 0 0 -394205050.08859253 -238178725.12940216 0 -238178725.12940216 328221459.87139416 0 0 0 0 243690027.6601944 -220002379.78542042 0 -220002379.78542042 72613156.037675858 0 0 0 0 -65012049.144134521 -78541633.542477608 0 -78541633.542477608 10457468.456094027 0 0 0 0 -100906140.84128571 -118471067.43951035 0 -118471067.43951035 55942444.489590764 0 0 0 0 -153758326.31313324 -6373012.2264709473 0 -6373012.2264709473 -12241026.951869965 0 0 0 0 -150782860.81532288 -65548291.102386475 0 -65548291.102386475 64734571.779769897 0 0 0 0 92935264.085063934 -38053821.626626492 0 -38053821.626626492 59478796.915955544 0 0 0 0 -8212310.4002988152 4876867.3956235796 0 4876867.3956235796 -1448516.4931773599 0 0 0 0 63141967.961688995 3420473.7966353893 0 3420473.7966353893 -174546684.30784369 0 0 0 0 -36604574.312591553 42749574.947600842 0 42749574.947600842 -140278275.43009472 0 0 0 0 53830906.3021698 -48770860.66001606 0 -48770860.66001606 -66057032.0834198 0 0 0 0 -125650234.37494659 -66956282.046245575 0 -66956282.046245575 -54622215.636884689 0 0 0 0 -49747962.101409912 -107412182.53300476 0 -107412182.53300476 -99232911.814098835 0 0 0 0 379221437.76019287 -189670694.95133686 0 -189670694.95133686 -21904002.962761879 0 0 0 0 -230721.22212819662 150080.28577820584 0 150080.28577820584 292719.15422543697 0 0 0 0 -196644337.45982361 -92299779.114365101 0 -92299779.114365101 111191143.1903553 0 0 0 0 -63029354.985551834 128590041.97952986 0 128590041.97952986 -249248758.49006414 0 0 0 0 -261617191.34325409 -1387639.7341976166 0 -1387639.7341976166 58045866.41113472 0 0 0 0 -22885014.42464447 -13011358.965786457 0 -13011358.965786457 8034884.9361662865 0 0 0 0 -19462077.001195908 -35973675.894658864 0 -35973675.894658864 49236794.07658124 0 0 0 0 -24932143.984675284 5924738.986070523 0 5924738.986070523 -947042.6747240735 0 0 0 0 -478006.57532623131 3958469.1742259338 0 3958469.1742259338 -270367.24103920587 0 0 0 0 16922972.300231934 46724743.277189255 0 46724743.277189255 631632.10009115934 0 0 0 0 -44268062.556992531 42776093.441664457 0 42776093.441664457 180504806.71062946 0 0 0 0 -25005707.848221231 4669858.9367868267 0 4669858.9367868267 1511351.9281146014 0 0 0 0 -117061162.48190689 -163290271.09693098 0 -163290271.09693098 215595843.68825722 0 0 0 0 -4798543.7921524048 -102616456.79537344 0 -102616456.79537344 -152556798.57922077 0 0 0 0 -6531793.1215000562 647896.28458064422 0 647896.28458064422 1897575.8385001323 0 0 0 0 35938019.438659668 -367275075.45134163 0 -367275075.45134163 121398414.78255081 0 0 0 0 36210053.334922791 -191442542.09739399 0 -191442542.09739399 -346544378.63606262 0 0 0 0 -6533391.5469360352 -41305145.934720516 0 -41305145.934720516 35934263.814496994 0 0 0 0 -136177046.04255295 101011043.59280205 0 101011043.59280205 59043257.392412186 0 0 0 0 -278894281.05622482 -117676425.940341 0 -117676425.940341 24306790.549043655 0 0 0 0 12166511.34677124 -19199007.342715263 0 -19199007.342715263 56845964.455007553 0 0 0 0 -49695450.65171814 -186242552.78930283 0 -186242552.78930283 -130656800.13500714 0 0 0 0 -85897146.054573059 -102996089.05162001 0 -102996089.05162001 35263444.968243599 0 0 0 0 60849304.908866882 -101914391.82805634 0 -101914391.82805634 -66761038.243531227 0 0 0 0 56474490.171619415 -160972864.81289086 0 -160972864.81289086 -441586598.4997921 0 0 0 0 -41482.286095269024 -1659235.7400976759 0 -1659235.7400976759 -578765.65561866108 0 0 0 0 -116244883.15955067 1190446.1504586935 0 1190446.1504586935 20620672.006534576 0 0 0 0 -231325062.93283081 56565398.839941025 0 56565398.839941025 10570407.396931887 0 0 0 0 -1763416.5551510602 -178407.44974338356 0 -178407.44974338356 741264.89432303049 0 0 0 0 -171376384.92354584 167314378.78112698 0 167314378.78112698 -77961646.1310215 0 0 0 0 583756.54557228088 -1524829.5430254936 0 -1524829.5430254936 2236994.681722641 0 0 0 0 -1352819.0671638325 -1493377.6850893565 0 -1493377.6850893565 56111.602038505953 0 0 0 0 -36087228.120456696 24650812.218636036 0 24650812.218636036 67635417.159375191 0 0 0 0 -24458.475769042969 -2527408.3042888641 0 -2527408.3042888641 4658001.9876537323 0 0 0 0 -1450067.4024100713 -1026250.0117007988 0 -1026250.0117007988 525103.99256088538 0 0 0 0 15167.749328613281 -1772432.3934392929 0 -1772432.3934392929 2264301.0894236565 0 0 0 0 99164616.042861938 -77501926.113839149 0 -77501926.113839149 128450519.70057011 0 0 0 0 -2502626.6618145788 -492624.97910340317 0 -492624.97910340317 1283061.5399494148 0 0 0 0 -21052876.341766357 -131826030.53306961 0 -131826030.53306961 185896464.94117403 0 0 0 0 244995.25741577148 -634103.97480678558 0 -634103.97480678558 7875353.0870947838 0 0 0 0 -1031611.03432611 -1054187.0279648809 0 -1054187.0279648809 315454.79294573772 0 0 0 0 44801288.751609802 -112104552.31335783 0 -112104552.31335783 88234165.726408005 0 0 0 0 -13427162.25643158 -150061902.19125104 0 -150061902.19125104 82162655.389850616 0 0 0 0 47829394.650772095 -74898331.891664505 0 -74898331.891664505 25821158.619213104 0 0 0 0 -107361649.54615402 -25913321.810293198 0 -25913321.810293198 70993481.226052284 0 0 0 0 -91897577.572350502 -117375129.41699398 0 -117375129.41699398 -61536340.803634644 0 0 0 0 -89148992.119228363 -100558932.08127987 0 -100558932.08127987 29296349.036647797 0 0 0 0 -1107238.2008085735 53698.763050185516 0 53698.763050185516 1505054.2739658095 0 0 0 0 74143326.768112183 60128098.66342926 0 60128098.66342926 24172731.346837997 0 0 0 0 53971216.066334546 -63513451.908261016 0 -63513451.908261016 58566363.715227127 0 0 0 0 78429829.54649353 -164862250.57066917 0 -164862250.57066917 90691121.974761486 0 0 0 0 203847477.48459244 -152415113.94843554 0 -152415113.94843554 56819278.056930542 0 0 0 0 -59035784.234287739 -31814607.621728122 0 -31814607.621728122 29075881.669032097 0 0 0 0 -55687229.386959076 -34011615.320703983 0 -34011615.320703983 23824819.156810284 0 0 0 0 -143697157.71854973 -58915515.772605062 0 -58915515.772605062 38848556.985672712 0 0 0 0 -75622346.973840237 809503.71791267395 0 809503.71791267395 48622444.038194656 0 0 0 0 -514586.6106262207 17282445.612283707 0 17282445.612283707 29013763.699960232 0 0 0 0 -22588264.584863663 53114073.206118584 0 53114073.206118584 65383034.794289351 0 0 0 0 -159888002.36850548 464770913.36820555 0 464770913.36820555 127142054.34320641 0 0 0 0 -21442056.911154032 5270332.4866563436 0 5270332.4866563436 868086.75626472523 0 0 0 0 -41519232.590674877 28289081.133006573 0 28289081.133006573 60434049.552217007 0 0 0 0 -35699020.319816589 22531196.973196387 0 22531196.973196387 52454337.450918913 0 0 0 0 16351235.530714035 61850783.867404222 0 61850783.867404222 63240264.623855591 0 0 0 0 257330001.7175827 -64282156.16605854 0 -64282156.16605854 -17356038.149962425 0 0 0 0 -659638243.80888367 -194589409.2293787 0 -194589409.2293787 -32169724.835906744 0 0 0 0 -235603015.6006012 442324946.99046755 0 442324946.99046755 111405874.06658936 0 0 0 0 -649634183.60146332 -385323150.09963822 0 -385323150.09963822 -355412364.98248863 0 0 0 0 -393775.70225345343 -594297.92478462867 0 -594297.92478462867 -161020.15545274271 0 0 0 0 -225765045.14279175 297562934.84796143 0 297562934.84796143 -152916625.19436646 0 0 0 0 -38579722.666782379 -40382225.510177135 0 -40382225.510177135 -226915626.58838749 0 0 0 0 -422653283.23827362 63690082.331775665 0 63690082.331775665 33032817.03301239 0 0 0 0 -180666794.3682251 38707463.449037552 0 38707463.449037552 30326246.12729001 0 0 0 0 -483098.60764932446 -428580.07810407132 0 -428580.07810407132 -217924.63341443427 0 0 0 0 38725059.580659866 99133861.572992325 0 99133861.572992325 -73678573.875811577 0 0 0 0 -197419378.94873047 389387198.43920898 0 389387198.43920898 170568307.98672295 0 0 0 0 -40024399.510803223 -290607494.07147598 0 -290607494.07147598 63987127.183515251 0 0 0 0 -18675946.866859935 4056242.3275829908 0 4056242.3275829908 1150302.3923773612 0 0 0 0 -31518578.471028328 11417237.899327755 0 11417237.899327755 42799295.771539688 0 0 0 0 15255353.286529541 71453754.582698107 0 71453754.582698107 24468149.560560703 0 0 0 0 -31987233.767032623 -27870093.741501808 0 -27870093.741501808 -7044315.8876771927 0 0 0 0 -16960390.150770187 -1796891.2243709564 0 -1796891.2243709564 3183056.2569241524 0 0 0 0 -26474884.169586182 -14157316.547653198 0 -14157316.547653198 -9716830.6995630264 0 0 0 0 -19973950.837532043 -24322629.026148319 0 -24322629.026148319 -16472750.938053131 0 0 0 0 -10337869.865890503 -6489927.9784498215 0 -6489927.9784498215 -14252185.705830097 0 0 0 0 -8088014.0413398743 -9988993.2032995224 0 -9988993.2032995224 -9046468.106584549 0 0 0 0 24349320.951087952 20492730.46460104 0 20492730.46460104 -15911921.978124619 0 0 0 0 17349336.496341705 -14614133.660337567 0 -14614133.660337567 -52055520.298994064 0 0 0 0 -21773907.221116066 -36610531.319579661 0 -36610531.319579661 -26852077.19848156 0 0 0 0 -1550966.7444557138 -1856088.7436232269 0 -1856088.7436232269 -936261.43140815804 0 0 0 0 -50285428.442955017 -29078286.864981413 0 -29078286.864981413 -10394364.354948044 0 0 0 0 84189157.375961304 36290463.310182571 0 36290463.310182571 -31982261.031863213 0 0 0 0 -18948968.275741577 -21579596.375179291 0 -21579596.375179291 -9134006.6704797745 0 0 0 0 30852421.420349121 3705494.4711532593 0 3705494.4711532593 47865415.969745636 0 0 0 0 28552823.890594482 -12493409.479558945 0 -12493409.479558945 42438144.288500786 0 0 0 0 24447091.380065918 -20749910.454547882 0 -20749910.454547882 25835198.465678215 0 0 0 0 37677555.370666504 8323923.41065979 0 8323923.41065979 13063257.321224213 0 0 0 0 35658483.253631592 19342729.732172012 0 19342729.732172012 35156655.637609482 0 0 0 0 40545103.95753479 18672813.720375061 0 18672813.720375061 24615006.322790146 0 0 0 0 165639.03657531738 -15023715.78018105 0 -15023715.78018105 -12031306.337268829 0 0 0 0 44496173.921569824 -161780.98477935791 0 -161780.98477935791 -11443604.652545929 0 0 0 0 164026.2278137207 -14859102.978027344 0 -14859102.978027344 16688478.130884171 0 0 0 0 24880687.822387695 -17395428.800851822 0 -17395428.800851822 1077450.056760788 0 0 0 0 -41238878.248046875 -21774698.169882298 0 -21774698.169882298 -34812799.662475586 0 0 0 0 -37549890.151046753 -10196805.370420456 0 -10196805.370420456 -471569.38968658447 0 0 0 0 -41078127.180099487 18766240.737558126 0 18766240.737558126 -34151374.806783676 0 0 0 0 16544960.838378906 -17673565.419166565 0 -17673565.419166565 -16281420.319643021 0 0 0 0 -33891125.826034546 2022748.292714119 0 2022748.292714119 -16108870.968947537 0 0 0 0 -105013176.06678009 -65933044.44148159 0 -65933044.44148159 56775295.619262218 0 0 0 0 102937367.97790051 -50070881.749618053 0 -50070881.749618053 -49402591.670202255 0 0 0 0 -125463843.13223267 -61703790.807135582 0 -61703790.807135582 -21747696.621236801 0 0 0 0 -151422769.98971558 -4807241.2310276031 0 -4807241.2310276031 28557314.144424438 0 0 0 0 -184413592.25839233 28519525.781990528 0 28519525.781990528 8739420.2030391693 0 0 0 0 -158304724.19758701 33726809.652627826 0 33726809.652627826 -42809504.838623047 0 0 0 0 -348844.19145046733 -204542.31122832559 0 -204542.31122832559 270573.9955896493 0 0 0 0 -253102596.18544579 106442349.49896055 0 106442349.49896055 -24025816.638801575 0 0 0 0 -265953234.52407074 10002152.243310928 0 10002152.243310928 38492527.506183624 0 0 0 0 -151061938.00948334 41443360.210490227 0 41443360.210490227 -18424924.689315796 0 0 0 0 -250857120.77240372 107213216.91074777 0 107213216.91074777 -24885464.546262741 0 0 0 0 -31372925.134021759 2079082.4714877605 0 2079082.4714877605 -194266.69351863861 0 0 0 0 -223568.00565211382 -239924.90968034975 0 -239924.90968034975 86368.496434293687 0 0 0 0 -30484080.720245361 6138636.1846427917 0 6138636.1846427917 -13911502.652226806 0 0 0 0 -26896309.403503418 4913498.6974973679 0 4913498.6974973679 1357410.5870399475 0 0 0 0 -19727379.217971802 -582777.65508770943 0 -582777.65508770943 7445395.8427066803 0 0 0 0 -7857396.2998809814 -6697579.0914416313 0 -6697579.0914416313 1690388.9368619919 0 0 0 0 -12608294.484531403 -7919261.0255393982 0 -7919261.0255393982 11741707.282600403 0 0 0 0 11112867.843772888 -14539453.495925903 0 -14539453.495925903 1652549.7752285004 0 0 0 0 6614466.5729370117 -27694218.918885708 0 -27694218.918885708 -1849046.7093219757 0 0 0 0 -14540347.224781036 -16954267.419121742 0 -16954267.419121742 4825739.1170272827 0 0 0 0 -11613131.090209961 -15492254.606259346 0 -15492254.606259346 3003091.6318101883 0 0 0 0 -13028972.874023438 -36486347.187965393 0 -36486347.187965393 -5290700.3077104092 0 0 0 0 -52222918.087486267 -8325855.6197423935 0 -8325855.6197423935 5982311.1122303009 0 0 0 0 -3257054.1686782837 -21788419.593400478 0 -21788419.593400478 7043109.5571269989 0 0 0 0 24640790.044815063 -19079216.251564026 0 -19079216.251564026 -1322308.3915287256 0 0 0 0 -1545933.5730285645 -1777440.4045534134 0 -1777440.4045534134 -942926.34373474121 0 0 0 0 -492818.18029072322 -2976605.7378623616 0 -2976605.7378623616 -3206821.5342943594 0 0 0 0 40675243.782497406 -15019046.14846921 0 -15019046.14846921 -2848394.3625793457 0 0 0 0 30059871.960830688 -29271491.309515953 0 -29271491.309515953 10520969.11555481 0 0 0 0 -2308275.0696194917 -1003973.4251253232 0 -1003973.4251253232 626311.3887805636 0 0 0 0 -13164403.272369385 -15095792.847768784 0 -15095792.847768784 -16104274.613992691 0 0 0 0 -3784441.3568344004 -4491849.4161403552 0 -4491849.4161403552 -356199.82841510791 0 0 0 0 25940316.490066528 -13348426.495517731 0 -13348426.495517731 1192831.2236366272 0 0 0 0 -1566338.7808914185 8590285.2460131645 0 8590285.2460131645 54360911.090929985 0 0 0 0 -6082532.3142623901 -4008386.9017291069 0 -4008386.9017291069 47634774.705495834 0 0 0 0 9187375.3025875092 -19766239.878841281 0 -19766239.878841281 -288641.5089969635 0 0 0 0 -3796295.2095013447 -5270153.5834541526 0 -5270153.5834541526 -4456066.8424608968 0 0 0 0 6778658.2085342407 -9946249.5731067657 0 -9946249.5731067657 -20237931.897562027 0 0 0 0 -492968.52464810014 -2193509.5208952464 0 -2193509.5208952464 -1267419.4761010334 0 0 0 0 -4922244.1400547847 -1731322.3669418879 0 -1731322.3669418879 4527351.10269689 0 0 0 0 -31921220.78036499 -42751710.21492815 0 -42751710.21492815 8644102.6799089313 0 0 0 0 -5490792.3023846112 -1173358.4467813782 0 -1173358.4467813782 4239589.644348002 0 0 0 0 -12547061.735610962 -11357003.564808846 0 -11357003.564808846 -1818240.2139911652 0 0 0 0 -21715464.021453857 -16611427.106369019 0 -16611427.106369019 -3452746.5623164177 0 0 0 0 -9346754.6605682373 -6311627.6037240028 0 -6311627.6037240028 -18493304.999433517 0 0 0 0 -31305141.113708496 -2824247.606959343 0 -2824247.606959343 7251669.1949491501 0 0 0 0 -14973727.858795166 -12621521.819608688 0 -12621521.819608688 -1537659.5795040131 0 0 0 0 -13172388.106402397 -529038.74766874313 0 -529038.74766874313 2336952.2949810028 0 0 0 0 -12956556.927294731 -16946595.193780005 0 -16946595.193780005 -27333105.525684357 0 0 0 0 -1144676.0806697719 80019.45864084363 0 80019.45864084363 1153643.2567001153 0 0 0 0 2491501.1364212036 -2175109.8980021477 0 -2175109.8980021477 313519.82678413391 0 0 0 0 -2384242.120544849 -1086663.8370363452 0 -1086663.8370363452 1084865.3444030397 0 0 0 0 1814408.0054473877 -4343354.2948460579 0 -4343354.2948460579 4848321.092952013 0 0 0 0 1145013.5303039551 -1347852.4468550682 0 -1347852.4468550682 2202410.7205348015 0 0 0 0 8329583.7504806519 34873319.554232121 0 34873319.554232121 -24135344.033229351 0 0 0 0 -105377942.80174255 -928398.3094625473 0 -928398.3094625473 9895712.7452054024 0 0 0 0 67010024.824813843 7798340.9393159747 0 7798340.9393159747 -49139.613649368286 0 0 0 0 22375333.725421906 12692919.224963903 0 12692919.224963903 10773938.138835907 0 0 0 0 279587.37543718144 -553080.56866418757 0 -553080.56866418757 111893.40403056564 0 0 0 0 1305645.5840759277 -1000279.8925199509 0 -1000279.8925199509 -1085854.223947525 0 0 0 0 -3941910.4847412109 -7740834.5856161118 0 -7740834.5856161118 4300246.0675020218 0 0 0 0 3812997.915802002 -6275383.3507118225 0 -6275383.3507118225 -10496832.223351359 0 0 0 0 -8941583.0623435974 -19973186.874039769 0 -19973186.874039769 -11809268.53012085 0 0 0 0 -301234797.6126709 -26812382.232369423 0 -26812382.232369423 48977144.599665642 0 0 0 0 -216359777.24325562 78151101.670623302 0 78151101.670623302 -12977509.062215805 0 0 0 0 -330828.82728007436 -195151.49535765313 0 -195151.49535765313 148660.29150569905 0 0 0 0 -112181694.1262207 -19852285.179473877 0 -19852285.179473877 -25123095.808976173 0 0 0 0 -247937811.56191254 139705975.3180846 0 139705975.3180846 -46718190.424535751 0 0 0 0 -817209.59769439697 -847934.66255712509 0 -847934.66255712509 3442619.4786500931 0 0 0 0 -120499122.29147339 73721979.064452171 0 73721979.064452171 -45848557.442480393 0 0 0 0 -606661.88967769593 -626838.28232649341 0 -626838.28232649341 196963.65070611285 0 0 0 0 -138757489.94634056 43482377.477716804 0 43482377.477716804 15859677.371323586 0 0 0 0 -75395949.899965286 15846712.284615993 0 15846712.284615993 276578.98412036896 0 0 0 0 -120679657.12605286 61954217.062277317 0 61954217.062277317 -8147467.7073569298 0 0 0 0 -156129040.53009033 63423066.060830593 0 63423066.060830593 -5256751.4545707703 0 0 0 0 -170731725.22264862 50270474.463467121 0 50270474.463467121 -8642488.684489727 0 0 0 0 -566910.5059350729 -299927.54821835458 0 -299927.54821835458 483581.96411990095 0 0 0 0 -198795749.9167099 69232328.329511404 0 69232328.329511404 16014200.893567085 0 0 0 0 -175346568.09178162 39031242.24468565 0 39031242.24468565 -24944804.953644753 0 0 0 0 -569519.16463350505 -584222.77106821164 0 -584222.77106821164 165425.44515936915 0 0 0 0 -161400899.50282288 11842406.716179609 0 11842406.716179609 -21188933.897033691 0 0 0 0 -55164208.170806885 45914835.065105915 0 45914835.065105915 -59750.854585170746 0 0 0 0 -157055043.4708786 24811371.967569828 0 24811371.967569828 15688215.341514587 0 0 0 0 -116100194.04367065 62702657.035031796 0 62702657.035031796 -15090270.939983368 0 0 0 0 -279053.11910301447 -1107739.5965127479 0 -1107739.5965127479 -29487.992869362235 0 0 0 0 -8654285.6867275238 -46456652.271617532 0 -46456652.271617532 22412114.875398636 0 0 0 0 -69310631.44288826 15933176.429149866 0 15933176.429149866 27681457.850873947 0 0 0 0 832168.0219039917 -2582940.444756031 0 -2582940.444756031 2971380.9546160698 0 0 0 0 -13536500.925226212 -46274202.767170668 0 -46274202.767170668 -37259829.736780167 0 0 0 0 -2576665.7317826133 -1475836.4670041557 0 -1475836.4670041557 938841.7273779409 0 0 0 0 -336341761.12984467 62796714.467366219 0 62796714.467366219 23083651.446763515 0 0 0 0 -416995353.10107231 -63149338.397552133 0 -63149338.397552133 81532350.461099625 0 0 0 0 -370359162.39522552 -82219089.790417194 0 -82219089.790417194 77352236.576863766 0 0 0 0 -380958662.68452835 -46345400.660058737 0 -46345400.660058737 83556770.220433235 0 0 0 0 -126904740.50706482 40366090.3173666 0 40366090.3173666 10053032.323232174 0 0 0 0 -360410483.35653687 -50716447.050352097 0 -50716447.050352097 45997041.459811211 0 0 0 0 36318.449177477509 -202861.8094704207 0 -202861.8094704207 8304.1161191309802 0 0 0 0 -367069768.21424866 -24082102.944398403 0 -24082102.944398403 40824581.157431364 0 0 0 0 -45976662.611719131 -79260888.542327046 0 -79260888.542327046 -48232656.266816139 0 0 0 0 -165606442.23294258 -121145085.23048878 0 -121145085.23048878 -23646122.959692001 0 0 0 0 -365464863.9223671 -27040683.095402002 0 -27040683.095402002 28100073.528887749 0 0 0 0 -560632028.86154938 -4080762.6312732697 0 -4080762.6312732697 26091610.284519672 0 0 0 0 -425802964.90667343 115332253.41232109 0 115332253.41232109 -30433647.93705368 0 0 0 0 -182874260.53630066 -107153716.65390015 0 -107153716.65390015 -83240742.131111145 0 0 0 0 -289624506.85458374 -43234018.722669601 0 -43234018.722669601 20821780.022969246 0 0 0 0 -427102514.7947731 -180045055.57394099 0 -180045055.57394099 16106818.794271469 0 0 0 0 -527628.34282143787 -275644.6501607208 0 -275644.6501607208 126821.08843394602 0 0 0 0 57266482.759735107 44843765.592084527 0 44843765.592084527 -51887546.672952652 0 0 0 0 -140455641.65866852 -36831328.296992302 0 -36831328.296992302 -38256705.997524977 0 0 0 0 -317173220.94881058 30571273.481201649 0 30571273.481201649 3034755.6583157778 0 0 0 0 -313690371.99258804 41865525.525318623 0 41865525.525318623 -44013805.677694798 0 0 0 0 -393302328.61807632 17351865.265019894 0 17351865.265019894 -19176957.229795456 0 0 0 0 -163623499.79795456 -90166445.899988413 0 -90166445.899988413 -39873143.945772171 0 0 0 0 -56875.891327157617 -109186.91573686339 0 -109186.91573686339 -310179.10354242241 0 0 0 0 -56479785.091213226 22962573.40685463 0 22962573.40685463 -142442058.63024569 0 0 0 0 -332683836.24979973 -102945453.76645803 0 -102945453.76645803 77900733.259254456 0 0 0 0 -353548510.75517273 -60801702.207086086 0 -60801702.207086086 -5353506.5432826281 0 0 0 0 -358768252.64083481 -59182968.527300239 0 -59182968.527300239 88614014.792312145 0 0 0 0 -39440.37495919317 -204072.43658092059 0 -204072.43658092059 -781547.206967148 0 0 0 0 -29034905.583545685 59230781.23324585 0 59230781.23324585 -40059494.354766846 0 0 0 0 58272452.207202911 61884052.678110123 0 61884052.678110123 7215201.2316508293 0 0 0 0 -60589709.095542908 28074611.718471289 0 28074611.718471289 -2508099.8362102509 0 0 0 0 14673425.404304504 13811140.182233334 0 13811140.182233334 -39212545.098024309 0 0 0 0 8902904.8459777832 -43443443.743227005 0 -43443443.743227005 23320222.048012733 0 0 0 0 25369894.530975342 -3422187.979596138 0 -3422187.979596138 -32283319.403532028 0 0 0 0 43332934.962150574 -16559484.767148495 0 -16559484.767148495 -33146632.974087715 0 0 0 0 36577366.624977112 -8651407.2692489624 0 -8651407.2692489624 -37799499.266198158 0 0 0 0 161987824.78385925 -46924185.982739925 0 -46924185.982739925 -26148968.139250994 0 0 0 0 23142646.237277985 -111749311.93876469 0 -111749311.93876469 56748853.506579399 0 0 0 0 -38002824.914337158 -35216985.446868896 0 -35216985.446868896 25425908.5212183 0 0 0 0 -106067253.62297058 -81192645.271884918 0 -81192645.271884918 88515080.252580643 0 0 0 0 -1643941.3820304871 -57681844.432555437 0 -57681844.432555437 37698760.303758621 0 0 0 0 -107082490.52185059 52620.08595085144 0 52620.08595085144 50582856.182574272 0 0 0 0 -24340472.58795929 -15581340.433437347 0 -15581340.433437347 53499254.626424074 0 0 0 0 -4184724.6723175049 -72700557.503656387 0 -72700557.503656387 -22398384.70686841 0 0 0 0 -773456.11637444422 -8723.0558757353574 0 -8723.0558757353574 948724.40987221897 0 0 0 0 -94083594.003845215 -1061029462.2926865 0 -1061029462.2926865 374716223.40654373 0 0 0 0 16531534.317047119 186907084.88311768 0 186907084.88311768 -442719452.31784058 0 0 0 0 141869209.20439339 -33529903.803481579 0 -33529903.803481579 -11312386.50001812 0 0 0 0 -840623.57569243386 -1347674.4150824305 0 -1347674.4150824305 -20583.106321452186 0 0 0 0 -27906238.892261505 93296752.644562006 0 93296752.644562006 122670976.68537617 0 0 0 0 124678474.71094513 3380702.826300621 0 3380702.826300621 -4874128.8562531471 0 0 0 0 -1433150.0108998045 -4894870.6313873976 0 -4894870.6313873976 -4508665.8175754081 0 0 0 0 93758493.841323853 118531.04853868484 0 118531.04853868484 -3468791.6737928391 0 0 0 0 85843764.490509033 -41508291.790801048 0 -41508291.790801048 -10696255.989697933 0 0 0 0 324242.24639892578 -13297918.698841095 0 -13297918.698841095 5688065.5020866394 0 0 0 0 807084.98088932037 -11310268.013134003 0 -11310268.013134003 5797621.2984275818 0 0 0 0 -1920546.1012415886 -11702310.827010095 0 -11702310.827010095 8398520.227848053 0 0 0 0 589605.74893951416 -61660671.445354939 0 -61660671.445354939 -25746046.269463539 0 0 0 0 22088961.974876404 14524122.342760563 0 14524122.342760563 -71020652.391050339 0 0 0 0 27795495.982795715 -20740581.095493793 0 -20740581.095493793 57042776.862655163 0 0 0 0 109555751.33213043 -66019591.587533951 0 -66019591.587533951 -6817344.0688815117 0 0 0 0 99158253.247810364 -54794717.443365097 0 -54794717.443365097 -19982888.197303057 0 0 0 0 25639817.714782715 -28613591.471515656 0 -28613591.471515656 -2302757.4561777115 0 0 0 0 80832198.837924957 -63745427.693928719 0 -63745427.693928719 40774620.016294479 0 0 0 0 -24078360.538734436 -67071298.711043358 0 -67071298.711043358 -14635877.41131866 0 0 0 0 -78882226.659238815 15121244.393063068 0 15121244.393063068 -32512483.48141098 0 0 0 0 5430694.2400588989 -25889493.222475052 0 -25889493.222475052 42834972.566961288 0 0 0 0 19216205.024040222 -109401681.29522943 0 -109401681.29522943 51198505.93972373 0 0 0 0 -227897.12385992333 10731.315529559739 0 10731.315529559739 199854.14799068123 0 0 0 0 88484801.074263096 -134818163.59627217 0 -134818163.59627217 7534939.9735574722 0 0 0 0 -1145681.1268745959 -3713156.239988545 0 -3713156.239988545 -4574704.3504602481 0 0 0 0 11767123.761375427 -23691412.538170815 0 -23691412.538170815 16215440.785022736 0 0 0 0 23480271.864967346 -17978230.033846855 0 -17978230.033846855 11777730.876195908 0 0 0 0 9353818.4263458252 -15858952.559267998 0 -15858952.559267998 19516656.088258743 0 0 0 0 99228834.387114048 57652432.494000241 0 57652432.494000241 39117530.00414753 0 0 0 0 111183640.623909 -207952197.7986331 0 -207952197.7986331 -24118.082310199738 0 0 0 0 -1773195.0426483154 -12404701.481393814 0 -12404701.481393814 8765056.1737823486 0 0 0 0 -2500258.1307449341 -12916452.886249542 0 -12916452.886249542 12594719.74646616 0 0 0 0 651074.96212768555 -15406764.444499969 0 -15406764.444499969 11899984.065937042 0 0 0 0 13217932.237430573 -19160538.627728462 0 -19160538.627728462 9507225.2462520599 0 0 0 0 6070717.9170417786 -12468070.399862289 0 -12468070.399862289 5865317.8105125427 0 0 0 0 949951.37113189697 -15843862.040809631 0 -15843862.040809631 17213414.748445511 0 0 0 0 8667207.9112930298 -17983678.794384003 0 -17983678.794384003 13025753.806751251 0 0 0 0 2591526.8249702454 -15281664.044748306 0 -15281664.044748306 12397893.342601776 0 0 0 0 2027015.7233963013 -15572976.304536819 0 -15572976.304536819 15447187.8223629 0 0 0 0 -4118413.1029281616 -13257155.919324875 0 -13257155.919324875 14147208.451935768 0 0 0 0 -3193982.6767196655 -11626131.006822586 0 -11626131.006822586 11020628.674724579 0 0 0 0 -2549473.8863677979 -13112198.139637947 0 -13112198.139637947 11958948.563438416 0 0 0 0 -5735928.3678379059 -12430578.052041113 0 -12430578.052041113 12961833.649719238 0 0 0 0 -8667310.8297920227 -13527524.192620516 0 -13527524.192620516 10590605.469921112 0 0 0 0 -2198831.0484352112 -11422055.734430313 0 -11422055.734430313 2650494.879907608 0 0 0 0 -3300280.3703613281 -10207170.422880173 0 -10207170.422880173 11191398.802918434 0 0 0 0 1694644.7689819336 -13860936.363858223 0 -13860936.363858223 9829110.9554786682 0 0 0 0 4532571.4685440063 -11795404.851765633 0 -11795404.851765633 11084749.447446823 0 0 0 0 878962.0895690918 -14690122.79566431 0 -14690122.79566431 8913447.2944526672 0 0 0 0 -6184843.5165557861 -13791979.083809853 0 -13791979.083809853 3405513.0264263153 0 0 0 0 -1465846.5392150879 -9678744.6541872025 0 -9678744.6541872025 6732204.4009685516 0 0 0 0 -11275724.564311683 -6818881.3025311064 0 -6818881.3025311064 450649.19063858688 0 0 0 0 -7414768.2684707642 -5922778.2676496506 0 -5922778.2676496506 4597588.3230476379 0 0 0 0 44913614.99792695 -50238479.232685804 0 -50238479.232685804 -50075798.959664345 0 0 0 0 -1013352.0989634693 -2755921.5097703142 0 -2755921.5097703142 -3582890.148183451 0 0 0 0 23885869.697593689 -37471216.760910034 0 -37471216.760910034 21439195.567308426 0 0 0 0 3464048.0765533447 -24176053.741625786 0 -24176053.741625786 27858024.909052372 0 0 0 0 6149871.7212142944 -20705432.848340988 0 -20705432.848340988 16813581.484489441 0 0 0 0 9957427.533821106 -12242307.817975044 0 -12242307.817975044 6742286.7121114731 0 0 0 0 -2132311.2924804688 -19216161.867477417 0 -19216161.867477417 1815026.7861852646 0 0 0 0 2899911.298620224 -19161471.201066256 0 -19161471.201066256 1282899.8605499268 0 0 0 0 20855038.753761292 -919655.05132770538 0 -919655.05132770538 -15070789.555562973 0 0 0 0 7334559.0730819702 -35138374.926511765 0 -35138374.926511765 -2758350.3462839127 0 0 0 0 224561.47297668457 -51714471.775997162 0 -51714471.775997162 -35750807.090702057 0 0 0 0 26670133.104446411 -82019220.034732819 0 -82019220.034732819 -2388040.3536947966 0 0 0 0 -919755.43882507086 -1592224.1412608763 0 -1592224.1412608763 -1568995.5626655743 0 0 0 0 116800857.45706177 -135737773.77106285 0 -135737773.77106285 -313894313.99712896 0 0 0 0 24693067.954963684 21872286.213010788 0 21872286.213010788 -171031992.16691589 0 0 0 0 442851022.93221283 -217785624.44045925 0 -217785624.44045925 -30936513.744586945 0 0 0 0 -40079511.084579468 -254639855.04827785 0 -254639855.04827785 51487476.515000701 0 0 0 0 -857638.45793385059 -25827.973175363615 0 -25827.973175363615 546592.28980496526 0 0 0 0 75407097.719332933 150707257.52767566 0 150707257.52767566 1278030.0832452774 0 0 0 0 -1163039855.5568619 373405172.63596106 0 373405172.63596106 229586286.07786179 0 0 0 0 -409606022.39969635 450844170.89481592 0 450844170.89481592 167614301.07468176 0 0 0 0 -1715719546.8664551 -803253221.39740372 0 -803253221.39740372 -1278681867.5843239 0 0 0 0 -876688.32362702489 -4971.9382336093113 0 -4971.9382336093113 555547.0495281592 0 0 0 0 -65746331.430443764 278456294.4375006 0 278456294.4375006 85765925.698513031 0 0 0 0 -82342315.808647156 186960074.93577433 0 186960074.93577433 -258236402.66726875 0 0 0 0 178614064.45620728 240573874.85830593 0 240573874.85830593 -152483290.57839584 0 0 0 0 218229813.61841202 341995921.87426043 0 341995921.87426043 104128768.74766922 0 0 0 0 -249436378.50737 -133274174.38900757 0 -133274174.38900757 209836973.51272583 0 0 0 0 -264663649.12709045 -227650855.81386757 0 -227650855.81386757 -124411694.8958087 0 0 0 0 78405632.155303955 1241070044.7875314 0 1241070044.7875314 355796216.73701477 0 0 0 0 -549086739.60784149 -471209955.86341763 0 -471209955.86341763 -332880997.82132339 0 0 0 0 -1073007395.6494131 320782674.44834697 0 320782674.44834697 -15086523.118297577 0 0 0 0 -2802963.8235277981 1242458.7065844317 0 1242458.7065844317 -516277.22069381719 0 0 0 0 -325793124.79450989 -344623635.87901402 0 -344623635.87901402 -674610964.1111722 0 0 0 0 -195916550.30418396 414690594.50217247 0 414690594.50217247 -461741094.75034189 0 0 0 0 -123342197.54220963 92501947.093505859 0 92501947.093505859 -108277330.00998116 0 0 0 0 -573716343.96627426 -144607891.9288764 0 -144607891.9288764 50864812.502325058 0 0 0 0 -27083806.260603428 -27857327.038822174 0 -27857327.038822174 -339415847.31144238 0 0 0 0 -271044121.536026 -240885246.18787575 0 -240885246.18787575 -248291015.06089926 0 0 0 0 -1224854253.473587 -418369480.44296646 0 -418369480.44296646 -63400749.08490181 0 0 0 0 -542512203.76282501 -68857637.724401474 0 -68857637.724401474 95326261.112803459 0 0 0 0 -519776595.93150711 60278234.658957005 0 60278234.658957005 214524151.85782528 0 0 0 0 -782985034.23052216 3963226.2817592621 0 3963226.2817592621 232026027.27790737 0 0 0 0 -522811371.21593857 60679772.372672796 0 60679772.372672796 230581843.01684761 0 0 0 0 -323792886.0736084 -85736293.325440407 0 -85736293.325440407 92121649.487657547 0 0 0 0 -310291564.88256836 -29124522.438700676 0 -29124522.438700676 98123733.701475143 0 0 0 0 -265657179.30149841 -22055465.677566528 0 -22055465.677566528 94596887.891590834 0 0 0 0 -272922335.45573425 -76712194.014621735 0 -76712194.014621735 90456085.990485191 0 0 0 0 -294058343.05240631 155964843.27334404 0 155964843.27334404 138361183.20001006 0 0 0 0 -521557328.61951447 35867219.060508251 0 35867219.060508251 205164104.06878853 0 0 0 0 -478355230.49471283 -87878300.001532555 0 -87878300.001532555 -37751316.028122649 0 0 0 0 -339080511.58197927 15708572.349974871 0 15708572.349974871 67807094.499801636 0 0 0 0 -333179237.6210556 57474073.248375893 0 57474073.248375893 107775883.66817665 0 0 0 0 -114255941.79228973 32534404.236964226 0 32534404.236964226 52486301.467463017 0 0 0 0 37331731.215232849 -33952425.867981255 0 -33952425.867981255 -9001846.1396465302 0 0 0 0 -126965097.17282104 -5963125.7131171227 0 -5963125.7131171227 23038730.836399078 0 0 0 0 -2909996.4707565308 -34523532.415786266 0 -34523532.415786266 73551937.850045204 0 0 0 0 -113568731.76152039 35492480.77544117 0 35492480.77544117 62822231.687161446 0 0 0 0 41809405.596809387 168456313.42720509 0 168456313.42720509 34505888.266231537 0 0 0 0 -343831987.96095276 159157648.57017279 0 159157648.57017279 73288847.437690735 0 0 0 0 -442425614.04889679 37164326.428032875 0 37164326.428032875 112073316.42362821 0 0 0 0 
</DataArray>
<DataArray type="Float64" Name="cross_section_updated" format="ascii">
1 1 1 1 1 0.048915632462656615 1 1 1 1 1 1 1 0.049959035575826698 1 1 1 1 0.050068330960264557 1 1 0.0482641926915338 1 1 1 1 0.049256499142631124 1 1 1 1 0.047392612000473358 1 1 1 1 1 1 1 1 1 1 1 1 1 0.050028200198109579 1 1 0.050054493342189199 1 1 1 1 1 0.049747836421232115 1 1 1 1 1 1 1 0.048586199782921731 1 1 1 1 0.048865187276181853 1 1 1 1 1 1 1 1 1 0.048813944605929707 1 1 0.047481890443114141 1 1 0.044039231223376149 1 1 1 1 0.050136886135560006 1 1 1 1 1 1 1 0.044096937279344953 0.050019690200055679 0.053209326106028937 1 1 0.052354585077964103 1 1 1 1 1 0.047821783475465299 1 1 1 1 1 1 1 1 1 1 1 1 1 0.050284084723470748 1 1 1 0.051020939179293387 1 1 1 1 1 1 0.050215651466809237 1 1 1 1 1 1 1 1 1 1 1 1 1 1 1 1 1 1 1 1 1 1 1 1 1 0.050006578679247848 1 1 1 0.049741517039851829 1 1 0.050337467605970847 1 1 1 1 1 1 1 1 1 1 1 0.049854179882501397 1 1 1 1 1 1 1 1 0.049388938322600134 1 1 1 1 1 1 1 1 0.048780796009083763 1 1 1 1 1 1 1 1 1 0.049917065199132742 1 1 1 1 1 1 1 1 1 1 1 1 1 1 1 1 1 1 1 1 1 1 1 0.049994588780259842 1 1 1 0.047913566540782979 1 0.049976679412747832 1 0.049283230319967848 1 1 0.045141726052388163 1 1 1 0.049495538220410321 1 0.048994525429161578 1 0.048449088896737255 1 0.049158676349695056 0.046059986994176981 1 0.04833572732902347 1 1 0.047117060605110984 1 0.048750721208738801 1 1 1 0.049135648834223201 1 0.049503654970432236 0.048721666370131464 1 1 0.048699724716907512 1 1 1 0.049764242209463821 1 0.048968177415589786 0.048959361852884152 0.050168062028730406 1 0.04916326184446107 1 1 1 0.050017969606798274 1 0.049068017832046285 0.048777899443992023 0.05001570478293807 1 1 0.04659684732844617 0.046095343454458829 1 1 1 1 0.044840807813071468 1 0.050030687959779073 1 1 0.049250733503888443 1 1 1 0.049797149447141031 1 0.049962282926322772 0.049549925397057021 0.050312707533257846 1 1 1 0.049338704221470762 1 0.049647291288307319 0.048075508248008159 0.049321044753107321 0.048534691428489582 1 1 1 0.049215334293587154 0.050000112069261513 1 1 0.050186943982470013 0.048765513936565572 0.049459974475685689 1 0.049589480231609209 1 1 1 1 0.050000458597788663 1 1 1 1 1 1 1 0.04834526414527926 1 1 1 1 1 1 0.049676094049461425 0.050000704413607239 1 1 1 0.048347921830615981 1 1 1 0.049987179612344987 1 0.049380849184284356 1 0.052546270882078958 0.045431338184794723 1 1 1 1 0.049945083041657561 1 1 0.045604931309581091 1 1 1 1 0.049984679483225089 1 0.050022890434073125 1 1 1 1 1 0.051053121301041282 0.044522810891878109 1 1 1 1 1 1 1 1 0.050065420651978394 1 1 1 0.050464343346681539 1 1 0.046799937082816517 1 0.050002558268557443 1 1 1 1 1 1 1 1 1 1 1 0.04607191152535204 1 0.049794398194464053 1 0.04657752926783517 1 1 1 0.050588082198156983 1 0.049995887752143753 1 0.049635541619955051 1 1 1 1 1 1 0.04849478483061273 1 0.048156784983964127 1 1 1 0.04844302988640569 1 1 1 0.048221318305223151 1 0.049017849389575721 0.050095179477354139 1 1 1 1 0.046100470924094542 1 1 1 1 0.046083161725389385 0.050512372391075366 1 1 0.050461970519620175 1 0.049281555016764352 1 0.046510421716907641 0.047016157692738342 1 1 1 0.049973471681183129 1 1 1 1 0.047882094946228047 1 1 1 1 1 1 1 1 1 1 1 0.049997158430216869 1 1 1 1 0.046631476716264289 1 1 1 0.048857573170796802 1 0.050060804479689656 0.049993593652345125 0.050000252835467794 1 1 1 0.047962928066383671 0.045359736495233102 1 0.044083649885797958 1 1 0.049859849879652814 1 1 1 1 0.04398509457374946 1 1 1 1 1 1 1 1 1 1 1 0.043265264564411467 0.05135864957552666 1 1 0.04637368943918508 1 1 1 0.050003529267597886 1 1 1 1 1 1 0.046186013554217663 1 1 1 0.05299116894787597 1 1 1 0.047492492861612681 1 1 1 1 1 1 1 1 1 1 1 0.047761630578434654 1 1 1 0.049391953633091998 1 1 1 1 1 1 1 0.049912939780659096 1 1 1 1 1 0.049904095015483124 1 1 1 1 1 1 1 1 1 1 1 1 1 1 1 1 1 1 1 0.040972006809761631 1 1 1 1 0.04299177877319138 1 1 0.047128340998448016 1 1 1 1 1 1 1 0.050033678584192338 1 1 1 1 1 1 1 1 0.050228661172748587 1 0.050399025694584682 1 1 0.042423071808761759 1 1 1 0.04292998839463745 1 1 0.039637936078938146 1 1 1 0.049586874772534553 1 0.048593074353803473 1 1 0.050006218977965672 1 0.039697168690332567 1 1 1 1 1 1 1 1 1 1 1 1 1 1 1 1 1 1 1 1 1 1 0.049520471869695437 1 0.049834601073449537 1 0.049915856296247577 1 1 1 1 1 1 1 1 1 1 1 1 1 1 1 0.049787673415221313 1 1 1 1 1 1 1 1 1 0.049732798454474127 1 1 1 1 1 1 1 1 1 1 1 1 1 1 1 1 1 1 1 1 1 1 1 1 1 1 1 1 1 0.049069362942379915 1 1 0.049134177452567721 1 1 1 0.045748975124496619 0.05011530687448422 1 0.048214295140694488 1 1 1 1 1 0.045550106925745841 1 1 1 1 1 0.04617881680396254 1 1 1 1 1 1 1 1 1 1 1 1 1 1 1 1 1 1 1 1 1 1 1 1 1 1 1 1 1 1 1 1 1 1 1 1 1 1 1 1 1 1 1 1 1 1 1 1 1 0.04902370847747213 1 1 1 1 1 1 1 1 1 1 1 1 1 1 1 0.047461802544626987 1 1 1 1 0.04870748951119272 1 1 1 1 1 1 1 1 1 1 1 1 1 1 1 1 1 1 1 1 1 1 1 1 1 1 1 0.047881533649292415 1 1 0.049716546508294893 1 0.046811717831242654 0.049597158998479815 0.051367720497577478 0.050266420489047364 1 1 0.050039055820440631 1 1 1 1 1 1 1 1 1 1 1 1 1 1 1 1 1 0.046047942951642634 1 1 0.045254487002993296 1 0.048103036085201577 1 1 1 1 0.044140016997998383 1 0.050168681590043222 1 1 1 1 0.049968240334182457 1 1 1 0.049176535527162273 1 1 1 1 1 0.049459985883572935 1 0.047703563836737475 1 1 0.049808553456933323 0.04766724038315763 1 0.048452616904374857 1 1 1 1 1 1 1 1 1 1 1 0.042935469291313089 1 1 1 0.044586754285382134 1 1 1 0.047071459342338792 1 1 0.044571432638566402 0.050276697609514878 0.050085472203838938 1 1 1 1 1 1 1 1 1 1 1 0.050002311650105401 1 1 1 1 1 1 1 1 0.045422607851769395 0.041592178012306642 0.046290720651657881 1 1 1 1 1 1 1 1 0.042679139046072782 0.049948477577994525 1 1 1 0.051444913392805228 1 1 0.049775723248491638 1 1 1 1 1 1 1 1 1 1 1 0.049907204135472248 1 1 1 1 1 1 1 1 0.050077558532994337 1 1 1 1 1 1 1 1 1 1 0.050016740436117896 1 0.048202090868369907 0.042460803828626686 0.050273125478209266 1 1 1 1 1 1 1 0.04562416066209446 0.039913810395345015 1 0.05056068786844211 1 1 1 1 1 0.048513438069295832 1 0.050158511666331632 0.048702500260950389 1 1 1 0.047167673254206996 1 0.046046243969275528 1 1 1 1 0.049993046770088229 1 1 1 1 1 1 1 1 1 1 1 1 1 1 1 1 1 0.047262990382590693 1 1 1 0.044746363319312928 1 1 1 1 1 0.048848407481918835 1 1 1 1 1 1 0.046160524542780593 1 0.048508468994480698 1 1 1 1 1 1 1 1 0.050459563496849338 1 1 1 0.048804594523549051 1 1 1 1 1 1 1 1 1 1 1 1 1 1 1 1 1 1 1 1 1 1 1 1 1 0.051188735249436915 0.050154811553632515 0.042855687489478225 1 1 1 1 0.051991108871412534 1 1 1 1 0.053546379311002111 1 1 1 1 1 1 1 0.048695936214236075 1 1 1 1 1 1 1 1 0.047681402113992417 1 1 1 1 1 1 1 1 1 1 1 1 0.04832682661962738 1 1 1 1 1 1 0.049825546424719022 1 1 1 1 1 1 1 1 0.051216884305569359 1 1 1 0.04515765342169499 1 1 1 1 1 1 1 1 1 1 1 1 0.048985465899756345 1 1 1 1 1 1 1 1 1 1 1 1 1 1 1 1 1 1 1 1 1 1 1 1 1 1 1 1 1 1 1 1 1 1 1 1 1 1 1 1 1 1 1 1 1 1 1 0.049942441247023649 1 1 1 1 1 1 1 1 1 1 1 1 1 1 1 1 1 1 1 1 1 1 1 1 0.048907856308589723 1 1 1 1 1 1 1 1 1 1 0.04864452418677194 1 1 0.047678533657930303 1 1 1 1 1 1 1 1 1 0.047037466865372676 1 0.046573124189361909 1 1 1 1 0.047481261560616814 1 1 0.044108846575911666 1 0.049392292713746247 1 1 1 1 1 0.047121659320899206 1 1 1 1 1 1 1 1 0.046706811450714092 1 1 1 1 1 1 1 1 1 1 1 1 1 1 0.043638405176433519 1 0.045699673261688452 0.050919914923304624 1 1 1 1 1 0.050324730286623827 1 1 1 1 1 1 1 1 1 1 1 1 1 1 1 0.047591222711534327 1 1 1 1 1 1 1 1 1 1 1 1 1 1 1 1 0.050320084632034322 1 1 1 1 1 0.041454519005583779 0.049394938651538461 1 1 0.043807529379442274 1 1 1 1 1 1 1 1 1 1 0.050067542962391645 1 1 1 1 1 1 1 1 1 0.049413934440954217 1 0.036076632166145595 1 1 1 1 1 0.050124443015876249 1 1 1 1 0.035424326195220131 1 1 1 0.050612341329350059 1 1 1 0.036105418272589208 1 1 0.051216195205727635 1 1 1 1 1 1 1 1 1 1 1 1 1 1 1 1 0.049660278226030224 1 1 1 1 1 1 1 0.051048915534904385 1 1 1 1 1 1 1 1 1 1 1 1 1 1 1 1 1 1 1 1 1 1 1 1 1 1 1 0.033834624421460388 1 1 1 1 0.050378412183427569 1 1 1 0.062684839696665204 1 1 1 1 1 1 1 1 1 0.06161602240402176 1 0.049996524087661011 1 1 1 1 1 1 1 1 1 1 1 1 1 1 1 1 1 1 0.049982829697477832 0.039412251693598306 1 1 1 0.051776875372831953 1 1 0.044365164673976928 1 1 0.045931970771468142 1 1 1 0.04998074957119026 1 1 0.048502843717026976 1 1 1 1 1 1 1 1 1 1 1 1 1 1 1 1 1 1 1 1 0.050300834203224572 1 0.049858347462373373 1 1 1 1 1 1 1 1 1 1 1 0.050548084189546018 1 0.052524910092805181 1 1 1 0.044423011447161875 1 1 1 1 1 0.049836317309393377 1 1 1 1 1 1 0.047076366276866885 1 1 1 1 1 1 1 1 1 1 1 0.044630475124717982 1 1 1 1 1 1 1 1 0.047795224476808562 1 1 1 0.050473180952967621 1 1 0.042283662995746304 1 1 1 1 1 0.049550818256551409 1 1 1 1 1 1 1 1 1 0.049959894996506313 1 1 0.0462954319011138 1 0.047442911309269177 1 0.049868573112749094 0.049135989477656968 0.04969473957947039 1 0.049977518020737695 1 1 1 1 1 1 0.051836910772976391 1 1 1 1 1 1 0.049913484248197804 1 1 1 1 1 1 1 0.053292962540351131 1 1 1 1 0.054855585856766094 1 1 1 1 1 0.047703515884784387 1 0.049977116035287796 1 1 1 1 1 1 1 1 1 1 0.0498033615422439 1 1 1 1 1 1 1 0.039551248802432562 1 1 1 1 1 1 1 0.050003294617033525 1 0.049738984315065002 1 1 1 1 1 1 1 1 0.040556647961136463 1 1 1 0.028340005376821367 0.049983251367305692 1 1 1 1 1 0.041927380082007991 0.0501150748903091 1 0.044562383615108357 1 1 0.049366163531158844 1 1 0.038205258368366544 1 1 1 1 1 1 1 1 0.039439272474242476 1 1 1 1 1 0.035084001245703926 1 1 1 1 0.020466451780380302 1 1 0.023937638782827515 1 1 1 1 1 1 1 1 1 1 1 1 1 1 1 1 1 1 1 1 1 1 1 1 1 1 1 1 1 1 1 1 1 1 1 1 1 1 1 1 1 0.05082124555862802 1 1 0.049931636032601007 1 1 1 1 1 0.048430858315761577 1 1 1 1 0.050521773481176604 1 1 1 1 1 1 1 1 1 1 1 1 1 1 1 1 1 1 1 1 1 1 1 1 0.048749726053572244 1 1 1 0.049471401102011613 1 1 1 1 1 1 0.049845929886431585 1 1 1 1 1 1 1 1 1 1 1 0.047806008123703884 1 0.05091195168844613 0.048187101617550861 1 1 0.048858641149435736 1 1 1 1 1 1 1 1 1 1 1 0.046083902049057032 1 1 0.047980984238929006 1 1 1 1 1 1 1 1 1 1 1 1 1 1 1 0.047146390955641021 1 1 1 1 1 1 1 0.049975824945678544 1 0.049150784516370651 1 1 1 1 0.050278790454379454 1 0.049753656214924002 1 1 1 1 1 1 1 1 1 0.048813552828684693 1 1 1 1 1 1 1 1 1 1 1 1 1 1 1 1 1 0.05012064759867349 1 1 1 1 1 1 1 1 1 1 1 1 1 1 1 1 1 1 1 1 1 1 1 1 1 0.049976984138226599 0.049898410368494753 1 1 1 1 1 1 1 1 1 1 1 0.049641684781472281 1 1 1 1 0.050400054992616128 1 1 1 1 0.050084812000361349 1 1 1 1 1 1 1 1 0.049406776556797552 1 1 1 1 1 1 1 1 1 0.049731426850845362 1 1 1 1 1 1 1 1 1 1 1 1 1 1 1 1 1 1 1 1 0.045034062053194976 1 1 1 1 1 1 1 1 1 1 1 1 1 1 0.050755581164518747 1 0.049871011490044852 1 1 1 1 1 1 1 1 0.049287356324242741 1 1 0.049716941376476434 1 1 1 1 1 1 1 1 1 1 1 1 1 1 1 1 1 1 1 1 1 1 1 1 1 1 1 1 1 1 1 1 1 1 1 1 0.049948764074042709 1 1 0.049864098657839404 1 1 1 1 0.053434006318226146 1 0.041526962602202774 1 1 0.043679195550797821 1 0.048616670385839708 1 1 1 1 1 0.049401837712165657 1 1 1 1 1 1 1 1 1 1 1 1 0.048019654329699887 1 1 1 0.056114236137563389 1 1 1 1 1 1 1 1 1 0.04465023634331261 1 1 1 1 0.045282577031147089 0.05276338465438956 1 1 1 1 1 1 1 1 0.049872102894400132 1 1 1 1 1 0.050170963055512587 1 1 1 0.049967370121300175 1 1 1 0.046248176067442325 1 1 1 1 0.052306782010166947 1 1 1 1 1 1 1 1 1 1 1 1 1 1 0.047831986801384327 1 1 1 1 1 1 0.053399569896681313 1 0.048260082132958668 0.049998054061822436 1 0.059179342720334607 1 0.046507198597907459 1 1 1 1 0.050063029159333555 1 1 1 1 0.050244885317869754 1 1 1 1 1 1 1 1 1 0.049312131189149608 1 1 1 1 1 1 1 1 1 1 1 1 1 1 0.048526963862823673 1 1 1 0.049889419294550423 1 1 1 0.049703664241330513 1 0.049986299340884513 1 1 1 1 1 1 1 1 1 1 1 1 1 1 1 1 0.048773319190122295 1 1 1 1 1 1 0.046031586480165809 1 1 1 1 1 1 1 1 1 1 1 1 1 1 1 1 1 1 0.041128240960969044 1 1 1 1 1 1 1 1 1 1 1 1 1 1 1 1 1 1 1 1 1 1 1 1 1 1 1 1 1 1 1 1 1 1 0.050619552260794433 1 1 1 1 0.049815675309460815 1 1 1 1 1 1 1 0.042147489527179977 1 1 1 1 1 1 1 1 1 0.051081215856540331 1 1 0.037276163851155272 1 1 1 1 1 0.049998977178313572 1 1 1 0.05002621695935916 1 1 0.049022441692398604 1 1 1 1 1 1 1 1 1 1 1 1 1 1 1 1 1 1 1 1 0.048072594903688037 1 1 1 1 1 1 1 1 1 1 0.049326400618221349 0.045379984613380032 1 0.03130215729287783 1 1 1 1 1 0.028631295604770124 1 1 1 1 0.049635338559623626 1 1 1 1 1 0.050100089444123322 1 0.050035973532336998 1 1 0.05102911192693417 1 1 1 1 1 1 1 1 0.050339473756825043 1 1 1 1 1 1 0.049738267653638847 1 1 1 1 1 1 0.049613152663758597 1 1 1 1 0.048918107700663897 1 1 0.050037876816523254 1 0.048309815611716024 1 1 0.049849452795333607 1 1 1 1 1 1 0.049877755914033359 1 1 1 1 0.049948271237702381 1 1 1 1 1 1 1 1 0.048895223619434644 0.047741199784465255 1 1 1 1 1 1 1 1 0.049652508059971907 1 1 1 1 1 1 0.049834214916924233 1 1 1 1 1 1 1 0.048673450146940064 1 1 1 0.046631775843904308 1 1 1 1 1 1 1 1 1 1 1 1 0.050005852849860061 1 1 1 1 0.048737161800393301 1 1 0.049979140940109086 1 1 1 1 0.050545708699431743 1 1 1 0.049980995668000704 0.051025152347452279 1 1 1 0.049528803913108335 1 1 1 0.050141253155040644 1 1 1 1 1 1 1 1 1 0.050910667205489889 1 1 1 0.050002562639750968 1 1 1 1 1 1 1 1 1 1 1 1 0.051619730213445604 1 0.049889242467807342 1 1 0.049847083399206252 1 1 0.049575461907758578 1 1 1 1 1 1 1 0.049989662802012717 1 1 1 1 1 0.050019863276283522 1 0.050702982373817651 1 1 1 0.053680463992752669 0.044401485160220751 1 0.047837233590394115 0.052918357517936498 1 0.051059062309370115 1 1 1 1 1 1 0.049814072328728684 1 0.043850779059981373 1 1 1 1 1 1 1 1 1 1 1 1 1 0.050042830450507773 1 1 0.04660276803877321 1 0.049407409344590869 1 1 0.044511511937487355 1 1 1 0.049156720585382174 0.049200821131213483 1 1 0.044138101371825791 1 1 1 1 1 1 1 1 1 1 1 1 1 1 1 1 1 1 1 1 1 1 1 0.04997342456407302 0.050025911909397931 1 0.049588308834106462 1 0.048299152999934293 1 1 0.049999916847826426 0.051634875225406003 1 1 0.050001624291916659 1 1 0.048585952721370534 1 1 0.050661710866406924 1 0.048203401859017718 1 1 1 1 0.050031441169657867 1 1 1 1 0.049720967651596018 1 0.049162048278050645 0.049123068071765141 1 0.05010350237169986 1 1 0.044927915869979379 0.049750515375064586 1 1 1 0.047991644303797237 1 1 1 1 0.046518740475243431 0.049793455184948751 1 1 1 1 1 0.050176679756001326 1 1 1 1 1 1 1 1 1 1 1 0.05071306358958183 1 0.049980708319031501 1 0.048304855613050916 1 1 0.050001621384335462 1 0.047322390720992535 1 1 1 1 1 1 1 1 0.0488843994987153 1 1 0.050712778586441409 1 1 1 1 0.050000206127807506 1 1 1 1 1 1 1 1 1 1 1 1 0.049201990424193862 1 1 1 1 1 1 1 1 1 1 1 0.049921518920443039 1 1 1 1 1 1 0.049982024698863176 1 0.050576946798641505 1 1 0.049777283099706221 1 1 1 1 1 1 1 1 1 1 1 1 1 1 1 1 1 0.049835284884707447 0.046573956874871522 1 1 1 0.050050626838962275 1 1 0.046228158734073169 1 1 1 1 1 1 1 1 1 1 1 1 1 1 1 1 1 1 1 1 1 1 1 1 1 0.049998181856891463 0.048179889007820567 1 1 1 1 1 1 1 1 1 1 1 0.047941809134295299 1 1 1 1 1 1 1 1 1 1 1 1 1 1 1 1 1 1 1 1 1 1 1 1 1 1 1 1 1 1 1 1 1 0.049952605483291182 1 1 1 1 1 0.049947071285883993 1 1 0.050230615245202961 1 1 0.047345844886257094 0.051547648236018227 1 1 1 1 1 1 1 1 1 1 1 1 1 0.051471843892577474 1 1 0.050076614144352521 1 1 1 1 1 1 0.050000961005596506 1 1 0.051369267853198626 1 1 1 1 1 1 1 1 1 1 1 1 1 0.05002611516023131 1 1 1 1 1 1 1 0.050001142806923589 1 1 1 1 1 1 1 1 1 1 1 1 0.049975119561867981 1 1 0.049993094863004822 1 1 1 1 1 1 1 1 1 1 1 1 1 1 1 1 1 1 1 1 0.049948796318865805 1 1 0.050006945841909262 1 0.050148055364026278 1 1 1 0.049997652033977047 1 1 0.048517037623884728 1 0.049756280227526171 1 1 1 0.048949768830053274 1 1 1 1 0.049968689373136699 1 1 1 1 1 1 1 0.04990919357926564 1 1 1 0.049641746001641396 1 1 1 1 1 1 1 1 1 1 1 1 0.050006119318979386 1 1 1 1 1 1 1 1 0.049609564610308361 1 1 1 1 1 1 1 1 1 1 1 0.049352750680968512 1 1 1 1 1 1 1 1 1 1 1 1 1 1 1 1 1 1 1 0.049111245774984262 0.049624755299126737 1 1 1 0.049857956702483053 1 1 1 1 1 1 1 1 1 1 1 1 0.04997491756460859 1 1 1 1 1 1 1 1 1 0.04991976540455971 1 1 1 1 1 1 1 1 1 1 1 1 1 1 1 1 0.044681076521739416 1 0.049673931385986775 1 1 1 1 1 0.046009852480273464 1 1 1 1 0.049667526143013091 1 1 1 0.050009969925749131 1 1 1 0.049088334234174268 1 1 1 1 1 1 1 1 1 0.049058190531620319 1 1 1 0.047404905659345534 1 1 0.049573205680276219 1 1 1 1 1 1 0.049782715200675773 1 1 1 1 1 1 1 1 0.049289791046223282 1 1 1 0.049652581116324451 1 1 1 1 1 1 1 1 1 1 1 1 1 1 1 1 1 1 1 1 1 1 1 1 1 1 1 0.049738969346825965 1 1 1 1 1 1 1 0.049835338760383985 1 1 1 1 1 1 1 1 1 1 1 1 1 1 1 1 1 1 1 1 1 1 1 1 1 0.04993239947052653 1 0.049949627736724962 1 1 1 1 1 1 0.049985992510017591 1 1 1 0.050089005877063678 1 1 0.050241399559159572 1 1 1 1 1 1 1 1 1 1 1 1 0.042511550556483119 1 1 1 1 1 0.043802238514067456 1 1 1 1 1 1 1 1 1 1 1 1 1 0.050003220776216023 1 1 1 0.049998259591531244 1 1 1 1 1 1 1 1 1 1 1 1 0.050006719039080667 0.048876550588849689 1 1 1 1 0.049774077886357293 1 1 1 1 1 1 1 1 1 0.050040312423870976 0.0472694889011602 1 1 1 1 1 0.046318543612854243 1 1 1 1 1 0.049843026126454235 1 1 1 1 1 0.050009898440330845 1 0.050632649979400382 1 1 1 1 0.04897365309162019 1 0.050562414315065987 1 0.049394133894993988 0.049996836082093446 1 1 1 1 1 1 1 0.050040076568179083 0.049464965333466435 1 1 1 1 1 1 0.05000068038154197 0.046091530964874117 0.049225089843860807 1 0.050189879862868089 0.050658670610019725 1 1 1 0.050117993577368153 1 1 1 1 1 0.046594270198738894 0.04903704656682488 0.050000444198262155 1 0.05051186877430755 1 1 1 0.049998247393857442 1 0.046291907849920377 0.049967684712640487 1 1 1 1 1 1 1 0.049125759762810695 0.051029729838202816 1 1 0.045692395522350618 0.043637591976766366 0.052150362091236753 1 1 1 1 1 1 1 1 1 1 1 1 1 1 1 1 1 1 1 1 1 1 1 1 1 1 1 1 1 1 1 1 1 1 1 1 1 1 1 1 0.049988059009950035 1 1 1 1 1 1 1 1 1 1 0.049956468729473916 1 1 1 1 1 1 0.049903515868596704 1 1 0.050232847092696778 1 1 1 1 1 1 1 1 1 1 1 1 1 0.050026787757999791 1 0.05035801291947338 1 1 1 1 0.048867909485249356 1 1 1 0.041727024549588626 1 1 0.04213189083313449 1 1 1 0.050002842528650851 1 1 0.049942051007963222 1 1 1 1 1 0.049970437479808831 1 1 1 1 1 1 1 0.049991593874141094 1 1 1 1 1 1 1 0.042800078347316479 1 1 0.04357294631320463 1 1 1 1 0.05012530085308764 1 0.049993154122013023 1 1 1 1 1 0.050386831075627581 1 1 1 1 0.049734335589875951 1 1 1 1 1 1 0.049154369577366415 0.051469311706296011 1 1 1 1 1 0.045691798368252615 1 1 0.04780905172365147 1 1 1 1 1 1 1 1 1 1 0.047862745510072816 1 1 1 1 1 1 1 1 1 1 1 1 1 1 1 1 1 1 0.049273420651927732 1 1 1 1 1 1 0.050101248284388403 1 1 1 1 1 1 1 0.052719193647804218 0.050334130650086711 1 1 1 1 0.050034609759163268 1 1 1 1 1 1 1 0.051220136563379884 1 1 0.049342195719402564 1 0.047159899549947412 0.051467323352912195 0.047821718817671326 1 1 1 1 1 1 0.049470648689084309 1 1 1 1 1 0.050001654938243247 1 1 1 1 0.048447952478792078 1 1 1 0.053088213945164206 1 1 1 0.04925671295722435 1 1 1 1 1 1 1 1 1 1 1 1 1 1 1 1 1 1 1 1 1 1 1 1 1 0.048402969919291411 1 1 1 1 1 1 1 0.049948811195742113 1 0.049020653041447759 1 1 1 1 1 1 0.044133791076310068 1 1 0.049674642867908944 1 1 1 0.049986613448771547 1 1 0.04880099284695931 1 1 1 1 1 0.050055887452455788 1 1 1 0.050020587893332004 0.049700918061452187 1 1 1 1 1 1 1 1 1 1 1 1 0.050466214666029421 1 1 1 1 1 1 1 1 1 0.051655736068167507 1 1 1 1 1 0.050018917886447925 0.04884229155759709 1 1 1 1 1 1 1 1 1 0.049842175178084341 1 1 1 1 1 1 1 1 0.049259950100789915 1 1 1 1 1 1 1 1 1 1 1 1 1 1 1 1 1 1 0.049734200023591871 1 1 1 1 0.049375946025233264 1 0.049743816530543411 1 0.049978224374983934 1 1 1 1 1 1 1 1 1 1 1 1 1 1 1 1 1 0.050105567883429639 1 1 1 1 1 0.048431581743885496 1 1 1 0.05050684161881009 0.047965204774099032 1 1 1 1 1 0.049501484497625245 1 1 1 1 0.050139671457543965 1 1 1 1 1 1 1 1 0.048520137096193655 1 1 1 1 1 1 1 0.049192187994798325 1 1 1 1 1 1 1 1 1 0.050164015381935399 1 1 1 1 1 1 1 1 1 1 1 1 1 1 1 1 1 1 0.05006155469459346 1 1 1 1 1 1 1 1 1 1 1 1 1 0.050015025381968371 1 1 1 1 1 1 0.049944656951159461 1 1 0.049637209929898826 1 1 0.049947658102249229 1 1 1 1 1 1 1 1 1 1 1 1 1 1 1 1 1 1 1 1 1 1 1 1 1 1 0.049969558636818283 1 0.049667597676137751 1 0.04999981181653599 0.050614846558500778 1 1 1 0.049608357573656572 1 1 1 1 1 1 1 1 1 0.050174598661844927 0.05005159461055092 1 0.048498260366817661 1 1 1 1 1 1 1 1 1 1 1 1 1 1 0.050000138662468968 1 0.050754650401770227 0.051137134056583378 1 0.049338396941703472 1 1 1 1 1 1 1 1 1 0.052371352389612345 0.050284833006234028 1 1 1 1 1 1 1 1 1 1 1 1 1 1 1 1 1 1 1 1 1 1 0.049104605372352089 1 1 1 1 1 0.050473386897571179 1 1 1 1 1 0.051596382064384126 1 1 1 0.047117474910578064 1 1 1 1 1 1 1 1 1 0.048381082289045162 1 1 1 1 0.047721665099645892 1 1 1 1 1 1 0.052440905610966621 1 1 1 1 1 1 1 0.049766287117479713 1 1 1 1 0.052415512611737991 1 1 1 1 1 1 1 1 1 1 0.04944163221077659 1 1 1 1 0.048096329783671996 1 1 1 0.045956598174704245 1 1 1 1 1 0.050673702874073162 1 1 1 1 1 1 1 1 1 1 1 1 1 1 0.05107011580764069 0.042678605074907769 1 1 0.044880274133851122 1 1 1 1 1 1 1 0.050382026170142147 1 1 1 1 1 1 0.049809425335583794 1 1 1 1 1 1 1 1 1 1 1 1 1 1 1 1 1 1 1 1 1 1 1 0.049139161420324373 1 1 1 1 1 1 1 1 0.049965256290557619 1 1 1 1 0.049930712725046018 1 1 1 1 1 0.048190520894106484 1 0.050012513561076839 1 0.048348546502167876 1 1 1 1 1 1 1 0.050113736259912521 1 1 1 0.043917247849101448 1 1 1 1 1 0.046989965138506874 1 1 1 1 1 0.050248947374317426 1 0.049428835159316287 1 1 0.049144368503381754 1 0.050457023619521923 1 1 1 1 1 0.050006754093040812 1 1 1 0.05013736727776226 1 1 1 1 1 1 1 1 1 1 0.050386957030062941 1 1 1 1 1 1 1 1 1 1 1 1 1 1 1 1 1 1 1 1 1 1 0.047147080752148386 1 1 1 1 1 1 1 1 1 1 1 1 1 1 1 1 1 1 0.042706503590186094 1 1 1 0.039708130242762214 1 1 1 1 1 1 0.030862220181445025 1 1 1 0.048014815141366643 0.045864401976658448 1 0.0391573955617757 1 0.049276077243421514 0.041894229676845661 1 0.042785495939421471 1 1 0.046358751860434783 1 1 0.051549093046892529 0.046098489253742679 1 1 1 1 1 1 1 1 0.048351725457347082 1 0.048442640418769708 1 1 1 1 1 1 1 1 1 1 1 1 1 1 1 1 1 1 1 1 1 1 0.046113890190568788 1 1 1 1 1 1 1 1 0.044284485808376586 1 1 0.049947242148591774 1 1 0.043118253603740206 0.04983133155663453 1 1 0.04995207126070289 1 1 1 1 1 1 1 1 1 1 1 1 1 1 1 1 1 1 1 1 1 1 1 1 1 1 1 1 1 1 1 1 1 1 1 1 1 1 1 0.020530481451479329 1 0.025411997915506846 1 1 1 1 1 1 1 1 1 1 1 1 1 1 1 1 1 1 1 1 1 1 1 1 1 1 1 1 1 1 1 1 1 1 1 1 1 1 1 1 0.047827366060928307 1 1 0.047833775373575971 1 1 1 1 1 0.050407594408144546 1 0.049955650277925895 1 1 0.050758535612639724 1 1 1 1 1 1 0.054561830764275336 1 1 1 1 1 1 1 1 1 1 1 0.050015758706818174 1 1 0.043269179970287647 0.022575051868228949 1 0.012633970683045111 1 1 0.057283712700673867 1 1 1 1 0.016357594752569333 1 1 1 1 1 1 1 1 1 0.049943522426951922 1 0.05153509929274757 1 1 1 1 1 1 1 0.049891539403224168 1 0.055539451811236609 1 1 1 1 1 1 1 1 1 0.050326806880174713 1 0.053954624537965679 1 1 1 1 1 1 1 1 1 1 0.051010810407048808 1 1 1 0.052537946696074533 1 1 0.049994814045830747 1 1 0.044749816972334593 1 1 1 1 0.046881592651815629 1 1 1 0.050003001151089785 1 1 1 1 1 1 1 1 1 1 1 1 1 1 0.048964621380364254 1 1 1 1 1 1 0.047474316612648046 1 0.050997310969716325 1 0.019792672009134281 1 1 1 0.04846572075193252 1 1 1 1 1 1 1 1 0.015041132554400257 1 1 1 1 1 0.049961301787446802 1 1 0.013356892207825332 1 1 1 1 1 1 1 1 1 0.044224684447139347 1 1 1 0.048017155019344206 1 1 1 1 1 1 0.040810353897084657 1 1 1 1 1 1 1 1 1 1 1 1 1 1 1 1 1 1 1 1 1 1 1 1 1 1 1 1 1 1 1 0.047827856835973993 1 1 1 1 1 0.049454449586189247 1 1 0.050538775728162628 0.048918692834686646 1 1 1 1 0.048519701755845343 1 1 1 1 1 0.049468002410129414 1 1 1 1 1 1 1 1 1 1 1 1 1 1 1 1 0.049132913202880817 1 1 1 1 1 1 1 1 0.048661831717221396 0.046947130118143596 1 1 1 1 1 1 0.04738510891554535 1 1 1 1 0.048260293285824429 1 1 1 1 1 1 1 1 1 1 1 1 1 1 1 1 1 1 1 1 1 1 1 1 0.047960417843762496 1 1 0.049265474210669326 1 1 1 1 1 1 1 1 1 1 1 1 1 1 1 1 1 1 1 1 1 1 1 1 1 1 1 0.049027034296445206 1 0.047674973176703744 1 1 1 1 1 0.045200987139269601 1 1 1 1 1 1 1 1 1 1 1 1 1 1 1 1 1 1 1 1 0.047037745476746759 0.048154741655449418 1 0.046016537516889076 1 1 1 1 1 1 1 1 1 1 1 1 1 1 1 1 0.046006978697402341 1 1 1 0.048152090177386378 1 1 1 1 1 1 1 1 1 1 1 1 1 0.047526013962565859 1 1 1 1 1 1 1 1 1 1 1 1 1 1 1 1 1 1 1 1 1 1 0.02787990857753176 1 1 1 1 1 1 1 1 1 1 1 1 1 0.028205513068820586 1 0.038390469750521787 1 1 0.033006627941104434 0.039419860239065407 1 1 1 1 1 1 1 1 1 1 1 1 1 1 1 1 1 1 1 1 0.050933363573725854 1 1 0.036935344661891405 1 1 1 0.049759216091888762 1 1 1 1 1 1 0.038052254078302782 1 1 1 0.049726065368150427 1 1 1 1 1 1 1 1 0.049978680422547384 1 1 0.048640500431005734 1 1 0.045397362136502521 1 0.04554395550431202 1 1 1 1 0.045172845776915202 0.03624263786821353 1 1 0.050434711827102817 0.036358694892108329 1 1 0.045223148613984639 1 1 1 1 0.04998269928893713 1 1 0.045765434812193168 0.049759566840271954 1 0.049992786558868803 1 1 1 1 1 1 1 1 1 1 1 1 1 1 1 1 1 1 1 1 0.050007181737059411 1 1 1 1 0.049078940185468566 1 1 1 1 0.050071793820556203 0.049731185962385349 1 1 1 1 1 1 1 1 1 1 1 1 0.049900313542152783 1 1 1 0.041130990437768848 1 1 1 1 1 1 1 0.039858115483604212 1 1 1 0.050362717425835528 1 1 0.050012306994430426 0.050224934738240988 1 1 1 0.038943931448629551 1 1 1 0.050070837906861863 1 1 1 1 1 1 1 1 1 1 1 1 1 1 1 1 1 1 0.049649084402406576 1 1 1 1 1 1 1 1 1 1 1 1 1 1 1 1 1 1 0.050079460867686727 0.049014642308295164 1 1 1 1 1 0.048474217791077578 0.050225867548124858 1 0.047964221600952164 1 1 1 1 1 1 1 1 1 0.022185733054135005 1 1 1 0.024674679049973811 1 1 1 1 1 1 1 1 1 1 1 1 1 1 0.037695138687997523 1 1 1 1 1 1 1 0.030102210245306533 1 1 0.027312361233944878 1 1 1 1 1 1 0.043575787676067679 1 1 1 1 0.041608051482832933 1 1 1 1 1 1 0.05163193461498148 1 1 1 1 1 1 1 1 0.050121254292534292 0.045466908628202234 1 1 1 0.047851980867646075 0.051500415528344202 1 1 1 1 1 0.049293704084200217 1 1 1 1 1 1 0.04968376126709298 1 1 1 1 0.049868119088127758 1 1 1 1 1 0.049843124886355367 1 1 1 1 0.053256041995715556 1 1 1 1 1 1 1 1 1 1 1 1 1 1 1 1 1 1 1 1 1 1 1 1 1 0.050055246816479444 1 1 1 1 0.038663930353513579 1 0.048504740122434734 1 0.033951738058428708 1 1 0.049957880614346431 1 1 0.051047341143848637 1 1 0.050278159879934337 1 1 1 1 1 1 0.054744800528566187 1 1 0.052639016191421313 1 0.048877004680481034 0.050592663599330789 0.051442660477117208 1 1 0.049142509040448978 1 0.049162011139436558 0.049209289355059228 1 1 1 0.050096136648350859 1 0.050007761570955968 1 1 1 1 1 1 0.048596325785992156 1 1 1 0.0500170545646446 1 1 1 1 1 1 1 0.048910141382773512 1 1 1 0.046628731431326176 1 0.058681305607645506 0.056760425585886919 1 1 1 1 1 1 1 0.049496749338953636 1 1 1 1 1 1 1 1 0.050267063206267004 0.047497707471552505 1 1 1 1 0.046142183707957488 1 1 0.046121514917754625 1 1 1 0.050000554198541027 1 1 1 0.047086962927254311 0.048874562809995137 1 1 1 1 0.050181598129604696 1 1 1 1 1 0.048659200009982584 0.047326451784708304 1 1 1 1 1 1 1 1 1 1 1 1 1 1 1 1 1 1 1 1 1 1 1 1 1 1 1 1 1 1 1 0.048760690713763308 1 1 1 0.049919621444343289 1 1 1 1 1 1 1 1 1 1 1 1 1 1 1 0.047267864505269826 1 0.050273495306166302 0.052127316768419002 1 1 0.046727197440417749 1 1 1 1 1 1 1 1 1 1 1 1 1 1 1 1 1 1 1 1 1 1 1 0.050476582701442931 1 1 0.047815367965002395 0.049963917419121942 1 1 1 1 1 1 1 0.048635658636722617 1 1 1 0.051232955065375826 1 1 1 1 0.050244205066822985 0.050081391754544874 1 1 1 1 1 1 1 0.04697725252321909 1 1 1 1 0.048055471822650048 1 1 1 1 0.049676285231764677 1 1 1 1 1 1 1 1 1 1 1 1 1 1 1 1 1 1 1 0.050467095059469197 1 1 1 1 1 1 1 1 1 1 1 1 1 1 1 1 0.050588534294632476 1 1 1 0.050207775101877183 1 1 1 1 1 1 1 1 1 0.049306449608488394 1 1 1 1 1 1 1 1 1 1 1 1 1 1 1 1 1 1 1 1 1 0.049455731593077999 1 1 1 1 1 1 1 1 1 1 1 1 1 1 1 1 1 0.0485455647902127 1 1 1 1 1 0.05008357447099919 1 1 1 1 1 1 1 1 1 1 1 1 1 1 1 1 1 1 1 1 1 1 1 1 1 1 1 0.050214419442306861 1 1 0.057236590857812034 1 1 1 0.058521047941731907 1 1 1 1 1 1 1 1 1 1 1 1 1 1 1 0.060158740744882581 1 0.048013731241449475 1 1 1 1 1 1 1 1 1 0.057636782989278115 1 1 1 1 1 1 1 1 1 0.051134676403161765 0.054560846114589535 1 1 1 1 1 1 1 1 1 1 1 1 1 1 1 1 1 1 1 1 1 1 1 1 1 1 1 1 1 1 1 1 1 1 1 1 1 1 1 1 1 1 1 1 1 1 1 1 1 1 1 1 1 1 1 1 1 1 1 1 1 1 1 1 1 1 1 1 1 1 1 0.051012916685075557 1 1 1 1 1 1 0.052885664502348648 1 1 1 1 1 1 1 1 1 0.051432223789976292 1 0.053007424220434855 1 1 1 1 1 1 1 1 1 1 1 1 1 1 1 1 1 1 1 1 1 1 1 1 1 1 1 1 1 1 1 1 1 1 0.048948876085115917 1 1 1 0.049017866071839639 0.050561703878512325 1 1 1 1 1 1 1 1 1 1 1 1 1 1 1 1 1 1 1 1 1 1 0.049506338359605294 0.049355815027908784 1 1 1 1 1 1 1 1 0.051292031902506779 1 1 1 1 1 1 0.0508633765488017 1 1 1 1 1 0.049400650739133009 1 1 1 1 0.049780639625001372 1 1 1 0.054934596359393337 1 1 1 0.053016258585815615 1 1 0.051258449324531261 1 1 1 1 1 1 1 1 1 1 1 1 1 0.049667403462119938 1 1 1 1 1 1 1 1 0.049033053040802202 1 1 1 1 1 1 1 1 1 1 1 0.049984195593159461 1 1 1 0.049986126170442041 1 1 1 1 0.049074025956753656 1 1 1 1 1 1 1 1 0.049449353385505407 1 0.051058770269022558 1 1 0.04733561845907918 1 1 1 1 1 0.050024006384310336 1 1 1 1 1 1 1 1 1 1 1 1 0.049624409055425409 1 1 1 1 1 1 1 1 1 0.049043862733495189 1 1 1 1 1 1 0.050231589665589091 1 1 1 1 1 1 1 0.049602782659443088 1 1 1 1 1 0.049227191714868501 1 1 1 1 1 1 1 1 1 1 1 1 1 1 1 1 1 1 1 1 1 1 1 1 1 1 1 1 1 1 1 1 1 1 1 1 1 1 1 1 1 1 1 1 1 1 1 0.049760164042011161 1 0.049571039823513054 1 1 1 1 1 1 1 1 1 1 1 1 1 1 0.05006182733524657 1 1 1 1 1 1 1 1 1 1 1 1 1 1 1 0.04763731117035247 1 1 0.049391647248915323 1 0.051568950764241304 1 1 1 1 1 0.049305305062841878 1 1 1 1 1 1 1 1 1 1 1 1 1 1 1 1 1 1 1 1 0.046567799235222342 1 1 1 1 1 1 1 1 1 1 1 0.046950977345170411 1 0.049852692310282672 1 1 0.047746901908341813 1 0.041941631253060191 1 1 1 1 1 1 1 0.050029762229110965 1 0.045750610916403853 1 1 1 1 0.046116494840726108 1 1 1 1 0.049537654362878658 0.04921175171247677 1 1 0.052436601847827002 1 1 1 1 1 1 1 1 1 1 1 1 1 1 1 1 0.050187997003580724 1 1 1 1 1 1 1 1 1 1 1 1 1 1 0.050553491962200263 1 0.049877047596964756 1 1 1 1 1 1 1 0.042452437887089176 1 0.042042510820661495 1 1 1 1 1 1 1 1 1 0.049933224941908078 0.043593715782209996 1 1 1 0.04389272928554537 1 1 1 1 0.040205095130647919 1 0.045340337627475386 1 1 0.050301780364215565 1 0.040019324838407415 0.040245892503804781 0.049856906200355391 1 1 0.049997958151437788 1 1 1 0.049441534742683847 0.046762493500786137 0.051057326315095256 1 1 1 1 1 1 1 1 1 1 1 0.05049154514487264 1 1 1 1 1 1 0.040322959603903877 1 1 1 0.049958399534721358 1 1 1 1 1 1 1 1 0.050182002483798893 1 1 1 0.050057793944806472 1 1 1 1 1 1 1 1 1 1 1 1 1 1 1 1 1 1 1 1 1 1 1 1 1 1 1 1 1 1 1 1 1 1 1 1 1 1 1 1 1 1 1 1 1 1 1 1 1 1 1 1 1 1 1 1 1 1 1 1 0.048592371128428131 1 1 1 1 1 0.046402447284351868 1 1 1 1 0.048812273926848559 1 1 1 0.045151648213807752 1 1 1 1 1 1 1 1 1 1 1 1 1 1 1 1 1 1 1 1 1 1 1 1 1 1 1 1 1 1 1 1 1 1 1 1 1 1 1 1 0.047704399906414209 1 1 0.044159041948620512 1 1 1 1 1 1 1 0.05036176338659859 1 1 1 1 1 1 1 1 1 1 1 0.051622025499358286 1 1 0.049945538303039126 1 0.048158860081035398 1 1 1 0.042138678780291927 1 1 1 1 1 1 1 1 0.050150740557917052 1 1 1 1 0.050520227840198217 1 1 1 1 0.042946351030902392 1 0.0484978923462955 1 1 1 1 1 1 1 1 1 1 1 1 0.047230099526687844 1 0.044929129611505844 1 1 1 1 1 1 1 1 1 1 1 1 1 0.049854444019908947 1 1 1 1 1 1 1 1 1 0.049629748094736907 1 1 1 0.049775304074827956 1 1 1 1 1 1 1 1 1 1 1 1 1 1 1 1 1 1 1 1 1 1 1 1 1 1 1 1 1 1 1 1 1 1 1 0.049637865107253556 1 1 0.050020679990555761 1 1 1 1 0.048762171111492683 1 1 1 1 1 1 1 1 1 1 1 1 1 1 1 0.04921645600923559 1 1 1 1 1 1 1 1 1 0.049536303701848569 1 0.049610763144690512 1 1 1 1 1 1 1 0.04946812962343354 1 1 1 1 1 1 1 1 1 1 1 1 1 1 0.048842323031165945 1 1 1 1 1 1 1 1 1 1 1 0.047165802426174498 1 1 1 1 1 1 1 1 1 1 1 1 1 1 1 1 1 1 1 1 1 1 1 0.050140039589236379 1 0.050324901905833067 1 1 1 1 1 1 0.047548581946221212 1 0.048463856956487285 1 1 1 0.047747023828608001 1 1 1 0.051046877627841478 1 1 1 0.047856440401414346 1 1 0.051122324332365611 1 1 1 1 1 1 1 0.050554271511366142 1 1 1 1 1 1 1 0.044453166870223194 1 1 1 1 1 1 1 1 1 1 1 1 1 0.048757379094907474 1 1 1 1 1 1 1 1 0.044066504096241625 1 1 1 1 1 1 1 1 1 1 1 1 1 1 1 1 1 1 1 1 0.045992598774904248 1 1 1 1 1 1 1 1 1 1 1 1 1 1 1 1 1 1 1 1 1 1 1 1 1 1 1 1 1 1 1 1 1 1 1 1 1 1 1 1 1 1 1 1 1 1 1 1 1 1 0.050677802348102083 1 0.047153663776542232 1 1 1 0.049776015302362385 1 1 0.050114423582069051 0.04644002731611397 1 0.052112332686614526 1 1 1 1 1 1 1 1 1 1 1 1 1 1 1 1 1 1 1 1 1 1 1 1 1 1 1 1 1 1 1 1 1 1 1 0.050229716571047134 1 1 1 1 0.051262713786789052 1 1 0.048576757585436822 1 1 1 0.049150786236776038 1 1 1 1 0.052585671917059582 1 0.04994314987390442 0.04507515423211627 1 1 1 1 0.045840669440016302 1 1 1 0.053117449088180987 1 1 1 0.048212509557436639 1 1 1 1 1 1 0.050010888459246401 1 1 1 1 1 1 1 1 1 1 1 1 1 1 1 1 1 1 1 1 0.050927190939417666 1 1 1 1 1 1 1 1 1 1 1 1 1 1 1 1 1 1 0.050308312043844713 1 1 0.050844119025512217 1 1 0.039858155446859757 1 1 1 1 1 1 1 1 1 1 1 0.051461817990874667 1 1 1 1 0.049778614965908047 1 1 1 1 0.048015104725650598 1 1 1 0.048652176808353348 1 1 1 1 1 1 1 1 1 1 1 1 1 1 1 1 1 1 1 1 1 1 1 1 1 0.049396341293140467 1 1 1 1 1 1 1 1 0.048655001333139006 1 1 1 0.040623146626446761 1 1 1 1 1 1 1 1 1 1 1 1 1 1 1 1 1 1 1 1 1 1 1 1 0.051925333083213517 1 1 1 0.048210819928442096 1 1 1 1 1 1 1 1 0.05170887526503521 1 1 0.048949062322630757 1 1 1 1 0.04970737940657631 1 1 1 1 1 1 1 0.041447312114677629 1 0.051387246366287165 1 1 0.052800173065535028 1 1 0.039141824507481833 0.049995550578761976 1 1 1 1 1 1 1 1 1 1 1 1 1 1 1 1 1 1 1 1 1 0.046504343517401431 1 1 1 1 0.043941142665935379 1 1 1 1 1 1 1 1 1 1 1 1 1 0.048210342856774044 1 1 0.049956921367261264 1 1 1 1 1 1 1 1 1 1 1 1 1 1 1 1 1 1 1 1 1 1 1 1 1 1 1 1 1 1 1 1 1 1 1 1 1 1 1 1 1 1 1 1 1 1 1 1 1 1 1 1 1 1 1 1 1 1 1 1 1 1 1 1 1 1 1 1 1 1 1 1 1 1 1 1 1 1 1 1 1 1 1 1 1 1 1 1 1 1 1 1 1 1 1 1 1 1 1 1 1 1 1 1 1 1 1 1 1 1 1 1 1 1 1 1 1 1 1 1 1 1 1 1 1 1 1 1 0.050409762562948719 1 1 1 1 1 1 1 0.050681202039897455 1 1 1 1 1 1 1 1 1 0.051702326286644083 1 0.045636816798845466 1 1 1 0.048057445434592727 1 1 0.047282456605914111 1 1 1 1 1 1 1 1 1 1 1 1 1 1 1 1 1 1 1 1 1 1 1 1 1 1 1 1 1 1 1 1 1 1 1 1 1 0.050892272246785428 1 1 0.047556358329824869 0.052437486290340965 1 1 0.050308131229421078 1 1 0.043355918099068344 1 1 1 0.044915653187508002 1 1 1 1 1 1 1 1 1 0.048134357018151247 1 1 1 1 1 1 0.050196429384913588 1 1 1 1 1 1 1 1 1 1 1 1 1 1 1 1 1 1 1 1 1 1 1 1 1 1 1 1 1 1 1 0.051337273918652448 1 1 1 1 1 1 1 1 1 1 1 1 1 1 1 1 1 1 1 1 1 1 1 1 1 1 1 1 1 1 1 1 1 1 1 1 1 1 1 1 1 1 1 1 1 1 0.043875835219727807 1 0.049703353331978284 1 1 1 1 0.049948485590370587 1 1 1 1 0.044583887115062192 1 1 1 1 0.050104566498900424 1 1 1 1 1 1 1 1 0.049582240656763019 1 1 0.049771490615986125 1 0.049862573393632613 1 1 1 1 0.049353972271705591 1 1 0.049226297512092398 0.047731012883764093 1 1 1 1 1 1 0.049966542573691819 1 1 1 1 1 1 1 1 1 1 0.049320610736442685 0.045081862891663577 1 1 1 1 1 0.044902259581981865 1 1 0.049651247675314286 1 1 1 1 0.049176265480368436 1 1 0.049998645107660097 1 1 1 1 1 1 1 1 1 1 1 1 1 1 1 1 1 1 1 1 1 1 1 1 1 1 1 1 1 0.049949511975591693 1 0.04998516518395666 1 1 1 1 1 1 1 1 1 1 1 1 1 0.050021974919181866 1 1 1 1 0.04061105687714435 0.040368850224910026 1 1 1 1 1 1 1 1 1 1 1 1 1 1 1 1 1 1 1 1 1 1 1 1 1 1 1 1 1 1 1 1 1 1 1 1 1 1 1 1 1 1 0.049976495634923429 1 1 1 0.049954520715741552 1 1 1 1 1 1 1 1 1 1 1 1 1 1 1 1 1 1 1 1 0.040889000789369426 1 1 0.041216486510942778 1 1 1 1 1 1 1 1 1 0.049999229199223102 1 1 1 1 1 0.043412460354275692 1 1 1 1 1 0.05005717580800665 1 0.050048542618272115 1 1 1 1 1 1 1 1 1 1 1 1 1 0.048273660879070215 1 1 1 0.046580653206703293 0.043975776849424088 1 1 1 1 1 1 1 1 0.049999360072673964 1 1 0.045478377427307169 1 1 0.049998315908891727 0.048050009453966036 1 1 1 1 1 0.050033231335948954 1 1 1 1 1 1 1 0.049480860333191976 1 1 0.048813646306486477 0.049635610061510689 1 1 1 1 1 1 0.046266264635925924 0.05122072073957494 1 1 1 0.048525339540169257 1 1 1 1 1 1 1 0.048714112037299764 1 1 1 1 1 1 1 1 1 1 1 1 1 1 1 1 1 1 1 1 1 1 1 1 1 1 0.044109379268401833 1 1 1 1 1 1 1 0.049957909248216317 1 1 1 1 1 1 1 1 1 1 1 0.043756776793894232 1 1 1 1 1 1 1 1 0.048688999402051535 1 1 1 1 1 1 1 1 1 1 1 1 1 1 1 1 0.048676242469572306 1 1 1 0.0492037677655782 1 1 1 1 1 0.046719607922637678 1 1 1 1 1 1 1 1 1 1 1 1 1 1 0.050270494971232871 1 1 1 1 0.050929592763805737 1 1 0.051798887790102742 1 1 1 1 1 0.050000656868997656 1 1 1 1 1 1 1 1 1 1 1 1 1 1 0.049873662125655006 1 0.052038455598787441 1 1 1 0.049263392778229678 1 0.049086648934656446 1 0.048885867870264027 1 1 1 1 1 1 0.049928178104037477 0.046951954852631358 1 1 1 1 1 1 0.046635001230901744 1 0.049691981849771215 1 1 1 1 1 1 1 1 1 1 1 1 1 1 1 1 1 0.046465279954587338 1 1 1 0.050109686975324697 0.046595060600298721 1 1 1 1 1 0.049224921218011045 1 1 0.049944441457938325 0.049673209886189111 1 1 1 1 1 1 1 1 1 1 1 1 1 1 1 1 1 1 1 1 1 1 1 1 1 1 1 1 1 1 1 1 1 1 1 1 1 1 1 1 1 1 1 1 0.052246649341763214 1 1 0.046433271711895818 0.047753708738494272 0.049792557646533134 1 1 1 1 1 1 0.050170682149808334 1 1 1 1 1 1 1 1 1 0.049821840020989334 1 1 1 0.050384204384767962 1 1 1 1 1 1 1 1 1 1 1 1 1 1 1 1 1 1 1 1 0.049392674355615944 1 1 1 1 0.049616005884307202 1 1 1 1 1 1 1 1 1 1 1 1 1 1 1 1 1 1 1 1 1 1 1 1 1 1 1 1 1 1 1 1 1 1 0.050363987651899991 1 0.049760898325727936 1 1 1 1 1 1 1 1 0.04951444467202791 1 1 1 0.050739395964385682 1 0.049753546346299964 1 1 1 1 1 1 1 1 0.044792835290983296 1 1 1 1 0.04789908024297819 1 1 1 1 0.049987060525651571 1 1 1 1 1 1 1 0.049149398570580996 1 1 1 1 0.049537746357415119 1 1 1 1 1 1 1 1 1 1 1 1 1 1 1 1 1 1 1 1 1 1 1 1 1 1 1 1 1 1 1 1 1 1 1 1 1 1 1 1 1 1 1 1 1 1 0.049482075807370705 1 1 1 1 0.049997671504148952 0.049736047732498581 1 1 0.049442605654796926 0.049378039163004865 1 1 1 1 1 1 1 1 1 1 1 1 1 1 1 1 1 1 1 0.049718968381249701 1 1 1 0.049929828034510113 0.049999026169960874 1 1 1 1 1 1 1 1 1 1 1 1 1 1 1 1 1 1 1 1 1 1 1 1 1 1 1 0.049806373337654503 1 1 1 1 1 1 1 0.050085661841308332 1 1 1 1 1 1 1 1 1 1 1 1 1 1 1 0.05052083009553307 1 1 1 1 1 1 1 1 0.049606436226373729 1 0.050313517045178627 0.048983885064340094 1 1 1 1 1 1 1 1 1 1 1 1 0.049485231636473344 1 1 1 1 1 1 1 1 1 1 1 1 1 1 1 1 1 1 0.044190662944124701 1 1 1 0.0492472598437243 1 1 1 1 1 1 1 1 0.049746398046483717 1 1 1 1 1 1 1 1 1 1 1 1 1 1 1 0.048880094229567184 1 1 1 0.049609180958121932 1 1 1 1 1 1 1 1 1 1 1 1 1 1 1 1 1 1 1 1 1 1 1 1 1 1 1 1 1 1 1 1 1 0.04965021780603477 1 0.049843660072296736 1 1 1 1 1 1 1 1 0.050015400326825929 1 1 1 1 1 1 1 1 1 0.050085615296349022 1 1 0.050026526536329316 1 1 1 1 1 0.050021771767190693 1 1 1 1 0.050007737347863207 1 1 1 1 0.050390493947338605 1 1 1 0.049961103533493742 1 0.050818000732136256 1 1 0.050357691647422112 1 1 1 1 1 1 1 1 1 1 1 1 1 1 0.05000267294366563 1 1 0.049994636139306291 1 0.050008630540669279 1 1 1 0.049984312483721781 1 1 0.051515622516953588 1 1 1 1 0.049446400070466502 1 0.049557099554910146 1 1 1 1 1 1 0.049835590759799535 1 0.049881613864782542 1 1 1 1 1 0.042320022563249786 1 1 1 1 0.049526808855073476 1 1 1 1 1 1 0.042581678941671391 1 1 1 1 1 1 1 1 1 1 1 1 1 1 1 1 1 1 1 1 1 1 1 1 1 1 1 1 1 1 1 1 1 0.049961017464693148 0.050000251883322924 1 1 1 1 1 1 1 1 1 1 0.042331401886478021 1 1 0.049627548796242912 0.043353900759901101 1 0.050010886452989782 1 1 1 1 1 1 1 0.043215625488825446 1 1 1 1 1 1 1 1 1 1 1 1 0.050493755652140704 1 1 1 1 0.050179361950695618 1 1 1 1 1 1 1 1 1 1 1 1 0.048754240541931754 1 1 1 1 1 1 1 1 1 1 1 1 1 1 1 1 1 0.048891478378833515 1 1 1 1 1 0.049664199387014149 1 1 1 0.047591723666603865 1 1 1 1 1 1 0.048394458763839888 1 0.048394222848447931 1 1 1 0.048946516410848781 1 1 1 1 1 1 1 1 1 0.047018368319033492 1 1 0.049984225225626316 1 1 1 1 1 1 1 0.049358769275457175 1 1 1 1 1 1 1 1 1 1 1 1 1 0.050817184398849573 1 1 0.049789706572917321 1 1 1 1 1 1 0.050055446682584825 1 1 1 1 1 1 0.045868612523230864 1 1 1 1 1 1 1 0.044146737461502349 1 1 1 1 1 1 1 1 1 1 1 1 1 1 1 1 1 1 1 1 1 1 0.049587296685303192 1 1 1 1 1 1 1 1 1 1 0.047454670023695952 1 1 1 1 0.047618801485952843 0.04916475363379566 1 1 1 1 0.049259307572440854 1 1 1 1 1 1 1 1 1 0.049385261100604386 1 1 1 1 1 1 1 1 1 1 1 0.046945494995401814 1 1 1 0.048621679124356276 1 1 1 0.048826786125199091 1 1 1 1 1 1 1 1 1 1 1 1 0.047313105800200178 1 1 1 1 1 0.050004262569052951 1 1 0.050031759116508104 1 1 1 1 1 1 1 1 1 1 1 1 1 1 0.047509302315533464 1 1 1 1 1 1 1 0.043367520334543989 1 1 1 0.040815060038354042 1 1 1 1 1 0.050060976063281845 1 1 1 1 1 1 1 1 1 0.050033479515826693 1 1 1 1 1 1 1 1 0.039467095306613943 1 1 1 1 1 0.049314889901912226 1 1 1 1 1 1 1 0.049751050652290976 1 1 1 1 1 1 1 1 1 1 1 1 1 1 1 1 1 1 1 1 1 1 1 1 1 1 1 1 1 1 1 1 1 1 1 1 1 1 1 1 1 1 1 1 1 1 1 1 0.048556034178221158 1 1 1 1 1 1 1 0.049440072296130073 1 1 1 1 1 1 1 1 1 1 1 1 1 1 1 1 1 1 1 1 1 1 0.04984334945768315 0.04973669043067757 1 1 0.048324620742007773 0.045628840481787183 1 1 1 1 1 1 1 0.04335926739260091 1 1 1 1 1 1 1 1 1 1 1 1 1 1 0.049973025662144711 1 1 1 1 1 1 1 1 0.050016996400885839 1 1 0.049943725329853597 1 1 1 0.049825383060797881 1 1 1 1 1 1 1 1 1 1 1 1 1 1 1 1 1 1 1 1 1 1 1 1 1 1 1 1 0.050091340922378783 1 1 1 1 1 1 1 1 0.050008171086672867 1 1 1 1 1 1 0.050397334920150194 0.050028869226883051 1 1 1 1 0.049985487894945356 1 1 0.050136181681427888 1 1 0.050618076052800332 1 1 1 1 1 1 0.049997355947087423 1 1 1 1 1 1 1 1 0.049998966763757015 1 1 1 1 1 1 1 1 1 1 1 0.049995958139933905 1 1 0.049996990206637365 1 1 1 1 1 1 1 0.050009973602087983 1 1 1 0.049985422829650954 1 0.049941214996266296 1 0.04999927618389903 1 1 1 1 1 1 1 1 1 1 1 1 1 1 1 1 1 0.049935546836008537 1 0.050000134343155506 1 1 1 1 1 1 1 1 1 1 0.049901684126371228 1 1 1 1 1 1 1 0.04988510024170862 1 1 1 0.050002146799389212 1 0.0482461136752559 0.048501097514285114 1 1 0.046677080719631461 1 1 1 1 0.049093419333332319 1 1 1 0.048303543704320391 1 1 1 0.048156898311435825 1 0.046738322342927074 0.050605024681163194 1 1 1 1 1 1 0.046290919777677589 1 1 1 1 1 1 1 1 0.052264852619628599 0.049999288167082101 0.051209359028154176 1 0.0534882506260978 1 1 0.045119531514404482 0.049999501209576053 1 1 0.038688289980468887 1 1 1 1 1 1 1 1 1 1 1 0.050012647016391971 1 1 1 1 1 1 1 1 1 1 1 1 1 0.050673774307464885 0.051780251253201084 1 1 1 1 0.050963330402922273 1 1 1 0.049036936883107417 1 1 1 1 1 0.051039797902819498 0.050001307583170292 1 1 1 0.048757229034469204 1 1 1 1 1 1 1 1 1 1 1 1 1 1 1 0.049388797124272174 1 1 1 0.049284873477030658 1 1 1 0.049706430467897321 1 1 1 1 1 1 0.047635223744060734 1 1 1 1 1 0.048102610416555884 1 1 1 1 1 1 1 1 0.049994111566269928 1 1 1 1 1 1 1 1 1 0.049979317089506287 1 1 1 1 0.049993001115292215 1 0.049987657603697319 1 1 0.050308358819781067 1 0.049398154844399682 1 1 1 1 1 1 0.049641802548837946 1 0.049988887027614129 0.049614149000721412 1 1 1 1 1 1 1 1 0.047111152163197098 1 0.049861898412620606 1 0.049964897600600792 1 0.050232373826518739 1 1 1 1 1 1 1 1 1 1 1 0.049672847723683966 1 1 1 0.049690414673435733 1 1 1 1 1 1 1 1 0.05001756694975177 1 1 1 1 1 1 1 1 1 0.049679814621021612 1 1 1 1 0.047062020721776621 1 1 0.042536679724090296 1 1 1 1 1 1 1 1 1 0.038985376824195714 1 1 1 0.040077105493079981 1 1 1 1 1 1 1 1 1 1 1 1 1 1 1 1 1 1 1 0.038739139878411211 1 1 1 1 1 1 1 1 1 1 0.050254739280112315 1 1 1 1 1 1 1 1 1 1 1 1 1 1 1 1 1 1 1 1 1 1 1 1 1 1 1 1 1 1 1 1 1 1 1 1 1 1 1 1 1 1 1 1 1 0.052181406470029085 0.049976130395071136 1 1 1 1 1 1 1 1 1 1 1 1 1 0.05314947841723279 0.044329995878439096 1 1 1 0.045811513725840192 1 1 0.051427142368021102 1 1 1 0.053408127056199003 1 1 1 0.052390916183187045 1 1 1 1 1 1 1 1 0.049741646072390545 1 1 0.050345719754028663 1 0.048050768505296992 0.050102067254412817 1 1 1 1 1 1 0.050907493838851722 1 0.048753826087651567 0.050159047271329756 0.050045797827092238 1 1 0.049407532713993021 1 1 0.051560925870687377 0.051523282154995825 1 1 1 1 1 1 1 1 1 1 1 1 1 1 1 1 1 1 1 1 1 0.038649772813864149 1 1 1 1 1 1 1 1 1 0.049787645601462482 1 1 1 1 1 1 1 0.049222796401009641 0.038780418175118549 1 1 1 1 1 1 1 1 1 1 1 1 1 1 1 1 1 1 1 1 1 1 1 0.050461701347600724 1 0.049986902638203476 1 1 1 1 1 1 1 0.050784510782783253 1 1 1 0.047143863611363523 0.037527026907000313 1 1 0.04809805182973291 1 1 1 1 0.047670260996934923 1 1 1 0.038954474563081633 1 1 1 0.051400673389948692 1 1 1 1 1 1 1 1 1 0.053266858172560112 0.04760590469385257 1 1 1 1 1 0.051401557127237069 1 1 0.048318231520380145 0.053386034973136959 0.052606080581784301 1 1 1 1 1 0.039414723778955468 1 1 1 1 1 1 1 1 1 0.049702992720568683 1 0.049873752940941443 1 1 1 1 1 1 1 1 1 1 1 1 1 1 1 1 1 1 1 1 1 1 1 1 0.048945119231041015 1 1 1 1 0.050760507623667017 0.046833669705897057 1 1 1 0.05246488600726195 1 1 1 1 1 1 1 1 1 1 1 1 1 1 1 1 0.042546027417544589 1 1 1 0.049970140361763976 1 1 0.040887991045589142 1 1 1 1 1 1 1 1 1 1 1 1 1 0.044790997139786654 1 1 0.045643332546342341 1 1 1 0.043992500295749491 1 0.049531540840287124 1 0.049795240613024934 1 0.052087149885314779 0.044061206981179366 0.049942772927191896 1 1 1 1 1 1 1 1 0.049379905688287075 1 1 1 1 1 1 1 1 0.040854549572872156 1 1 0.055063869103897642 1 1 1 1 1 1 1 1 1 1 1 1 1 1 1 1 1 1 1 1 1 0.045746322833689207 1 1 1 1 1 1 1 1 1 1 0.047351652774403223 1 0.051287734248842851 1 1 0.048572080894220007 1 0.044892415729058943 1 0.050041114122565948 1 1 0.050058288076690625 1 0.043341266222761854 1 1 0.049057434430090918 1 1 1 0.05055541337263017 1 1 1 1 1 1 1 1 1 1 1 1 1 1 1 1 1 1 1 1 1 1 1 1 1 1 1 1 1 1 1 1 1 1 1 1 1 1 1 1 1 1 1 1 1 1 1 1 1 1 1 1 1 1 1 1 1 1 1 1 1 0.047064280641213423 1 1 0.043817651043081773 1 1 1 1 1 1 0.051802152636391804 0.044711809801877174 1 1 1 1 1 1 1 1 1 1 1 1 1 1 1 1 1 1 0.046209352360161965 1 1 1 0.049925414630034672 1 1 1 1 1 1 1 1 1 1 1 1 1 1 1 1 0.050016799910221933 1 1 1 1 1 1 1 0.043391154805960459 1 1 1 1 1 1 1 1 0.044990943973937381 1 0.049789143445833281 1 1 1 1 1 1 1 1 1 1 1 1 1 1 1 1 0.04695513314592293 1 1 1 1 1 1 1 0.042158126841675352 1 1 1 1 0.050697398004367934 1 1 1 1 1 1 1 0.052731208195141793 1 1 0.04518771153986384 0.05020153792698083 1 1 0.041175419172281111 1 1 1 1 1 1 0.038997933333705846 1 1 1 1 1 1 1 1 1 0.052450510491485518 1 1 0.04992944417401253 1 1 0.050073970306078401 1 1 0.045896781718482521 1 1 1 1 1 0.046715543939525712 1 1 1 1 1 1 1 1 0.049897560341747089 1 1 1 1 1 1 1 0.04967880982877762 1 1 1 1 1 1 1 1 1 1 1 1 0.049077930227139556 1 1 1 1 1 1 1 0.050134996918601259 0.050083888653272075 1 0.061926621495585463 1 0.053152006617408515 1 1 1 1 1 1 1 1 1 1 1 1 1 1 1 0.050002156414603358 1 0.054039774498887527 1 1 1 1 1 1 1 1 0.04204573685356517 1 0.048800858372226009 1 0.054085238142587665 1 0.039041951077935136 1 0.050333953014520823 1 1 0.049986268689675539 1 1 1 1 1 0.050039570476239761 1 1 1 1 1 1 1 1 0.049919341444434932 1 1 1 1 1 0.049748312063656368 1 1 0.06176471008120149 1 0.049603878477527022 0.051231219775292915 1 1 1 1 1 1 1 1 0.05002735792517761 1 1 1 1 1 1 1 1 1 1 1 1 1 0.042425033214025694 1 1 1 1 1 1 1 0.049396971571176285 1 1 1 0.049397820214811768 1 1 1 1 1 1 1 1 1 1 1 1 1 1 1 1 1 0.050273913195774754 1 1 1 1 1 1 1 0.050148582206774955 1 1 0.047143358006840774 1 1 1 1 1 1 1 1 1 1 1 1 1 1 1 0.047835445247770052 1 1 1 1 0.050409420901829385 1 1 1 1 1 1 1 1 1 1 1 1 1 1 1 1 1 1 1 1 1 1 1 1 1 0.053694417708272116 1 1 1 1 1 1 0.050152666966261347 1 1 1 1 1 1 1 1 1 0.053327688164039884 0.046574290014785552 1 1 1 0.046878476016147801 1 0.050390778791889593 1 1 1 1 1 1 1 1 1 1 1 1 1 1 1 0.048932076919456509 1 1 1 1 1 1 1 1 1 1 1 1 0.049711561554285078 0.049224174314378685 1 1 1 1 1 1 1 1 0.047110509365006298 1 1 0.050109995749209629 1 1 0.045727096202035591 0.051882317517592168 1 1 1 1 1 1 1 0.048156197988855357 1 1 1 1 1 1 1 1 1 0.049512612760093618 1 1 1 0.049412673798227405 1 1 1 1 1 0.049771814142236193 1 1 1 1 1 1 1 1 1 1 1 1 0.050467077709201211 1 1 1 0.050264074805115952 1 1 1 0.048443273630369252 1 1 1 1 1 1 1 1 1 1 1 1 1 1 1 1 1 1 1 1 1 1 1 1 1 1 1 1 1 1 1 1 0.050584617170396154 1 1 1 1 1 1 1 1 1 1 1 1 1 1 1 1 1 1 1 1 1 1 1 1 0.049387951593263431 1 0.049966652519983411 1 1 0.054282680782591748 1 1 1 1 1 1 1 1 1 0.047473159023142149 1 1 1 1 1 1 1 1 1 1 1 1 1 1 0.052753373128362036 1 1 1 1 0.051297823958158288 1 1 1 0.050324136458843864 1 1 1 1 1 1 1 1 1 1 1 1 1 1 1 1 1 1 1 1 1 1 1 1 1 1 1 1 1 1 1 1 1 1 1 1 1 1 1 1 1 1 1 1 1 1 1 1 1 1 1 1 1 1 1 1 1 1 1 1 1 1 1 1 1 1 1 1 1 1 1 1 1 1 1 1 1 1 1 1 1 1 1 1 1 1 1 1 1 1 1 1 1 1 1 1 1 1 1 1 1 1 1 1 1 1 1 1 1 1 1 1 1 1 1 1 1 1 1 1 1 1 1 1 1 1 1 1 1 1 1 1 1 1 1 1 1 1 1 1 1 1 1 1 1 1 1 1 1 1 1 1 1 1 1 1 1 1 1 1 1 1 1 1 1 1 1 1 1 1 1 1 1 1 1 1 1 1 1 1 1 1 1 1 1 1 1 1 1 0.035814895564933572 1 1 1 1 1 1 1 1 1 1 1 1 1 1 1 1 0.04910680800334332 1 1 1 1 1 1 1 1 0.04045992463863602 1 1 1 1 0.050517868595849079 1 1 1 1 1 1 1 1 1 1 1 1 1 1 1 1 1 1 1 1 1 1 0.049429428705415931 1 1 1 1 1 1 1 1 1 1 1 1 1 0.051617572905226908 0.036704326583282078 1 1 1 1 1 0.040439445424490732 1 0.053899524784605732 1 1 1 1 1 1 1 1 1 1 1 0.046524474124936543 1 1 1 1 1 1 1 0.032080059237230389 1 1 1 1 1 1 1 1 1 1 1 1 1 1 1 0.049403718902115493 0.034229683155073 1 1 1 1 1 1 1 1 1 1 1 1 0.052210021096911592 1 1 1 1 1 1 1 1 1 1 1 1 1 1 1 1 0.050696489157303785 1 1 1 1 1 1 1 0.036941240864658137 1 1 1 1 1 1 1 1 1 1 0.049895244353359139 0.041111433237242215 1 1 1 1 1 1 1 1 1 1 1 1 1 1 1 1 1 1 1 1 1 1 1 1 1 1 1 1 1 1 0.04790374376331015 1 1 1 1 1 0.046899245933375133 1 1 1 1 1 1 1 1 1 1 0.048630565315916592 1 1 1 1 0.050530047881810848 1 1 1 1 1 1 1 1 1 1 0.047205141147894605 1 0.048936460530436071 1 1 1 1 1 1 1 1 1 1 1 1 1 1 1 1 1 1 1 1 1 1 1 1 1 1 1 1 1 1 1 0.049669153774392884 1 1 1 1 1 0.049072872676508367 1 1 1 1 1 1 1 1 1 1 1 1 1 1 1 1 1 1 0.049400179369110057 1 1 0.038111853968834049 1 1 1 0.049788478635677938 1 1 1 1 1 0.032972168218224254 1 1 1 1 1 1 1 1 1 1 0.044089778650020145 1 1 1 1 1 1 0.050263692840773054 1 1 1 1 1 0.031020624318798647 0.050090255379662219 1 1 0.033434293500451462 1 1 0.04942405818959416 1 1 1 1 1 1 1 1 1 1 0.049310016206487339 1 1 0.048909184519502713 1 1 0.048426781242196175 1 1 0.048516019460304677 1 1 0.050682026061032455 1 1 0.048845726388276743 1 1 1 1 1 1 0.051102926636075831 1 1 1 1 1 1 1 1 1 1 1 0.034748869503396285 1 1 1 1 1 1 1 0.049341340698619174 1 1 1 1 0.050017958600667656 1 1 1 0.037212097644713144 1 1 1 1 1 1 1 1 1 1 1 0.050131150284687662 1 1 1 1 1 1 1 1 1 1 1 1 1 1 1 1 1 1 1 1 1 1 1 1 0.050011545729741272 1 1 1 1 1 0.049975829602244518 1 1 1 1 1 1 1 1 1 1 1 1 1 1 0.04918550040461471 1 1 0.050488273043143447 1 0.04468671865274914 1 1 1 1 0.042581451028252726 1 0.05016056284618526 0.052449363675146229 1 0.051734291667162889 1 1 1 1 1 1 1 0.049987153524156322 1 0.050326137107833825 1 1 1 1 1 1 0.049834260453848811 1 1 1 1 1 1 0.049774424729049763 1 1 1 1 0.049342613797092608 1 1 1 1 1 0.050066992412326088 1 1 0.049906267651848343 1 1 1 1 0.048999263214288657 1 1 1 1 0.050069385113317322 1 1 1 1 1 1 0.049892302161357913 1 1 1 1 1 1 1 1 1 0.049508177592324634 1 1 1 1 1 1 0.049754318486619403 1 1 1 1 0.049472155729660044 1 1 1 1 1 1 1 1 1 1 1 1 1 1 1 1 0.050169497729885972 1 1 1 0.050262935259675255 1 1 0.043614337056878581 1 1 1 1 1 1 1 1 1 1 1 1 1 1 1 1 0.049988086564659223 1 0.044606635422399406 1 1 1 1 1 1 1 1 1 1 1 1 1 1 1 1 1 1 1 1 1 1 1 1 1 1 0.041772164998767507 1 1 0.045856395401502527 1 1 1 1 1 1 1 1 1 1 0.047723995717404752 1 1 1 1 0.04982560579573625 1 1 1 1 0.049837519231077022 1 1 1 1 1 1 1 1 1 0.047932694550335386 1 1 1 1 1 1 1 1 1 1 1 1 1 1 1 1 1 1 1 1 1 1 1 1 1 1 1 1 
</DataArray>
</CellData>
</Piece>
</UnstructuredGrid>
</VTKFile>
