<?xml version="1.0"?>
<VTKFile type="UnstructuredGrid" version="0.1" byte_order="LittleEndian">
<UnstructuredGrid>
<Piece NumberOfPoints="31299" NumberOfCells="10931">
<Points>
<DataArray type="Float64" NumberOfComponents="3" format="ascii">
-0.49790356825270748 -0.49999999999999972 0 -0.48069287347562512 -0.4785791255133528 0 -0.49790356825270748 -0.49999999999999972 0 -0.5 -0.5 0 -0.50000000000000022 -0.47108653240899451 0 -0.49790356825270748 -0.49999999999999972 0 -0.50000000000000022 -0.47108653240899451 0 -0.48069287347562512 -0.4785791255133528 0 -0.48069287347562512 -0.4785791255133528 0 -0.46996264045187741 -0.5 0 -0.45624012731648322 -0.4772966753248149 0 -0.49790356825270748 -0.49999999999999972 0 -0.48069287347562512 -0.4785791255133528 0 -0.46996264045187741 -0.5 0 -0.46996264045187741 -0.5 0 -0.45624012731648322 -0.4772966753248149 0 -0.44202171265104723 -0.5 0 -0.48069287347562512 -0.4785791255133528 0 -0.45624012731648322 -0.4772966753248149 0 -0.46348217869854252 -0.45715825102670621 0 -0.45624012731648322 -0.4772966753248149 0 -0.44202171265104723 -0.5 0 -0.43558413304427901 -0.47258591764503932 0 -0.44569722557752889 -0.4554567577637913 0 -0.44627148392145899 -0.43573737654006012 0 -0.42860007058589789 -0.4514076492843323 0 -0.44569722557752889 -0.4554567577637913 0 -0.46348217869854252 -0.45715825102670621 0 -0.44627148392145899 -0.43573737654006012 0 -0.45624012731648322 -0.4772966753248149 0 -0.44569722557752889 -0.4554567577637913 0 -0.43558413304427901 -0.47258591764503932 0 -0.45624012731648322 -0.4772966753248149 0 -0.44569722557752889 -0.4554567577637913 0 -0.46348217869854252 -0.45715825102670621 0 -0.46348217869854252 -0.45715825102670621 0 -0.47899038701309371 -0.45386695132156429 0 -0.45798077402618748 -0.43664737023413408 0 -0.47899038701309371 -0.45386695132156429 0 -0.45798077402618748 -0.43664737023413408 0 -0.46348217869854252 -0.45715825102670621 0 -0.45798077402618748 -0.43664737023413408 0 -0.44627148392145899 -0.43573737654006012 0 -0.46348217869854252 -0.45715825102670621 0 -0.44627148392145899 -0.43573737654006012 0 -0.47247119250092212 -0.4377735007952992 0 -0.47899038701309371 -0.45386695132156429 0 -0.48568137433283759 -0.43394950691961071 0 -0.47247119250092212 -0.4377735007952992 0 -0.47899038701309371 -0.45386695132156429 0 -0.45798077402618748 -0.43664737023413408 0 -0.48069287347562512 -0.4785791255133528 0 -0.46348217869854252 -0.45715825102670621 0 -0.47899038701309371 -0.45386695132156429 0 -0.48069287347562512 -0.4785791255133528 0 -0.46348217869854252 -0.45715825102670621 0 -0.50000000000000022 -0.47108653240899451 0 -0.48069287347562512 -0.4785791255133528 0 -0.47899038701309371 -0.45386695132156429 0 -0.50000000000000022 -0.47108653240899451 0 -0.47899038701309371 -0.45386695132156429 0 -0.50000000000000022 -0.47108653240899451 0 -0.47899038701309371 -0.45386695132156429 0 -0.5 -0.44273366954962601 0 -0.47899038701309371 -0.45386695132156429 0 -0.5 -0.44273366954962601 0 -0.48568137433283759 -0.43394950691961071 0 -0.5 -0.44273366954962601 0 -0.48568137433283759 -0.43394950691961071 0 -0.49999999999999889 -0.41438080669025767 0 -0.48568137433283759 -0.43394950691961071 0 -0.49999999999999889 -0.41438080669025767 0 -0.47694529215017167 -0.42099260624130619 0 -0.49999999999999889 -0.41438080669025767 0 -0.47694529215017167 -0.42099260624130619 0 -0.47580431133393658 -0.40326547028876342 0 -0.47694529215017167 -0.42099260624130619 0 -0.47580431133393658 -0.40326547028876342 0 -0.46144661430592482 -0.41223065833040562 0 -0.47247119250092212 -0.4377735007952992 0 -0.48568137433283759 -0.43394950691961071 0 -0.47694529215017167 -0.42099260624130619 0 -0.47247119250092212 -0.4377735007952992 0 -0.47694529215017167 -0.42099260624130619 0 -0.46599097723466248 -0.42736692078003929 0 -0.5 -0.38646328526278378 0 -0.48876697055563989 -0.39213872916484771 0 -0.47753394111128172 -0.36989665163943719 0 -0.49999999999999889 -0.41438080669025767 0 -0.48876697055563989 -0.39213872916484771 0 -0.47580431133393658 -0.40326547028876342 0 -0.49999999999999889 -0.41438080669025767 0 -0.5 -0.38646328526278378 0 -0.48876697055563989 -0.39213872916484771 0 -0.49999999999999889 -0.41438080669025767 0 -0.48876697055563989 -0.39213872916484771 0 -0.48876697055563989 -0.39213872916484771 0 -0.47580431133393658 -0.40326547028876342 0 -0.4697456964830381 -0.38537477372473389 0 -0.48876697055563989 -0.39213872916484771 0 -0.4697456964830381 -0.38537477372473389 0 -0.47753394111128172 -0.36989665163943719 0 -0.4697456964830381 -0.38537477372473389 0 -0.46802330407498038 -0.36651467391938047 0 -0.48876697055563989 -0.39213872916484771 0 -0.47753394111128172 -0.36989665163943719 0 -0.4697456964830381 -0.38537477372473389 0 -0.45726600860375899 -0.37898309285459991 0 -0.46802330407498038 -0.36651467391938047 0 -0.4697456964830381 -0.38537477372473389 0 -0.45726600860375899 -0.37898309285459991 0 -0.45792129450884522 -0.39447524758102959 0 -0.47580431133393658 -0.40326547028876342 0 -0.4697456964830381 -0.38537477372473389 0 -0.45792129450884522 -0.39447524758102959 0 -0.47580431133393658 -0.40326547028876342 0 -0.45792129450884522 -0.39447524758102959 0 -0.46144661430592482 -0.41223065833040562 0 -0.45792129450884522 -0.39447524758102959 0 -0.44559571122821351 -0.40511011154907839 0 -0.46144661430592482 -0.41223065833040562 0 -0.45792129450884522 -0.39447524758102959 0 -0.44559571122821351 -0.40511011154907839 0 -0.43901583312348968 -0.3852671565634247 0 -0.44559571122821351 -0.40511011154907839 0 -0.43901583312348968 -0.3852671565634247 0 -0.42804717444615831 -0.40936789304606569 0 -0.45726600860375899 -0.37898309285459991 0 -0.45792129450884522 -0.39447524758102959 0 -0.43901583312348968 -0.3852671565634247 0 -0.45726600860375899 -0.37898309285459991 0 -0.43901583312348968 -0.3852671565634247 0 -0.44998449180082112 -0.3611664200807837 0 -0.45610761852481252 -0.42274467896102369 0 -0.45798077402618748 -0.43664737023413408 0 -0.45054028290431952 -0.42426429715019309 0 -0.45610761852481252 -0.42274467896102369 0 -0.45798077402618748 -0.43664737023413408 0 -0.46599097723466248 -0.42736692078003929 0 -0.47247119250092212 -0.4377735007952992 0 -0.45798077402618748 -0.43664737023413408 0 -0.46599097723466248 -0.42736692078003929 0 -0.47247119250092212 -0.4377735007952992 0 -0.45798077402618748 -0.43664737023413408 0 -0.47694529215017167 -0.42099260624130619 0 -0.46599097723466248 -0.42736692078003929 0 -0.46144661430592482 -0.41223065833040562 0 -0.45610761852481252 -0.42274467896102369 0 -0.46599097723466248 -0.42736692078003929 0 -0.46144661430592482 -0.41223065833040562 0 -0.45610761852481252 -0.42274467896102369 0 -0.46144661430592482 -0.41223065833040562 0 -0.44790069043057262 -0.41561388720165532 0 -0.44790069043057262 -0.41561388720165532 0 -0.44017204863570542 -0.42205125220395973 0 -0.45054028290431952 -0.42426429715019309 0 -0.44559571122821351 -0.40511011154907839 0 -0.43933181180111541 -0.41471484377461387 0 -0.42804717444615831 -0.40936789304606569 0 -0.45610761852481252 -0.42274467896102369 0 -0.44790069043057262 -0.41561388720165532 0 -0.45054028290431952 -0.42426429715019309 0 -0.44559571122821351 -0.40511011154907839 0 -0.46144661430592482 -0.41223065833040562 0 -0.44790069043057262 -0.41561388720165532 0 -0.44559571122821351 -0.40511011154907839 0 -0.44790069043057262 -0.41561388720165532 0 -0.43933181180111541 -0.41471484377461387 0 -0.44790069043057262 -0.41561388720165532 0 -0.43933181180111541 -0.41471484377461387 0 -0.44017204863570542 -0.42205125220395973 0 -0.43933181180111541 -0.41471484377461387 0 -0.44017204863570542 -0.42205125220395973 0 -0.43520428575890929 -0.42196285634610903 0 -0.45798077402618748 -0.43664737023413408 0 -0.44017204863570542 -0.42205125220395973 0 -0.45054028290431952 -0.42426429715019309 0 -0.44017204863570542 -0.42205125220395973 0 -0.44627148392145899 -0.43573737654006012 0 -0.43520428575890929 -0.42196285634610903 0 -0.44627148392145899 -0.43573737654006012 0 -0.43520428575890929 -0.42196285634610903 0 -0.45798077402618748 -0.43664737023413408 0 -0.44017204863570542 -0.42205125220395973 0 -0.45798077402618748 -0.43664737023413408 0 -0.44017204863570542 -0.42205125220395973 0 -0.44627148392145899 -0.43573737654006012 0 -0.45798077402618748 -0.43664737023413408 0 -0.44627148392145899 -0.43573737654006012 0 -0.44627148392145899 -0.43573737654006012 0 -0.43520428575890929 -0.42196285634610903 0 -0.41707851576882837 -0.43346862952870729 0 -0.44627148392145899 -0.43573737654006012 0 -0.41707851576882837 -0.43346862952870729 0 -0.42804717444615831 -0.40936789304606569 0 -0.41707851576882837 -0.43346862952870729 0 -0.43933181180111541 -0.41471484377461387 0 -0.43520428575890929 -0.42196285634610903 0 -0.42804717444615831 -0.40936789304606569 0 -0.43520428575890929 -0.42196285634610903 0 -0.42804717444615831 -0.40936789304606569 0 -0.41707851576882837 -0.43346862952870729 0 -0.41337367291710531 -0.41950178752652612 0 -0.40712963174989369 -0.40293294564419629 0 -0.40123936970354063 -0.43223768188713452 0 -0.42804717444615831 -0.40936789304606569 0 -0.41337367291710531 -0.41950178752652612 0 -0.41707851576882837 -0.43346862952870729 0 -0.42804717444615831 -0.40936789304606569 0 -0.41337367291710531 -0.41950178752652612 0 -0.40712963174989369 -0.40293294564419629 0 -0.41707851576882837 -0.43346862952870729 0 -0.40123936970354063 -0.43223768188713452 0 -0.41337367291710531 -0.41950178752652612 0 -0.41707851576882837 -0.43346862952870729 0 -0.40123936970354063 -0.43223768188713452 0 -0.41707851576882837 -0.43346862952870729 0 -0.40049432457678519 -0.43594436772840789 0 -0.40540192301025629 -0.4423778071896306 0 -0.41707851576882837 -0.43346862952870729 0 -0.40123936970354063 -0.43223768188713452 0 -0.40049432457678519 -0.43594436772840789 0 -0.43901583312348968 -0.3852671565634247 0 -0.42193001991573348 -0.39203749044553471 0 -0.41301989379624798 -0.37362820940125863 0 -0.43901583312348968 -0.3852671565634247 0 -0.43652678400671768 -0.36790317402359363 0 -0.41301989379624798 -0.37362820940125863 0 -0.43901583312348968 -0.3852671565634247 0 -0.42804717444615831 -0.40936789304606569 0 -0.42193001991573348 -0.39203749044553471 0 -0.43901583312348968 -0.3852671565634247 0 -0.42804717444615831 -0.40936789304606569 0 -0.42804717444615831 -0.40936789304606569 0 -0.42193001991573348 -0.39203749044553471 0 -0.40712963174989369 -0.40293294564419629 0 -0.40712963174989369 -0.40293294564419629 0 -0.41301989379624798 -0.37362820940125863 0 -0.42193001991573348 -0.39203749044553471 0 -0.40712963174989369 -0.40293294564419629 0 -0.41301989379624798 -0.37362820940125863 0 -0.40712963174989369 -0.40293294564419629 0 -0.388052357634256 -0.376733536448145 0 -0.41301989379624798 -0.37362820940125863 0 -0.40712963174989369 -0.40293294564419629 0 -0.38611511289238121 -0.4038226373441639 0 -0.388052357634256 -0.376733536448145 0 -0.38611511289238121 -0.4038226373441639 0 -0.37087610249949737 -0.41198018746481968 0 -0.3702862293307666 -0.39285374639229909 0 -0.38611511289238121 -0.4038226373441639 0 -0.388052357634256 -0.376733536448145 0 -0.3702862293307666 -0.39285374639229909 0 -0.388052357634256 -0.376733536448145 0 -0.36879938767142162 -0.37505381744260241 0 -0.3702862293307666 -0.39285374639229909 0 -0.38611511289238121 -0.4038226373441639 0 -0.388052357634256 -0.376733536448145 0 -0.40123936970354063 -0.43223768188713452 0 -0.38417786815050642 -0.43091173824018281 0 -0.40123936970354063 -0.43223768188713452 0 -0.40049432457678519 -0.43594436772840789 0 -0.38417786815050642 -0.43091173824018281 0 -0.40123936970354063 -0.43223768188713452 0 -0.39376486542882611 -0.41798352059468752 0 -0.38417786815050642 -0.43091173824018281 0 -0.40123936970354063 -0.43223768188713452 0 -0.40049432457678519 -0.43594436772840789 0 -0.40712963174989369 -0.40293294564419629 0 -0.40123936970354063 -0.43223768188713452 0 -0.39376486542882611 -0.41798352059468752 0 -0.40712963174989369 -0.40293294564419629 0 -0.40123936970354063 -0.43223768188713452 0 -0.40712963174989369 -0.40293294564419629 0 -0.38611511289238121 -0.4038226373441639 0 -0.39376486542882611 -0.41798352059468752 0 -0.38611511289238121 -0.4038226373441639 0 -0.39376486542882611 -0.41798352059468752 0 -0.38417786815050642 -0.43091173824018281 0 -0.38611511289238121 -0.4038226373441639 0 -0.38417786815050642 -0.43091173824018281 0 -0.37087610249949737 -0.41198018746481968 0 -0.38611511289238121 -0.4038226373441639 0 -0.38417786815050642 -0.43091173824018281 0 -0.38417786815050642 -0.43091173824018281 0 -0.3826216475213372 -0.45267285944948987 0 -0.37274379172501482 -0.44103025013760211 0 -0.38417786815050642 -0.43091173824018281 0 -0.3826216475213372 -0.45267285944948987 0 -0.38417786815050642 -0.43091173824018281 0 -0.3826216475213372 -0.45267285944948987 0 -0.3955769019954779 -0.44768818012073153 0 -0.40049432457678519 -0.43594436772840789 0 -0.38417786815050642 -0.43091173824018281 0 -0.3955769019954779 -0.44768818012073153 0 -0.3955769019954779 -0.44768818012073153 0 -0.40540192301025629 -0.4423778071896306 0 -0.40845794969993399 -0.45241005138067492 0 -0.40049432457678519 -0.43594436772840789 0 -0.3955769019954779 -0.44768818012073153 0 -0.40540192301025629 -0.4423778071896306 0 -0.3955769019954779 -0.44768818012073153 0 -0.39439642526227758 -0.46488189471240199 0 -0.40845794969993399 -0.45241005138067492 0 -0.3826216475213372 -0.45267285944948987 0 -0.3955769019954779 -0.44768818012073153 0 -0.39439642526227758 -0.46488189471240199 0 -0.3826216475213372 -0.45267285944948987 0 -0.38106542689216799 -0.47443398065879699 0 -0.3826216475213372 -0.45267285944948987 0 -0.39439642526227758 -0.46488189471240199 0 -0.38106542689216799 -0.47443398065879699 0 -0.39439642526227758 -0.46488189471240199 0 -0.38106542689216799 -0.47443398065879699 0 -0.38977069685606303 -0.48599273389340247 0 -0.38106542689216799 -0.47443398065879699 0 -0.37950920626299878 -0.49619510186810428 0 -0.38106542689216799 -0.47443398065879699 0 -0.37950920626299878 -0.49619510186810428 0 -0.38977069685606303 -0.48599273389340247 0 -0.38106542689216799 -0.47443398065879699 0 -0.37950920626299878 -0.49619510186810428 0 -0.36906872515638911 -0.48687437893610958 0 -0.37950920626299878 -0.49619510186810428 0 -0.38977069685606303 -0.48599273389340247 0 -0.38613985704938669 -0.5 0 -0.38977069685606303 -0.48599273389340247 0 -0.38613985704938669 -0.5 0 -0.41408078485021688 -0.5 0 -0.38977069685606303 -0.48599273389340247 0 -0.40781669728631897 -0.48012398267396622 0 -0.41408078485021688 -0.5 0 -0.39439642526227758 -0.46488189471240199 0 -0.38977069685606303 -0.48599273389340247 0 -0.40781669728631897 -0.48012398267396622 0 -0.39439642526227758 -0.46488189471240199 0 -0.40781669728631897 -0.48012398267396622 0 -0.41777169096054401 -0.4663779238914823 0 -0.40781669728631897 -0.48012398267396622 0 -0.4225211347028931 -0.48377293566693552 0 -0.41777169096054401 -0.4663779238914823 0 -0.40781669728631897 -0.48012398267396622 0 -0.41408078485021688 -0.5 0 -0.4225211347028931 -0.48377293566693552 0 -0.44202171265104723 -0.5 0 -0.41408078485021688 -0.5 0 -0.4225211347028931 -0.48377293566693552 0 -0.44202171265104723 -0.5 0 -0.4225211347028931 -0.48377293566693552 0 -0.43558413304427901 -0.47258591764503932 0 -0.4225211347028931 -0.48377293566693552 0 -0.43558413304427901 -0.47258591764503932 0 -0.41777169096054401 -0.4663779238914823 0 -0.43558413304427901 -0.47258591764503932 0 -0.42860007058589789 -0.4514076492843323 0 -0.41777169096054401 -0.4663779238914823 0 -0.44569722557752889 -0.4554567577637913 0 -0.43558413304427901 -0.47258591764503932 0 -0.42860007058589789 -0.4514076492843323 0 -0.44627148392145899 -0.43573737654006012 0 -0.41707851576882837 -0.43346862952870729 0 -0.42860007058589789 -0.4514076492843323 0 -0.41707851576882837 -0.43346862952870729 0 -0.40845794969993399 -0.45241005138067492 0 -0.41707851576882837 -0.43346862952870729 0 -0.42860007058589789 -0.4514076492843323 0 -0.40845794969993399 -0.45241005138067492 0 -0.41707851576882837 -0.43346862952870729 0 -0.40540192301025629 -0.4423778071896306 0 -0.40845794969993399 -0.45241005138067492 0 -0.42860007058589789 -0.4514076492843323 0 -0.40845794969993399 -0.45241005138067492 0 -0.41777169096054401 -0.4663779238914823 0 -0.39439642526227758 -0.46488189471240199 0 -0.40845794969993399 -0.45241005138067492 0 -0.41777169096054401 -0.4663779238914823 0 -0.4494062854337818 -0.26517651657785868 0 -0.44633588936951962 -0.25689529081035922 0 -0.45440992993795198 -0.25821414798296571 0 -0.44633588936951962 -0.25689529081035922 0 -0.44510061421837188 -0.2439699360773388 0 -0.45179914680882421 -0.24963270404343879 0 -0.44633588936951962 -0.25689529081035922 0 -0.45440992993795198 -0.25821414798296571 0 -0.45179914680882421 -0.24963270404343879 0 -0.44633588936951962 -0.25689529081035922 0 -0.43615447772397598 -0.25463875365883232 0 -0.44510061421837188 -0.2439699360773388 0 -0.4494062854337818 -0.26517651657785868 0 -0.44633588936951962 -0.25689529081035922 0 -0.43975923722479421 -0.26695490441742781 0 -0.44633588936951962 -0.25689529081035922 0 -0.43975923722479421 -0.26695490441742781 0 -0.43615447772397598 -0.25463875365883232 0 -0.43975923722479421 -0.26695490441742781 0 -0.44785144917517422 -0.27616885405726788 0 -0.43514892811185352 -0.28552053381546938 0 -0.4494062854337818 -0.26517651657785868 0 -0.44785144917517422 -0.27616885405726788 0 -0.45881047519318952 -0.26563471683912271 0 -0.4494062854337818 -0.26517651657785868 0 -0.43975923722479421 -0.26695490441742781 0 -0.44785144917517422 -0.27616885405726788 0 -0.46321674502513249 -0.27485771222621003 0 -0.46906192088910709 -0.27225154341177638 0 -0.46727955847474067 -0.29056590165997481 0 -0.45881047519318952 -0.26563471683912271 0 -0.46055400614502268 -0.2847262825075868 0 -0.45881047519318952 -0.26563471683912271 0 -0.46321674502513249 -0.27485771222621003 0 -0.46055400614502268 -0.2847262825075868 0 -0.44785144917517422 -0.27616885405726788 0 -0.45881047519318952 -0.26563471683912271 0 -0.46055400614502268 -0.2847262825075868 0 -0.45881047519318952 -0.26563471683912271 0 -0.46321674502513249 -0.27485771222621003 0 -0.46407094759790229 -0.26939334677919519 0 -0.45881047519318952 -0.26563471683912271 0 -0.46407094759790229 -0.26939334677919519 0 -0.46519464928417997 -0.26482941463967191 0 -0.46321674502513249 -0.27485771222621003 0 -0.46407094759790229 -0.26939334677919519 0 -0.46906192088910709 -0.27225154341177638 0 -0.46407094759790229 -0.26939334677919519 0 -0.46519464928417997 -0.26482941463967191 0 -0.46906192088910709 -0.27225154341177638 0 -0.46519464928417997 -0.26482941463967191 0 -0.47069564084484927 -0.24248076671325761 0 -0.46519464928417997 -0.26482941463967191 0 -0.46156804221782949 -0.25671402825117062 0 -0.47069564084484927 -0.24248076671325761 0 -0.45881047519318952 -0.26563471683912271 0 -0.46519464928417997 -0.26482941463967191 0 -0.46156804221782949 -0.25671402825117062 0 -0.4494062854337818 -0.26517651657785868 0 -0.45881047519318952 -0.26563471683912271 0 -0.45440992993795198 -0.25821414798296571 0 -0.45881047519318952 -0.26563471683912271 0 -0.45440992993795198 -0.25821414798296571 0 -0.46156804221782949 -0.25671402825117062 0 -0.45440992993795198 -0.25821414798296571 0 -0.45886506956069772 -0.25039642629868519 0 -0.46156804221782949 -0.25671402825117062 0 -0.45440992993795198 -0.25821414798296571 0 -0.45886506956069772 -0.25039642629868519 0 -0.45179914680882421 -0.24963270404343879 0 -0.46519464928417997 -0.26482941463967191 0 -0.47390686384186381 -0.25476380209278099 0 -0.47069564084484927 -0.24248076671325761 0 -0.47818637231649402 -0.26669665333929671 0 -0.48909318615824737 -0.24282740501861871 0 -0.47390686384186381 -0.25476380209278099 0 -0.47818637231649402 -0.26669665333929671 0 -0.48909318615824737 -0.24282740501861871 0 -0.46519464928417997 -0.26482941463967191 0 -0.47390686384186381 -0.25476380209278099 0 -0.47818637231649402 -0.26669665333929671 0 -0.49857429831377958 -0.25440312686868832 0 -0.48866072098183522 -0.27618560017795951 0 -0.49857429831377958 -0.25440312686868832 0 -0.5 -0.27479319955288839 0 -0.5 -0.24687567812541461 0 -0.49857429831377958 -0.25440312686868832 0 -0.47818637231649402 -0.26669665333929671 0 -0.48909318615824737 -0.24282740501861871 0 -0.49857429831377958 -0.25440312686868832 0 -0.5 -0.27479319955288839 0 -0.48866072098183522 -0.27618560017795951 0 -0.5 -0.27479319955288839 0 -0.48866072098183522 -0.27618560017795951 0 -0.5 -0.29058469370086409 0 -0.49857429831377958 -0.25440312686868832 0 -0.48866072098183522 -0.27618560017795951 0 -0.47818637231649402 -0.26669665333929671 0 -0.48866072098183522 -0.27618560017795951 0 -0.47816781975636191 -0.27964338494383217 0 -0.47818637231649402 -0.26669665333929671 0 -0.47818637231649402 -0.26669665333929671 0 -0.46906192088910709 -0.27225154341177638 0 -0.46727955847474067 -0.29056590165997481 0 -0.48866072098183522 -0.27618560017795951 0 -0.47816781975636191 -0.27964338494383217 0 -0.47854462725237779 -0.28512538459809778 0 -0.47816781975636191 -0.27964338494383217 0 -0.47818637231649402 -0.26669665333929671 0 -0.46727955847474067 -0.29056590165997481 0 -0.47818637231649402 -0.26669665333929671 0 -0.46727955847474067 -0.29056590165997481 0 -0.46519464928417997 -0.26482941463967191 0 -0.47818637231649402 -0.26669665333929671 0 -0.46906192088910709 -0.27225154341177638 0 -0.47816781975636191 -0.27964338494383217 0 -0.47854462725237779 -0.28512538459809778 0 -0.46727955847474067 -0.29056590165997481 0 -0.48866072098183522 -0.27618560017795951 0 -0.47874714364989268 -0.29796807348723159 0 -0.48866072098183522 -0.27618560017795951 0 -0.47854462725237779 -0.28512538459809778 0 -0.47874714364989268 -0.29796807348723159 0 -0.47854462725237779 -0.28512538459809778 0 -0.47874714364989268 -0.29796807348723159 0 -0.46727955847474067 -0.29056590165997481 0 -0.5 -0.29058469370086409 0 -0.47874714364989268 -0.29796807348723159 0 -0.48866072098183522 -0.27618560017795951 0 -0.5 -0.29058469370086409 0 -0.47874714364989268 -0.29796807348723159 0 -0.5 -0.29058469370086409 0 -0.49129267454700593 -0.30084669086866173 0 -0.47874714364989268 -0.29796807348723159 0 -0.5 -0.30271072098036222 0 -0.49129267454700593 -0.30084669086866173 0 -0.48691429628070948 -0.31212327530618961 0 -0.5 -0.29058469370086409 0 -0.5 -0.30271072098036222 0 -0.49129267454700593 -0.30084669086866173 0 -0.49129267454700593 -0.30084669086866173 0 -0.48691429628070948 -0.31212327530618961 0 -0.47874714364989268 -0.29796807348723159 0 -0.47874714364989268 -0.29796807348723159 0 -0.46229753709685611 -0.30381784817605101 0 -0.47167444675569631 -0.31350846079282257 0 -0.47874714364989268 -0.29796807348723159 0 -0.46229753709685611 -0.30381784817605101 0 -0.46727955847474067 -0.29056590165997481 0 -0.48691429628070948 -0.31212327530618961 0 -0.47874714364989268 -0.29796807348723159 0 -0.47167444675569631 -0.31350846079282257 0 -0.47874714364989268 -0.29796807348723159 0 -0.46229753709685611 -0.30381784817605101 0 -0.47874714364989268 -0.29796807348723159 0 -0.47167444675569631 -0.31350846079282257 0 -0.46229753709685611 -0.30381784817605101 0 -0.44655772646623221 -0.3094152067230127 0 -0.45663942759456833 -0.31635018905518908 0 -0.46229753709685611 -0.30381784817605101 0 -0.44655772646623221 -0.3094152067230127 0 -0.46321674502513249 -0.27485771222621003 0 -0.46727955847474067 -0.29056590165997481 0 -0.46055400614502268 -0.2847262825075868 0 -0.46229753709685611 -0.30381784817605101 0 -0.46055400614502268 -0.2847262825075868 0 -0.45039593262276167 -0.29527936175851999 0 -0.46229753709685611 -0.30381784817605101 0 -0.46055400614502268 -0.2847262825075868 0 -0.46229753709685611 -0.30381784817605101 0 -0.46727955847474067 -0.29056590165997481 0 -0.46055400614502268 -0.2847262825075868 0 -0.46055400614502268 -0.2847262825075868 0 -0.45039593262276167 -0.29527936175851999 0 -0.44848757901370312 -0.28542375803471098 0 -0.45039593262276167 -0.29527936175851999 0 -0.44655772646623221 -0.3094152067230127 0 -0.43514892811185352 -0.28552053381546938 0 -0.44785144917517422 -0.27616885405726788 0 -0.46055400614502268 -0.2847262825075868 0 -0.44848757901370312 -0.28542375803471098 0 -0.44785144917517422 -0.27616885405726788 0 -0.44848757901370312 -0.28542375803471098 0 -0.43514892811185352 -0.28552053381546938 0 -0.45039593262276167 -0.29527936175851999 0 -0.44848757901370312 -0.28542375803471098 0 -0.43514892811185352 -0.28552053381546938 0 -0.46229753709685611 -0.30381784817605101 0 -0.45039593262276167 -0.29527936175851999 0 -0.44655772646623221 -0.3094152067230127 0 -0.44655772646623221 -0.3094152067230127 0 -0.43091604069217138 -0.30268144685322551 0 -0.43514892811185352 -0.28552053381546938 0 -0.44655772646623221 -0.3094152067230127 0 -0.43514892811185352 -0.28552053381546938 0 -0.45310069695368188 -0.32311885322327938 0 -0.43782591573912849 -0.32363511598568862 0 -0.45200918794640699 -0.33170479003753001 0 -0.44655772646623221 -0.3094152067230127 0 -0.45310069695368188 -0.32311885322327938 0 -0.43782591573912849 -0.32363511598568862 0 -0.44655772646623221 -0.3094152067230127 0 -0.45310069695368188 -0.32311885322327938 0 -0.45663942759456833 -0.31635018905518908 0 -0.44655772646623221 -0.3094152067230127 0 -0.45310069695368188 -0.32311885322327938 0 -0.4418284312106382 -0.33678547593682201 0 -0.45200152002933741 -0.34035982580258078 0 -0.438442116997252 -0.35297584163321671 0 -0.43782591573912849 -0.32363511598568862 0 -0.4418284312106382 -0.33678547593682201 0 -0.45200918794640699 -0.33170479003753001 0 -0.43782591573912849 -0.32363511598568862 0 -0.4418284312106382 -0.33678547593682201 0 -0.43365203167203947 -0.33230689145889958 0 -0.4418284312106382 -0.33678547593682201 0 -0.45200152002933741 -0.34035982580258078 0 -0.45200918794640699 -0.33170479003753001 0 -0.46095315047815288 -0.33706568359814282 0 -0.46460174986150171 -0.32904884809841439 0 -0.46630091166692322 -0.347654574114027 0 -0.45200918794640699 -0.33170479003753001 0 -0.4599658683489633 -0.33511080528453491 0 -0.46460174986150171 -0.32904884809841439 0 -0.45200152002933741 -0.34035982580258078 0 -0.45200918794640699 -0.33170479003753001 0 -0.4599658683489633 -0.33511080528453491 0 -0.46460174986150171 -0.32904884809841439 0 -0.46630091166692322 -0.347654574114027 0 -0.45200152002933741 -0.34035982580258078 0 -0.4599658683489633 -0.33511080528453491 0 -0.46095315047815288 -0.33706568359814282 0 -0.4599658683489633 -0.33511080528453491 0 -0.46095315047815288 -0.33706568359814282 0 -0.46095315047815288 -0.33706568359814282 0 -0.46630091166692322 -0.347654574114027 0 -0.4599658683489633 -0.33511080528453491 0 -0.46095315047815288 -0.33706568359814282 0 -0.46460174986150171 -0.32904884809841439 0 -0.46095315047815288 -0.33706568359814282 0 -0.46460174986150171 -0.32904884809841439 0 -0.46460174986150171 -0.32904884809841439 0 -0.47167444675569631 -0.31350846079282257 0 -0.46229753709685611 -0.30381784817605101 0 -0.46460174986150171 -0.32904884809841439 0 -0.47167444675569631 -0.31350846079282257 0 -0.46229753709685611 -0.30381784817605101 0 -0.46460174986150171 -0.32904884809841439 0 -0.45663942759456833 -0.31635018905518908 0 -0.46229753709685611 -0.30381784817605101 0 -0.46460174986150171 -0.32904884809841439 0 -0.45310069695368188 -0.32311885322327938 0 -0.46460174986150171 -0.32904884809841439 0 -0.45663942759456833 -0.31635018905518908 0 -0.45310069695368188 -0.32311885322327938 0 -0.45200918794640699 -0.33170479003753001 0 -0.46460174986150171 -0.32904884809841439 0 -0.46460174986150171 -0.32904884809841439 0 -0.47167444675569631 -0.31350846079282257 0 -0.48171859558374469 -0.32745937176049489 0 -0.48691429628070948 -0.31212327530618961 0 -0.47167444675569631 -0.31350846079282257 0 -0.48171859558374469 -0.32745937176049489 0 -0.48691429628070948 -0.31212327530618961 0 -0.48171859558374469 -0.32745937176049489 0 -0.5 -0.33062824240783611 0 -0.5 -0.30271072098036222 0 -0.48691429628070948 -0.31212327530618961 0 -0.5 -0.33062824240783611 0 -0.48171859558374469 -0.32745937176049489 0 -0.5 -0.33062824240783611 0 -0.48537072151781219 -0.34623031073745242 0 -0.46460174986150171 -0.32904884809841439 0 -0.48171859558374469 -0.32745937176049489 0 -0.46630091166692322 -0.347654574114027 0 -0.48171859558374469 -0.32745937176049489 0 -0.48537072151781219 -0.34623031073745242 0 -0.46630091166692322 -0.347654574114027 0 -0.48537072151781219 -0.34623031073745242 0 -0.47753394111128172 -0.36989665163943719 0 -0.46630091166692322 -0.347654574114027 0 -0.47753394111128172 -0.36989665163943719 0 -0.46630091166692322 -0.347654574114027 0 -0.5 -0.35854576383530989 0 -0.48537072151781219 -0.34623031073745242 0 -0.47753394111128172 -0.36989665163943719 0 -0.5 -0.33062824240783611 0 -0.5 -0.35854576383530989 0 -0.48537072151781219 -0.34623031073745242 0 -0.5 -0.38646328526278378 0 -0.5 -0.35854576383530989 0 -0.47753394111128172 -0.36989665163943719 0 -0.4697456964830381 -0.38537477372473389 0 -0.47753394111128172 -0.36989665163943719 0 -0.46802330407498038 -0.36651467391938047 0 -0.47753394111128172 -0.36989665163943719 0 -0.46802330407498038 -0.36651467391938047 0 -0.46630091166692322 -0.347654574114027 0 -0.46802330407498038 -0.36651467391938047 0 -0.46108044615525251 -0.35533481096029079 0 -0.44998449180082112 -0.3611664200807837 0 -0.45726600860375899 -0.37898309285459991 0 -0.46802330407498038 -0.36651467391938047 0 -0.44998449180082112 -0.3611664200807837 0 -0.45200152002933741 -0.34035982580258078 0 -0.46095315047815288 -0.33706568359814282 0 -0.44998449180082112 -0.3611664200807837 0 -0.46095315047815288 -0.33706568359814282 0 -0.44998449180082112 -0.3611664200807837 0 -0.46802330407498038 -0.36651467391938047 0 -0.46630091166692322 -0.347654574114027 0 -0.46095315047815288 -0.33706568359814282 0 -0.46108044615525251 -0.35533481096029079 0 -0.44998449180082112 -0.3611664200807837 0 -0.46802330407498038 -0.36651467391938047 0 -0.46108044615525251 -0.35533481096029079 0 -0.46630091166692322 -0.347654574114027 0 -0.46095315047815288 -0.33706568359814282 0 -0.46108044615525251 -0.35533481096029079 0 -0.46630091166692322 -0.347654574114027 0 -0.45200152002933741 -0.34035982580258078 0 -0.438442116997252 -0.35297584163321671 0 -0.44998449180082112 -0.3611664200807837 0 -0.438442116997252 -0.35297584163321671 0 -0.44998449180082112 -0.3611664200807837 0 -0.43652678400671768 -0.36790317402359363 0 -0.43901583312348968 -0.3852671565634247 0 -0.44998449180082112 -0.3611664200807837 0 -0.43652678400671768 -0.36790317402359363 0 -0.43901583312348968 -0.3852671565634247 0 -0.44998449180082112 -0.3611664200807837 0 -0.42672473766070501 -0.35970767455409741 0 -0.43652678400671768 -0.36790317402359363 0 -0.41301989379624798 -0.37362820940125863 0 -0.438442116997252 -0.35297584163321671 0 -0.42672473766070501 -0.35970767455409741 0 -0.43652678400671768 -0.36790317402359363 0 -0.438442116997252 -0.35297584163321671 0 -0.41510681438083008 -0.34093700373950903 0 -0.438442116997252 -0.35297584163321671 0 -0.41510681438083008 -0.34093700373950903 0 -0.43039568233329339 -0.33876161132532029 0 -0.438442116997252 -0.35297584163321671 0 -0.41891015584260238 -0.34432347315832079 0 -0.41510681438083008 -0.34093700373950903 0 -0.438442116997252 -0.35297584163321671 0 -0.42672473766070501 -0.35970767455409741 0 -0.41891015584260238 -0.34432347315832079 0 -0.41891015584260238 -0.34432347315832079 0 -0.41301989379624798 -0.37362820940125863 0 -0.42672473766070501 -0.35970767455409741 0 -0.41891015584260238 -0.34432347315832079 0 -0.41301989379624798 -0.37362820940125863 0 -0.41891015584260238 -0.34432347315832079 0 -0.40972992849842399 -0.35160291781201491 0 -0.41301989379624798 -0.37362820940125863 0 -0.41891015584260238 -0.34432347315832079 0 -0.41320548168482879 -0.3453918752699856 0 -0.40972992849842399 -0.35160291781201491 0 -0.41320548168482879 -0.3453918752699856 0 -0.40907502801745887 -0.34470410637009807 0 -0.40972992849842399 -0.35160291781201491 0 -0.40907502801745887 -0.34470410637009807 0 -0.40972992849842399 -0.35160291781201491 0 -0.40259715621782549 -0.34631340895996038 0 -0.40972992849842399 -0.35160291781201491 0 -0.41301989379624798 -0.37362820940125863 0 -0.40109583369892482 -0.35630309047381242 0 -0.41301989379624798 -0.37362820940125863 0 -0.39043976064426072 -0.3607569988334734 0 -0.40109583369892482 -0.35630309047381242 0 -0.388052357634256 -0.376733536448145 0 -0.41301989379624798 -0.37362820940125863 0 -0.39043976064426072 -0.3607569988334734 0 -0.388052357634256 -0.376733536448145 0 -0.37578632028792858 -0.36042996567878732 0 -0.36879938767142162 -0.37505381744260241 0 -0.388052357634256 -0.376733536448145 0 -0.39043976064426072 -0.3607569988334734 0 -0.37578632028792858 -0.36042996567878732 0 -0.37578632028792858 -0.36042996567878732 0 -0.38630789937493099 -0.34626935793824448 0 -0.37215822967431589 -0.34246575247975858 0 -0.39043976064426072 -0.3607569988334734 0 -0.37578632028792858 -0.36042996567878732 0 -0.38630789937493099 -0.34626935793824448 0 -0.38630789937493099 -0.34626935793824448 0 -0.39606138052655881 -0.34799838569775948 0 -0.39301176917695962 -0.34278150051369127 0 -0.39606138052655881 -0.34799838569775948 0 -0.39771701703585483 -0.34262490985266841 0 -0.39301176917695962 -0.34278150051369127 0 -0.39043976064426072 -0.3607569988334734 0 -0.39606138052655881 -0.34799838569775948 0 -0.40109583369892482 -0.35630309047381242 0 -0.39043976064426072 -0.3607569988334734 0 -0.38630789937493099 -0.34626935793824448 0 -0.39606138052655881 -0.34799838569775948 0 -0.39606138052655881 -0.34799838569775948 0 -0.40109583369892482 -0.35630309047381242 0 -0.40259715621782549 -0.34631340895996038 0 -0.40972992849842399 -0.35160291781201491 0 -0.40109583369892482 -0.35630309047381242 0 -0.40259715621782549 -0.34631340895996038 0 -0.39606138052655881 -0.34799838569775948 0 -0.40259715621782549 -0.34631340895996038 0 -0.39771701703585483 -0.34262490985266841 0 -0.40092659277191012 -0.33886445820897948 0 -0.39177151176440772 -0.32889816584580212 0 -0.41510681438083008 -0.34093700373950903 0 -0.40907502801745887 -0.34470410637009807 0 -0.40259715621782549 -0.34631340895996038 0 -0.40092659277191012 -0.33886445820897948 0 -0.39177151176440772 -0.32889816584580212 0 -0.41510681438083008 -0.34093700373950903 0 -0.40259715621782549 -0.34631340895996038 0 -0.40092659277191012 -0.33886445820897948 0 -0.39771701703585483 -0.34262490985266841 0 -0.40092659277191012 -0.33886445820897948 0 -0.39273719204795421 -0.33345452067111447 0 -0.39177151176440772 -0.32889816584580212 0 -0.39273719204795421 -0.33345452067111447 0 -0.39134169194916529 -0.33132045000229149 0 -0.38899266000564808 -0.33383732155348922 0 -0.39273719204795421 -0.33345452067111447 0 -0.39177151176440772 -0.32889816584580212 0 -0.39134169194916529 -0.33132045000229149 0 -0.39177151176440772 -0.32889816584580212 0 -0.39134169194916529 -0.33132045000229149 0 -0.38899266000564808 -0.33383732155348922 0 -0.40092659277191012 -0.33886445820897948 0 -0.39273719204795421 -0.33345452067111447 0 -0.39501264900466709 -0.3385839966635289 0 -0.39771701703585483 -0.34262490985266841 0 -0.39501264900466709 -0.3385839966635289 0 -0.39301176917695962 -0.34278150051369127 0 -0.40092659277191012 -0.33886445820897948 0 -0.39771701703585483 -0.34262490985266841 0 -0.39501264900466709 -0.3385839966635289 0 -0.39273719204795421 -0.33345452067111447 0 -0.39501264900466709 -0.3385839966635289 0 -0.38995989994278629 -0.33843085241625531 0 -0.39501264900466709 -0.3385839966635289 0 -0.39301176917695962 -0.34278150051369127 0 -0.38995989994278629 -0.33843085241625531 0 -0.39177151176440772 -0.32889816584580212 0 -0.38368170156053882 -0.335212846930113 0 -0.37554924661712041 -0.32052899131281232 0 -0.38630789937493099 -0.34626935793824448 0 -0.39301176917695962 -0.34278150051369127 0 -0.38995989994278629 -0.33843085241625531 0 -0.38630789937493099 -0.34626935793824448 0 -0.38995989994278629 -0.33843085241625531 0 -0.38368170156053882 -0.335212846930113 0 -0.38368170156053882 -0.335212846930113 0 -0.37554924661712041 -0.32052899131281232 0 -0.37215822967431589 -0.34246575247975858 0 -0.38995989994278629 -0.33843085241625531 0 -0.38899266000564808 -0.33383732155348922 0 -0.38368170156053882 -0.335212846930113 0 -0.39273719204795421 -0.33345452067111447 0 -0.38995989994278629 -0.33843085241625531 0 -0.38899266000564808 -0.33383732155348922 0 -0.39177151176440772 -0.32889816584580212 0 -0.38899266000564808 -0.33383732155348922 0 -0.38368170156053882 -0.335212846930113 0 -0.38630789937493099 -0.34626935793824448 0 -0.38368170156053882 -0.335212846930113 0 -0.37215822967431589 -0.34246575247975858 0 -0.39177151176440772 -0.32889816584580212 0 -0.37554924661712041 -0.32052899131281232 0 -0.39177151176440772 -0.32889816584580212 0 -0.37554924661712041 -0.32052899131281232 0 -0.38611481129386271 -0.31331167447151131 0 -0.37554924661712041 -0.32052899131281232 0 -0.38611481129386271 -0.31331167447151131 0 -0.37220008565228491 -0.30935438299599832 0 -0.39177151176440772 -0.32889816584580212 0 -0.38611481129386271 -0.31331167447151131 0 -0.3993005727033424 -0.31613736968859441 0 -0.39177151176440772 -0.32889816584580212 0 -0.3993005727033424 -0.31613736968859441 0 -0.41916461911532021 -0.31915668628440841 0 -0.39177151176440772 -0.32889816584580212 0 -0.41916461911532021 -0.31915668628440841 0 -0.3993005727033424 -0.31613736968859441 0 -0.41916461911532021 -0.31915668628440841 0 -0.40015134863977919 -0.303182952152656 0 -0.39177151176440772 -0.32889816584580212 0 -0.41916461911532021 -0.31915668628440841 0 -0.41258460071032932 -0.3298778934435268 0 -0.41916461911532021 -0.31915668628440841 0 -0.41258460071032932 -0.3298778934435268 0 -0.42429545758075921 -0.33051971790438778 0 -0.39177151176440772 -0.32889816584580212 0 -0.41258460071032932 -0.3298778934435268 0 -0.41510681438083008 -0.34093700373950903 0 -0.40907502801745887 -0.34470410637009807 0 -0.40092659277191012 -0.33886445820897948 0 -0.41510681438083008 -0.34093700373950903 0 -0.41320548168482879 -0.3453918752699856 0 -0.40907502801745887 -0.34470410637009807 0 -0.41510681438083008 -0.34093700373950903 0 -0.41891015584260238 -0.34432347315832079 0 -0.41320548168482879 -0.3453918752699856 0 -0.41510681438083008 -0.34093700373950903 0 -0.41258460071032932 -0.3298778934435268 0 -0.41510681438083008 -0.34093700373950903 0 -0.42429545758075921 -0.33051971790438778 0 -0.42429545758075921 -0.33051971790438778 0 -0.43039568233329339 -0.33876161132532029 0 -0.43365203167203947 -0.33230689145889958 0 -0.4418284312106382 -0.33678547593682201 0 -0.438442116997252 -0.35297584163321671 0 -0.43039568233329339 -0.33876161132532029 0 -0.41510681438083008 -0.34093700373950903 0 -0.42429545758075921 -0.33051971790438778 0 -0.43039568233329339 -0.33876161132532029 0 -0.4418284312106382 -0.33678547593682201 0 -0.43039568233329339 -0.33876161132532029 0 -0.43365203167203947 -0.33230689145889958 0 -0.43782591573912849 -0.32363511598568862 0 -0.42429545758075921 -0.33051971790438778 0 -0.43365203167203947 -0.33230689145889958 0 -0.43782591573912849 -0.32363511598568862 0 -0.41916461911532021 -0.31915668628440841 0 -0.42429545758075921 -0.33051971790438778 0 -0.44655772646623221 -0.3094152067230127 0 -0.41916461911532021 -0.31915668628440841 0 -0.44655772646623221 -0.3094152067230127 0 -0.43782591573912849 -0.32363511598568862 0 -0.41916461911532021 -0.31915668628440841 0 -0.41916461911532021 -0.31915668628440841 0 -0.43091604069217138 -0.30268144685322551 0 -0.41919484364491372 -0.29910153029880299 0 -0.44655772646623221 -0.3094152067230127 0 -0.41916461911532021 -0.31915668628440841 0 -0.43091604069217138 -0.30268144685322551 0 -0.43091604069217138 -0.30268144685322551 0 -0.43514892811185352 -0.28552053381546938 0 -0.41919484364491372 -0.29910153029880299 0 -0.43514892811185352 -0.28552053381546938 0 -0.40834450327146671 -0.28650863845624991 0 -0.41919484364491372 -0.29910153029880299 0 -0.40834450327146671 -0.28650863845624991 0 -0.41919484364491372 -0.29910153029880299 0 -0.40015134863977919 -0.303182952152656 0 -0.41916461911532021 -0.31915668628440841 0 -0.41919484364491372 -0.29910153029880299 0 -0.40015134863977919 -0.303182952152656 0 -0.38611481129386271 -0.31331167447151131 0 -0.3993005727033424 -0.31613736968859441 0 -0.40015134863977919 -0.303182952152656 0 -0.38611481129386271 -0.31331167447151131 0 -0.40015134863977919 -0.303182952152656 0 -0.37963915235596618 -0.29971961912395501 0 -0.38611481129386271 -0.31331167447151131 0 -0.37963915235596618 -0.29971961912395501 0 -0.37220008565228491 -0.30935438299599832 0 -0.40015134863977919 -0.303182952152656 0 -0.37963915235596618 -0.29971961912395501 0 -0.39015979569416293 -0.28606368130472282 0 -0.37963915235596618 -0.29971961912395501 0 -0.39015979569416293 -0.28606368130472282 0 -0.3729454046447826 -0.28266396815036698 0 -0.40834450327146671 -0.28650863845624991 0 -0.39015979569416293 -0.28606368130472282 0 -0.3987706300378614 -0.27526258371578322 0 -0.40834450327146671 -0.28650863845624991 0 -0.40015134863977919 -0.303182952152656 0 -0.39015979569416293 -0.28606368130472282 0 -0.39015979569416293 -0.28606368130472282 0 -0.3987706300378614 -0.27526258371578322 0 -0.38489508117933913 -0.26975526478653039 0 -0.3987706300378614 -0.27526258371578322 0 -0.3982721207713199 -0.26330896343766658 0 -0.41247099028132062 -0.27153654533949723 0 -0.3987706300378614 -0.27526258371578322 0 -0.38489508117933913 -0.26975526478653039 0 -0.3982721207713199 -0.26330896343766658 0 -0.39015979569416293 -0.28606368130472282 0 -0.38489508117933913 -0.26975526478653039 0 -0.3729454046447826 -0.28266396815036698 0 -0.38489508117933913 -0.26975526478653039 0 -0.37437602864962588 -0.25929749075189212 0 -0.37134904244232381 -0.27113020231591539 0 -0.38489508117933913 -0.26975526478653039 0 -0.37134904244232381 -0.27113020231591539 0 -0.3729454046447826 -0.28266396815036698 0 -0.38489508117933913 -0.26975526478653039 0 -0.38759006934406082 -0.25292219297864371 0 -0.3982721207713199 -0.26330896343766658 0 -0.38489508117933913 -0.26975526478653039 0 -0.38759006934406082 -0.25292219297864371 0 -0.37437602864962588 -0.25929749075189212 0 -0.38759006934406082 -0.25292219297864371 0 -0.37437602864962588 -0.25929749075189212 0 -0.3754815455226328 -0.24515134388580481 0 -0.38759006934406082 -0.25292219297864371 0 -0.39905962203334883 -0.253280537170463 0 -0.39533825663743127 -0.24429407101779799 0 -0.38759006934406082 -0.25292219297864371 0 -0.3982721207713199 -0.26330896343766658 0 -0.39905962203334883 -0.253280537170463 0 -0.3982721207713199 -0.26330896343766658 0 -0.39905962203334883 -0.253280537170463 0 -0.41054962973794951 -0.25699269170388722 0 -0.39905962203334883 -0.253280537170463 0 -0.41054962973794951 -0.25699269170388722 0 -0.40533759214738879 -0.24695183662999681 0 -0.41054962973794951 -0.25699269170388722 0 -0.42374012975747299 -0.26162586090792711 0 -0.41233133140309569 -0.23773118800038329 0 -0.41054962973794951 -0.25699269170388722 0 -0.41247099028132062 -0.27153654533949723 0 -0.42374012975747299 -0.26162586090792711 0 -0.3982721207713199 -0.26330896343766658 0 -0.41054962973794951 -0.25699269170388722 0 -0.41247099028132062 -0.27153654533949723 0 -0.43514892811185352 -0.28552053381546938 0 -0.40834450327146671 -0.28650863845624991 0 -0.41247099028132062 -0.27153654533949723 0 -0.40834450327146671 -0.28650863845624991 0 -0.3987706300378614 -0.27526258371578322 0 -0.41247099028132062 -0.27153654533949723 0 -0.43514892811185352 -0.28552053381546938 0 -0.41247099028132062 -0.27153654533949723 0 -0.42374012975747299 -0.26162586090792711 0 -0.43975923722479421 -0.26695490441742781 0 -0.43514892811185352 -0.28552053381546938 0 -0.42374012975747299 -0.26162586090792711 0 -0.43514892811185352 -0.28552053381546938 0 -0.42374012975747299 -0.26162586090792711 0 -0.43615447772397598 -0.25463875365883232 0 -0.42374012975747299 -0.26162586090792711 0 -0.42842422739751879 -0.24396335671878699 0 -0.43975923722479421 -0.26695490441742781 0 -0.43615447772397598 -0.25463875365883232 0 -0.42374012975747299 -0.26162586090792711 0 -0.32784238038639579 -0.26355734465052388 0 -0.31007351155781449 -0.2437470698782758 0 -0.33422280334630938 -0.2474119697110238 0 -0.32784238038639579 -0.26355734465052388 0 -0.3110797581983899 -0.26831742142097542 0 -0.31007351155781449 -0.2437470698782758 0 -0.33393288958424872 -0.27878482065530191 0 -0.31701400729842832 -0.29033027185282961 0 -0.3110797581983899 -0.26831742142097542 0 -0.32784238038639579 -0.26355734465052388 0 -0.33393288958424872 -0.27878482065530191 0 -0.3110797581983899 -0.26831742142097542 0 -0.33393288958424872 -0.27878482065530191 0 -0.3110797581983899 -0.26831742142097542 0 -0.32784238038639579 -0.26355734465052388 0 -0.33393288958424872 -0.27878482065530191 0 -0.34844672145884342 -0.27363933864956141 0 -0.32784238038639579 -0.26355734465052388 0 -0.34742135955341558 -0.25811521382639702 0 -0.34844672145884342 -0.27363933864956141 0 -0.32784238038639579 -0.26355734465052388 0 -0.34742135955341558 -0.25811521382639702 0 -0.33422280334630938 -0.2474119697110238 0 -0.34742135955341558 -0.25811521382639702 0 -0.36276416121781768 -0.25026291011615542 0 -0.36195523538968588 -0.2663870397437374 0 -0.34742135955341558 -0.25811521382639702 0 -0.3497292610593602 -0.24450603086655481 0 -0.33422280334630938 -0.2474119697110238 0 -0.34742135955341558 -0.25811521382639702 0 -0.36276416121781768 -0.25026291011615542 0 -0.3497292610593602 -0.24450603086655481 0 -0.36276416121781768 -0.25026291011615542 0 -0.37437602864962588 -0.25929749075189212 0 -0.36195523538968588 -0.2663870397437374 0 -0.37437602864962588 -0.25929749075189212 0 -0.37134904244232381 -0.27113020231591539 0 -0.36195523538968588 -0.2663870397437374 0 -0.36276416121781768 -0.25026291011615542 0 -0.37437602864962588 -0.25929749075189212 0 -0.3754815455226328 -0.24515134388580481 0 -0.37134904244232381 -0.27113020231591539 0 -0.36257346234818499 -0.27754724814705017 0 -0.3729454046447826 -0.28266396815036698 0 -0.37134904244232381 -0.27113020231591539 0 -0.36195523538968588 -0.2663870397437374 0 -0.36257346234818499 -0.27754724814705017 0 -0.33393288958424872 -0.27878482065530191 0 -0.34844672145884342 -0.27363933864956141 0 -0.35678602097010742 -0.2892522198896284 0 -0.36257346234818499 -0.27754724814705017 0 -0.34844672145884342 -0.27363933864956141 0 -0.35678602097010742 -0.2892522198896284 0 -0.34742135955341558 -0.25811521382639702 0 -0.36195523538968588 -0.2663870397437374 0 -0.34844672145884342 -0.27363933864956141 0 -0.36195523538968588 -0.2663870397437374 0 -0.36257346234818499 -0.27754724814705017 0 -0.34844672145884342 -0.27363933864956141 0 -0.33393288958424872 -0.27878482065530191 0 -0.35678602097010742 -0.2892522198896284 0 -0.33393288958424872 -0.27878482065530191 0 -0.35678602097010742 -0.2892522198896284 0 -0.34924285363324908 -0.29798767686558819 0 -0.35678602097010742 -0.2892522198896284 0 -0.36037023652464312 -0.30105181329188851 0 -0.34924285363324908 -0.29798767686558819 0 -0.37963915235596618 -0.29971961912395501 0 -0.35678602097010742 -0.2892522198896284 0 -0.36037023652464312 -0.30105181329188851 0 -0.37963915235596618 -0.29971961912395501 0 -0.35678602097010742 -0.2892522198896284 0 -0.3729454046447826 -0.28266396815036698 0 -0.37963915235596618 -0.29971961912395501 0 -0.35678602097010742 -0.2892522198896284 0 -0.36257346234818499 -0.27754724814705017 0 -0.35678602097010742 -0.2892522198896284 0 -0.3729454046447826 -0.28266396815036698 0 -0.37963915235596618 -0.29971961912395501 0 -0.37220008565228491 -0.30935438299599832 0 -0.36037023652464312 -0.30105181329188851 0 -0.36037023652464312 -0.30105181329188851 0 -0.35932698146983189 -0.31215981677982457 0 -0.37220008565228491 -0.30935438299599832 0 -0.36037023652464312 -0.30105181329188851 0 -0.35932698146983189 -0.31215981677982457 0 -0.35932698146983189 -0.31215981677982457 0 -0.33817049438413038 -0.30124504431632648 0 -0.35932698146983189 -0.31215981677982457 0 -0.33817049438413038 -0.30124504431632648 0 -0.34347261670880419 -0.32337329034967699 0 -0.35932698146983189 -0.31215981677982457 0 -0.34924285363324908 -0.29798767686558819 0 -0.33817049438413038 -0.30124504431632648 0 -0.36037023652464312 -0.30105181329188851 0 -0.35932698146983189 -0.31215981677982457 0 -0.34924285363324908 -0.29798767686558819 0 -0.33393288958424872 -0.27878482065530191 0 -0.33817049438413038 -0.30124504431632648 0 -0.31701400729842832 -0.29033027185282961 0 -0.33393288958424872 -0.27878482065530191 0 -0.34924285363324908 -0.29798767686558819 0 -0.33817049438413038 -0.30124504431632648 0 -0.33817049438413038 -0.30124504431632648 0 -0.31701400729842832 -0.29033027185282961 0 -0.33817049438413038 -0.30124504431632648 0 -0.31701400729842832 -0.29033027185282961 0 -0.31145445470145938 -0.3124555798805031 0 -0.33817049438413038 -0.30124504431632648 0 -0.32604325880779528 -0.32505754479567761 0 -0.31145445470145938 -0.3124555798805031 0 -0.32604325880779528 -0.32505754479567761 0 -0.3135897363005789 -0.33734340193948842 0 -0.31145445470145938 -0.3124555798805031 0 -0.32604325880779528 -0.32505754479567761 0 -0.3135897363005789 -0.33734340193948842 0 -0.33696740927597452 -0.34019398767198428 0 -0.32604325880779528 -0.32505754479567761 0 -0.33696740927597452 -0.34019398767198428 0 -0.34347261670880419 -0.32337329034967699 0 -0.33817049438413038 -0.30124504431632648 0 -0.32604325880779528 -0.32505754479567761 0 -0.34347261670880419 -0.32337329034967699 0 -0.35932698146983189 -0.31215981677982457 0 -0.34347261670880419 -0.32337329034967699 0 -0.35719298857600318 -0.33488139421053031 0 -0.35932698146983189 -0.31215981677982457 0 -0.35719298857600318 -0.33488139421053031 0 -0.37554924661712041 -0.32052899131281232 0 -0.37220008565228491 -0.30935438299599832 0 -0.35932698146983189 -0.31215981677982457 0 -0.37554924661712041 -0.32052899131281232 0 -0.35932698146983189 -0.31215981677982457 0 -0.35719298857600318 -0.33488139421053031 0 -0.37554924661712041 -0.32052899131281232 0 -0.35932698146983189 -0.31215981677982457 0 -0.37554924661712041 -0.32052899131281232 0 -0.37215822967431589 -0.34246575247975858 0 -0.35719298857600318 -0.33488139421053031 0 -0.33696740927597452 -0.34019398767198428 0 -0.34347261670880419 -0.32337329034967699 0 -0.35719298857600318 -0.33488139421053031 0 -0.33696740927597452 -0.34019398767198428 0 -0.35719298857600318 -0.33488139421053031 0 -0.35505899568217492 -0.35760297164123611 0 -0.35719298857600318 -0.33488139421053031 0 -0.35505899568217492 -0.35760297164123611 0 -0.37578632028792858 -0.36042996567878732 0 -0.37215822967431589 -0.34246575247975858 0 -0.35505899568217492 -0.35760297164123611 0 -0.37215822967431589 -0.34246575247975858 0 -0.35719298857600318 -0.33488139421053031 0 -0.35505899568217492 -0.35760297164123611 0 -0.37578632028792858 -0.36042996567878732 0 -0.35505899568217492 -0.35760297164123611 0 -0.36879938767142162 -0.37505381744260241 0 -0.35505899568217492 -0.35760297164123611 0 -0.36879938767142162 -0.37505381744260241 0 -0.35292500278834671 -0.3803245490719418 0 -0.35505899568217492 -0.35760297164123611 0 -0.35292500278834671 -0.3803245490719418 0 -0.35505899568217492 -0.35760297164123611 0 -0.32739269413369843 -0.36215388588946817 0 -0.35292500278834671 -0.3803245490719418 0 -0.33696740927597452 -0.34019398767198428 0 -0.35505899568217492 -0.35760297164123611 0 -0.32739269413369843 -0.36215388588946817 0 -0.3135897363005789 -0.33734340193948842 0 -0.32739269413369843 -0.36215388588946817 0 -0.31050761761031648 -0.35451892413985631 0 -0.3135897363005789 -0.33734340193948842 0 -0.33696740927597452 -0.34019398767198428 0 -0.32739269413369843 -0.36215388588946817 0 -0.32739269413369843 -0.36215388588946817 0 -0.29988926437575669 -0.36779228937150138 0 -0.31050761761031648 -0.35451892413985631 0 -0.32739269413369843 -0.36215388588946817 0 -0.29988926437575669 -0.36779228937150138 0 -0.31195796522596592 -0.38438948716154181 0 -0.3135897363005789 -0.33734340193948842 0 -0.31050761761031648 -0.35451892413985631 0 -0.29091091146255832 -0.34908051385703281 0 -0.29988926437575669 -0.36779228937150138 0 -0.31050761761031648 -0.35451892413985631 0 -0.29091091146255832 -0.34908051385703281 0 -0.29988926437575669 -0.36779228937150138 0 -0.27393820933583579 -0.36933801652060472 0 -0.2862701064649576 -0.3831428285312275 0 -0.29988926437575669 -0.36779228937150138 0 -0.29091091146255832 -0.34908051385703281 0 -0.27393820933583579 -0.36933801652060472 0 -0.27393820933583579 -0.36933801652060472 0 -0.25094555068030999 -0.35452696527845012 0 -0.25496420142752269 -0.37750749821582408 0 -0.25094555068030999 -0.35452696527845012 0 -0.27146722530431511 -0.351646691454371 0 -0.27007422973855649 -0.3336412701613965 0 -0.27393820933583579 -0.36933801652060472 0 -0.25094555068030999 -0.35452696527845012 0 -0.27146722530431511 -0.351646691454371 0 -0.29091091146255832 -0.34908051385703281 0 -0.27393820933583579 -0.36933801652060472 0 -0.27146722530431511 -0.351646691454371 0 -0.29091091146255832 -0.34908051385703281 0 -0.27146722530431511 -0.351646691454371 0 -0.27007422973855649 -0.3336412701613965 0 -0.25094555068030999 -0.35452696527845012 0 -0.27007422973855649 -0.3336412701613965 0 -0.24824950436326149 -0.33165077796265963 0 -0.27007422973855649 -0.3336412701613965 0 -0.25959622218745459 -0.31530520491224978 0 -0.24824950436326149 -0.33165077796265963 0 -0.25959622218745459 -0.31530520491224978 0 -0.24824950436326149 -0.33165077796265963 0 -0.24454820548697601 -0.31706654188409522 0 -0.27007422973855649 -0.3336412701613965 0 -0.25959622218745459 -0.31530520491224978 0 -0.2781696153722365 -0.31770915129956601 0 -0.27007422973855649 -0.3336412701613965 0 -0.2781696153722365 -0.31770915129956601 0 -0.2946981468476742 -0.32937349068216748 0 -0.2781696153722365 -0.31770915129956601 0 -0.2946981468476742 -0.32937349068216748 0 -0.29143868828539332 -0.3085929624868981 0 -0.29091091146255832 -0.34908051385703281 0 -0.27007422973855649 -0.3336412701613965 0 -0.2946981468476742 -0.32937349068216748 0 -0.3135897363005789 -0.33734340193948842 0 -0.29091091146255832 -0.34908051385703281 0 -0.2946981468476742 -0.32937349068216748 0 -0.3135897363005789 -0.33734340193948842 0 -0.2946981468476742 -0.32937349068216748 0 -0.31145445470145938 -0.3124555798805031 0 -0.2946981468476742 -0.32937349068216748 0 -0.31145445470145938 -0.3124555798805031 0 -0.29143868828539332 -0.3085929624868981 0 -0.31701400729842832 -0.29033027185282961 0 -0.31145445470145938 -0.3124555798805031 0 -0.3014968293485763 -0.29386941037538528 0 -0.31145445470145938 -0.3124555798805031 0 -0.3014968293485763 -0.29386941037538528 0 -0.29143868828539332 -0.3085929624868981 0 -0.3014968293485763 -0.29386941037538528 0 -0.28804377227502492 -0.2841964953979314 0 -0.3110797581983899 -0.26831742142097542 0 -0.31701400729842832 -0.29033027185282961 0 -0.3014968293485763 -0.29386941037538528 0 -0.3110797581983899 -0.26831742142097542 0 -0.3014968293485763 -0.29386941037538528 0 -0.28804377227502492 -0.2841964953979314 0 -0.29143868828539332 -0.3085929624868981 0 -0.2781696153722365 -0.31770915129956601 0 -0.29143868828539332 -0.3085929624868981 0 -0.27504078980210389 -0.30163282825511822 0 -0.28804377227502492 -0.2841964953979314 0 -0.29143868828539332 -0.3085929624868981 0 -0.27504078980210389 -0.30163282825511822 0 -0.25959622218745459 -0.31530520491224978 0 -0.2781696153722365 -0.31770915129956601 0 -0.27504078980210389 -0.30163282825511822 0 -0.25959622218745459 -0.31530520491224978 0 -0.25863285898572158 -0.29694254139748738 0 -0.24581810928786491 -0.30239570364513141 0 -0.25959622218745459 -0.31530520491224978 0 -0.27504078980210389 -0.30163282825511822 0 -0.25863285898572158 -0.29694254139748738 0 -0.25863285898572158 -0.29694254139748738 0 -0.25646028977895879 -0.28254416156978518 0 -0.2478701350447062 -0.29008984568524232 0 -0.25863285898572158 -0.29694254139748738 0 -0.2478701350447062 -0.29008984568524232 0 -0.24581810928786491 -0.30239570364513141 0 -0.25863285898572158 -0.29694254139748738 0 -0.25646028977895879 -0.28254416156978518 0 -0.27153564853613971 -0.28371670082286871 0 -0.27504078980210389 -0.30163282825511822 0 -0.25863285898572158 -0.29694254139748738 0 -0.27153564853613971 -0.28371670082286871 0 -0.28804377227502492 -0.2841964953979314 0 -0.27504078980210389 -0.30163282825511822 0 -0.27153564853613971 -0.28371670082286871 0 -0.27153564853613971 -0.28371670082286871 0 -0.27260023313989512 -0.26790102319351089 0 -0.26377386989401991 -0.27346507338299109 0 -0.28804377227502492 -0.2841964953979314 0 -0.27153564853613971 -0.28371670082286871 0 -0.27260023313989512 -0.26790102319351089 0 -0.25646028977895879 -0.28254416156978518 0 -0.27153564853613971 -0.28371670082286871 0 -0.26377386989401991 -0.27346507338299109 0 -0.27260023313989512 -0.26790102319351089 0 -0.26377386989401991 -0.27346507338299109 0 -0.25864798589498289 -0.26079522441830388 0 -0.26377386989401991 -0.27346507338299109 0 -0.2520150355445766 -0.26991844180750052 0 -0.25864798589498289 -0.26079522441830388 0 -0.25646028977895879 -0.28254416156978518 0 -0.26377386989401991 -0.27346507338299109 0 -0.2520150355445766 -0.26991844180750052 0 -0.25646028977895879 -0.28254416156978518 0 -0.2520150355445766 -0.26991844180750052 0 -0.24374008148319259 -0.27895428437994219 0 -0.27260023313989512 -0.26790102319351089 0 -0.25864798589498289 -0.26079522441830388 0 -0.26537349542667238 -0.2473826229523223 0 -0.25864798589498289 -0.26079522441830388 0 -0.2475385819551103 -0.25725403030206673 0 -0.25326344970455439 -0.24921698247872701 0 -0.2520150355445766 -0.26991844180750052 0 -0.25864798589498289 -0.26079522441830388 0 -0.2475385819551103 -0.25725403030206673 0 -0.25864798589498289 -0.26079522441830388 0 -0.26537349542667238 -0.2473826229523223 0 -0.25326344970455439 -0.24921698247872701 0 -0.28822662681253119 -0.25785002218664882 0 -0.26537349542667238 -0.2473826229523223 0 -0.27260023313989512 -0.26790102319351089 0 -0.28822662681253119 -0.25785002218664882 0 -0.26537349542667238 -0.2473826229523223 0 -0.28804377227502492 -0.2841964953979314 0 -0.27260023313989512 -0.26790102319351089 0 -0.28822662681253119 -0.25785002218664882 0 -0.28804377227502492 -0.2841964953979314 0 -0.28822662681253119 -0.25785002218664882 0 -0.3110797581983899 -0.26831742142097542 0 -0.28822662681253119 -0.25785002218664882 0 -0.3110797581983899 -0.26831742142097542 0 -0.31007351155781449 -0.2437470698782758 0 -0.28822662681253119 -0.25785002218664882 0 -0.3110797581983899 -0.26831742142097542 0 -0.33832587707206802 -0.46574336990040172 0 -0.34109537602413481 -0.44567857085560941 0 -0.3202163257995862 -0.45778164745444161 0 -0.34109537602413481 -0.44567857085560941 0 -0.3202163257995862 -0.45778164745444161 0 -0.32255070594358398 -0.43394794136729092 0 -0.3202163257995862 -0.45778164745444161 0 -0.32255070594358398 -0.43394794136729092 0 -0.29831276380583888 -0.44080240144317762 0 -0.33832587707206802 -0.46574336990040172 0 -0.3202163257995862 -0.45778164745444161 0 -0.32330442345209931 -0.48009041404010588 0 -0.3202163257995862 -0.45778164745444161 0 -0.30775472476134191 -0.46010039186933221 0 -0.31217489071357463 -0.47141631785812249 0 -0.3202163257995862 -0.45778164745444161 0 -0.32330442345209931 -0.48009041404010588 0 -0.31217489071357463 -0.47141631785812249 0 -0.32330442345209931 -0.48009041404010588 0 -0.30231707364689647 -0.49999999999999661 0 -0.31217489071357463 -0.47141631785812249 0 -0.32330442345209931 -0.48009041404010588 0 -0.33025800144772649 -0.5 0 -0.30231707364689647 -0.49999999999999661 0 -0.34151771388845659 -0.48454044343160901 0 -0.33025800144772649 -0.5 0 -0.35819892924855662 -0.5 0 -0.32330442345209931 -0.48009041404010588 0 -0.34151771388845659 -0.48454044343160901 0 -0.33025800144772649 -0.5 0 -0.33832587707206802 -0.46574336990040172 0 -0.32330442345209931 -0.48009041404010588 0 -0.34151771388845659 -0.48454044343160901 0 -0.33832587707206802 -0.46574336990040172 0 -0.34151771388845659 -0.48454044343160901 0 -0.357501338221833 -0.47686843321753708 0 -0.34151771388845659 -0.48454044343160901 0 -0.357501338221833 -0.47686843321753708 0 -0.35819892924855662 -0.5 0 -0.357501338221833 -0.47686843321753708 0 -0.35819892924855662 -0.5 0 -0.36906872515638911 -0.48687437893610958 0 -0.37950920626299878 -0.49619510186810428 0 -0.38613985704938669 -0.5 0 -0.35819892924855662 -0.5 0 -0.37950920626299878 -0.49619510186810428 0 -0.35819892924855662 -0.5 0 -0.36906872515638911 -0.48687437893610958 0 -0.38106542689216799 -0.47443398065879699 0 -0.357501338221833 -0.47686843321753708 0 -0.36906872515638911 -0.48687437893610958 0 -0.3826216475213372 -0.45267285944948987 0 -0.38106542689216799 -0.47443398065879699 0 -0.35826441801358522 -0.45316209977062061 0 -0.38106542689216799 -0.47443398065879699 0 -0.357501338221833 -0.47686843321753708 0 -0.35826441801358522 -0.45316209977062061 0 -0.33832587707206802 -0.46574336990040172 0 -0.357501338221833 -0.47686843321753708 0 -0.35826441801358522 -0.45316209977062061 0 -0.33832587707206802 -0.46574336990040172 0 -0.34109537602413481 -0.44567857085560941 0 -0.35826441801358522 -0.45316209977062061 0 -0.34109537602413481 -0.44567857085560941 0 -0.35826441801358522 -0.45316209977062061 0 -0.3630102922293143 -0.42926668884480468 0 -0.3826216475213372 -0.45267285944948987 0 -0.35826441801358522 -0.45316209977062061 0 -0.37274379172501482 -0.44103025013760211 0 -0.35826441801358522 -0.45316209977062061 0 -0.37274379172501482 -0.44103025013760211 0 -0.3630102922293143 -0.42926668884480468 0 -0.38417786815050642 -0.43091173824018281 0 -0.3630102922293143 -0.42926668884480468 0 -0.37087610249949737 -0.41198018746481968 0 -0.38417786815050642 -0.43091173824018281 0 -0.3630102922293143 -0.42926668884480468 0 -0.38417786815050642 -0.43091173824018281 0 -0.37274379172501482 -0.44103025013760211 0 -0.3630102922293143 -0.42926668884480468 0 -0.3630102922293143 -0.42926668884480468 0 -0.37087610249949737 -0.41198018746481968 0 -0.35079100989451839 -0.40304612650264737 0 -0.3630102922293143 -0.42926668884480468 0 -0.35079100989451839 -0.40304612650264737 0 -0.34184271630812219 -0.42762163944942611 0 -0.34109537602413481 -0.44567857085560941 0 -0.3630102922293143 -0.42926668884480468 0 -0.34184271630812219 -0.42762163944942611 0 -0.3630102922293143 -0.42926668884480468 0 -0.34184271630812219 -0.42762163944942611 0 -0.36879938767142162 -0.37505381744260241 0 -0.3702862293307666 -0.39285374639229909 0 -0.35292500278834671 -0.3803245490719418 0 -0.37087610249949737 -0.41198018746481968 0 -0.3702862293307666 -0.39285374639229909 0 -0.35079100989451839 -0.40304612650264737 0 -0.35079100989451839 -0.40304612650264737 0 -0.35292500278834671 -0.3803245490719418 0 -0.33358969757530132 -0.3899695924255091 0 -0.35079100989451839 -0.40304612650264737 0 -0.35292500278834671 -0.3803245490719418 0 -0.3702862293307666 -0.39285374639229909 0 -0.35079100989451839 -0.40304612650264737 0 -0.35292500278834671 -0.3803245490719418 0 -0.32739269413369843 -0.36215388588946817 0 -0.35292500278834671 -0.3803245490719418 0 -0.33358969757530132 -0.3899695924255091 0 -0.35079100989451839 -0.40304612650264737 0 -0.33358969757530132 -0.3899695924255091 0 -0.32291850108076592 -0.40875805841794283 0 -0.33358969757530132 -0.3899695924255091 0 -0.32291850108076592 -0.40875805841794283 0 -0.31195796522596592 -0.38438948716154181 0 -0.32291850108076592 -0.40875805841794283 0 -0.31195796522596592 -0.38438948716154181 0 -0.30609625426189718 -0.40116638171438329 0 -0.32739269413369843 -0.36215388588946817 0 -0.33358969757530132 -0.3899695924255091 0 -0.31195796522596592 -0.38438948716154181 0 -0.34184271630812219 -0.42762163944942611 0 -0.32291850108076592 -0.40875805841794283 0 -0.32255070594358398 -0.43394794136729092 0 -0.34109537602413481 -0.44567857085560941 0 -0.34184271630812219 -0.42762163944942611 0 -0.32255070594358398 -0.43394794136729092 0 -0.35079100989451839 -0.40304612650264737 0 -0.34184271630812219 -0.42762163944942611 0 -0.32291850108076592 -0.40875805841794283 0 -0.32291850108076592 -0.40875805841794283 0 -0.32255070594358398 -0.43394794136729092 0 -0.31078002031511048 -0.4226612724030927 0 -0.32291850108076592 -0.40875805841794283 0 -0.30902634613577101 -0.41094732867504669 0 -0.30609625426189718 -0.40116638171438329 0 -0.32291850108076592 -0.40875805841794283 0 -0.31078002031511048 -0.4226612724030927 0 -0.30902634613577101 -0.41094732867504669 0 -0.29631060888531008 -0.41120360216476798 0 -0.29831276380583888 -0.44080240144317762 0 -0.31078002031511048 -0.4226612724030927 0 -0.29631060888531008 -0.41120360216476798 0 -0.29831276380583888 -0.44080240144317762 0 -0.32255070594358398 -0.43394794136729092 0 -0.31078002031511048 -0.4226612724030927 0 -0.29831276380583888 -0.44080240144317762 0 -0.31078002031511048 -0.4226612724030927 0 -0.30902634613577101 -0.41094732867504669 0 -0.29631060888531008 -0.41120360216476798 0 -0.30902634613577101 -0.41094732867504669 0 -0.29631060888531008 -0.41120360216476798 0 -0.30609625426189718 -0.40116638171438329 0 -0.29631060888531008 -0.41120360216476798 0 -0.28581055251543569 -0.42678097429782569 0 -0.26926451322838663 -0.41788522867119449 0 -0.29631060888531008 -0.41120360216476798 0 -0.29061123922717641 -0.40113735791636812 0 -0.26926451322838663 -0.41788522867119449 0 -0.29631060888531008 -0.41120360216476798 0 -0.28581055251543569 -0.42678097429782569 0 -0.29831276380583888 -0.44080240144317762 0 -0.29988926437575669 -0.36779228937150138 0 -0.31195796522596592 -0.38438948716154181 0 -0.2862701064649576 -0.3831428285312275 0 -0.31195796522596592 -0.38438948716154181 0 -0.30609625426189718 -0.40116638171438329 0 -0.29061123922717641 -0.40113735791636812 0 -0.31195796522596592 -0.38438948716154181 0 -0.29061123922717641 -0.40113735791636812 0 -0.29631060888531008 -0.41120360216476798 0 -0.30609625426189718 -0.40116638171438329 0 -0.29061123922717641 -0.40113735791636812 0 -0.29061123922717641 -0.40113735791636812 0 -0.2862701064649576 -0.3831428285312275 0 -0.27828750476702607 -0.39855747900032279 0 -0.31195796522596592 -0.38438948716154181 0 -0.29061123922717641 -0.40113735791636812 0 -0.2862701064649576 -0.3831428285312275 0 -0.27393820933583579 -0.36933801652060472 0 -0.2862701064649576 -0.3831428285312275 0 -0.26700416014758388 -0.392064500882501 0 -0.2862701064649576 -0.3831428285312275 0 -0.26700416014758388 -0.392064500882501 0 -0.27828750476702607 -0.39855747900032279 0 -0.29061123922717641 -0.40113735791636812 0 -0.27828750476702607 -0.39855747900032279 0 -0.26926451322838663 -0.41788522867119449 0 -0.26700416014758388 -0.392064500882501 0 -0.27828750476702607 -0.39855747900032279 0 -0.26926451322838663 -0.41788522867119449 0 -0.26700416014758388 -0.392064500882501 0 -0.24955857721006669 -0.41285908773862168 0 -0.2471610686963861 -0.39325814984249441 0 -0.27393820933583579 -0.36933801652060472 0 -0.26700416014758388 -0.392064500882501 0 -0.25496420142752269 -0.37750749821582408 0 -0.26700416014758388 -0.392064500882501 0 -0.25496420142752269 -0.37750749821582408 0 -0.2471610686963861 -0.39325814984249441 0 -0.28581055251543569 -0.42678097429782569 0 -0.26926451322838663 -0.41788522867119449 0 -0.26890918052328239 -0.43884842921920819 0 -0.29061123922717641 -0.40113735791636812 0 -0.26926451322838663 -0.41788522867119449 0 -0.26700416014758388 -0.392064500882501 0 -0.26926451322838663 -0.41788522867119449 0 -0.24955857721006669 -0.41285908773862168 0 -0.26926451322838663 -0.41788522867119449 0 -0.24955857721006669 -0.41285908773862168 0 -0.24791778722959701 -0.43463309942602091 0 -0.26926451322838663 -0.41788522867119449 0 -0.24791778722959701 -0.43463309942602091 0 -0.26926451322838663 -0.41788522867119449 0 -0.26890918052328239 -0.43884842921920819 0 -0.24791778722959701 -0.43463309942602091 0 -0.26044984570718582 -0.45463237023781589 0 -0.26890918052328239 -0.43884842921920819 0 -0.24791778722959701 -0.43463309942602091 0 -0.26044984570718582 -0.45463237023781589 0 -0.24191245331570241 -0.45166546299824811 0 -0.24791778722959701 -0.43463309942602091 0 -0.26044984570718582 -0.45463237023781589 0 -0.24191245331570241 -0.45166546299824811 0 -0.24794118876869431 -0.46768668051300699 0 -0.26044984570718582 -0.45463237023781589 0 -0.27446243411498678 -0.47776345554090871 0 -0.24794118876869431 -0.46768668051300699 0 -0.26044984570718582 -0.45463237023781589 0 -0.28313550872859933 -0.45505490773502838 0 -0.27446243411498678 -0.47776345554090871 0 -0.28581055251543569 -0.42678097429782569 0 -0.26890918052328239 -0.43884842921920819 0 -0.28313550872859933 -0.45505490773502838 0 -0.26044984570718582 -0.45463237023781589 0 -0.26890918052328239 -0.43884842921920819 0 -0.28313550872859933 -0.45505490773502838 0 -0.28581055251543569 -0.42678097429782569 0 -0.28313550872859933 -0.45505490773502838 0 -0.29831276380583888 -0.44080240144317762 0 -0.28313550872859933 -0.45505490773502838 0 -0.29831276380583888 -0.44080240144317762 0 -0.29930094667795859 -0.47063812693163048 0 -0.28313550872859933 -0.45505490773502838 0 -0.29930094667795859 -0.47063812693163048 0 -0.27446243411498678 -0.47776345554090871 0 -0.30775472476134191 -0.46010039186933221 0 -0.29831276380583888 -0.44080240144317762 0 -0.29930094667795859 -0.47063812693163048 0 -0.29831276380583888 -0.44080240144317762 0 -0.29930094667795859 -0.47063812693163048 0 -0.30775472476134191 -0.46010039186933221 0 -0.31217489071357463 -0.47141631785812249 0 -0.29930094667795859 -0.47063812693163048 0 -0.3202163257995862 -0.45778164745444161 0 -0.30775472476134191 -0.46010039186933221 0 -0.29831276380583888 -0.44080240144317762 0 -0.30231707364689647 -0.49999999999999661 0 -0.29930094667795859 -0.47063812693163048 0 -0.30231707364689647 -0.49999999999999661 0 -0.29930094667795859 -0.47063812693163048 0 -0.29026014057883143 -0.48376055663882528 0 -0.30231707364689647 -0.49999999999999661 0 -0.31217489071357463 -0.47141631785812249 0 -0.29930094667795859 -0.47063812693163048 0 -0.29930094667795859 -0.47063812693163048 0 -0.29026014057883143 -0.48376055663882528 0 -0.27446243411498678 -0.47776345554090871 0 -0.29930094667795859 -0.47063812693163048 0 -0.27446243411498678 -0.47776345554090871 0 -0.30231707364689647 -0.49999999999999661 0 -0.29026014057883143 -0.48376055663882528 0 -0.27490532972794701 -0.5 0 -0.27490532972794701 -0.5 0 -0.27446243411498678 -0.47776345554090871 0 -0.26427012655237098 -0.48908914338648618 0 -0.29026014057883143 -0.48376055663882528 0 -0.27490532972794701 -0.5 0 -0.27446243411498678 -0.47776345554090871 0 -0.27446243411498678 -0.47776345554090871 0 -0.24962392155201479 -0.48488878415018682 0 -0.24794118876869431 -0.46768668051300699 0 -0.27446243411498678 -0.47776345554090871 0 -0.24962392155201479 -0.48488878415018682 0 -0.27446243411498678 -0.47776345554090871 0 -0.26427012655237098 -0.48908914338648618 0 -0.24962392155201479 -0.48488878415018682 0 -0.27490532972794701 -0.5 0 -0.26427012655237098 -0.48908914338648618 0 -0.24749358580899761 -0.5 0 -0.26427012655237098 -0.48908914338648618 0 -0.24749358580899761 -0.5 0 -0.24962392155201479 -0.48488878415018682 0 -0.24962392155201479 -0.48488878415018682 0 -0.22478540898904281 -0.49201411275946488 0 -0.24749358580899761 -0.5 0 -0.24962392155201479 -0.48488878415018682 0 -0.22478540898904281 -0.49201411275946488 0 -0.24962392155201479 -0.48488878415018682 0 -0.23389275344386659 -0.47730648706247808 0 -0.22478540898904281 -0.49201411275946488 0 -0.24962392155201479 -0.48488878415018682 0 -0.23389275344386659 -0.47730648706247808 0 -0.24794118876869431 -0.46768668051300699 0 -0.23389275344386659 -0.47730648706247808 0 -0.24794118876869431 -0.46768668051300699 0 -0.22744322741673581 -0.46164838329606178 0 -0.23389275344386659 -0.47730648706247808 0 -0.21971941390961849 -0.4786139395795887 0 -0.22744322741673581 -0.46164838329606178 0 -0.23389275344386659 -0.47730648706247808 0 -0.21971941390961849 -0.4786139395795887 0 -0.22478540898904281 -0.49201411275946488 0 -0.24749358580899761 -0.5 0 -0.22008184189004809 -0.5 0 -0.22478540898904281 -0.49201411275946488 0 -0.24191245331570241 -0.45166546299824811 0 -0.2258102174562989 -0.43972678151833461 0 -0.24791778722959701 -0.43463309942602091 0 -0.24191245331570241 -0.45166546299824811 0 -0.24794118876869431 -0.46768668051300699 0 -0.22744322741673581 -0.46164838329606178 0 -0.22744322741673581 -0.46164838329606178 0 -0.2258102174562989 -0.43972678151833461 0 -0.20793585407116719 -0.45133691822671868 0 -0.24191245331570241 -0.45166546299824811 0 -0.22744322741673581 -0.46164838329606178 0 -0.2258102174562989 -0.43972678151833461 0 -0.2258102174562989 -0.43972678151833461 0 -0.20793585407116719 -0.45133691822671868 0 -0.20413930086314949 -0.42948840696624507 0 -0.22744322741673581 -0.46164838329606178 0 -0.20793585407116719 -0.45133691822671868 0 -0.2042185206182788 -0.47110644752932179 0 -0.1944864838680565 -0.45964852019912378 0 -0.18565377119405169 -0.46943771690713848 0 -0.18262841694653101 -0.4476035355281206 0 -0.1944864838680565 -0.45964852019912378 0 -0.2042185206182788 -0.47110644752932179 0 -0.18565377119405169 -0.46943771690713848 0 -0.20793585407116719 -0.45133691822671868 0 -0.1944864838680565 -0.45964852019912378 0 -0.2042185206182788 -0.47110644752932179 0 -0.20793585407116719 -0.45133691822671868 0 -0.18262841694653101 -0.4476035355281206 0 -0.20413930086314949 -0.42948840696624507 0 -0.20793585407116719 -0.45133691822671868 0 -0.1944864838680565 -0.45964852019912378 0 -0.18262841694653101 -0.4476035355281206 0 -0.18262841694653101 -0.4476035355281206 0 -0.20413930086314949 -0.42948840696624507 0 -0.21971941390961849 -0.4786139395795887 0 -0.22478540898904281 -0.49201411275946488 0 -0.208957842086921 -0.48807002329856752 0 -0.22008184189004809 -0.5 0 -0.208957842086921 -0.48807002329856752 0 -0.19267009797109871 -0.5 0 -0.22008184189004809 -0.5 0 -0.22478540898904281 -0.49201411275946488 0 -0.208957842086921 -0.48807002329856752 0 -0.21971941390961849 -0.4786139395795887 0 -0.22744322741673581 -0.46164838329606178 0 -0.2042185206182788 -0.47110644752932179 0 -0.21971941390961849 -0.4786139395795887 0 -0.208957842086921 -0.48807002329856752 0 -0.2042185206182788 -0.47110644752932179 0 -0.208957842086921 -0.48807002329856752 0 -0.2042185206182788 -0.47110644752932179 0 -0.19401378490177079 -0.48244897457834052 0 -0.2042185206182788 -0.47110644752932179 0 -0.19401378490177079 -0.48244897457834052 0 -0.18565377119405169 -0.46943771690713848 0 -0.19401378490177079 -0.48244897457834052 0 -0.19267009797109871 -0.5 0 -0.17856869263850381 -0.48363068515667412 0 -0.208957842086921 -0.48807002329856752 0 -0.19401378490177079 -0.48244897457834052 0 -0.19267009797109871 -0.5 0 -0.19267009797109871 -0.5 0 -0.1652583540521492 -0.5 0 -0.17856869263850381 -0.48363068515667412 0 -0.1652583540521492 -0.5 0 -0.16465326641005479 -0.48079316398169758 0 -0.15013500788239889 -0.48394629333042388 0 -0.1652583540521492 -0.5 0 -0.16465326641005479 -0.48079316398169758 0 -0.17856869263850381 -0.48363068515667412 0 -0.1620024022440214 -0.47475814684698908 0 -0.16465326641005479 -0.48079316398169758 0 -0.16524623254376281 -0.4718680877356739 0 -0.1620024022440214 -0.47475814684698908 0 -0.16086328426310059 -0.47134221486713651 0 -0.16524623254376281 -0.4718680877356739 0 -0.16086328426310059 -0.47134221486713651 0 -0.16524623254376281 -0.4718680877356739 0 -0.1611175330299125 -0.46571866408999613 0 -0.16086328426310059 -0.47134221486713651 0 -0.1567874847332604 -0.46936516145742341 0 -0.1611175330299125 -0.46571866408999613 0 -0.16086328426310059 -0.47134221486713651 0 -0.1567874847332604 -0.46936516145742341 0 -0.15637408254185381 -0.47565273798686308 0 -0.1620024022440214 -0.47475814684698908 0 -0.16086328426310059 -0.47134221486713651 0 -0.15637408254185381 -0.47565273798686308 0 -0.15637408254185381 -0.47565273798686308 0 -0.16465326641005479 -0.48079316398169758 0 -0.15013500788239889 -0.48394629333042388 0 -0.1620024022440214 -0.47475814684698908 0 -0.15637408254185381 -0.47565273798686308 0 -0.16465326641005479 -0.48079316398169758 0 -0.16465326641005479 -0.48079316398169758 0 -0.17138604449760711 -0.46897102066349011 0 -0.17856869263850381 -0.48363068515667412 0 -0.17138604449760711 -0.46897102066349011 0 -0.16524623254376281 -0.4718680877356739 0 -0.1611175330299125 -0.46571866408999613 0 -0.16465326641005479 -0.48079316398169758 0 -0.17138604449760711 -0.46897102066349011 0 -0.16524623254376281 -0.4718680877356739 0 -0.17138604449760711 -0.46897102066349011 0 -0.17856869263850381 -0.48363068515667412 0 -0.18565377119405169 -0.46943771690713848 0 -0.19401378490177079 -0.48244897457834052 0 -0.17856869263850381 -0.48363068515667412 0 -0.18565377119405169 -0.46943771690713848 0 -0.17138604449760711 -0.46897102066349011 0 -0.18565377119405169 -0.46943771690713848 0 -0.18262841694653101 -0.4476035355281206 0 -0.18262841694653101 -0.4476035355281206 0 -0.16341889973388041 -0.44662227337747468 0 -0.18307738695726869 -0.42670255411332381 0 -0.16341889973388041 -0.44662227337747468 0 -0.14418441726775449 -0.44656649514055918 0 -0.16400180675990339 -0.42501339701164648 0 -0.18262841694653101 -0.4476035355281206 0 -0.1611175330299125 -0.46571866408999613 0 -0.18262841694653101 -0.4476035355281206 0 -0.16341889973388041 -0.44662227337747468 0 -0.1611175330299125 -0.46571866408999613 0 -0.17138604449760711 -0.46897102066349011 0 -0.18262841694653101 -0.4476035355281206 0 -0.1611175330299125 -0.46571866408999613 0 -0.1567874847332604 -0.46936516145742341 0 -0.1611175330299125 -0.46571866408999613 0 -0.1611175330299125 -0.46571866408999613 0 -0.14436246696391161 -0.46324873218859008 0 -0.14418441726775449 -0.44656649514055918 0 -0.1567874847332604 -0.46936516145742341 0 -0.1611175330299125 -0.46571866408999613 0 -0.14436246696391161 -0.46324873218859008 0 -0.1567874847332604 -0.46936516145742341 0 -0.14436246696391161 -0.46324873218859008 0 -0.14752885826800061 -0.47254876445507921 0 -0.1611175330299125 -0.46571866408999613 0 -0.14418441726775449 -0.44656649514055918 0 -0.16341889973388041 -0.44662227337747468 0 -0.1611175330299125 -0.46571866408999613 0 -0.14418441726775449 -0.44656649514055918 0 -0.14418441726775449 -0.44656649514055918 0 -0.1272513015055963 -0.42741432619112268 0 -0.1238798396010229 -0.45145108631290121 0 -0.14436246696391161 -0.46324873218859008 0 -0.1333849372163978 -0.47471362282386792 0 -0.1238798396010229 -0.45145108631290121 0 -0.14436246696391161 -0.46324873218859008 0 -0.14418441726775449 -0.44656649514055918 0 -0.1238798396010229 -0.45145108631290121 0 -0.1333849372163978 -0.47471362282386792 0 -0.13784661013319971 -0.5 0 -0.1192555726892402 -0.48463918755663837 0 -0.1333849372163978 -0.47471362282386792 0 -0.13784661013319971 -0.5 0 -0.15013500788239889 -0.48394629333042388 0 -0.1652583540521492 -0.5 0 -0.13784661013319971 -0.5 0 -0.15013500788239889 -0.48394629333042388 0 -0.15637408254185381 -0.47565273798686308 0 -0.15013500788239889 -0.48394629333042388 0 -0.14752885826800061 -0.47254876445507921 0 -0.1333849372163978 -0.47471362282386792 0 -0.15013500788239889 -0.48394629333042388 0 -0.14752885826800061 -0.47254876445507921 0 -0.1567874847332604 -0.46936516145742341 0 -0.15637408254185381 -0.47565273798686308 0 -0.14752885826800061 -0.47254876445507921 0 -0.14436246696391161 -0.46324873218859008 0 -0.1333849372163978 -0.47471362282386792 0 -0.14752885826800061 -0.47254876445507921 0 -0.14370648608952019 -0.38862773645452009 0 -0.1344747685878542 -0.40636486414581863 0 -0.1585863769204616 -0.39623948374125278 0 -0.14370648608952019 -0.38862773645452009 0 -0.1585863769204616 -0.39623948374125278 0 -0.15261519566081749 -0.3723309122353673 0 -0.14370648608952019 -0.38862773645452009 0 -0.15261519566081749 -0.3723309122353673 0 -0.13403561704002739 -0.37499600363270391 0 -0.14370648608952019 -0.38862773645452009 0 -0.13403561704002739 -0.37499600363270391 0 -0.12181778925575371 -0.39844338388870459 0 -0.14370648608952019 -0.38862773645452009 0 -0.1344747685878542 -0.40636486414581863 0 -0.12181778925575371 -0.39844338388870459 0 -0.1344747685878542 -0.40636486414581863 0 -0.1272513015055963 -0.42741432619112268 0 -0.145699734208314 -0.42031971324607997 0 -0.14418441726775449 -0.44656649514055918 0 -0.1272513015055963 -0.42741432619112268 0 -0.145699734208314 -0.42031971324607997 0 -0.14418441726775449 -0.44656649514055918 0 -0.1272513015055963 -0.42741432619112268 0 -0.14418441726775449 -0.44656649514055918 0 -0.145699734208314 -0.42031971324607997 0 -0.16400180675990339 -0.42501339701164648 0 -0.145699734208314 -0.42031971324607997 0 -0.16400180675990339 -0.42501339701164648 0 -0.1585863769204616 -0.39623948374125278 0 -0.1344747685878542 -0.40636486414581863 0 -0.145699734208314 -0.42031971324607997 0 -0.1585863769204616 -0.39623948374125278 0 -0.16400180675990339 -0.42501339701164648 0 -0.1806424104550973 -0.40425136167637832 0 -0.1585863769204616 -0.39623948374125278 0 -0.16341889973388041 -0.44662227337747468 0 -0.16400180675990339 -0.42501339701164648 0 -0.18307738695726869 -0.42670255411332381 0 -0.16400180675990339 -0.42501339701164648 0 -0.18307738695726869 -0.42670255411332381 0 -0.1806424104550973 -0.40425136167637832 0 -0.1806424104550973 -0.40425136167637832 0 -0.1585863769204616 -0.39623948374125278 0 -0.17118564966490671 -0.37577775234001087 0 -0.1585863769204616 -0.39623948374125278 0 -0.17118564966490671 -0.37577775234001087 0 -0.15261519566081749 -0.3723309122353673 0 -0.1806424104550973 -0.40425136167637832 0 -0.17118564966490671 -0.37577775234001087 0 -0.19351209054822749 -0.3835595885857801 0 -0.1806424104550973 -0.40425136167637832 0 -0.19351209054822749 -0.3835595885857801 0 -0.2011300562743755 -0.4069951030785558 0 -0.21871586791329439 -0.38649490912460371 0 -0.2011300562743755 -0.4069951030785558 0 -0.22565018477976781 -0.41137327840436982 0 -0.19351209054822749 -0.3835595885857801 0 -0.21871586791329439 -0.38649490912460371 0 -0.2011300562743755 -0.4069951030785558 0 -0.19351209054822749 -0.3835595885857801 0 -0.21871586791329439 -0.38649490912460371 0 -0.20500371770833331 -0.36223576280121927 0 -0.18262841694653101 -0.4476035355281206 0 -0.18307738695726869 -0.42670255411332381 0 -0.20413930086314949 -0.42948840696624507 0 -0.18307738695726869 -0.42670255411332381 0 -0.1806424104550973 -0.40425136167637832 0 -0.2011300562743755 -0.4069951030785558 0 -0.18307738695726869 -0.42670255411332381 0 -0.2011300562743755 -0.4069951030785558 0 -0.20413930086314949 -0.42948840696624507 0 -0.2011300562743755 -0.4069951030785558 0 -0.20413930086314949 -0.42948840696624507 0 -0.22565018477976781 -0.41137327840436982 0 -0.20413930086314949 -0.42948840696624507 0 -0.22565018477976781 -0.41137327840436982 0 -0.2258102174562989 -0.43972678151833461 0 -0.20413930086314949 -0.42948840696624507 0 -0.22565018477976781 -0.41137327840436982 0 -0.2258102174562989 -0.43972678151833461 0 -0.22565018477976781 -0.41137327840436982 0 -0.24791778722959701 -0.43463309942602091 0 -0.22565018477976781 -0.41137327840436982 0 -0.24955857721006669 -0.41285908773862168 0 -0.24791778722959701 -0.43463309942602091 0 -0.21871586791329439 -0.38649490912460371 0 -0.238280145840293 -0.37596329595345818 0 -0.2246302956095424 -0.36325583210269402 0 -0.21871586791329439 -0.38649490912460371 0 -0.22565018477976781 -0.41137327840436982 0 -0.2471610686963861 -0.39325814984249441 0 -0.22565018477976781 -0.41137327840436982 0 -0.24955857721006669 -0.41285908773862168 0 -0.2471610686963861 -0.39325814984249441 0 -0.22565018477976781 -0.41137327840436982 0 -0.2471610686963861 -0.39325814984249441 0 -0.21871586791329439 -0.38649490912460371 0 -0.2471610686963861 -0.39325814984249441 0 -0.238280145840293 -0.37596329595345818 0 -0.25496420142752269 -0.37750749821582408 0 -0.2471610686963861 -0.39325814984249441 0 -0.238280145840293 -0.37596329595345818 0 -0.25094555068030999 -0.35452696527845012 0 -0.25496420142752269 -0.37750749821582408 0 -0.238280145840293 -0.37596329595345818 0 -0.25094555068030999 -0.35452696527845012 0 -0.238280145840293 -0.37596329595345818 0 -0.2246302956095424 -0.36325583210269402 0 -0.25094555068030999 -0.35452696527845012 0 -0.2246302956095424 -0.36325583210269402 0 -0.22725561218632889 -0.3446542086143537 0 -0.2246302956095424 -0.36325583210269402 0 -0.22725561218632889 -0.3446542086143537 0 -0.20500371770833331 -0.36223576280121927 0 -0.25094555068030999 -0.35452696527845012 0 -0.22725561218632889 -0.3446542086143537 0 -0.24824950436326149 -0.33165077796265963 0 -0.22725561218632889 -0.3446542086143537 0 -0.24824950436326149 -0.33165077796265963 0 -0.2302193459239279 -0.32362915248023483 0 -0.24454820548697601 -0.31706654188409522 0 -0.2302193459239279 -0.32362915248023483 0 -0.22865929238281121 -0.30354480251073529 0 -0.24824950436326149 -0.33165077796265963 0 -0.24454820548697601 -0.31706654188409522 0 -0.2302193459239279 -0.32362915248023483 0 -0.2302193459239279 -0.32362915248023483 0 -0.21686720657542161 -0.31368360172412169 0 -0.22865929238281121 -0.30354480251073529 0 -0.22725561218632889 -0.3446542086143537 0 -0.2302193459239279 -0.32362915248023483 0 -0.20812355217488529 -0.33386099789918572 0 -0.20812355217488529 -0.33386099789918572 0 -0.21686720657542161 -0.31368360172412169 0 -0.1963599736564948 -0.31468776302127932 0 -0.2302193459239279 -0.32362915248023483 0 -0.20812355217488529 -0.33386099789918572 0 -0.21686720657542161 -0.31368360172412169 0 -0.1963599736564948 -0.31468776302127932 0 -0.19055697065588331 -0.33038295141173279 0 -0.1783681068119177 -0.32200493933011409 0 -0.20812355217488529 -0.33386099789918572 0 -0.1963599736564948 -0.31468776302127932 0 -0.19055697065588331 -0.33038295141173279 0 -0.20812355217488529 -0.33386099789918572 0 -0.19055697065588331 -0.33038295141173279 0 -0.19106727329699849 -0.34648388114585932 0 -0.20812355217488529 -0.33386099789918572 0 -0.19106727329699849 -0.34648388114585932 0 -0.20500371770833331 -0.36223576280121927 0 -0.19106727329699849 -0.34648388114585932 0 -0.20500371770833331 -0.36223576280121927 0 -0.1853732362713367 -0.36371837984797217 0 -0.19351209054822749 -0.3835595885857801 0 -0.20500371770833331 -0.36223576280121927 0 -0.1853732362713367 -0.36371837984797217 0 -0.21871586791329439 -0.38649490912460371 0 -0.2246302956095424 -0.36325583210269402 0 -0.20500371770833331 -0.36223576280121927 0 -0.22725561218632889 -0.3446542086143537 0 -0.20812355217488529 -0.33386099789918572 0 -0.20500371770833331 -0.36223576280121927 0 -0.22216414812508381 -0.25556308654710619 0 -0.23598303366787521 -0.2544663532418156 0 -0.22997310266599311 -0.27093938546339968 0 -0.22216414812508381 -0.25556308654710619 0 -0.22997310266599311 -0.27093938546339968 0 -0.210466597998656 -0.26978459886532757 0 -0.22216414812508381 -0.25556308654710619 0 -0.23598303366787521 -0.2544663532418156 0 -0.22942034713982301 -0.2444031480609202 0 -0.23598303366787521 -0.2544663532418156 0 -0.24192940426119511 -0.26649787679191372 0 -0.22997310266599311 -0.27093938546339968 0 -0.23598303366787521 -0.2544663532418156 0 -0.2475385819551103 -0.25725403030206673 0 -0.24434930689386869 -0.24968832328900131 0 -0.2475385819551103 -0.25725403030206673 0 -0.24434930689386869 -0.24968832328900131 0 -0.25326344970455439 -0.24921698247872701 0 -0.2520150355445766 -0.26991844180750052 0 -0.2475385819551103 -0.25725403030206673 0 -0.24192940426119511 -0.26649787679191372 0 -0.23598303366787521 -0.2544663532418156 0 -0.2475385819551103 -0.25725403030206673 0 -0.24192940426119511 -0.26649787679191372 0 -0.24374008148319259 -0.27895428437994219 0 -0.22997310266599311 -0.27093938546339968 0 -0.23469933568779311 -0.28961253743386578 0 -0.24192940426119511 -0.26649787679191372 0 -0.24374008148319259 -0.27895428437994219 0 -0.22997310266599311 -0.27093938546339968 0 -0.2520150355445766 -0.26991844180750052 0 -0.24192940426119511 -0.26649787679191372 0 -0.24374008148319259 -0.27895428437994219 0 -0.22997310266599311 -0.27093938546339968 0 -0.22045781593255129 -0.28070217782015 0 -0.23469933568779311 -0.28961253743386578 0 -0.22997310266599311 -0.27093938546339968 0 -0.22045781593255129 -0.28070217782015 0 -0.210466597998656 -0.26978459886532757 0 -0.22045781593255129 -0.28070217782015 0 -0.21926942751654621 -0.29315964059761568 0 -0.23469933568779311 -0.28961253743386578 0 -0.21926942751654621 -0.29315964059761568 0 -0.23469933568779311 -0.28961253743386578 0 -0.22865929238281121 -0.30354480251073529 0 -0.24374008148319259 -0.27895428437994219 0 -0.2478701350447062 -0.29008984568524232 0 -0.23469933568779311 -0.28961253743386578 0 -0.25646028977895879 -0.28254416156978518 0 -0.24374008148319259 -0.27895428437994219 0 -0.2478701350447062 -0.29008984568524232 0 -0.2478701350447062 -0.29008984568524232 0 -0.23469933568779311 -0.28961253743386578 0 -0.24581810928786491 -0.30239570364513141 0 -0.23469933568779311 -0.28961253743386578 0 -0.24581810928786491 -0.30239570364513141 0 -0.22865929238281121 -0.30354480251073529 0 -0.24454820548697601 -0.31706654188409522 0 -0.24581810928786491 -0.30239570364513141 0 -0.22865929238281121 -0.30354480251073529 0 -0.25959622218745459 -0.31530520491224978 0 -0.24454820548697601 -0.31706654188409522 0 -0.24581810928786491 -0.30239570364513141 0 -0.21926942751654621 -0.29315964059761568 0 -0.22865929238281121 -0.30354480251073529 0 -0.2089981942968199 -0.30180333129760001 0 -0.21686720657542161 -0.31368360172412169 0 -0.22865929238281121 -0.30354480251073529 0 -0.2089981942968199 -0.30180333129760001 0 -0.21686720657542161 -0.31368360172412169 0 -0.1963599736564948 -0.31468776302127932 0 -0.2089981942968199 -0.30180333129760001 0 -0.1963599736564948 -0.31468776302127932 0 -0.2089981942968199 -0.30180333129760001 0 -0.18990248211395511 -0.29659313113397301 0 -0.1963599736564948 -0.31468776302127932 0 -0.18990248211395511 -0.29659313113397301 0 -0.1789014257220585 -0.30732475774976908 0 -0.18990248211395511 -0.29659313113397301 0 -0.20628904965278669 -0.28644707425788563 0 -0.18971157069678579 -0.2765065791687617 0 -0.2089981942968199 -0.30180333129760001 0 -0.18990248211395511 -0.29659313113397301 0 -0.20628904965278669 -0.28644707425788563 0 -0.21926942751654621 -0.29315964059761568 0 -0.2089981942968199 -0.30180333129760001 0 -0.20628904965278669 -0.28644707425788563 0 -0.22045781593255129 -0.28070217782015 0 -0.21926942751654621 -0.29315964059761568 0 -0.20628904965278669 -0.28644707425788563 0 -0.22045781593255129 -0.28070217782015 0 -0.20628904965278669 -0.28644707425788563 0 -0.210466597998656 -0.26978459886532757 0 -0.210466597998656 -0.26978459886532757 0 -0.18971157069678579 -0.2765065791687617 0 -0.19542950224683009 -0.25775052655061859 0 -0.20628904965278669 -0.28644707425788563 0 -0.210466597998656 -0.26978459886532757 0 -0.18971157069678579 -0.2765065791687617 0 -0.18971157069678579 -0.2765065791687617 0 -0.19542950224683009 -0.25775052655061859 0 -0.17895335670750931 -0.26234543148671069 0 -0.22216414812508381 -0.25556308654710619 0 -0.210466597998656 -0.26978459886532757 0 -0.2085961274049509 -0.25204373705344069 0 -0.210466597998656 -0.26978459886532757 0 -0.19542950224683009 -0.25775052655061859 0 -0.2085961274049509 -0.25204373705344069 0 -0.16323493901487721 -0.26935675423537753 0 -0.15127485692657869 -0.25823722899614071 0 -0.1633424338862392 -0.24834242444346341 0 -0.17895335670750931 -0.26234543148671069 0 -0.16323493901487721 -0.26935675423537753 0 -0.1633424338862392 -0.24834242444346341 0 -0.19542950224683009 -0.25775052655061859 0 -0.17895335670750931 -0.26234543148671069 0 -0.1831283259367055 -0.24646170020316219 0 -0.17895335670750931 -0.26234543148671069 0 -0.1831283259367055 -0.24646170020316219 0 -0.1633424338862392 -0.24834242444346341 0 -0.17895335670750931 -0.26234543148671069 0 -0.17630997282067981 -0.27377124920661272 0 -0.16323493901487721 -0.26935675423537753 0 -0.18971157069678579 -0.2765065791687617 0 -0.17630997282067981 -0.27377124920661272 0 -0.17397073227152479 -0.28724365642890842 0 -0.18971157069678579 -0.2765065791687617 0 -0.17895335670750931 -0.26234543148671069 0 -0.17630997282067981 -0.27377124920661272 0 -0.17630997282067981 -0.27377124920661272 0 -0.16323493901487721 -0.26935675423537753 0 -0.17397073227152479 -0.28724365642890842 0 -0.16323493901487721 -0.26935675423537753 0 -0.17397073227152479 -0.28724365642890842 0 -0.15453602740202591 -0.28325711295641431 0 -0.16323493901487721 -0.26935675423537753 0 -0.15453602740202591 -0.28325711295641431 0 -0.15127485692657869 -0.25823722899614071 0 -0.17397073227152479 -0.28724365642890842 0 -0.16668287033554671 -0.30393954313862881 0 -0.15453602740202591 -0.28325711295641431 0 -0.18990248211395511 -0.29659313113397301 0 -0.18971157069678579 -0.2765065791687617 0 -0.17397073227152479 -0.28724365642890842 0 -0.18990248211395511 -0.29659313113397301 0 -0.17397073227152479 -0.28724365642890842 0 -0.1789014257220585 -0.30732475774976908 0 -0.17397073227152479 -0.28724365642890842 0 -0.1789014257220585 -0.30732475774976908 0 -0.16668287033554671 -0.30393954313862881 0 -0.1789014257220585 -0.30732475774976908 0 -0.16668287033554671 -0.30393954313862881 0 -0.16720871393960121 -0.31628706703737208 0 -0.16668287033554671 -0.30393954313862881 0 -0.15779719787747329 -0.30827699691668781 0 -0.15453602740202591 -0.28325711295641431 0 -0.16668287033554671 -0.30393954313862881 0 -0.15779719787747329 -0.30827699691668781 0 -0.16668287033554671 -0.30393954313862881 0 -0.15779719787747329 -0.30827699691668781 0 -0.16720871393960121 -0.31628706703737208 0 -0.15779719787747329 -0.30827699691668781 0 -0.14008900923101991 -0.29637915028126749 0 -0.1376549801308691 -0.31810922276968229 0 -0.14008900923101991 -0.29637915028126749 0 -0.1376549801308691 -0.31810922276968229 0 -0.12188063307831221 -0.30575573666362282 0 -0.14008900923101991 -0.29637915028126749 0 -0.12504305204492239 -0.28640580802426319 0 -0.12188063307831221 -0.30575573666362282 0 -0.14008900923101991 -0.29637915028126749 0 -0.12504305204492239 -0.28640580802426319 0 -0.1399691915979909 -0.27294549943429491 0 -0.15779719787747329 -0.30827699691668781 0 -0.15453602740202591 -0.28325711295641431 0 -0.14008900923101991 -0.29637915028126749 0 -0.15453602740202591 -0.28325711295641431 0 -0.1399691915979909 -0.27294549943429491 0 -0.15779719787747329 -0.30827699691668781 0 -0.14008900923101991 -0.29637915028126749 0 -0.15453602740202591 -0.28325711295641431 0 -0.15453602740202591 -0.28325711295641431 0 -0.15127485692657869 -0.25823722899614071 0 -0.15453602740202591 -0.28325711295641431 0 -0.1399691915979909 -0.27294549943429491 0 -0.15127485692657869 -0.25823722899614071 0 -0.12504305204492239 -0.28640580802426319 0 -0.1399691915979909 -0.27294549943429491 0 -0.12484346210913121 -0.27089924838943458 0 -0.1399691915979909 -0.27294549943429491 0 -0.12941299787350219 -0.26242195827267151 0 -0.12484346210913121 -0.27089924838943458 0 -0.13145879489179529 -0.2526639271976463 0 -0.139217952159014 -0.25772733589897689 0 -0.13591918647405871 -0.24048900391613789 0 -0.1399691915979909 -0.27294549943429491 0 -0.12941299787350219 -0.26242195827267151 0 -0.139217952159014 -0.25772733589897689 0 -0.12941299787350219 -0.26242195827267151 0 -0.13145879489179529 -0.2526639271976463 0 -0.139217952159014 -0.25772733589897689 0 -0.1399691915979909 -0.27294549943429491 0 -0.139217952159014 -0.25772733589897689 0 -0.15127485692657869 -0.25823722899614071 0 -0.17118564966490671 -0.37577775234001087 0 -0.16699612951326129 -0.35069480931895203 0 -0.15261519566081749 -0.3723309122353673 0 -0.17118564966490671 -0.37577775234001087 0 -0.19351209054822749 -0.3835595885857801 0 -0.1853732362713367 -0.36371837984797217 0 -0.17118564966490671 -0.37577775234001087 0 -0.16699612951326129 -0.35069480931895203 0 -0.1853732362713367 -0.36371837984797217 0 -0.19106727329699849 -0.34648388114585932 0 -0.16699612951326129 -0.35069480931895203 0 -0.1853732362713367 -0.36371837984797217 0 -0.19106727329699849 -0.34648388114585932 0 -0.16699612951326129 -0.35069480931895203 0 -0.17576716226306499 -0.33584663666911801 0 -0.19106727329699849 -0.34648388114585932 0 -0.16699612951326129 -0.35069480931895203 0 -0.19055697065588331 -0.33038295141173279 0 -0.19106727329699849 -0.34648388114585932 0 -0.17576716226306499 -0.33584663666911801 0 -0.19055697065588331 -0.33038295141173279 0 -0.17576716226306499 -0.33584663666911801 0 -0.1783681068119177 -0.32200493933011409 0 -0.1963599736564948 -0.31468776302127932 0 -0.1789014257220585 -0.30732475774976908 0 -0.1783681068119177 -0.32200493933011409 0 -0.1789014257220585 -0.30732475774976908 0 -0.1783681068119177 -0.32200493933011409 0 -0.16720871393960121 -0.31628706703737208 0 -0.15779719787747329 -0.30827699691668781 0 -0.16035269498318269 -0.32788291495349331 0 -0.16720871393960121 -0.31628706703737208 0 -0.1783681068119177 -0.32200493933011409 0 -0.16035269498318269 -0.32788291495349331 0 -0.16720871393960121 -0.31628706703737208 0 -0.15779719787747329 -0.30827699691668781 0 -0.16035269498318269 -0.32788291495349331 0 -0.16699612951326129 -0.35069480931895203 0 -0.16035269498318269 -0.32788291495349331 0 -0.14292147784591991 -0.33637762056679382 0 -0.16699612951326129 -0.35069480931895203 0 -0.17576716226306499 -0.33584663666911801 0 -0.16035269498318269 -0.32788291495349331 0 -0.17576716226306499 -0.33584663666911801 0 -0.1783681068119177 -0.32200493933011409 0 -0.16035269498318269 -0.32788291495349331 0 -0.15779719787747329 -0.30827699691668781 0 -0.1376549801308691 -0.31810922276968229 0 -0.15779719787747329 -0.30827699691668781 0 -0.16035269498318269 -0.32788291495349331 0 -0.1376549801308691 -0.31810922276968229 0 -0.16035269498318269 -0.32788291495349331 0 -0.14292147784591991 -0.33637762056679382 0 -0.1376549801308691 -0.31810922276968229 0 -0.1376549801308691 -0.31810922276968229 0 -0.1175127623842647 -0.32794144862267638 0 -0.1376549801308691 -0.31810922276968229 0 -0.1175127623842647 -0.32794144862267638 0 -0.12188063307831221 -0.30575573666362282 0 -0.14292147784591991 -0.33637762056679382 0 -0.1376549801308691 -0.31810922276968229 0 -0.1175127623842647 -0.32794144862267638 0 -0.14292147784591991 -0.33637762056679382 0 -0.1243359282520122 -0.34405340197476458 0 -0.1175127623842647 -0.32794144862267638 0 -0.14292498572952411 -0.35490573749204463 0 -0.1243359282520122 -0.34405340197476458 0 -0.11885384194578689 -0.35911666566513728 0 -0.14292498572952411 -0.35490573749204463 0 -0.11885384194578689 -0.35911666566513728 0 -0.14292147784591991 -0.33637762056679382 0 -0.14292498572952411 -0.35490573749204463 0 -0.1243359282520122 -0.34405340197476458 0 -0.16699612951326129 -0.35069480931895203 0 -0.14292498572952411 -0.35490573749204463 0 -0.15261519566081749 -0.3723309122353673 0 -0.16699612951326129 -0.35069480931895203 0 -0.14292498572952411 -0.35490573749204463 0 -0.16699612951326129 -0.35069480931895203 0 -0.14292147784591991 -0.33637762056679382 0 -0.14292498572952411 -0.35490573749204463 0 -0.14292498572952411 -0.35490573749204463 0 -0.15261519566081749 -0.3723309122353673 0 -0.13403561704002739 -0.37499600363270391 0 -0.14292498572952411 -0.35490573749204463 0 -0.13403561704002739 -0.37499600363270391 0 -0.12882000726311121 -0.36518128802598793 0 -0.14292498572952411 -0.35490573749204463 0 -0.12882000726311121 -0.36518128802598793 0 -0.11885384194578689 -0.35911666566513728 0 -0.13403561704002739 -0.37499600363270391 0 -0.12882000726311121 -0.36518128802598793 0 -0.1194655843371064 -0.37170674531406622 0 -0.12882000726311121 -0.36518128802598793 0 -0.1194655843371064 -0.37170674531406622 0 -0.11885384194578689 -0.35911666566513728 0 -0.1194655843371064 -0.37170674531406622 0 -0.1099895602509097 -0.36363927855830708 0 -0.11885384194578689 -0.35911666566513728 0 -0.1194655843371064 -0.37170674531406622 0 -0.1099895602509097 -0.36363927855830708 0 -0.10965655944320379 -0.37751452663088791 0 -0.094782698162049331 -0.3633275938382281 0 -0.11885384194578689 -0.35911666566513728 0 -0.1099895602509097 -0.36363927855830708 0 -0.10275488784813849 -0.37862820044229212 0 -0.093776947756166823 -0.381880921571215 0 -0.094782698162049331 -0.3633275938382281 0 -0.093776947756166823 -0.381880921571215 0 -0.1099895602509097 -0.36363927855830708 0 -0.094782698162049331 -0.3633275938382281 0 -0.093776947756166823 -0.381880921571215 0 -0.1099895602509097 -0.36363927855830708 0 -0.094782698162049331 -0.3633275938382281 0 -0.11885384194578689 -0.35911666566513728 0 -0.1099895602509097 -0.36363927855830708 0 -0.10965655944320379 -0.37751452663088791 0 -0.10275488784813849 -0.37862820044229212 0 -0.1099895602509097 -0.36363927855830708 0 -0.093776947756166823 -0.381880921571215 0 -0.094782698162049331 -0.3633275938382281 0 -0.095125593390421551 -0.35700212032802192 0 -0.094782698162049331 -0.3633275938382281 0 -0.107820307736465 -0.34873897444430402 0 -0.11885384194578689 -0.35911666566513728 0 -0.095377439224732269 -0.34728625000681512 0 -0.107820307736465 -0.34873897444430402 0 -0.097370544637660275 -0.33777367447567053 0 -0.095377439224732269 -0.34728625000681512 0 -0.095125593390421551 -0.35700212032802192 0 -0.107820307736465 -0.34873897444430402 0 -0.094782698162049331 -0.3633275938382281 0 -0.095125593390421551 -0.35700212032802192 0 -0.107820307736465 -0.34873897444430402 0 -0.107820307736465 -0.34873897444430402 0 -0.1243359282520122 -0.34405340197476458 0 -0.11885384194578689 -0.35911666566513728 0 -0.107820307736465 -0.34873897444430402 0 -0.1243359282520122 -0.34405340197476458 0 -0.1175127623842647 -0.32794144862267638 0 -0.1175127623842647 -0.32794144862267638 0 -0.12188063307831221 -0.30575573666362282 0 -0.1029969952440038 -0.31086361468628992 0 -0.095526735227409662 -0.32334493526958591 0 -0.084189907110687828 -0.31423096377136239 0 -0.1029969952440038 -0.31086361468628992 0 -0.1175127623842647 -0.32794144862267638 0 -0.095526735227409662 -0.32334493526958591 0 -0.1029969952440038 -0.31086361468628992 0 -0.107820307736465 -0.34873897444430402 0 -0.1175127623842647 -0.32794144862267638 0 -0.097370544637660275 -0.33777367447567053 0 -0.1175127623842647 -0.32794144862267638 0 -0.095526735227409662 -0.32334493526958591 0 -0.097370544637660275 -0.33777367447567053 0 -0.1175127623842647 -0.32794144862267638 0 -0.097370544637660275 -0.33777367447567053 0 -0.097370544637660275 -0.33777367447567053 0 -0.08319730220092926 -0.32815785670574282 0 -0.085674165447259268 -0.34673123611313761 0 -0.08319730220092926 -0.32815785670574282 0 -0.072312560717583199 -0.33903070961687509 0 -0.085674165447259268 -0.34673123611313761 0 -0.095526735227409662 -0.32334493526958591 0 -0.097370544637660275 -0.33777367447567053 0 -0.08319730220092926 -0.32815785670574282 0 -0.084189907110687828 -0.31423096377136239 0 -0.1029969952440038 -0.31086361468628992 0 -0.095526735227409662 -0.32334493526958591 0 -0.08319730220092926 -0.32815785670574282 0 -0.084189907110687828 -0.31423096377136239 0 -0.08319730220092926 -0.32815785670574282 0 -0.084189907110687828 -0.31423096377136239 0 -0.065382818977371915 -0.31759831285643519 0 -0.084189907110687828 -0.31423096377136239 0 -0.065382818977371915 -0.31759831285643519 0 -0.08319730220092926 -0.32815785670574282 0 -0.065382818977371915 -0.31759831285643519 0 -0.072312560717583199 -0.33903070961687509 0 -0.065382818977371915 -0.31759831285643519 0 -0.072312560717583199 -0.33903070961687509 0 -0.051870141073130718 -0.34391362164220868 0 -0.072312560717583199 -0.33903070961687509 0 -0.06622022676691855 -0.3528987004318021 0 -0.051870141073130718 -0.34391362164220868 0 -0.072312560717583199 -0.33903070961687509 0 -0.075658969143826832 -0.34840575986055627 0 -0.085674165447259268 -0.34673123611313761 0 -0.072312560717583199 -0.33903070961687509 0 -0.075658969143826832 -0.34840575986055627 0 -0.06622022676691855 -0.3528987004318021 0 -0.06622022676691855 -0.3528987004318021 0 -0.066831075731058426 -0.36821736041666042 0 -0.078428923643546367 -0.35496239328041079 0 -0.075658969143826832 -0.34840575986055627 0 -0.06622022676691855 -0.3528987004318021 0 -0.078428923643546367 -0.35496239328041079 0 -0.066831075731058426 -0.36821736041666042 0 -0.084900945360291552 -0.35927094868594728 0 -0.078428923643546367 -0.35496239328041079 0 -0.094782698162049331 -0.3633275938382281 0 -0.066831075731058426 -0.36821736041666042 0 -0.084900945360291552 -0.35927094868594728 0 -0.094782698162049331 -0.3633275938382281 0 -0.066831075731058426 -0.36821736041666042 0 -0.094782698162049331 -0.3633275938382281 0 -0.066831075731058426 -0.36821736041666042 0 -0.089943019202137098 -0.37281061204415589 0 -0.094782698162049331 -0.3633275938382281 0 -0.089943019202137098 -0.37281061204415589 0 -0.093776947756166823 -0.381880921571215 0 -0.066831075731058426 -0.36821736041666042 0 -0.089943019202137098 -0.37281061204415589 0 -0.083329875418187399 -0.37773707926612882 0 -0.094782698162049331 -0.3633275938382281 0 -0.095125593390421551 -0.35700212032802192 0 -0.084900945360291552 -0.35927094868594728 0 -0.095377439224732269 -0.34728625000681512 0 -0.095125593390421551 -0.35700212032802192 0 -0.089336435874382059 -0.35284527556641532 0 -0.095125593390421551 -0.35700212032802192 0 -0.089336435874382059 -0.35284527556641532 0 -0.084900945360291552 -0.35927094868594728 0 -0.095377439224732269 -0.34728625000681512 0 -0.089336435874382059 -0.35284527556641532 0 -0.085674165447259268 -0.34673123611313761 0 -0.095377439224732269 -0.34728625000681512 0 -0.097370544637660275 -0.33777367447567053 0 -0.085674165447259268 -0.34673123611313761 0 -0.075658969143826832 -0.34840575986055627 0 -0.085674165447259268 -0.34673123611313761 0 -0.078428923643546367 -0.35496239328041079 0 -0.089336435874382059 -0.35284527556641532 0 -0.085674165447259268 -0.34673123611313761 0 -0.078428923643546367 -0.35496239328041079 0 -0.089336435874382059 -0.35284527556641532 0 -0.084900945360291552 -0.35927094868594728 0 -0.078428923643546367 -0.35496239328041079 0 -0.11157558860957981 -0.25787378044300507 0 -0.099578042063060132 -0.27177212542142681 0 -0.09169238232736425 -0.26308363368836402 0 -0.11157558860957981 -0.25787378044300507 0 -0.09169238232736425 -0.26308363368836402 0 -0.11157558860957981 -0.25787378044300507 0 -0.0889106203226466 -0.25070880179025701 0 -0.09169238232736425 -0.26308363368836402 0 -0.13145879489179529 -0.2526639271976463 0 -0.11157558860957981 -0.25787378044300507 0 -0.13145879489179529 -0.2526639271976463 0 -0.11157558860957981 -0.25787378044300507 0 -0.1187161955354217 -0.24568453992089831 0 -0.12941299787350219 -0.26242195827267151 0 -0.11157558860957981 -0.25787378044300507 0 -0.12484346210913121 -0.27089924838943458 0 -0.12941299787350219 -0.26242195827267151 0 -0.13145879489179529 -0.2526639271976463 0 -0.11157558860957981 -0.25787378044300507 0 -0.11157558860957981 -0.25787378044300507 0 -0.12484346210913121 -0.27089924838943458 0 -0.1112949778548558 -0.27753581370605579 0 -0.12504305204492239 -0.28640580802426319 0 -0.12484346210913121 -0.27089924838943458 0 -0.1112949778548558 -0.27753581370605579 0 -0.11157558860957981 -0.25787378044300507 0 -0.1112949778548558 -0.27753581370605579 0 -0.099578042063060132 -0.27177212542142681 0 -0.1112949778548558 -0.27753581370605579 0 -0.099578042063060132 -0.27177212542142681 0 -0.096441968543709386 -0.28464414974577013 0 -0.099578042063060132 -0.27177212542142681 0 -0.096441968543709386 -0.28464414974577013 0 -0.086885292979791501 -0.27572324952393901 0 -0.1112949778548558 -0.27753581370605579 0 -0.1079869994347934 -0.29483517559755729 0 -0.096441968543709386 -0.28464414974577013 0 -0.1079869994347934 -0.29483517559755729 0 -0.096441968543709386 -0.28464414974577013 0 -0.091303330407840694 -0.29915766758893181 0 -0.12504305204492239 -0.28640580802426319 0 -0.1079869994347934 -0.29483517559755729 0 -0.12188063307831221 -0.30575573666362282 0 -0.12504305204492239 -0.28640580802426319 0 -0.1112949778548558 -0.27753581370605579 0 -0.1079869994347934 -0.29483517559755729 0 -0.1079869994347934 -0.29483517559755729 0 -0.12188063307831221 -0.30575573666362282 0 -0.1029969952440038 -0.31086361468628992 0 -0.1079869994347934 -0.29483517559755729 0 -0.1029969952440038 -0.31086361468628992 0 -0.091303330407840694 -0.29915766758893181 0 -0.084189907110687828 -0.31423096377136239 0 -0.1029969952440038 -0.31086361468628992 0 -0.091303330407840694 -0.29915766758893181 0 -0.084189907110687828 -0.31423096377136239 0 -0.091303330407840694 -0.29915766758893181 0 -0.073805974182715339 -0.30119461169890771 0 -0.065382818977371915 -0.31759831285643519 0 -0.073805974182715339 -0.30119461169890771 0 -0.055797045516411917 -0.30034122974446031 0 -0.084189907110687828 -0.31423096377136239 0 -0.065382818977371915 -0.31759831285643519 0 -0.073805974182715339 -0.30119461169890771 0 -0.073805974182715339 -0.30119461169890771 0 -0.065563796266144905 -0.29066637376923798 0 -0.055797045516411917 -0.30034122974446031 0 -0.065382818977371915 -0.31759831285643519 0 -0.073805974182715339 -0.30119461169890771 0 -0.073805974182715339 -0.30119461169890771 0 -0.073097767141983391 -0.29003187631275062 0 -0.065563796266144905 -0.29066637376923798 0 -0.073805974182715339 -0.30119461169890771 0 -0.073097767141983391 -0.29003187631275062 0 -0.082229129388058431 -0.28479091054137989 0 -0.073805974182715339 -0.30119461169890771 0 -0.082229129388058431 -0.28479091054137989 0 -0.065563796266144905 -0.29066637376923798 0 -0.070792168731014932 -0.2834756092414768 0 -0.064947799728950734 -0.28005761723523559 0 -0.073097767141983391 -0.29003187631275062 0 -0.065563796266144905 -0.29066637376923798 0 -0.070792168731014932 -0.2834756092414768 0 -0.070792168731014932 -0.2834756092414768 0 -0.082229129388058431 -0.28479091054137989 0 -0.071186370632011234 -0.27727860122997761 0 -0.073097767141983391 -0.29003187631275062 0 -0.070792168731014932 -0.2834756092414768 0 -0.082229129388058431 -0.28479091054137989 0 -0.091303330407840694 -0.29915766758893181 0 -0.073805974182715339 -0.30119461169890771 0 -0.082229129388058431 -0.28479091054137989 0 -0.096441968543709386 -0.28464414974577013 0 -0.091303330407840694 -0.29915766758893181 0 -0.082229129388058431 -0.28479091054137989 0 -0.091303330407840694 -0.29915766758893181 0 -0.082229129388058431 -0.28479091054137989 0 -0.096441968543709386 -0.28464414974577013 0 -0.082229129388058431 -0.28479091054137989 0 -0.086885292979791501 -0.27572324952393901 0 -0.086885292979791501 -0.27572324952393901 0 -0.071809176045148526 -0.26829348693372168 0 -0.09169238232736425 -0.26308363368836402 0 -0.082229129388058431 -0.28479091054137989 0 -0.086885292979791501 -0.27572324952393901 0 -0.071809176045148526 -0.26829348693372168 0 -0.071809176045148526 -0.26829348693372168 0 -0.09169238232736425 -0.26308363368836402 0 -0.099578042063060132 -0.27177212542142681 0 -0.086885292979791501 -0.27572324952393901 0 -0.09169238232736425 -0.26308363368836402 0 -0.082229129388058431 -0.28479091054137989 0 -0.086885292979791501 -0.27572324952393901 0 -0.082229129388058431 -0.28479091054137989 0 -0.071809176045148526 -0.26829348693372168 0 -0.082229129388058431 -0.28479091054137989 0 -0.071186370632011234 -0.27727860122997761 0 -0.071809176045148526 -0.26829348693372168 0 -0.070464099295724392 -0.26616388997779877 0 -0.071809176045148526 -0.26829348693372168 0 -0.09169238232736425 -0.26308363368836402 0 -0.070792168731014932 -0.2834756092414768 0 -0.071186370632011234 -0.27727860122997761 0 -0.064947799728950734 -0.28005761723523559 0 -0.071186370632011234 -0.27727860122997761 0 -0.064947799728950734 -0.28005761723523559 0 -0.066153579266882548 -0.26977538219807318 0 -0.071186370632011234 -0.27727860122997761 0 -0.066153579266882548 -0.26977538219807318 0 -0.071809176045148526 -0.26829348693372168 0 -0.066153579266882548 -0.26977538219807318 0 -0.070464099295724392 -0.26616388997779877 0 -0.071809176045148526 -0.26829348693372168 0 -0.066153579266882548 -0.26977538219807318 0 -0.071809176045148526 -0.26829348693372168 0 -0.066153579266882548 -0.26977538219807318 0 -0.070464099295724392 -0.26616388997779877 0 -0.070464099295724392 -0.26616388997779877 0 -0.071809176045148526 -0.26829348693372168 0 -0.070464099295724392 -0.26616388997779877 0 -0.054853607222116879 -0.24144852974658429 0 -0.070464099295724392 -0.26616388997779877 0 -0.0889106203226466 -0.25070880179025701 0 -0.071960244748720911 -0.24191037302126911 0 -0.070464099295724392 -0.26616388997779877 0 -0.0889106203226466 -0.25070880179025701 0 -0.070464099295724392 -0.26616388997779877 0 -0.0889106203226466 -0.25070880179025701 0 -0.09169238232736425 -0.26308363368836402 0 -0.032983697029401883 -0.25921448172108602 0 -0.049996963324905087 -0.25986794633752452 0 -0.039437776658489992 -0.27677553141677169 0 -0.032983697029401883 -0.25921448172108602 0 -0.049996963324905087 -0.25986794633752452 0 -0.037015257496916913 -0.24268092961745849 0 -0.066153579266882548 -0.26977538219807318 0 -0.070464099295724392 -0.26616388997779877 0 -0.049996963324905087 -0.25986794633752452 0 -0.070464099295724392 -0.26616388997779877 0 -0.049996963324905087 -0.25986794633752452 0 -0.054853607222116879 -0.24144852974658429 0 -0.066153579266882548 -0.26977538219807318 0 -0.039437776658489992 -0.27677553141677169 0 -0.066153579266882548 -0.26977538219807318 0 -0.039437776658489992 -0.27677553141677169 0 -0.051806563852651963 -0.28179577282519191 0 -0.066153579266882548 -0.26977538219807318 0 -0.049996963324905087 -0.25986794633752452 0 -0.039437776658489992 -0.27677553141677169 0 -0.066153579266882548 -0.26977538219807318 0 -0.051806563852651963 -0.28179577282519191 0 -0.064947799728950734 -0.28005761723523559 0 -0.066153579266882548 -0.26977538219807318 0 -0.051806563852651963 -0.28179577282519191 0 -0.039437776658489992 -0.27677553141677169 0 -0.037459548438420628 -0.2938161634523096 0 -0.051806563852651963 -0.28179577282519191 0 -0.037459548438420628 -0.2938161634523096 0 -0.051806563852651963 -0.28179577282519191 0 -0.065563796266144905 -0.29066637376923798 0 -0.051806563852651963 -0.28179577282519191 0 -0.055797045516411917 -0.30034122974446031 0 -0.037459548438420628 -0.2938161634523096 0 -0.051806563852651963 -0.28179577282519191 0 -0.055797045516411917 -0.30034122974446031 0 -0.065563796266144905 -0.29066637376923798 0 -0.064947799728950734 -0.28005761723523559 0 -0.051806563852651963 -0.28179577282519191 0 -0.065382818977371915 -0.31759831285643519 0 -0.055797045516411917 -0.30034122974446031 0 -0.052726936288285113 -0.31159513980788361 0 -0.055797045516411917 -0.30034122974446031 0 -0.052726936288285113 -0.31159513980788361 0 -0.04481025643599118 -0.3071784759925168 0 -0.037459548438420628 -0.2938161634523096 0 -0.055797045516411917 -0.30034122974446031 0 -0.04481025643599118 -0.3071784759925168 0 -0.04481025643599118 -0.3071784759925168 0 -0.032932867679119723 -0.3082818957530693 0 -0.044917624223365447 -0.32126254063812199 0 -0.037459548438420628 -0.2938161634523096 0 -0.04481025643599118 -0.3071784759925168 0 -0.032932867679119723 -0.3082818957530693 0 -0.032932867679119723 -0.3082818957530693 0 -0.022689727626968699 -0.30096584925825409 0 -0.020692177052119249 -0.31338728220007289 0 -0.037459548438420628 -0.2938161634523096 0 -0.032932867679119723 -0.3082818957530693 0 -0.022689727626968699 -0.30096584925825409 0 -0.022689727626968699 -0.30096584925825409 0 -0.009642070915086105 -0.30556822425034719 0 -0.020692177052119249 -0.31338728220007289 0 -0.009642070915086105 -0.30556822425034719 0 -0.020692177052119249 -0.31338728220007289 0 -0.011081764931250781 -0.3185375685786741 0 -0.009642070915086105 -0.30556822425034719 0 -0.0127219740500978 -0.28377568063547148 0 0.01399382855829426 -0.29077582985417127 0 -0.022689727626968699 -0.30096584925825409 0 -0.009642070915086105 -0.30556822425034719 0 -0.0127219740500978 -0.28377568063547148 0 -0.037459548438420628 -0.2938161634523096 0 -0.022689727626968699 -0.30096584925825409 0 -0.0127219740500978 -0.28377568063547148 0 -0.039437776658489992 -0.27677553141677169 0 -0.037459548438420628 -0.2938161634523096 0 -0.0127219740500978 -0.28377568063547148 0 -0.032983697029401883 -0.25921448172108602 0 -0.039437776658489992 -0.27677553141677169 0 -0.016307211057436231 -0.26521563160718198 0 -0.039437776658489992 -0.27677553141677169 0 -0.0127219740500978 -0.28377568063547148 0 -0.039437776658489992 -0.27677553141677169 0 -0.0127219740500978 -0.28377568063547148 0 -0.016307211057436231 -0.26521563160718198 0 -0.0127219740500978 -0.28377568063547148 0 -0.016307211057436231 -0.26521563160718198 0 0.0064113245404139908 -0.26530009043482788 0 -0.016307211057436231 -0.26521563160718198 0 -0.02258028236581823 -0.24850611916615931 0 -0.0042469490959310546 -0.24105588206608369 0 -0.016307211057436231 -0.26521563160718198 0 -0.0042469490959310546 -0.24105588206608369 0 0.0064113245404139908 -0.26530009043482788 0 -0.032983697029401883 -0.25921448172108602 0 -0.016307211057436231 -0.26521563160718198 0 -0.02258028236581823 -0.24850611916615931 0 -0.032983697029401883 -0.25921448172108602 0 -0.02258028236581823 -0.24850611916615931 0 -0.037015257496916913 -0.24268092961745849 0 -0.036348886634394117 -0.35012666513248009 0 -0.051870141073130718 -0.34391362164220868 0 -0.034292521637086362 -0.34258377342290702 0 -0.038357463168889348 -0.37022893042798199 0 -0.051870141073130718 -0.34391362164220868 0 -0.038097721741226213 -0.35885899627459522 0 -0.038357463168889348 -0.37022893042798199 0 -0.051870141073130718 -0.34391362164220868 0 -0.036348886634394117 -0.35012666513248009 0 -0.038097721741226213 -0.35885899627459522 0 -0.051870141073130718 -0.34391362164220868 0 -0.036348886634394117 -0.35012666513248009 0 -0.030727311248269079 -0.35188138613985731 0 -0.028445868207235311 -0.34724322977079741 0 -0.036348886634394117 -0.35012666513248009 0 -0.034292521637086362 -0.34258377342290702 0 -0.028445868207235311 -0.34724322977079741 0 -0.036348886634394117 -0.35012666513248009 0 -0.033289534072552793 -0.35544358401548759 0 -0.038097721741226213 -0.35885899627459522 0 -0.036348886634394117 -0.35012666513248009 0 -0.033289534072552793 -0.35544358401548759 0 -0.030727311248269079 -0.35188138613985731 0 -0.033289534072552793 -0.35544358401548759 0 -0.03197051384657372 -0.36014266471903472 0 -0.028639428813056689 -0.3565170324724794 0 -0.033289534072552793 -0.35544358401548759 0 -0.038097721741226213 -0.35885899627459522 0 -0.03197051384657372 -0.36014266471903472 0 -0.03197051384657372 -0.36014266471903472 0 -0.034272054972404591 -0.36394414689045629 0 -0.029950680310896219 -0.36503764424036023 0 -0.038097721741226213 -0.35885899627459522 0 -0.036138347530512961 -0.36533856872505122 0 -0.038357463168889348 -0.37022893042798199 0 -0.038097721741226213 -0.35885899627459522 0 -0.03197051384657372 -0.36014266471903472 0 -0.034272054972404591 -0.36394414689045629 0 -0.034272054972404591 -0.36394414689045629 0 -0.036138347530512961 -0.36533856872505122 0 -0.03382615023953172 -0.36832220130717119 0 -0.034272054972404591 -0.36394414689045629 0 -0.03382615023953172 -0.36832220130717119 0 -0.029950680310896219 -0.36503764424036023 0 -0.038097721741226213 -0.35885899627459522 0 -0.034272054972404591 -0.36394414689045629 0 -0.036138347530512961 -0.36533856872505122 0 -0.03382615023953172 -0.36832220130717119 0 -0.038879453300067347 -0.37310712699509069 0 -0.023492648059152871 -0.37005212437569401 0 -0.03382615023953172 -0.36832220130717119 0 -0.038357463168889348 -0.37022893042798199 0 -0.038879453300067347 -0.37310712699509069 0 -0.036138347530512961 -0.36533856872505122 0 -0.03382615023953172 -0.36832220130717119 0 -0.038357463168889348 -0.37022893042798199 0 -0.038357463168889348 -0.37022893042798199 0 -0.038879453300067347 -0.37310712699509069 0 -0.052286565267500557 -0.36160269172389681 0 -0.066831075731058426 -0.36821736041666042 0 -0.038879453300067347 -0.37310712699509069 0 -0.052286565267500557 -0.36160269172389681 0 -0.066831075731058426 -0.36821736041666042 0 -0.038879453300067347 -0.37310712699509069 0 -0.050462251829573992 -0.37913080051702591 0 -0.066831075731058426 -0.36821736041666042 0 -0.038879453300067347 -0.37310712699509069 0 -0.06622022676691855 -0.3528987004318021 0 -0.066831075731058426 -0.36821736041666042 0 -0.052286565267500557 -0.36160269172389681 0 -0.038357463168889348 -0.37022893042798199 0 -0.052286565267500557 -0.36160269172389681 0 -0.051870141073130718 -0.34391362164220868 0 -0.06622022676691855 -0.3528987004318021 0 -0.052286565267500557 -0.36160269172389681 0 -0.051870141073130718 -0.34391362164220868 0 -0.065382818977371915 -0.31759831285643519 0 -0.051870141073130718 -0.34391362164220868 0 -0.065382818977371915 -0.31759831285643519 0 -0.052726936288285113 -0.31159513980788361 0 -0.044917624223365447 -0.32126254063812199 0 -0.065382818977371915 -0.31759831285643519 0 -0.044917624223365447 -0.32126254063812199 0 -0.065382818977371915 -0.31759831285643519 0 -0.051870141073130718 -0.34391362164220868 0 -0.044917624223365447 -0.32126254063812199 0 -0.052726936288285113 -0.31159513980788361 0 -0.04481025643599118 -0.3071784759925168 0 -0.044917624223365447 -0.32126254063812199 0 -0.044917624223365447 -0.32126254063812199 0 -0.024452429469359049 -0.32492676841980911 0 -0.044917624223365447 -0.32126254063812199 0 -0.030748774605990872 -0.31696462175276829 0 -0.024452429469359049 -0.32492676841980911 0 -0.044917624223365447 -0.32126254063812199 0 -0.03589445420623863 -0.33329957480317529 0 -0.027148719725146729 -0.32871675370692932 0 -0.044917624223365447 -0.32126254063812199 0 -0.027148719725146729 -0.32871675370692932 0 -0.024452429469359049 -0.32492676841980911 0 -0.032932867679119723 -0.3082818957530693 0 -0.044917624223365447 -0.32126254063812199 0 -0.030748774605990872 -0.31696462175276829 0 -0.051870141073130718 -0.34391362164220868 0 -0.044917624223365447 -0.32126254063812199 0 -0.03589445420623863 -0.33329957480317529 0 -0.051870141073130718 -0.34391362164220868 0 -0.03589445420623863 -0.33329957480317529 0 -0.034292521637086362 -0.34258377342290702 0 -0.03589445420623863 -0.33329957480317529 0 -0.034292521637086362 -0.34258377342290702 0 -0.027795073514937041 -0.33789528235380301 0 -0.027795073514937041 -0.33789528235380301 0 -0.027148719725146729 -0.32871675370692932 0 -0.020168251789178918 -0.34304258763973289 0 -0.034292521637086362 -0.34258377342290702 0 -0.025972663805497152 -0.34308111049497292 0 -0.027795073514937041 -0.33789528235380301 0 -0.025972663805497152 -0.34308111049497292 0 -0.027795073514937041 -0.33789528235380301 0 -0.020168251789178918 -0.34304258763973289 0 -0.03589445420623863 -0.33329957480317529 0 -0.027795073514937041 -0.33789528235380301 0 -0.027148719725146729 -0.32871675370692932 0 -0.027148719725146729 -0.32871675370692932 0 -0.020168251789178918 -0.34304258763973289 0 -0.027148719725146729 -0.32871675370692932 0 -0.019103714461639811 -0.33497039832315051 0 -0.020168251789178918 -0.34304258763973289 0 -0.027148719725146729 -0.32871675370692932 0 -0.02211521354400189 -0.32970155148507291 0 -0.019103714461639811 -0.33497039832315051 0 -0.02211521354400189 -0.32970155148507291 0 -0.016654551398231032 -0.33126239548938452 0 -0.024452429469359049 -0.32492676841980911 0 -0.02211521354400189 -0.32970155148507291 0 -0.016654551398231032 -0.33126239548938452 0 -0.019103714461639811 -0.33497039832315051 0 -0.016654551398231032 -0.33126239548938452 0 -0.019103714461639811 -0.33497039832315051 0 -0.01216283498106986 -0.33533711163028862 0 -0.019103714461639811 -0.33497039832315051 0 -0.020168251789178918 -0.34304258763973289 0 -0.014942801449510089 -0.3413489151488881 0 -0.030748774605990872 -0.31696462175276829 0 -0.024452429469359049 -0.32492676841980911 0 -0.020692177052119249 -0.31338728220007289 0 -0.032932867679119723 -0.3082818957530693 0 -0.030748774605990872 -0.31696462175276829 0 -0.020692177052119249 -0.31338728220007289 0 -0.027148719725146729 -0.32871675370692932 0 -0.02211521354400189 -0.32970155148507291 0 -0.024452429469359049 -0.32492676841980911 0 -0.024452429469359049 -0.32492676841980911 0 -0.020692177052119249 -0.31338728220007289 0 -0.011081764931250781 -0.3185375685786741 0 -0.024452429469359049 -0.32492676841980911 0 -0.0039872347153526583 -0.32859099620149618 0 -0.011081764931250781 -0.3185375685786741 0 -0.0039872347153526583 -0.32859099620149618 0 0.0079812764457104952 -0.31559530161391047 0 -0.024452429469359049 -0.32492676841980911 0 -0.011081764931250781 -0.3185375685786741 0 -0.0039872347153526583 -0.32859099620149618 0 -0.009642070915086105 -0.30556822425034719 0 -0.011081764931250781 -0.3185375685786741 0 0.0079812764457104952 -0.31559530161391047 0 -0.016654551398231032 -0.33126239548938452 0 -0.024452429469359049 -0.32492676841980911 0 -0.0039872347153526583 -0.32859099620149618 0 -0.0039872347153526583 -0.32859099620149618 0 -0.0067461641673570846 -0.34075600069725781 0 0.001736735560337046 -0.34458920157877498 0 -0.014942801449510089 -0.3413489151488881 0 -0.01216283498106986 -0.33533711163028862 0 -0.0067461641673570846 -0.34075600069725781 0 -0.019103714461639811 -0.33497039832315051 0 -0.014942801449510089 -0.3413489151488881 0 -0.01216283498106986 -0.33533711163028862 0 -0.016654551398231032 -0.33126239548938452 0 -0.01216283498106986 -0.33533711163028862 0 -0.0039872347153526583 -0.32859099620149618 0 -0.01216283498106986 -0.33533711163028862 0 -0.0039872347153526583 -0.32859099620149618 0 -0.0067461641673570846 -0.34075600069725781 0 -0.0067461641673570846 -0.34075600069725781 0 -0.01318778385321114 -0.35736842157253651 0 0.001736735560337046 -0.34458920157877498 0 -0.014942801449510089 -0.3413489151488881 0 -0.01318778385321114 -0.35736842157253651 0 -0.014942801449510089 -0.3413489151488881 0 -0.0067461641673570846 -0.34075600069725781 0 -0.01318778385321114 -0.35736842157253651 0 -0.020168251789178918 -0.34304258763973289 0 -0.01318778385321114 -0.35736842157253651 0 -0.02112443206309755 -0.35276937035203543 0 -0.020168251789178918 -0.34304258763973289 0 -0.01318778385321114 -0.35736842157253651 0 -0.020168251789178918 -0.34304258763973289 0 -0.02112443206309755 -0.35276937035203543 0 -0.023690614509014839 -0.34681752223170909 0 -0.020168251789178918 -0.34304258763973289 0 -0.014942801449510089 -0.3413489151488881 0 -0.01318778385321114 -0.35736842157253651 0 -0.025972663805497152 -0.34308111049497292 0 -0.020168251789178918 -0.34304258763973289 0 -0.023690614509014839 -0.34681752223170909 0 -0.01318778385321114 -0.35736842157253651 0 -0.02112443206309755 -0.35276937035203543 0 -0.02484032796641723 -0.36036650515641638 0 -0.02112443206309755 -0.35276937035203543 0 -0.028639428813056689 -0.3565170324724794 0 -0.030727311248269079 -0.35188138613985731 0 -0.02112443206309755 -0.35276937035203543 0 -0.028639428813056689 -0.3565170324724794 0 -0.02484032796641723 -0.36036650515641638 0 -0.03197051384657372 -0.36014266471903472 0 -0.028639428813056689 -0.3565170324724794 0 -0.02484032796641723 -0.36036650515641638 0 -0.033289534072552793 -0.35544358401548759 0 -0.028639428813056689 -0.3565170324724794 0 -0.030727311248269079 -0.35188138613985731 0 -0.02112443206309755 -0.35276937035203543 0 -0.030727311248269079 -0.35188138613985731 0 -0.028445868207235311 -0.34724322977079741 0 -0.034292521637086362 -0.34258377342290702 0 -0.025972663805497152 -0.34308111049497292 0 -0.028445868207235311 -0.34724322977079741 0 -0.025972663805497152 -0.34308111049497292 0 -0.028445868207235311 -0.34724322977079741 0 -0.023690614509014839 -0.34681752223170909 0 -0.02112443206309755 -0.35276937035203543 0 -0.028445868207235311 -0.34724322977079741 0 -0.023690614509014839 -0.34681752223170909 0 -0.038879453300067347 -0.37310712699509069 0 -0.023492648059152871 -0.37005212437569401 0 -0.010927830869076321 -0.37799689357352151 0 -0.01318778385321114 -0.35736842157253651 0 -0.023492648059152871 -0.37005212437569401 0 -0.010927830869076321 -0.37799689357352151 0 -0.03382615023953172 -0.36832220130717119 0 -0.023492648059152871 -0.37005212437569401 0 -0.029950680310896219 -0.36503764424036023 0 -0.023492648059152871 -0.37005212437569401 0 -0.029950680310896219 -0.36503764424036023 0 -0.02484032796641723 -0.36036650515641638 0 -0.03197051384657372 -0.36014266471903472 0 -0.029950680310896219 -0.36503764424036023 0 -0.02484032796641723 -0.36036650515641638 0 -0.01318778385321114 -0.35736842157253651 0 -0.023492648059152871 -0.37005212437569401 0 -0.02484032796641723 -0.36036650515641638 0 -0.01318778385321114 -0.35736842157253651 0 -0.0024102202140195059 -0.37948693688002788 0 -0.010927830869076321 -0.37799689357352151 0 -0.01318778385321114 -0.35736842157253651 0 -0.0024102202140195059 -0.37948693688002788 0 -0.01318778385321114 -0.35736842157253651 0 -0.010927830869076321 -0.37799689357352151 0 -0.01318778385321114 -0.35736842157253651 0 -0.0024102202140195059 -0.37948693688002788 0 0.01545541296792622 -0.35461438492857311 0 -0.0024102202140195059 -0.37948693688002788 0 -0.010927830869076321 -0.37799689357352151 0 -0.0024102202140195059 -0.37948693688002788 0 -0.010927830869076321 -0.37799689357352151 0 0.00014117791405256379 -0.38472310531667142 0 -0.010927830869076321 -0.37799689357352151 0 -0.0083598813377065428 -0.40143670642789148 0 0.00014117791405256379 -0.38472310531667142 0 -0.010927830869076321 -0.37799689357352151 0 -0.0083598813377065428 -0.40143670642789148 0 -0.0024102202140195059 -0.37948693688002788 0 0.0023783755119446211 -0.38032463835499941 0 -0.0024102202140195059 -0.37948693688002788 0 0.00014117791405256379 -0.38472310531667142 0 -0.010927830869076321 -0.37799689357352151 0 -0.0083598813377065428 -0.40143670642789148 0 -0.019657844431308909 -0.39641326729500398 0 -0.0083598813377065428 -0.40143670642789148 0 0.00014117791405256379 -0.38472310531667142 0 -0.0083598813377065428 -0.40143670642789148 0 -0.019657844431308909 -0.39641326729500398 0 -0.023369551806951071 -0.40826308940957612 0 -0.019657844431308909 -0.39641326729500398 0 -0.024671164267109389 -0.3870493122089414 0 -0.03338609232365905 -0.39230373246515138 0 -0.019657844431308909 -0.39641326729500398 0 -0.03338609232365905 -0.39230373246515138 0 -0.033697655402533597 -0.40335699322574331 0 -0.019657844431308909 -0.39641326729500398 0 -0.033697655402533597 -0.40335699322574331 0 -0.023369551806951071 -0.40826308940957612 0 -0.010927830869076321 -0.37799689357352151 0 -0.019657844431308909 -0.39641326729500398 0 -0.024671164267109389 -0.3870493122089414 0 -0.038879453300067347 -0.37310712699509069 0 -0.010927830869076321 -0.37799689357352151 0 -0.010927830869076321 -0.37799689357352151 0 -0.024671164267109389 -0.3870493122089414 0 -0.032806162284348073 -0.38246624356683051 0 -0.038879453300067347 -0.37310712699509069 0 -0.010927830869076321 -0.37799689357352151 0 -0.032806162284348073 -0.38246624356683051 0 -0.024671164267109389 -0.3870493122089414 0 -0.032806162284348073 -0.38246624356683051 0 -0.03338609232365905 -0.39230373246515138 0 -0.038879453300067347 -0.37310712699509069 0 -0.032806162284348073 -0.38246624356683051 0 -0.04123048569355349 -0.38044028747324499 0 -0.04123048569355349 -0.38044028747324499 0 -0.042774075360224532 -0.38705697881403323 0 -0.050462251829573992 -0.37913080051702591 0 -0.038879453300067347 -0.37310712699509069 0 -0.04123048569355349 -0.38044028747324499 0 -0.050462251829573992 -0.37913080051702591 0 -0.032806162284348073 -0.38246624356683051 0 -0.04123048569355349 -0.38044028747324499 0 -0.042774075360224532 -0.38705697881403323 0 -0.032806162284348073 -0.38246624356683051 0 -0.042774075360224532 -0.38705697881403323 0 -0.03338609232365905 -0.39230373246515138 0 -0.03338609232365905 -0.39230373246515138 0 -0.033697655402533597 -0.40335699322574331 0 -0.046709652196429842 -0.39747959968035629 0 -0.033697655402533597 -0.40335699322574331 0 -0.046709652196429842 -0.39747959968035629 0 -0.044113378449205397 -0.40962291633795928 0 -0.042774075360224532 -0.38705697881403323 0 -0.03338609232365905 -0.39230373246515138 0 -0.046709652196429842 -0.39747959968035629 0 -0.0551555910819213 -0.40584962304851468 0 -0.058147249591051699 -0.39016072049415168 0 -0.072297310564672604 -0.40604876458979361 0 -0.042774075360224532 -0.38705697881403323 0 -0.046709652196429842 -0.39747959968035629 0 -0.058147249591051699 -0.39016072049415168 0 -0.046709652196429842 -0.39747959968035629 0 -0.0551555910819213 -0.40584962304851468 0 -0.058147249591051699 -0.39016072049415168 0 -0.046709652196429842 -0.39747959968035629 0 -0.0551555910819213 -0.40584962304851468 0 -0.044113378449205397 -0.40962291633795928 0 -0.058147249591051699 -0.39016072049415168 0 -0.061642478720483521 -0.37961230380905531 0 -0.050462251829573992 -0.37913080051702591 0 -0.066831075731058426 -0.36821736041666042 0 -0.061642478720483521 -0.37961230380905531 0 -0.050462251829573992 -0.37913080051702591 0 -0.042774075360224532 -0.38705697881403323 0 -0.058147249591051699 -0.39016072049415168 0 -0.050462251829573992 -0.37913080051702591 0 -0.0551555910819213 -0.40584962304851468 0 -0.054218214580059307 -0.42639048404150692 0 -0.072297310564672604 -0.40604876458979361 0 -0.0551555910819213 -0.40584962304851468 0 -0.054218214580059307 -0.42639048404150692 0 -0.044113378449205397 -0.40962291633795928 0 -0.054218214580059307 -0.42639048404150692 0 -0.044113378449205397 -0.40962291633795928 0 -0.035020148224450702 -0.41722713339073669 0 -0.033697655402533597 -0.40335699322574331 0 -0.044113378449205397 -0.40962291633795928 0 -0.035020148224450702 -0.41722713339073669 0 -0.054218214580059307 -0.42639048404150692 0 -0.036139118595445947 -0.44673220349322018 0 -0.054218214580059307 -0.42639048404150692 0 -0.035363599074610827 -0.43196503111631612 0 -0.036139118595445947 -0.44673220349322018 0 -0.054218214580059307 -0.42639048404150692 0 -0.035020148224450702 -0.41722713339073669 0 -0.035363599074610827 -0.43196503111631612 0 -0.01984408283602378 -0.42401534718775191 0 -0.031328284334341802 -0.44659398794761201 0 -0.01984408283602378 -0.42401534718775191 0 -0.01650121057911659 -0.43592284220880639 0 -0.02251836002202114 -0.44133264881792161 0 -0.01984408283602378 -0.42401534718775191 0 -0.02251836002202114 -0.44133264881792161 0 -0.031328284334341802 -0.44659398794761201 0 -0.035363599074610827 -0.43196503111631612 0 -0.01984408283602378 -0.42401534718775191 0 -0.031328284334341802 -0.44659398794761201 0 -0.035020148224450702 -0.41722713339073669 0 -0.035363599074610827 -0.43196503111631612 0 -0.01984408283602378 -0.42401534718775191 0 -0.01984408283602378 -0.42401534718775191 0 -0.01650121057911659 -0.43592284220880639 0 -0.012007148298583931 -0.42719589782541972 0 -0.035020148224450702 -0.41722713339073669 0 -0.01984408283602378 -0.42401534718775191 0 -0.023369551806951071 -0.40826308940957612 0 -0.0083598813377065428 -0.40143670642789148 0 -0.01984408283602378 -0.42401534718775191 0 -0.023369551806951071 -0.40826308940957612 0 -0.033697655402533597 -0.40335699322574331 0 -0.035020148224450702 -0.41722713339073669 0 -0.023369551806951071 -0.40826308940957612 0 -0.0083598813377065428 -0.40143670642789148 0 -0.01984408283602378 -0.42401534718775191 0 -0.0083598813377065428 -0.40143670642789148 0 -0.01984408283602378 -0.42401534718775191 0 -0.0066810603723008732 -0.41676070277767069 0 -0.0066810603723008732 -0.41676070277767069 0 0.0037417901428385579 -0.41882230129761472 0 0.001888367606252044 -0.41113361882236621 0 -0.0066810603723008732 -0.41676070277767069 0 0.0037417901428385579 -0.41882230129761472 0 0.0014429593824763661 -0.42588013494941718 0 -0.0083598813377065428 -0.40143670642789148 0 -0.0066810603723008732 -0.41676070277767069 0 -0.0083598813377065428 -0.40143670642789148 0 -0.0066810603723008732 -0.41676070277767069 0 0.001888367606252044 -0.41113361882236621 0 -0.01650121057911659 -0.43592284220880639 0 -0.0050022394068944898 -0.43208469912744968 0 -0.0076618514110308516 -0.43911061028330012 0 -0.01650121057911659 -0.43592284220880639 0 -0.012007148298583931 -0.42719589782541972 0 -0.0050022394068944898 -0.43208469912744968 0 -0.0066810603723008732 -0.41676070277767069 0 -0.012007148298583931 -0.42719589782541972 0 -0.0050022394068944898 -0.43208469912744968 0 -0.01984408283602378 -0.42401534718775191 0 -0.0066810603723008732 -0.41676070277767069 0 -0.012007148298583931 -0.42719589782541972 0 -0.0066810603723008732 -0.41676070277767069 0 -0.0050022394068944898 -0.43208469912744968 0 -0.0066810603723008732 -0.41676070277767069 0 -0.0050022394068944898 -0.43208469912744968 0 0.0014429593824763661 -0.42588013494941718 0 -0.0050022394068944898 -0.43208469912744968 0 -0.0076618514110308516 -0.43911061028330012 0 0.0044305844222376489 -0.43482972146128068 0 -0.0076618514110308516 -0.43911061028330012 0 -0.008490975700803146 -0.4496147156109509 0 0.0044305844222376489 -0.43482972146128068 0 -0.008490975700803146 -0.4496147156109509 0 0.0044305844222376489 -0.43482972146128068 0 -0.0076618514110308516 -0.43911061028330012 0 -0.013451715807841731 -0.44347299961132919 0 -0.008490975700803146 -0.4496147156109509 0 -0.01650121057911659 -0.43592284220880639 0 -0.0076618514110308516 -0.43911061028330012 0 -0.013451715807841731 -0.44347299961132919 0 -0.01255281028239112 -0.45117680618868589 0 -0.0116355677617331 -0.45321279314812402 0 -0.01681511019867191 -0.45281599124287408 0 -0.01255281028239112 -0.45117680618868589 0 -0.01681511019867191 -0.45281599124287408 0 -0.01255281028239112 -0.45117680618868589 0 -0.015361755633898881 -0.45025057895139048 0 -0.01681511019867191 -0.45281599124287408 0 -0.01255281028239112 -0.45117680618868589 0 -0.014074111968911651 -0.4477999998093819 0 -0.01255281028239112 -0.45117680618868589 0 -0.0116355677617331 -0.45321279314812402 0 -0.01255281028239112 -0.45117680618868589 0 -0.015361755633898881 -0.45025057895139048 0 -0.014074111968911651 -0.4477999998093819 0 -0.013451715807841731 -0.44347299961132919 0 -0.014074111968911651 -0.4477999998093819 0 -0.008490975700803146 -0.4496147156109509 0 -0.013451715807841731 -0.44347299961132919 0 -0.014074111968911651 -0.4477999998093819 0 -0.01718570894970162 -0.44632480282174208 0 -0.01255281028239112 -0.45117680618868589 0 -0.008490975700803146 -0.4496147156109509 0 -0.0116355677617331 -0.45321279314812402 0 -0.01255281028239112 -0.45117680618868589 0 -0.008490975700803146 -0.4496147156109509 0 -0.008490975700803146 -0.4496147156109509 0 -0.01029821574952919 -0.45618128969696559 0 -0.0116355677617331 -0.45321279314812402 0 -0.01255281028239112 -0.45117680618868589 0 -0.014074111968911651 -0.4477999998093819 0 -0.008490975700803146 -0.4496147156109509 0 -0.008490975700803146 -0.4496147156109509 0 -0.0116355677617331 -0.45321279314812402 0 -0.01029821574952919 -0.45618128969696559 0 0.0041693236073766524 -0.4638961273049339 0 0.001367869583954965 -0.48207629245983707 0 -0.01029821574952919 -0.45618128969696559 0 -0.016331891731677119 -0.45858637975526662 0 0.001367869583954965 -0.48207629245983707 0 -0.008490975700803146 -0.4496147156109509 0 -0.01029821574952919 -0.45618128969696559 0 0.0031161620136742289 -0.45530284170723789 0 -0.01029821574952919 -0.45618128969696559 0 0.0041693236073766524 -0.4638961273049339 0 0.0031161620136742289 -0.45530284170723789 0 -0.01029821574952919 -0.45618128969696559 0 -0.0116355677617331 -0.45321279314812402 0 -0.01029821574952919 -0.45618128969696559 0 -0.016331891731677119 -0.45858637975526662 0 -0.01029821574952919 -0.45618128969696559 0 -0.0116355677617331 -0.45321279314812402 0 -0.016331891731677119 -0.45858637975526662 0 -0.0116355677617331 -0.45321279314812402 0 -0.016331891731677119 -0.45858637975526662 0 -0.01681511019867191 -0.45281599124287408 0 -0.0116355677617331 -0.45321279314812402 0 -0.016331891731677119 -0.45858637975526662 0 -0.016331891731677119 -0.45858637975526662 0 -0.033820549495001517 -0.46555755239431668 0 -0.016331891731677119 -0.45858637975526662 0 -0.01681511019867191 -0.45281599124287408 0 -0.021586983551244911 -0.45248135458448929 0 -0.016331891731677119 -0.45858637975526662 0 -0.026746410842477919 -0.45594391009222662 0 -0.033820549495001517 -0.46555755239431668 0 -0.016331891731677119 -0.45858637975526662 0 -0.026746410842477919 -0.45594391009222662 0 -0.021586983551244911 -0.45248135458448929 0 -0.016331891731677119 -0.45858637975526662 0 -0.026356392986138961 -0.47005652662524738 0 -0.033820549495001517 -0.46555755239431668 0 -0.016331891731677119 -0.45858637975526662 0 -0.026356392986138961 -0.47005652662524738 0 -0.026746410842477919 -0.45594391009222662 0 -0.02703885549651178 -0.45032221943997758 0 -0.033538010235697323 -0.45347447186390399 0 -0.02703885549651178 -0.45032221943997758 0 -0.02251836002202114 -0.44133264881792161 0 -0.031328284334341802 -0.44659398794761201 0 -0.02703885549651178 -0.45032221943997758 0 -0.031328284334341802 -0.44659398794761201 0 -0.033538010235697323 -0.45347447186390399 0 -0.02703885549651178 -0.45032221943997758 0 -0.02251836002202114 -0.44133264881792161 0 -0.02149425846464522 -0.44753103147462397 0 -0.026746410842477919 -0.45594391009222662 0 -0.02703885549651178 -0.45032221943997758 0 -0.021586983551244911 -0.45248135458448929 0 -0.02251836002202114 -0.44133264881792161 0 -0.018903468421487699 -0.44361046464875797 0 -0.02149425846464522 -0.44753103147462397 0 -0.01650121057911659 -0.43592284220880639 0 -0.02251836002202114 -0.44133264881792161 0 -0.018903468421487699 -0.44361046464875797 0 -0.01650121057911659 -0.43592284220880639 0 -0.013451715807841731 -0.44347299961132919 0 -0.018903468421487699 -0.44361046464875797 0 -0.013451715807841731 -0.44347299961132919 0 -0.018903468421487699 -0.44361046464875797 0 -0.01718570894970162 -0.44632480282174208 0 -0.015361755633898881 -0.45025057895139048 0 -0.014074111968911651 -0.4477999998093819 0 -0.018004990085621821 -0.44920951856461749 0 -0.018903468421487699 -0.44361046464875797 0 -0.01718570894970162 -0.44632480282174208 0 -0.02149425846464522 -0.44753103147462397 0 -0.014074111968911651 -0.4477999998093819 0 -0.01718570894970162 -0.44632480282174208 0 -0.018004990085621821 -0.44920951856461749 0 -0.01718570894970162 -0.44632480282174208 0 -0.018004990085621821 -0.44920951856461749 0 -0.02149425846464522 -0.44753103147462397 0 -0.018004990085621821 -0.44920951856461749 0 -0.01681511019867191 -0.45281599124287408 0 -0.021586983551244911 -0.45248135458448929 0 -0.015361755633898881 -0.45025057895139048 0 -0.018004990085621821 -0.44920951856461749 0 -0.01681511019867191 -0.45281599124287408 0 -0.02703885549651178 -0.45032221943997758 0 -0.021586983551244911 -0.45248135458448929 0 -0.02149425846464522 -0.44753103147462397 0 -0.018004990085621821 -0.44920951856461749 0 -0.021586983551244911 -0.45248135458448929 0 -0.02149425846464522 -0.44753103147462397 0 -0.01224194784849769 -0.5 0 -0.027121754396197711 -0.4910381462299207 0 0.001367869583954965 -0.48207629245983707 0 -0.01224194784849769 -0.5 0 0.001367869583954965 -0.48207629245983707 0 0.0094427674154289355 -0.49999999999999828 0 -0.027121754396197711 -0.4910381462299207 0 0.001367869583954965 -0.48207629245983707 0 -0.016331891731677119 -0.45858637975526662 0 -0.026356392986138961 -0.47005652662524738 0 0.001367869583954965 -0.48207629245983707 0 -0.01029821574952919 -0.45618128969696559 0 0.001367869583954965 -0.48207629245983707 0 -0.026356392986138961 -0.47005652662524738 0 -0.024240963899265791 -0.48078677838110551 0 0.001367869583954965 -0.48207629245983707 0 -0.026356392986138961 -0.47005652662524738 0 -0.024240963899265791 -0.48078677838110551 0 -0.036380894240600842 -0.48152667349522821 0 -0.024240963899265791 -0.48078677838110551 0 -0.027121754396197711 -0.4910381462299207 0 0.001367869583954965 -0.48207629245983707 0 -0.01224194784849769 -0.5 0 -0.027121754396197711 -0.4910381462299207 0 -0.033926663112424371 -0.5 0 -0.024240963899265791 -0.48078677838110551 0 -0.027121754396197711 -0.4910381462299207 0 -0.036380894240600842 -0.48152667349522821 0 -0.027121754396197711 -0.4910381462299207 0 -0.036380894240600842 -0.48152667349522821 0 -0.050356612065808062 -0.49834703163145372 0 -0.027121754396197711 -0.4910381462299207 0 -0.033926663112424371 -0.5 0 -0.050356612065808062 -0.49834703163145372 0 -0.033926663112424371 -0.5 0 -0.055611378376350981 -0.50000000000000222 0 -0.050356612065808062 -0.49834703163145372 0 -0.036380894240600842 -0.48152667349522821 0 -0.050356612065808062 -0.49834703163145372 0 -0.027121754396197711 -0.4910381462299207 0 -0.050356612065808062 -0.49834703163145372 0 -0.036380894240600842 -0.48152667349522821 0 -0.048689749437282853 -0.48506544017766851 0 -0.050356612065808062 -0.49834703163145372 0 -0.026356392986138961 -0.47005652662524738 0 -0.036380894240600842 -0.48152667349522821 0 -0.033820549495001517 -0.46555755239431668 0 -0.036380894240600842 -0.48152667349522821 0 -0.051309207258326342 -0.47252872503336563 0 -0.033820549495001517 -0.46555755239431668 0 -0.051309207258326342 -0.47252872503336563 0 -0.033820549495001517 -0.46555755239431668 0 -0.036380894240600842 -0.48152667349522821 0 -0.051309207258326342 -0.47252872503336563 0 -0.036380894240600842 -0.48152667349522821 0 -0.051309207258326342 -0.47252872503336563 0 -0.048689749437282853 -0.48506544017766851 0 -0.026356392986138961 -0.47005652662524738 0 -0.036380894240600842 -0.48152667349522821 0 -0.051309207258326342 -0.47252872503336563 0 -0.048689749437282853 -0.48506544017766851 0 -0.066701945032644372 -0.47866444075635561 0 -0.051309207258326342 -0.47252872503336563 0 -0.066701945032644372 -0.47866444075635561 0 -0.048689749437282853 -0.48506544017766851 0 -0.057500777082941483 -0.49039098911510359 0 -0.066701945032644372 -0.47866444075635561 0 -0.048689749437282853 -0.48506544017766851 0 -0.057500777082941483 -0.49039098911510359 0 -0.050356612065808062 -0.49834703163145372 0 -0.057500777082941483 -0.49039098911510359 0 -0.055611378376350981 -0.50000000000000222 0 -0.068865021937374274 -0.4907597829570331 0 -0.057500777082941483 -0.49039098911510359 0 -0.055611378376350981 -0.50000000000000222 0 -0.050356612065808062 -0.49834703163145372 0 -0.055611378376350981 -0.50000000000000222 0 -0.050356612065808062 -0.49834703163145372 0 -0.036139118595445947 -0.44673220349322018 0 -0.043579529734614597 -0.45399189962866349 0 -0.053234007280709823 -0.4465236931645134 0 -0.035363599074610827 -0.43196503111631612 0 -0.031328284334341802 -0.44659398794761201 0 -0.036139118595445947 -0.44673220349322018 0 -0.031328284334341802 -0.44659398794761201 0 -0.036139118595445947 -0.44673220349322018 0 -0.033538010235697323 -0.45347447186390399 0 -0.036139118595445947 -0.44673220349322018 0 -0.033538010235697323 -0.45347447186390399 0 -0.043579529734614597 -0.45399189962866349 0 -0.033820549495001517 -0.46555755239431668 0 -0.043579529734614597 -0.45399189962866349 0 -0.052393719649876623 -0.46038501598059262 0 -0.051309207258326342 -0.47252872503336563 0 -0.033820549495001517 -0.46555755239431668 0 -0.052393719649876623 -0.46038501598059262 0 -0.026746410842477919 -0.45594391009222662 0 -0.033538010235697323 -0.45347447186390399 0 -0.033820549495001517 -0.46555755239431668 0 -0.033538010235697323 -0.45347447186390399 0 -0.033820549495001517 -0.46555755239431668 0 -0.043579529734614597 -0.45399189962866349 0 -0.043579529734614597 -0.45399189962866349 0 -0.052393719649876623 -0.46038501598059262 0 -0.053234007280709823 -0.4465236931645134 0 -0.052393719649876623 -0.46038501598059262 0 -0.064481252267154052 -0.45046958483117172 0 -0.069959736108534232 -0.46128723396994592 0 -0.051309207258326342 -0.47252872503336563 0 -0.052393719649876623 -0.46038501598059262 0 -0.069959736108534232 -0.46128723396994592 0 -0.051309207258326342 -0.47252872503336563 0 -0.069959736108534232 -0.46128723396994592 0 -0.053234007280709823 -0.4465236931645134 0 -0.066951430684022123 -0.4400502516403515 0 -0.064481252267154052 -0.45046958483117172 0 -0.052393719649876623 -0.46038501598059262 0 -0.053234007280709823 -0.4465236931645134 0 -0.064481252267154052 -0.45046958483117172 0 -0.054218214580059307 -0.42639048404150692 0 -0.053234007280709823 -0.4465236931645134 0 -0.066951430684022123 -0.4400502516403515 0 -0.054218214580059307 -0.42639048404150692 0 -0.036139118595445947 -0.44673220349322018 0 -0.053234007280709823 -0.4465236931645134 0 -0.064481252267154052 -0.45046958483117172 0 -0.069959736108534232 -0.46128723396994592 0 -0.079867367612627457 -0.444101729400455 0 -0.066951430684022123 -0.4400502516403515 0 -0.064481252267154052 -0.45046958483117172 0 -0.079867367612627457 -0.444101729400455 0 -0.069959736108534232 -0.46128723396994592 0 -0.076327050712074906 -0.47369167445618299 0 -0.08655183890015819 -0.47001486661908631 0 -0.069959736108534232 -0.46128723396994592 0 -0.088116979812619178 -0.45960192199045258 0 -0.08861026495874301 -0.45004574290652782 0 -0.069959736108534232 -0.46128723396994592 0 -0.08861026495874301 -0.45004574290652782 0 -0.069959736108534232 -0.46128723396994592 0 -0.088116979812619178 -0.45960192199045258 0 -0.08655183890015819 -0.47001486661908631 0 -0.088116979812619178 -0.45960192199045258 0 -0.08655183890015819 -0.47001486661908631 0 -0.099185142554807065 -0.4635838094670659 0 -0.088116979812619178 -0.45960192199045258 0 -0.08861026495874301 -0.45004574290652782 0 -0.09835169684233469 -0.45264426994471768 0 -0.069959736108534232 -0.46128723396994592 0 -0.08861026495874301 -0.45004574290652782 0 -0.079867367612627457 -0.444101729400455 0 -0.08861026495874301 -0.45004574290652782 0 -0.090317093083776043 -0.4457057207167367 0 -0.079867367612627457 -0.444101729400455 0 -0.090317093083776043 -0.4457057207167367 0 -0.079867367612627457 -0.444101729400455 0 -0.08040008341822287 -0.42830401303419752 0 -0.055611378376350981 -0.50000000000000222 0 -0.068865021937374274 -0.4907597829570331 0 -0.083023122295300567 -0.5 0 -0.057500777082941483 -0.49039098911510359 0 -0.068865021937374274 -0.4907597829570331 0 -0.066701945032644372 -0.47866444075635561 0 -0.068865021937374274 -0.4907597829570331 0 -0.066701945032644372 -0.47866444075635561 0 -0.082094682806962804 -0.48480015647934432 0 -0.068865021937374274 -0.4907597829570331 0 -0.082094682806962804 -0.48480015647934432 0 -0.083023122295300567 -0.5 0 -0.069959736108534232 -0.46128723396994592 0 -0.066701945032644372 -0.47866444075635561 0 -0.076327050712074906 -0.47369167445618299 0 -0.051309207258326342 -0.47252872503336563 0 -0.069959736108534232 -0.46128723396994592 0 -0.066701945032644372 -0.47866444075635561 0 -0.066701945032644372 -0.47866444075635561 0 -0.082094682806962804 -0.48480015647934432 0 -0.066701945032644372 -0.47866444075635561 0 -0.076327050712074906 -0.47369167445618299 0 -0.082094682806962804 -0.48480015647934432 0 -0.08655183890015819 -0.47001486661908631 0 -0.082094682806962804 -0.48480015647934432 0 -0.1007027674216751 -0.48048124152417859 0 -0.076327050712074906 -0.47369167445618299 0 -0.08655183890015819 -0.47001486661908631 0 -0.082094682806962804 -0.48480015647934432 0 -0.082094682806962804 -0.48480015647934432 0 -0.094063859684547127 -0.49132034950088072 0 -0.1007027674216751 -0.48048124152417859 0 -0.082094682806962804 -0.48480015647934432 0 -0.083023122295300567 -0.5 0 -0.094063859684547127 -0.49132034950088072 0 -0.094063859684547127 -0.49132034950088072 0 -0.1007027674216751 -0.48048124152417859 0 -0.1104348662142501 -0.5 0 -0.083023122295300567 -0.5 0 -0.094063859684547127 -0.49132034950088072 0 -0.1104348662142501 -0.5 0 -0.1007027674216751 -0.48048124152417859 0 -0.099185142554807065 -0.4635838094670659 0 -0.1139086824606783 -0.46800107343514541 0 -0.08655183890015819 -0.47001486661908631 0 -0.1007027674216751 -0.48048124152417859 0 -0.099185142554807065 -0.4635838094670659 0 -0.1333849372163978 -0.47471362282386792 0 -0.1192555726892402 -0.48463918755663837 0 -0.1139086824606783 -0.46800107343514541 0 -0.1007027674216751 -0.48048124152417859 0 -0.1192555726892402 -0.48463918755663837 0 -0.1139086824606783 -0.46800107343514541 0 -0.13784661013319971 -0.5 0 -0.1192555726892402 -0.48463918755663837 0 -0.1104348662142501 -0.5 0 -0.1007027674216751 -0.48048124152417859 0 -0.1192555726892402 -0.48463918755663837 0 -0.1104348662142501 -0.5 0 -0.08861026495874301 -0.45004574290652782 0 -0.1072607938089518 -0.43880425184310962 0 -0.09835169684233469 -0.45264426994471768 0 -0.08861026495874301 -0.45004574290652782 0 -0.1072607938089518 -0.43880425184310962 0 -0.08861026495874301 -0.45004574290652782 0 -0.090317093083776043 -0.4457057207167367 0 -0.1072607938089518 -0.43880425184310962 0 -0.1085675833704421 -0.45215169876741029 0 -0.1072607938089518 -0.43880425184310962 0 -0.09835169684233469 -0.45264426994471768 0 -0.1085675833704421 -0.45215169876741029 0 -0.099185142554807065 -0.4635838094670659 0 -0.1139086824606783 -0.46800107343514541 0 -0.088116979812619178 -0.45960192199045258 0 -0.09835169684233469 -0.45264426994471768 0 -0.099185142554807065 -0.4635838094670659 0 -0.1085675833704421 -0.45215169876741029 0 -0.09835169684233469 -0.45264426994471768 0 -0.099185142554807065 -0.4635838094670659 0 -0.1333849372163978 -0.47471362282386792 0 -0.1139086824606783 -0.46800107343514541 0 -0.1238798396010229 -0.45145108631290121 0 -0.1085675833704421 -0.45215169876741029 0 -0.1139086824606783 -0.46800107343514541 0 -0.1238798396010229 -0.45145108631290121 0 -0.1085675833704421 -0.45215169876741029 0 -0.1072607938089518 -0.43880425184310962 0 -0.1238798396010229 -0.45145108631290121 0 -0.1272513015055963 -0.42741432619112268 0 -0.1072607938089518 -0.43880425184310962 0 -0.1238798396010229 -0.45145108631290121 0 -0.1272513015055963 -0.42741432619112268 0 -0.1072607938089518 -0.43880425184310962 0 -0.1062573022960525 -0.42327972194143548 0 -0.090317093083776043 -0.4457057207167367 0 -0.1062573022960525 -0.42327972194143548 0 -0.09185108153252787 -0.41740785450449319 0 -0.090317093083776043 -0.4457057207167367 0 -0.1072607938089518 -0.43880425184310962 0 -0.1062573022960525 -0.42327972194143548 0 -0.1062573022960525 -0.42327972194143548 0 -0.110318185743438 -0.40826215724168619 0 -0.09185108153252787 -0.41740785450449319 0 -0.1272513015055963 -0.42741432619112268 0 -0.1062573022960525 -0.42327972194143548 0 -0.110318185743438 -0.40826215724168619 0 -0.1344747685878542 -0.40636486414581863 0 -0.1272513015055963 -0.42741432619112268 0 -0.110318185743438 -0.40826215724168619 0 -0.1272513015055963 -0.42741432619112268 0 -0.110318185743438 -0.40826215724168619 0 -0.1344747685878542 -0.40636486414581863 0 -0.110318185743438 -0.40826215724168619 0 -0.12181778925575371 -0.39844338388870459 0 -0.12181778925575371 -0.39844338388870459 0 -0.1155262888794595 -0.38500891988252223 0 -0.10877501563669981 -0.39336423141235111 0 -0.110318185743438 -0.40826215724168619 0 -0.12181778925575371 -0.39844338388870459 0 -0.10877501563669981 -0.39336423141235111 0 -0.13403561704002739 -0.37499600363270391 0 -0.12181778925575371 -0.39844338388870459 0 -0.1155262888794595 -0.38500891988252223 0 -0.13403561704002739 -0.37499600363270391 0 -0.1194655843371064 -0.37170674531406622 0 -0.1155262888794595 -0.38500891988252223 0 -0.1194655843371064 -0.37170674531406622 0 -0.1155262888794595 -0.38500891988252223 0 -0.10965655944320379 -0.37751452663088791 0 -0.10965655944320379 -0.37751452663088791 0 -0.10275488784813849 -0.37862820044229212 0 -0.1028277443235682 -0.38599670775659273 0 -0.1155262888794595 -0.38500891988252223 0 -0.10965655944320379 -0.37751452663088791 0 -0.1028277443235682 -0.38599670775659273 0 -0.1028277443235682 -0.38599670775659273 0 -0.10877501563669981 -0.39336423141235111 0 -0.093385069981279739 -0.38910998829224969 0 -0.1155262888794595 -0.38500891988252223 0 -0.1028277443235682 -0.38599670775659273 0 -0.10877501563669981 -0.39336423141235111 0 -0.1028277443235682 -0.38599670775659273 0 -0.097523627466843232 -0.38410956769445748 0 -0.093385069981279739 -0.38910998829224969 0 -0.097523627466843232 -0.38410956769445748 0 -0.093776947756166823 -0.381880921571215 0 -0.093385069981279739 -0.38910998829224969 0 -0.10275488784813849 -0.37862820044229212 0 -0.1028277443235682 -0.38599670775659273 0 -0.097523627466843232 -0.38410956769445748 0 -0.10275488784813849 -0.37862820044229212 0 -0.097523627466843232 -0.38410956769445748 0 -0.093776947756166823 -0.381880921571215 0 -0.110318185743438 -0.40826215724168619 0 -0.093385069981279739 -0.38910998829224969 0 -0.09185108153252787 -0.41740785450449319 0 -0.110318185743438 -0.40826215724168619 0 -0.10877501563669981 -0.39336423141235111 0 -0.093385069981279739 -0.38910998829224969 0 -0.110318185743438 -0.40826215724168619 0 -0.093385069981279739 -0.38910998829224969 0 -0.09037640654928572 -0.38570704513808018 0 -0.072297310564672604 -0.40604876458979361 0 -0.086977467156941518 -0.39956841313115421 0 -0.09037640654928572 -0.38570704513808018 0 -0.072297310564672604 -0.40604876458979361 0 -0.09037640654928572 -0.38570704513808018 0 -0.072297310564672604 -0.40604876458979361 0 -0.076103244414677862 -0.39122642922788298 0 -0.086977467156941518 -0.39956841313115421 0 -0.093385069981279739 -0.38910998829224969 0 -0.09185108153252787 -0.41740785450449319 0 -0.093385069981279739 -0.38910998829224969 0 -0.09185108153252787 -0.41740785450449319 0 -0.086977467156941518 -0.39956841313115421 0 -0.09037640654928572 -0.38570704513808018 0 -0.093385069981279739 -0.38910998829224969 0 -0.089305959140282082 -0.37854940860711239 0 -0.09037640654928572 -0.38570704513808018 0 -0.083329875418187399 -0.37773707926612882 0 -0.09037640654928572 -0.38570704513808018 0 -0.083329875418187399 -0.37773707926612882 0 -0.089943019202137098 -0.37281061204415589 0 -0.093776947756166823 -0.381880921571215 0 -0.089305959140282082 -0.37854940860711239 0 -0.089943019202137098 -0.37281061204415589 0 -0.089305959140282082 -0.37854940860711239 0 -0.083329875418187399 -0.37773707926612882 0 -0.093776947756166823 -0.381880921571215 0 -0.089305959140282082 -0.37854940860711239 0 -0.09037640654928572 -0.38570704513808018 0 -0.093776947756166823 -0.381880921571215 0 -0.09037640654928572 -0.38570704513808018 0 -0.093385069981279739 -0.38910998829224969 0 -0.093776947756166823 -0.381880921571215 0 -0.093385069981279739 -0.38910998829224969 0 -0.093776947756166823 -0.381880921571215 0 -0.09037640654928572 -0.38570704513808018 0 -0.09037640654928572 -0.38570704513808018 0 -0.093385069981279739 -0.38910998829224969 0 -0.09037640654928572 -0.38570704513808018 0 -0.08023471602810027 -0.3839027218601187 0 -0.076103244414677862 -0.39122642922788298 0 -0.09037640654928572 -0.38570704513808018 0 -0.08023471602810027 -0.3839027218601187 0 -0.083329875418187399 -0.37773707926612882 0 -0.08023471602810027 -0.3839027218601187 0 -0.083329875418187399 -0.37773707926612882 0 -0.071129337730249931 -0.38094033380838282 0 -0.058147249591051699 -0.39016072049415168 0 -0.071129337730249931 -0.38094033380838282 0 -0.076103244414677862 -0.39122642922788298 0 -0.066831075731058426 -0.36821736041666042 0 -0.083329875418187399 -0.37773707926612882 0 -0.071129337730249931 -0.38094033380838282 0 -0.08023471602810027 -0.3839027218601187 0 -0.071129337730249931 -0.38094033380838282 0 -0.076103244414677862 -0.39122642922788298 0 -0.058147249591051699 -0.39016072049415168 0 -0.061642478720483521 -0.37961230380905531 0 -0.071129337730249931 -0.38094033380838282 0 -0.066831075731058426 -0.36821736041666042 0 -0.061642478720483521 -0.37961230380905531 0 -0.071129337730249931 -0.38094033380838282 0 -0.058147249591051699 -0.39016072049415168 0 -0.072297310564672604 -0.40604876458979361 0 -0.076103244414677862 -0.39122642922788298 0 -0.054218214580059307 -0.42639048404150692 0 -0.072297310564672604 -0.40604876458979361 0 -0.054218214580059307 -0.42639048404150692 0 -0.072297310564672604 -0.40604876458979361 0 -0.08040008341822287 -0.42830401303419752 0 -0.054218214580059307 -0.42639048404150692 0 -0.066951430684022123 -0.4400502516403515 0 -0.08040008341822287 -0.42830401303419752 0 -0.066951430684022123 -0.4400502516403515 0 -0.079867367612627457 -0.444101729400455 0 -0.08040008341822287 -0.42830401303419752 0 -0.090317093083776043 -0.4457057207167367 0 -0.08040008341822287 -0.42830401303419752 0 -0.09185108153252787 -0.41740785450449319 0 -0.090317093083776043 -0.4457057207167367 0 -0.09185108153252787 -0.41740785450449319 0 -0.086977467156941518 -0.39956841313115421 0 -0.072297310564672604 -0.40604876458979361 0 -0.09185108153252787 -0.41740785450449319 0 -0.072297310564672604 -0.40604876458979361 0 -0.08040008341822287 -0.42830401303419752 0 -0.09185108153252787 -0.41740785450449319 0 -0.086641807551452121 -0.089857706525528325 0 -0.076870533177213984 -0.074383303996146843 0 -0.1028073127484793 -0.072859735822044663 0 -0.076870533177213984 -0.074383303996146843 0 -0.084252087553963267 -0.06067082283520224 0 -0.074173749765407346 -0.058475782697109638 0 -0.076870533177213984 -0.074383303996146843 0 -0.1028073127484793 -0.072859735822044663 0 -0.084252087553963267 -0.06067082283520224 0 -0.076870533177213984 -0.074383303996146843 0 -0.050852896702191612 -0.066962526099834829 0 -0.076870533177213984 -0.074383303996146843 0 -0.060566372969535653 -0.0822265568142133 0 -0.050852896702191612 -0.066962526099834829 0 -0.076870533177213984 -0.074383303996146843 0 -0.062979033979982585 -0.060662167016319039 0 -0.050852896702191612 -0.066962526099834829 0 -0.076870533177213984 -0.074383303996146843 0 -0.074173749765407346 -0.058475782697109638 0 -0.062979033979982585 -0.060662167016319039 0 -0.086641807551452121 -0.089857706525528325 0 -0.076870533177213984 -0.074383303996146843 0 -0.070759443902044278 -0.097587538592102258 0 -0.070759443902044278 -0.097587538592102258 0 -0.060566372969535653 -0.0822265568142133 0 -0.057440915975040557 -0.098836331457202914 0 -0.076870533177213984 -0.074383303996146843 0 -0.070759443902044278 -0.097587538592102258 0 -0.060566372969535653 -0.0822265568142133 0 -0.070759443902044278 -0.097587538592102258 0 -0.063216140449193714 -0.114329922192949 0 -0.08337921075151683 -0.1149838923318863 0 -0.070759443902044278 -0.097587538592102258 0 -0.063216140449193714 -0.114329922192949 0 -0.057440915975040557 -0.098836331457202914 0 -0.063216140449193714 -0.114329922192949 0 -0.08337921075151683 -0.1149838923318863 0 -0.065789461201513452 -0.13882978760906159 0 -0.086641807551452121 -0.089857706525528325 0 -0.070759443902044278 -0.097587538592102258 0 -0.08337921075151683 -0.1149838923318863 0 -0.086641807551452121 -0.089857706525528325 0 -0.08337921075151683 -0.1149838923318863 0 -0.1016380324132333 -0.10034809147713381 0 -0.1016380324132333 -0.10034809147713381 0 -0.1070098198266619 -0.1238132019720993 0 -0.11545733997741971 -0.10929442453651091 0 -0.08337921075151683 -0.1149838923318863 0 -0.1016380324132333 -0.10034809147713381 0 -0.1070098198266619 -0.1238132019720993 0 -0.1070098198266619 -0.1238132019720993 0 -0.11545733997741971 -0.10929442453651091 0 -0.13092690364411441 -0.1265409505354686 0 -0.11545733997741971 -0.10929442453651091 0 -0.1178841669001897 -0.087472175321314793 0 -0.13065705509224121 -0.1037476996254531 0 -0.1016380324132333 -0.10034809147713381 0 -0.11545733997741971 -0.10929442453651091 0 -0.1178841669001897 -0.087472175321314793 0 -0.1016380324132333 -0.10034809147713381 0 -0.1178841669001897 -0.087472175321314793 0 -0.1028073127484793 -0.072859735822044663 0 -0.086641807551452121 -0.089857706525528325 0 -0.1016380324132333 -0.10034809147713381 0 -0.1028073127484793 -0.072859735822044663 0 -0.1028073127484793 -0.072859735822044663 0 -0.1091755819407214 -0.053660219032921563 0 -0.1028073127484793 -0.072859735822044663 0 -0.097582809850875973 -0.060108248346980517 0 -0.084252087553963267 -0.06067082283520224 0 -0.1028073127484793 -0.072859735822044663 0 -0.1187552070582093 -0.067549590777025603 0 -0.1091755819407214 -0.053660219032921563 0 -0.1178841669001897 -0.087472175321314793 0 -0.1028073127484793 -0.072859735822044663 0 -0.1187552070582093 -0.067549590777025603 0 -0.1178841669001897 -0.087472175321314793 0 -0.1187552070582093 -0.067549590777025603 0 -0.13633038379660131 -0.074063236049282374 0 -0.1187552070582093 -0.067549590777025603 0 -0.1091755819407214 -0.053660219032921563 0 -0.13032092173735429 -0.050714217477754273 0 -0.1155438511329643 -0.034460702243798817 0 -0.1091755819407214 -0.053660219032921563 0 -0.13032092173735429 -0.050714217477754273 0 -0.1155438511329643 -0.034460702243798817 0 -0.1091755819407214 -0.053660219032921563 0 -0.1155438511329643 -0.034460702243798817 0 -0.092108990325596607 -0.048460738020850123 0 -0.1155438511329643 -0.034460702243798817 0 -0.1006299473804472 -0.030831344517563 0 -0.092108990325596607 -0.048460738020850123 0 -0.1155438511329643 -0.034460702243798817 0 -0.1091755819407214 -0.053660219032921563 0 -0.092108990325596607 -0.048460738020850123 0 -0.1091755819407214 -0.053660219032921563 0 -0.097582809850875973 -0.060108248346980517 0 -0.092108990325596607 -0.048460738020850123 0 -0.1028073127484793 -0.072859735822044663 0 -0.1091755819407214 -0.053660219032921563 0 -0.097582809850875973 -0.060108248346980517 0 -0.12182524733560091 -0.015523096402856359 0 -0.1036825067246547 -0.0045004818770412319 0 -0.1140720588942809 0.0050049600080688426 0 -0.12182524733560091 -0.015523096402856359 0 -0.12854145031494629 0.0047253962359545196 0 -0.1140720588942809 0.0050049600080688426 0 -0.1155438511329643 -0.034460702243798817 0 -0.12182524733560091 -0.015523096402856359 0 -0.13098577720095919 -0.025235662709939741 0 -0.1155438511329643 -0.034460702243798817 0 -0.12182524733560091 -0.015523096402856359 0 -0.1006299473804472 -0.030831344517563 0 -0.12182524733560091 -0.015523096402856359 0 -0.1006299473804472 -0.030831344517563 0 -0.1155438511329643 -0.034460702243798817 0 -0.12182524733560091 -0.015523096402856359 0 -0.1155438511329643 -0.034460702243798817 0 -0.13098577720095919 -0.025235662709939741 0 -0.12182524733560091 -0.015523096402856359 0 -0.1006299473804472 -0.030831344517563 0 -0.1016276951379126 -0.016202240437041819 0 -0.1006299473804472 -0.030831344517563 0 -0.1016276951379126 -0.016202240437041819 0 -0.089368645926923201 -0.020903504980655421 0 -0.12182524733560091 -0.015523096402856359 0 -0.1016276951379126 -0.016202240437041819 0 -0.1036825067246547 -0.0045004818770412319 0 -0.1016276951379126 -0.016202240437041819 0 -0.1036825067246547 -0.0045004818770412319 0 -0.093508846051188102 -0.0061041289967056463 0 -0.1016276951379126 -0.016202240437041819 0 -0.093508846051188102 -0.0061041289967056463 0 -0.089368645926923201 -0.020903504980655421 0 -0.1036825067246547 -0.0045004818770412319 0 -0.093508846051188102 -0.0061041289967056463 0 -0.097977441946633964 0.0094916619937897833 0 -0.093508846051188102 -0.0061041289967056463 0 -0.081241390388413409 -0.0097144668808440832 0 -0.086234308810735433 0.0065585250410969426 0 -0.081241390388413409 -0.0097144668808440832 0 -0.071486712659171142 -0.0019413519117704699 0 -0.086234308810735433 0.0065585250410969426 0 -0.093508846051188102 -0.0061041289967056463 0 -0.081241390388413409 -0.0097144668808440832 0 -0.089368645926923201 -0.020903504980655421 0 -0.089368645926923201 -0.020903504980655421 0 -0.079136228461940794 -0.028404699364453681 0 -0.0775279980113176 -0.018691292064058299 0 -0.081241390388413409 -0.0097144668808440832 0 -0.089368645926923201 -0.020903504980655421 0 -0.0775279980113176 -0.018691292064058299 0 -0.1006299473804472 -0.030831344517563 0 -0.089368645926923201 -0.020903504980655421 0 -0.085324788840590443 -0.032662612314520327 0 -0.089368645926923201 -0.020903504980655421 0 -0.079136228461940794 -0.028404699364453681 0 -0.085324788840590443 -0.032662612314520327 0 -0.079136228461940794 -0.028404699364453681 0 -0.069532891256767954 -0.026399857353472219 0 -0.069599729700479424 -0.035646321806430382 0 -0.079136228461940794 -0.028404699364453681 0 -0.069532891256767954 -0.026399857353472219 0 -0.0775279980113176 -0.018691292064058299 0 -0.069532891256767954 -0.026399857353472219 0 -0.069852905135459331 -0.01706696828590943 0 -0.060060063693398162 -0.027139798754781091 0 -0.069532891256767954 -0.026399857353472219 0 -0.069599729700479424 -0.035646321806430382 0 -0.065550560416052256 -0.031547954520313289 0 -0.069532891256767954 -0.026399857353472219 0 -0.065550560416052256 -0.031547954520313289 0 -0.060060063693398162 -0.027139798754781091 0 -0.069852905135459331 -0.01706696828590943 0 -0.0775279980113176 -0.018691292064058299 0 -0.075027251548590371 -0.011853519785645569 0 -0.069532891256767954 -0.026399857353472219 0 -0.069852905135459331 -0.01706696828590943 0 -0.0775279980113176 -0.018691292064058299 0 -0.071486712659171142 -0.0019413519117704699 0 -0.060060063693398162 -0.027139798754781091 0 -0.069852905135459331 -0.01706696828590943 0 -0.071486712659171142 -0.0019413519117704699 0 -0.060060063693398162 -0.027139798754781091 0 -0.071486712659171142 -0.0019413519117704699 0 -0.061634002341188397 -0.01238985637472113 0 -0.060060063693398162 -0.027139798754781091 0 -0.081241390388413409 -0.0097144668808440832 0 -0.075027251548590371 -0.011853519785645569 0 -0.071486712659171142 -0.0019413519117704699 0 -0.081241390388413409 -0.0097144668808440832 0 -0.0775279980113176 -0.018691292064058299 0 -0.075027251548590371 -0.011853519785645569 0 -0.069852905135459331 -0.01706696828590943 0 -0.075027251548590371 -0.011853519785645569 0 -0.071486712659171142 -0.0019413519117704699 0 -0.071486712659171142 -0.0019413519117704699 0 -0.058512249514306398 -0.002368351541725492 0 -0.061634002341188397 -0.01238985637472113 0 -0.081241390388413409 -0.0097144668808440832 0 -0.071486712659171142 -0.0019413519117704699 0 -0.084252087553963267 -0.06067082283520224 0 -0.092108990325596607 -0.048460738020850123 0 -0.079434647425294047 -0.04613959263227032 0 -0.084252087553963267 -0.06067082283520224 0 -0.079434647425294047 -0.04613959263227032 0 -0.074173749765407346 -0.058475782697109638 0 -0.097582809850875973 -0.060108248346980517 0 -0.084252087553963267 -0.06067082283520224 0 -0.092108990325596607 -0.048460738020850123 0 -0.1006299473804472 -0.030831344517563 0 -0.092108990325596607 -0.048460738020850123 0 -0.079434647425294047 -0.04613959263227032 0 -0.1006299473804472 -0.030831344517563 0 -0.085324788840590443 -0.032662612314520327 0 -0.079434647425294047 -0.04613959263227032 0 -0.1006299473804472 -0.030831344517563 0 -0.079434647425294047 -0.04613959263227032 0 -0.085324788840590443 -0.032662612314520327 0 -0.079434647425294047 -0.04613959263227032 0 -0.077263129790127991 -0.037048570076450453 0 -0.079136228461940794 -0.028404699364453681 0 -0.085324788840590443 -0.032662612314520327 0 -0.077263129790127991 -0.037048570076450453 0 -0.079434647425294047 -0.04613959263227032 0 -0.071783490825363255 -0.04250798308850659 0 -0.067332446690582748 -0.050523027005609712 0 -0.079434647425294047 -0.04613959263227032 0 -0.071783490825363255 -0.04250798308850659 0 -0.077263129790127991 -0.037048570076450453 0 -0.079136228461940794 -0.028404699364453681 0 -0.077263129790127991 -0.037048570076450453 0 -0.069599729700479424 -0.035646321806430382 0 -0.071783490825363255 -0.04250798308850659 0 -0.077263129790127991 -0.037048570076450453 0 -0.069599729700479424 -0.035646321806430382 0 -0.063009557013563533 -0.037005840166569479 0 -0.065550560416052256 -0.031547954520313289 0 -0.060060063693398162 -0.027139798754781091 0 -0.069599729700479424 -0.035646321806430382 0 -0.063009557013563533 -0.037005840166569479 0 -0.065287500520332054 -0.043182403921772083 0 -0.069599729700479424 -0.035646321806430382 0 -0.063009557013563533 -0.037005840166569479 0 -0.065550560416052256 -0.031547954520313289 0 -0.071783490825363255 -0.04250798308850659 0 -0.065287500520332054 -0.043182403921772083 0 -0.067332446690582748 -0.050523027005609712 0 -0.071783490825363255 -0.04250798308850659 0 -0.069599729700479424 -0.035646321806430382 0 -0.065287500520332054 -0.043182403921772083 0 -0.067332446690582748 -0.050523027005609712 0 -0.062979033979982585 -0.060662167016319039 0 -0.058921283263176902 -0.051912172557533373 0 -0.065287500520332054 -0.043182403921772083 0 -0.067332446690582748 -0.050523027005609712 0 -0.060723235248039728 -0.046939261305236298 0 -0.079434647425294047 -0.04613959263227032 0 -0.067332446690582748 -0.050523027005609712 0 -0.074173749765407346 -0.058475782697109638 0 -0.067332446690582748 -0.050523027005609712 0 -0.074173749765407346 -0.058475782697109638 0 -0.062979033979982585 -0.060662167016319039 0 -0.048633414727626022 -0.052338245597791849 0 -0.047564236958077141 -0.044800393291365689 0 -0.046940131410059822 -0.065846523029330806 0 -0.047564236958077141 -0.044800393291365689 0 -0.046940131410059822 -0.065846523029330806 0 -0.062979033979982585 -0.060662167016319039 0 -0.053062185991250628 -0.054717717994700793 0 -0.050852896702191612 -0.066962526099834829 0 -0.062979033979982585 -0.060662167016319039 0 -0.053062185991250628 -0.054717717994700793 0 -0.058921283263176902 -0.051912172557533373 0 -0.053062185991250628 -0.054717717994700793 0 -0.048633414727626022 -0.052338245597791849 0 -0.046940131410059822 -0.065846523029330806 0 -0.053062185991250628 -0.054717717994700793 0 -0.050852896702191612 -0.066962526099834829 0 -0.048633414727626022 -0.052338245597791849 0 -0.054584572907550782 -0.047914148632894928 0 -0.057490372858556217 -0.041164554408371377 0 -0.053062185991250628 -0.054717717994700793 0 -0.048633414727626022 -0.052338245597791849 0 -0.05380036422240108 -0.051720571195730217 0 -0.048633414727626022 -0.052338245597791849 0 -0.05380036422240108 -0.051720571195730217 0 -0.054584572907550782 -0.047914148632894928 0 -0.067332446690582748 -0.050523027005609712 0 -0.058921283263176902 -0.051912172557533373 0 -0.060723235248039728 -0.046939261305236298 0 -0.05380036422240108 -0.051720571195730217 0 -0.054584572907550782 -0.047914148632894928 0 -0.058921283263176902 -0.051912172557533373 0 -0.054584572907550782 -0.047914148632894928 0 -0.058921283263176902 -0.051912172557533373 0 -0.060723235248039728 -0.046939261305236298 0 -0.053062185991250628 -0.054717717994700793 0 -0.05380036422240108 -0.051720571195730217 0 -0.058921283263176902 -0.051912172557533373 0 -0.048633414727626022 -0.052338245597791849 0 -0.052388194142889637 -0.035688033877992777 0 -0.047564236958077141 -0.044800393291365689 0 -0.048633414727626022 -0.052338245597791849 0 -0.060060063693398162 -0.027139798754781091 0 -0.052388194142889637 -0.035688033877992777 0 -0.047564236958077141 -0.044800393291365689 0 -0.048188342506094273 -0.023754263553400639 0 -0.065287500520332054 -0.043182403921772083 0 -0.060723235248039728 -0.046939261305236298 0 -0.057490372858556217 -0.041164554408371377 0 -0.048633414727626022 -0.052338245597791849 0 -0.052388194142889637 -0.035688033877992777 0 -0.060060063693398162 -0.027139798754781091 0 -0.047564236958077141 -0.044800393291365689 0 -0.048188342506094273 -0.023754263553400639 0 -0.048633414727626022 -0.052338245597791849 0 -0.057490372858556217 -0.041164554408371377 0 -0.060060063693398162 -0.027139798754781091 0 -0.063009557013563533 -0.037005840166569479 0 -0.065287500520332054 -0.043182403921772083 0 -0.057490372858556217 -0.041164554408371377 0 -0.054584572907550782 -0.047914148632894928 0 -0.060723235248039728 -0.046939261305236298 0 -0.057490372858556217 -0.041164554408371377 0 -0.063009557013563533 -0.037005840166569479 0 -0.057490372858556217 -0.041164554408371377 0 -0.060060063693398162 -0.027139798754781091 0 -0.047564236958077141 -0.044800393291365689 0 -0.040999902580246009 -0.034073414856078607 0 -0.037775796076777883 -0.041990933404727288 0 -0.047564236958077141 -0.044800393291365689 0 -0.037775796076777883 -0.041990933404727288 0 -0.03786401672283507 -0.052399965628294042 0 -0.047564236958077141 -0.044800393291365689 0 -0.040999902580246009 -0.034073414856078607 0 -0.048188342506094273 -0.023754263553400639 0 -0.040999902580246009 -0.034073414856078607 0 -0.035414600816828443 -0.02838459035781557 0 -0.02853407448171897 -0.032411583940171802 0 -0.040999902580246009 -0.034073414856078607 0 -0.037775796076777883 -0.041990933404727288 0 -0.02853407448171897 -0.032411583940171802 0 -0.037775796076777883 -0.041990933404727288 0 -0.03786401672283507 -0.052399965628294042 0 -0.029608662038154529 -0.046050706325775743 0 -0.037775796076777883 -0.041990933404727288 0 -0.029608662038154529 -0.046050706325775743 0 -0.02853407448171897 -0.032411583940171802 0 -0.018406134135962982 -0.057708026034480123 0 -0.046940131410059822 -0.065846523029330806 0 -0.047564236958077141 -0.044800393291365689 0 -0.03786401672283507 -0.052399965628294042 0 -0.046940131410059822 -0.065846523029330806 0 -0.03786401672283507 -0.052399965628294042 0 -0.018406134135962982 -0.057708026034480123 0 -0.046940131410059822 -0.065846523029330806 0 -0.048711118495682479 -0.0061251760765778174 0 -0.05292935103667764 -0.01572729214607739 0 -0.048188342506094273 -0.023754263553400639 0 -0.048711118495682479 -0.0061251760765778174 0 -0.048188342506094273 -0.023754263553400639 0 -0.048711118495682479 -0.0061251760765778174 0 -0.058512249514306398 -0.002368351541725492 0 -0.055322401571001149 -0.0089484214725688658 0 -0.061634002341188397 -0.01238985637472113 0 -0.055322401571001149 -0.0089484214725688658 0 -0.05292935103667764 -0.01572729214607739 0 -0.058512249514306398 -0.002368351541725492 0 -0.061634002341188397 -0.01238985637472113 0 -0.055322401571001149 -0.0089484214725688658 0 -0.048711118495682479 -0.0061251760765778174 0 -0.055322401571001149 -0.0089484214725688658 0 -0.05292935103667764 -0.01572729214607739 0 -0.052988417578496087 -0.021134873193319931 0 -0.05292935103667764 -0.01572729214607739 0 -0.048188342506094273 -0.023754263553400639 0 -0.052988417578496087 -0.021134873193319931 0 -0.05625175729643115 -0.020156178059637781 0 -0.054584219474781287 -0.024901759014163929 0 -0.052988417578496087 -0.021134873193319931 0 -0.054584219474781287 -0.024901759014163929 0 -0.048188342506094273 -0.023754263553400639 0 -0.052988417578496087 -0.021134873193319931 0 -0.05292935103667764 -0.01572729214607739 0 -0.05625175729643115 -0.020156178059637781 0 -0.061634002341188397 -0.01238985637472113 0 -0.05625175729643115 -0.020156178059637781 0 -0.060060063693398162 -0.027139798754781091 0 -0.061634002341188397 -0.01238985637472113 0 -0.05292935103667764 -0.01572729214607739 0 -0.05625175729643115 -0.020156178059637781 0 -0.05625175729643115 -0.020156178059637781 0 -0.060060063693398162 -0.027139798754781091 0 -0.054584219474781287 -0.024901759014163929 0 -0.052388194142889637 -0.035688033877992777 0 -0.060060063693398162 -0.027139798754781091 0 -0.054292344427772227 -0.028609002552051999 0 -0.060060063693398162 -0.027139798754781091 0 -0.054292344427772227 -0.028609002552051999 0 -0.054584219474781287 -0.024901759014163929 0 -0.052388194142889637 -0.035688033877992777 0 -0.054292344427772227 -0.028609002552051999 0 -0.048188342506094273 -0.023754263553400639 0 -0.054292344427772227 -0.028609002552051999 0 -0.054584219474781287 -0.024901759014163929 0 -0.048188342506094273 -0.023754263553400639 0 -0.054584219474781287 -0.024901759014163929 0 -0.048188342506094273 -0.023754263553400639 0 -0.048188342506094273 -0.023754263553400639 0 -0.032543116503993892 -0.020947326223631661 0 -0.04207106360422163 -0.01353430098250028 0 -0.048188342506094273 -0.023754263553400639 0 -0.032543116503993892 -0.020947326223631661 0 -0.048188342506094273 -0.023754263553400639 0 -0.040129620187280772 -0.02692768477132881 0 -0.032543116503993892 -0.020947326223631661 0 -0.040999902580246009 -0.034073414856078607 0 -0.048188342506094273 -0.023754263553400639 0 -0.040129620187280772 -0.02692768477132881 0 -0.035414600816828443 -0.02838459035781557 0 -0.032543116503993892 -0.020947326223631661 0 -0.02853407448171897 -0.032411583940171802 0 -0.040999902580246009 -0.034073414856078607 0 -0.040129620187280772 -0.02692768477132881 0 -0.035414600816828443 -0.02838459035781557 0 -0.040129620187280772 -0.02692768477132881 0 -0.035414600816828443 -0.02838459035781557 0 -0.032543116503993892 -0.020947326223631661 0 -0.032543116503993892 -0.020947326223631661 0 -0.04207106360422163 -0.01353430098250028 0 -0.039385604979905842 -0.001380544215753877 0 -0.032543116503993892 -0.020947326223631661 0 -0.039385604979905842 -0.001380544215753877 0 -0.032543116503993892 -0.020947326223631661 0 -0.039385604979905842 -0.001380544215753877 0 -0.0264311011064059 -0.0053787064823712667 0 -0.048711118495682479 -0.0061251760765778174 0 -0.048188342506094273 -0.023754263553400639 0 -0.04207106360422163 -0.01353430098250028 0 -0.039385604979905842 -0.001380544215753877 0 -0.0264311011064059 -0.0053787064823712667 0 -0.02910033452725326 0.0029567245890428999 0 -0.048711118495682479 -0.0061251760765778174 0 -0.04207106360422163 -0.01353430098250028 0 -0.039385604979905842 -0.001380544215753877 0 -0.032543116503993892 -0.020947326223631661 0 -0.01699800551001408 -0.0081216916378675629 0 -0.002902715634884295 -0.015629490120933679 0 -0.0264311011064059 -0.0053787064823712667 0 -0.01699800551001408 -0.0081216916378675629 0 -0.016748537139514911 0.002749501917021599 0 -0.032543116503993892 -0.020947326223631661 0 -0.0264311011064059 -0.0053787064823712667 0 -0.01699800551001408 -0.0081216916378675629 0 -0.032543116503993892 -0.020947326223631661 0 -0.01406260772622742 -0.030213891336719829 0 -0.002902715634884295 -0.015629490120933679 0 -0.032543116503993892 -0.020947326223631661 0 -0.002902715634884295 -0.015629490120933679 0 -0.032543116503993892 -0.020947326223631661 0 -0.01406260772622742 -0.030213891336719829 0 -0.02853407448171897 -0.032411583940171802 0 -0.032543116503993892 -0.020947326223631661 0 -0.02853407448171897 -0.032411583940171802 0 -0.01406260772622742 -0.030213891336719829 0 -0.002902715634884295 -0.015629490120933679 0 0.0031290989705711758 -0.029797021315310531 0 -0.01699800551001408 -0.0081216916378675629 0 -0.002902715634884295 -0.015629490120933679 0 -0.0056325041382708106 -0.001671571725724148 0 -0.002902715634884295 -0.015629490120933679 0 -0.0056325041382708106 -0.001671571725724148 0 0.0068720610923031717 -0.0055029179110838711 0 -0.01699800551001408 -0.0081216916378675629 0 -0.0056325041382708106 -0.001671571725724148 0 -0.016748537139514911 0.002749501917021599 0 -0.03786401672283507 -0.052399965628294042 0 -0.018406134135962982 -0.057708026034480123 0 -0.029608662038154529 -0.046050706325775743 0 -0.018406134135962982 -0.057708026034480123 0 -0.029608662038154529 -0.046050706325775743 0 -0.01973942659402618 -0.042027535521083542 0 -0.029608662038154529 -0.046050706325775743 0 -0.02853407448171897 -0.032411583940171802 0 -0.01973942659402618 -0.042027535521083542 0 -0.01406260772622742 -0.030213891336719829 0 -0.02853407448171897 -0.032411583940171802 0 -0.01973942659402618 -0.042027535521083542 0 -0.01406260772622742 -0.030213891336719829 0 -0.0078170970257354904 -0.042035043314792367 0 0.0031290989705711758 -0.029797021315310531 0 -0.01406260772622742 -0.030213891336719829 0 -0.01973942659402618 -0.042027535521083542 0 -0.0078170970257354904 -0.042035043314792367 0 -0.018406134135962982 -0.057708026034480123 0 -0.0078170970257354904 -0.042035043314792367 0 0.010127863138133689 -0.049569529039628912 0 -0.018406134135962982 -0.057708026034480123 0 0.010127863138133689 -0.049569529039628912 0 -0.018406134135962982 -0.057708026034480123 0 0.0056488667538581293 -0.065527085463935736 0 0.010127863138133689 -0.049569529039628912 0 -0.018406134135962982 -0.057708026034480123 0 -0.01973942659402618 -0.042027535521083542 0 -0.0078170970257354904 -0.042035043314792367 0 -0.018406134135962982 -0.057708026034480123 0 -0.0057488126967492458 -0.077864854612590587 0 0.0056488667538581293 -0.065527085463935736 0 -0.0057488126967492458 -0.077864854612590587 0 -0.0192993204778612 -0.089616024626191337 0 -0.0064178238754883671 -0.095728903008746299 0 -0.0057488126967492458 -0.077864854612590587 0 -0.0064178238754883671 -0.095728903008746299 0 0.0086630023115394222 -0.091407271345933974 0 -0.0057488126967492458 -0.077864854612590587 0 -0.0192993204778612 -0.089616024626191337 0 -0.030194712640123491 -0.079005430161347423 0 -0.0192993204778612 -0.089616024626191337 0 -0.030194712640123491 -0.079005430161347423 0 -0.030740920476551529 -0.092921286473910403 0 -0.018406134135962982 -0.057708026034480123 0 -0.0057488126967492458 -0.077864854612590587 0 -0.030194712640123491 -0.079005430161347423 0 -0.018406134135962982 -0.057708026034480123 0 -0.030194712640123491 -0.079005430161347423 0 -0.046940131410059822 -0.065846523029330806 0 -0.046130959150176808 -0.093133485011905798 0 -0.046940131410059822 -0.065846523029330806 0 -0.030194712640123491 -0.079005430161347423 0 -0.046130959150176808 -0.093133485011905798 0 -0.046940131410059822 -0.065846523029330806 0 -0.030194712640123491 -0.079005430161347423 0 -0.030740920476551529 -0.092921286473910403 0 -0.046130959150176808 -0.093133485011905798 0 -0.046130959150176808 -0.093133485011905798 0 -0.060566372969535653 -0.0822265568142133 0 -0.057440915975040557 -0.098836331457202914 0 -0.046130959150176808 -0.093133485011905798 0 -0.060566372969535653 -0.0822265568142133 0 -0.050852896702191612 -0.066962526099834829 0 -0.046130959150176808 -0.093133485011905798 0 -0.050852896702191612 -0.066962526099834829 0 -0.046130959150176808 -0.093133485011905798 0 -0.050852896702191612 -0.066962526099834829 0 -0.046940131410059822 -0.065846523029330806 0 -0.053062185991250628 -0.054717717994700793 0 -0.050852896702191612 -0.066962526099834829 0 -0.046940131410059822 -0.065846523029330806 0 -0.050852896702191612 -0.066962526099834829 0 -0.046940131410059822 -0.065846523029330806 0 -0.052073512718747529 -0.11091963612683919 0 -0.042500922524487297 -0.1132526709040811 0 -0.05136941187484477 -0.12523985298404811 0 -0.063216140449193714 -0.114329922192949 0 -0.052073512718747529 -0.11091963612683919 0 -0.05136941187484477 -0.12523985298404811 0 -0.063216140449193714 -0.114329922192949 0 -0.052073512718747529 -0.11091963612683919 0 -0.057440915975040557 -0.098836331457202914 0 -0.046130959150176808 -0.093133485011905798 0 -0.057440915975040557 -0.098836331457202914 0 -0.045840172770171342 -0.10293940309591471 0 -0.052073512718747529 -0.11091963612683919 0 -0.057440915975040557 -0.098836331457202914 0 -0.045840172770171342 -0.10293940309591471 0 -0.046130959150176808 -0.093133485011905798 0 -0.035655763720785189 -0.10211594544835401 0 -0.042500922524487297 -0.1132526709040811 0 -0.046130959150176808 -0.093133485011905798 0 -0.045840172770171342 -0.10293940309591471 0 -0.042500922524487297 -0.1132526709040811 0 -0.052073512718747529 -0.11091963612683919 0 -0.045840172770171342 -0.10293940309591471 0 -0.042500922524487297 -0.1132526709040811 0 -0.046130959150176808 -0.093133485011905798 0 -0.042500922524487297 -0.1132526709040811 0 -0.046130959150176808 -0.093133485011905798 0 -0.045840172770171342 -0.10293940309591471 0 -0.030740920476551529 -0.092921286473910403 0 -0.046130959150176808 -0.093133485011905798 0 -0.035655763720785189 -0.10211594544835401 0 -0.035655763720785189 -0.10211594544835401 0 -0.03183517801372588 -0.10933594068392891 0 -0.042500922524487297 -0.1132526709040811 0 -0.042500922524487297 -0.1132526709040811 0 -0.038870885898797947 -0.13337185679625649 0 -0.03183517801372588 -0.10933594068392891 0 -0.042500922524487297 -0.1132526709040811 0 -0.025789693109237639 -0.1194154975089186 0 -0.042500922524487297 -0.1132526709040811 0 -0.025789693109237639 -0.1194154975089186 0 -0.038870885898797947 -0.13337185679625649 0 -0.042500922524487297 -0.1132526709040811 0 -0.05136941187484477 -0.12523985298404811 0 -0.038870885898797947 -0.13337185679625649 0 -0.025789693109237639 -0.1194154975089186 0 -0.0233943327003934 -0.102559648874362 0 -0.0088475822703880137 -0.1121173624287804 0 -0.03183517801372588 -0.10933594068392891 0 -0.025789693109237639 -0.1194154975089186 0 -0.0233943327003934 -0.102559648874362 0 -0.0192993204778612 -0.089616024626191337 0 -0.0233943327003934 -0.102559648874362 0 -0.0064178238754883671 -0.095728903008746299 0 -0.030740920476551529 -0.092921286473910403 0 -0.035655763720785189 -0.10211594544835401 0 -0.0233943327003934 -0.102559648874362 0 -0.0192993204778612 -0.089616024626191337 0 -0.030740920476551529 -0.092921286473910403 0 -0.0233943327003934 -0.102559648874362 0 -0.035655763720785189 -0.10211594544835401 0 -0.03183517801372588 -0.10933594068392891 0 -0.0233943327003934 -0.102559648874362 0 -0.0233943327003934 -0.102559648874362 0 -0.0064178238754883671 -0.095728903008746299 0 -0.0088475822703880137 -0.1121173624287804 0 -0.0064178238754883671 -0.095728903008746299 0 -0.0088475822703880137 -0.1121173624287804 0 0.0080312610179324 -0.1062209242384643 0 -0.0088475822703880137 -0.1121173624287804 0 -0.0095636458269275949 -0.13064788567915631 0 0.0038204708684723399 -0.1199975449956384 0 -0.025789693109237639 -0.1194154975089186 0 -0.0088475822703880137 -0.1121173624287804 0 -0.0095636458269275949 -0.13064788567915631 0 -0.0095636458269275949 -0.13064788567915631 0 -0.0016517895909729759 -0.14913519766653521 0 0.0090665138201122611 -0.13458367275464961 0 -0.0095636458269275949 -0.13064788567915631 0 -0.025327914197250449 -0.13703274264739981 0 -0.017174496878180429 -0.1482374305642358 0 -0.025789693109237639 -0.1194154975089186 0 -0.025327914197250449 -0.13703274264739981 0 -0.038870885898797947 -0.13337185679625649 0 -0.025789693109237639 -0.1194154975089186 0 -0.0095636458269275949 -0.13064788567915631 0 -0.025327914197250449 -0.13703274264739981 0 -0.025327914197250449 -0.13703274264739981 0 -0.017174496878180429 -0.1482374305642358 0 -0.035240849273108603 -0.15349104268843189 0 -0.017174496878180429 -0.1482374305642358 0 -0.027878758612033299 -0.1648620794893364 0 -0.035240849273108603 -0.15349104268843189 0 -0.0095636458269275949 -0.13064788567915631 0 -0.017174496878180429 -0.1482374305642358 0 -0.0016517895909729759 -0.14913519766653521 0 -0.017174496878180429 -0.1482374305642358 0 -0.0016517895909729759 -0.14913519766653521 0 -0.0094394010493911388 -0.16441980552007959 0 -0.0016517895909729759 -0.14913519766653521 0 -0.0094394010493911388 -0.16441980552007959 0 0.0064191928339507407 -0.164292436503471 0 -0.0094394010493911388 -0.16441980552007959 0 -0.0065904008473937452 -0.17748729088198689 0 0.0064191928339507407 -0.164292436503471 0 -0.0065904008473937452 -0.17748729088198689 0 -0.019355071396077748 -0.17643872387955539 0 -0.011684435195542121 -0.19235029798179959 0 -0.0065904008473937452 -0.17748729088198689 0 -0.011684435195542121 -0.19235029798179959 0 0.0089288639899517616 -0.1799517076714372 0 -0.0094394010493911388 -0.16441980552007959 0 -0.0065904008473937452 -0.17748729088198689 0 -0.019355071396077748 -0.17643872387955539 0 -0.019355071396077748 -0.17643872387955539 0 -0.039255058066132442 -0.18172219091421191 0 -0.011684435195542121 -0.19235029798179959 0 -0.019355071396077748 -0.17643872387955539 0 -0.027878758612033299 -0.1648620794893364 0 -0.039255058066132442 -0.18172219091421191 0 -0.039255058066132442 -0.18172219091421191 0 -0.011684435195542121 -0.19235029798179959 0 -0.0094394010493911388 -0.16441980552007959 0 -0.019355071396077748 -0.17643872387955539 0 -0.027878758612033299 -0.1648620794893364 0 -0.017174496878180429 -0.1482374305642358 0 -0.0094394010493911388 -0.16441980552007959 0 -0.027878758612033299 -0.1648620794893364 0 -0.027878758612033299 -0.1648620794893364 0 -0.046807675009309449 -0.16486328336950401 0 -0.039255058066132442 -0.18172219091421191 0 -0.027878758612033299 -0.1648620794893364 0 -0.046807675009309449 -0.16486328336950401 0 -0.035240849273108603 -0.15349104268843189 0 -0.039255058066132442 -0.18172219091421191 0 -0.066825680936722795 -0.17109408384662431 0 -0.039255058066132442 -0.18172219091421191 0 -0.056503149089448139 -0.1992335659070881 0 -0.066825680936722795 -0.17109408384662431 0 -0.046807675009309449 -0.16486328336950401 0 -0.039255058066132442 -0.18172219091421191 0 -0.066825680936722795 -0.17109408384662431 0 -0.046807675009309449 -0.16486328336950401 0 -0.050817327365716161 -0.1478149845489877 0 -0.066825680936722795 -0.17109408384662431 0 -0.050817327365716161 -0.1478149845489877 0 -0.065789461201513452 -0.13882978760906159 0 -0.066825680936722795 -0.17109408384662431 0 -0.050817327365716161 -0.1478149845489877 0 -0.05136941187484477 -0.12523985298404811 0 -0.038870885898797947 -0.13337185679625649 0 -0.050817327365716161 -0.1478149845489877 0 -0.05136941187484477 -0.12523985298404811 0 -0.065789461201513452 -0.13882978760906159 0 -0.063216140449193714 -0.114329922192949 0 -0.05136941187484477 -0.12523985298404811 0 -0.065789461201513452 -0.13882978760906159 0 -0.046807675009309449 -0.16486328336950401 0 -0.050817327365716161 -0.1478149845489877 0 -0.035240849273108603 -0.15349104268843189 0 -0.038870885898797947 -0.13337185679625649 0 -0.035240849273108603 -0.15349104268843189 0 -0.025327914197250449 -0.13703274264739981 0 -0.038870885898797947 -0.13337185679625649 0 -0.035240849273108603 -0.15349104268843189 0 -0.050817327365716161 -0.1478149845489877 0 -0.038870885898797947 -0.13337185679625649 0 -0.035240849273108603 -0.15349104268843189 0 -0.02258028236581823 -0.24850611916615931 0 -0.0042469490959310546 -0.24105588206608369 0 -0.022433879890756511 -0.23031533121802281 0 -0.02258028236581823 -0.24850611916615931 0 -0.022433879890756511 -0.23031533121802281 0 -0.037015257496916913 -0.24268092961745849 0 -0.0042469490959310546 -0.24105588206608369 0 -0.0075191979051155893 -0.22189190745688231 0 -0.022433879890756511 -0.23031533121802281 0 -0.0042469490959310546 -0.24105588206608369 0 -0.0075191979051155893 -0.22189190745688231 0 0.0080886019295227304 -0.22334361936230621 0 -0.0075191979051155893 -0.22189190745688231 0 -0.022433879890756511 -0.23031533121802281 0 -0.01809097832856018 -0.20917685360831631 0 -0.01809097832856018 -0.20917685360831631 0 -0.023632623074888979 -0.19201780928416379 0 -0.039243115148502858 -0.21673316951537391 0 -0.022433879890756511 -0.23031533121802281 0 -0.01809097832856018 -0.20917685360831631 0 -0.039243115148502858 -0.21673316951537391 0 -0.01809097832856018 -0.20917685360831631 0 -0.001950199932115194 -0.2097495786964387 0 -0.011684435195542121 -0.19235029798179959 0 -0.0075191979051155893 -0.22189190745688231 0 -0.01809097832856018 -0.20917685360831631 0 -0.001950199932115194 -0.2097495786964387 0 -0.0075191979051155893 -0.22189190745688231 0 -0.001950199932115194 -0.2097495786964387 0 0.0080886019295227304 -0.22334361936230621 0 -0.039255058066132442 -0.18172219091421191 0 -0.011684435195542121 -0.19235029798179959 0 -0.023632623074888979 -0.19201780928416379 0 -0.01809097832856018 -0.20917685360831631 0 -0.011684435195542121 -0.19235029798179959 0 -0.023632623074888979 -0.19201780928416379 0 -0.023632623074888979 -0.19201780928416379 0 -0.039658486344743102 -0.1974266839052094 0 -0.039243115148502858 -0.21673316951537391 0 -0.039255058066132442 -0.18172219091421191 0 -0.023632623074888979 -0.19201780928416379 0 -0.039658486344743102 -0.1974266839052094 0 -0.039255058066132442 -0.18172219091421191 0 -0.039658486344743102 -0.1974266839052094 0 -0.056503149089448139 -0.1992335659070881 0 -0.056503149089448139 -0.1992335659070881 0 -0.039243115148502858 -0.21673316951537391 0 -0.063461304414367314 -0.2221677618094664 0 -0.039658486344743102 -0.1974266839052094 0 -0.056503149089448139 -0.1992335659070881 0 -0.039243115148502858 -0.21673316951537391 0 -0.023632623074888979 -0.19201780928416379 0 -0.039243115148502858 -0.21673316951537391 0 -0.039243115148502858 -0.21673316951537391 0 -0.054853607222116879 -0.24144852974658429 0 -0.037015257496916913 -0.24268092961745849 0 -0.022433879890756511 -0.23031533121802281 0 -0.039243115148502858 -0.21673316951537391 0 -0.037015257496916913 -0.24268092961745849 0 -0.039243115148502858 -0.21673316951537391 0 -0.054853607222116879 -0.24144852974658429 0 -0.063461304414367314 -0.2221677618094664 0 -0.039243115148502858 -0.21673316951537391 0 -0.054853607222116879 -0.24144852974658429 0 -0.049996963324905087 -0.25986794633752452 0 -0.054853607222116879 -0.24144852974658429 0 -0.037015257496916913 -0.24268092961745849 0 -0.0889106203226466 -0.25070880179025701 0 -0.071960244748720911 -0.24191037302126911 0 -0.082710506610490842 -0.22967556715644799 0 -0.0889106203226466 -0.25070880179025701 0 -0.082710506610490842 -0.22967556715644799 0 -0.1073571413495695 -0.2352537136027161 0 -0.054853607222116879 -0.24144852974658429 0 -0.071960244748720911 -0.24191037302126911 0 -0.063461304414367314 -0.2221677618094664 0 -0.070464099295724392 -0.26616388997779877 0 -0.054853607222116879 -0.24144852974658429 0 -0.071960244748720911 -0.24191037302126911 0 -0.071960244748720911 -0.24191037302126911 0 -0.063461304414367314 -0.2221677618094664 0 -0.082710506610490842 -0.22967556715644799 0 -0.063461304414367314 -0.2221677618094664 0 -0.082710506610490842 -0.22967556715644799 0 -0.081764241036819785 -0.21041650526575151 0 -0.082710506610490842 -0.22967556715644799 0 -0.081764241036819785 -0.21041650526575151 0 -0.10107004364483881 -0.21942016767359149 0 -0.056503149089448139 -0.1992335659070881 0 -0.063461304414367314 -0.2221677618094664 0 -0.081764241036819785 -0.21041650526575151 0 -0.056503149089448139 -0.1992335659070881 0 -0.081764241036819785 -0.21041650526575151 0 -0.085595787846451749 -0.1868426035143782 0 -0.081764241036819785 -0.21041650526575151 0 -0.1077146668508213 -0.20195642692786689 0 -0.085595787846451749 -0.1868426035143782 0 -0.1077146668508213 -0.20195642692786689 0 -0.085595787846451749 -0.1868426035143782 0 -0.1077846154709222 -0.1811669103367502 0 -0.1077146668508213 -0.20195642692786689 0 -0.13028668286636291 -0.20456095131218849 0 -0.12570726048984121 -0.19136794154072639 0 -0.1077146668508213 -0.20195642692786689 0 -0.1077846154709222 -0.1811669103367502 0 -0.12570726048984121 -0.19136794154072639 0 -0.1077146668508213 -0.20195642692786689 0 -0.10107004364483881 -0.21942016767359149 0 -0.1258036623764924 -0.21979862541517509 0 -0.1077146668508213 -0.20195642692786689 0 -0.1258036623764924 -0.21979862541517509 0 -0.13028668286636291 -0.20456095131218849 0 -0.081764241036819785 -0.21041650526575151 0 -0.1077146668508213 -0.20195642692786689 0 -0.10107004364483881 -0.21942016767359149 0 -0.082710506610490842 -0.22967556715644799 0 -0.10107004364483881 -0.21942016767359149 0 -0.1073571413495695 -0.2352537136027161 0 -0.10107004364483881 -0.21942016767359149 0 -0.1073571413495695 -0.2352537136027161 0 -0.1258036623764924 -0.21979862541517509 0 -0.1244732572907425 -0.23694673844022579 0 -0.1073571413495695 -0.2352537136027161 0 -0.1258036623764924 -0.21979862541517509 0 -0.1073571413495695 -0.2352537136027161 0 -0.1258036623764924 -0.21979862541517509 0 -0.1187161955354217 -0.24568453992089831 0 -0.1244732572907425 -0.23694673844022579 0 -0.1073571413495695 -0.2352537136027161 0 -0.13145879489179529 -0.2526639271976463 0 -0.1187161955354217 -0.24568453992089831 0 -0.1244732572907425 -0.23694673844022579 0 -0.11157558860957981 -0.25787378044300507 0 -0.1187161955354217 -0.24568453992089831 0 -0.1073571413495695 -0.2352537136027161 0 -0.11157558860957981 -0.25787378044300507 0 -0.0889106203226466 -0.25070880179025701 0 -0.1073571413495695 -0.2352537136027161 0 -0.0889106203226466 -0.25070880179025701 0 -0.1073571413495695 -0.2352537136027161 0 -0.079585289977758572 -0.15205623460722839 0 -0.065789461201513452 -0.13882978760906159 0 -0.066825680936722795 -0.17109408384662431 0 -0.079585289977758572 -0.15205623460722839 0 -0.092843917422119338 -0.1394349798543188 0 -0.065789461201513452 -0.13882978760906159 0 -0.079585289977758572 -0.15205623460722839 0 -0.092843917422119338 -0.1394349798543188 0 -0.09439630380731312 -0.1604659767790366 0 -0.08337921075151683 -0.1149838923318863 0 -0.092843917422119338 -0.1394349798543188 0 -0.065789461201513452 -0.13882978760906159 0 -0.056503149089448139 -0.1992335659070881 0 -0.066825680936722795 -0.17109408384662431 0 -0.085595787846451749 -0.1868426035143782 0 -0.066825680936722795 -0.17109408384662431 0 -0.085595787846451749 -0.1868426035143782 0 -0.09439630380731312 -0.1604659767790366 0 -0.079585289977758572 -0.15205623460722839 0 -0.066825680936722795 -0.17109408384662431 0 -0.09439630380731312 -0.1604659767790366 0 -0.066825680936722795 -0.17109408384662431 0 -0.09439630380731312 -0.1604659767790366 0 -0.09439630380731312 -0.1604659767790366 0 -0.1077846154709222 -0.1811669103367502 0 -0.1182738237979221 -0.16704065101966981 0 -0.085595787846451749 -0.1868426035143782 0 -0.09439630380731312 -0.1604659767790366 0 -0.1077846154709222 -0.1811669103367502 0 -0.1077846154709222 -0.1811669103367502 0 -0.1348672452572483 -0.17289155333416559 0 -0.12570726048984121 -0.19136794154072639 0 -0.1077846154709222 -0.1811669103367502 0 -0.1348672452572483 -0.17289155333416559 0 -0.1077846154709222 -0.1811669103367502 0 -0.1182738237979221 -0.16704065101966981 0 -0.1348672452572483 -0.17289155333416559 0 -0.09439630380731312 -0.1604659767790366 0 -0.1182738237979221 -0.16704065101966981 0 -0.1219669266779035 -0.14983786971144891 0 -0.092843917422119338 -0.1394349798543188 0 -0.09439630380731312 -0.1604659767790366 0 -0.1219669266779035 -0.14983786971144891 0 -0.09439630380731312 -0.1604659767790366 0 -0.1219669266779035 -0.14983786971144891 0 -0.1070098198266619 -0.1238132019720993 0 -0.092843917422119338 -0.1394349798543188 0 -0.1219669266779035 -0.14983786971144891 0 -0.08337921075151683 -0.1149838923318863 0 -0.1070098198266619 -0.1238132019720993 0 -0.092843917422119338 -0.1394349798543188 0 -0.1070098198266619 -0.1238132019720993 0 -0.1219669266779035 -0.14983786971144891 0 -0.13092690364411441 -0.1265409505354686 0 -0.1219669266779035 -0.14983786971144891 0 -0.13092690364411441 -0.1265409505354686 0 -0.1495375495484938 -0.13920976264386131 0 -0.13092690364411441 -0.1265409505354686 0 -0.14585925972330091 -0.12642845074079229 0 -0.1495375495484938 -0.13920976264386131 0 -0.14585925972330091 -0.12642845074079229 0 -0.1495375495484938 -0.13920976264386131 0 -0.15639221479190751 -0.1247511956167188 0 -0.1495375495484938 -0.13920976264386131 0 -0.14052905172606081 -0.1579207068024307 0 -0.1565788900312228 -0.1539282077738576 0 -0.1219669266779035 -0.14983786971144891 0 -0.1495375495484938 -0.13920976264386131 0 -0.14052905172606081 -0.1579207068024307 0 -0.1219669266779035 -0.14983786971144891 0 -0.1495375495484938 -0.13920976264386131 0 -0.1182738237979221 -0.16704065101966981 0 -0.14052905172606081 -0.1579207068024307 0 -0.1348672452572483 -0.17289155333416559 0 -0.1182738237979221 -0.16704065101966981 0 -0.1219669266779035 -0.14983786971144891 0 -0.14052905172606081 -0.1579207068024307 0 -0.1348672452572483 -0.17289155333416559 0 -0.12570726048984121 -0.19136794154072639 0 -0.13996907400678371 -0.1879713947995747 0 -0.1348672452572483 -0.17289155333416559 0 -0.15135463223807441 -0.1802623341376309 0 -0.13996907400678371 -0.1879713947995747 0 -0.1348672452572483 -0.17289155333416559 0 -0.15135463223807441 -0.1802623341376309 0 -0.16194987504357461 -0.16461619633158159 0 -0.15135463223807441 -0.1802623341376309 0 -0.13996907400678371 -0.1879713947995747 0 -0.1501525800939332 -0.1916447189057128 0 -0.15135463223807441 -0.1802623341376309 0 -0.16444836310021591 -0.18742085310816081 0 -0.1501525800939332 -0.1916447189057128 0 -0.14052905172606081 -0.1579207068024307 0 -0.16194987504357461 -0.16461619633158159 0 -0.1565788900312228 -0.1539282077738576 0 -0.14052905172606081 -0.1579207068024307 0 -0.1348672452572483 -0.17289155333416559 0 -0.16194987504357461 -0.16461619633158159 0 -0.1348672452572483 -0.17289155333416559 0 -0.16194987504357461 -0.16461619633158159 0 -0.16194987504357461 -0.16461619633158159 0 -0.1644332209404851 -0.16385738620051341 0 -0.1565788900312228 -0.1539282077738576 0 -0.15135463223807441 -0.1802623341376309 0 -0.16194987504357461 -0.16461619633158159 0 -0.16267611831738249 -0.16606138371951709 0 -0.16194987504357461 -0.16461619633158159 0 -0.1565788900312228 -0.1539282077738576 0 -0.16267611831738249 -0.16606138371951709 0 -0.1644332209404851 -0.16385738620051341 0 -0.16194987504357461 -0.16461619633158159 0 -0.1644332209404851 -0.16385738620051341 0 -0.16194987504357461 -0.16461619633158159 0 -0.16267611831738249 -0.16606138371951709 0 -0.1644332209404851 -0.16385738620051341 0 -0.16194987504357461 -0.16461619633158159 0 -0.16267611831738249 -0.16606138371951709 0 -0.16267611831738249 -0.16606138371951709 0 -0.1711512238048282 -0.17175659658039399 0 -0.1644332209404851 -0.16385738620051341 0 -0.1711512238048282 -0.17175659658039399 0 -0.1644332209404851 -0.16385738620051341 0 -0.17821001311716919 -0.16652238839260031 0 -0.15135463223807441 -0.1802623341376309 0 -0.16858948714723851 -0.17782868864511539 0 -0.16444836310021591 -0.18742085310816081 0 -0.1711512238048282 -0.17175659658039399 0 -0.16858948714723851 -0.17782868864511539 0 -0.17486928145899069 -0.19032516174913211 0 -0.15135463223807441 -0.1802623341376309 0 -0.16267611831738249 -0.16606138371951709 0 -0.16858948714723851 -0.17782868864511539 0 -0.15135463223807441 -0.1802623341376309 0 -0.16267611831738249 -0.16606138371951709 0 -0.16267611831738249 -0.16606138371951709 0 -0.1711512238048282 -0.17175659658039399 0 -0.16858948714723851 -0.17782868864511539 0 -0.16267611831738249 -0.16606138371951709 0 -0.16858948714723851 -0.17782868864511539 0 -0.16858948714723851 -0.17782868864511539 0 -0.16444836310021591 -0.18742085310816081 0 -0.16858948714723851 -0.17782868864511539 0 -0.16444836310021591 -0.18742085310816081 0 -0.17486928145899069 -0.19032516174913211 0 -0.16858948714723851 -0.17782868864511539 0 -0.17486928145899069 -0.19032516174913211 0 -0.1711512238048282 -0.17175659658039399 0 -0.17897754726419091 -0.17979516207091589 0 -0.17486928145899069 -0.19032516174913211 0 -0.17897754726419091 -0.17979516207091589 0 -0.18499632321587209 -0.18632912630854739 0 -0.17486928145899069 -0.19032516174913211 0 -0.1711512238048282 -0.17175659658039399 0 -0.17897754726419091 -0.17979516207091589 0 -0.1783585260734207 -0.17322696892317921 0 -0.1783585260734207 -0.17322696892317921 0 -0.18551238176784271 -0.17733795679332701 0 -0.18380244461565159 -0.1696600613861575 0 -0.18551238176784271 -0.17733795679332701 0 -0.18380244461565159 -0.1696600613861575 0 -0.19114585085426569 -0.17219698820699511 0 -0.17897754726419091 -0.17979516207091589 0 -0.1783585260734207 -0.17322696892317921 0 -0.18551238176784271 -0.17733795679332701 0 -0.17897754726419091 -0.17979516207091589 0 -0.18551238176784271 -0.17733795679332701 0 -0.18499632321587209 -0.18632912630854739 0 -0.1644332209404851 -0.16385738620051341 0 -0.17821001311716919 -0.16652238839260031 0 -0.18500883319888761 -0.15757031074556499 0 -0.1644332209404851 -0.16385738620051341 0 -0.18500883319888761 -0.15757031074556499 0 -0.1711512238048282 -0.17175659658039399 0 -0.1783585260734207 -0.17322696892317921 0 -0.17821001311716919 -0.16652238839260031 0 -0.17821001311716919 -0.16652238839260031 0 -0.18380244461565159 -0.1696600613861575 0 -0.18650583006974161 -0.1630630065197918 0 -0.18380244461565159 -0.1696600613861575 0 -0.18650583006974161 -0.1630630065197918 0 -0.19114585085426569 -0.17219698820699511 0 -0.1783585260734207 -0.17322696892317921 0 -0.17821001311716919 -0.16652238839260031 0 -0.18380244461565159 -0.1696600613861575 0 -0.18650583006974161 -0.1630630065197918 0 -0.18500883319888761 -0.15757031074556499 0 -0.17821001311716919 -0.16652238839260031 0 -0.18650583006974161 -0.1630630065197918 0 -0.18500883319888761 -0.15757031074556499 0 -0.1644332209404851 -0.16385738620051341 0 -0.18500883319888761 -0.15757031074556499 0 -0.18104381995857091 -0.14302210968128279 0 -0.18500883319888761 -0.15757031074556499 0 -0.18104381995857091 -0.14302210968128279 0 -0.19260644246319311 -0.14774124181599391 0 -0.1644332209404851 -0.16385738620051341 0 -0.18104381995857091 -0.14302210968128279 0 -0.18500883319888761 -0.15757031074556499 0 -0.18104381995857091 -0.14302210968128279 0 -0.18104381995857091 -0.14302210968128279 0 -0.1771081724190843 -0.12858165557627399 0 -0.1657403305795716 -0.1457198243751579 0 -0.18104381995857091 -0.14302210968128279 0 -0.1771081724190843 -0.12858165557627399 0 -0.1994101674429766 -0.1199845342109961 0 -0.18104381995857091 -0.14302210968128279 0 -0.1771081724190843 -0.12858165557627399 0 -0.1495375495484938 -0.13920976264386131 0 -0.1771081724190843 -0.12858165557627399 0 -0.1495375495484938 -0.13920976264386131 0 -0.1771081724190843 -0.12858165557627399 0 -0.15639221479190751 -0.1247511956167188 0 -0.1495375495484938 -0.13920976264386131 0 -0.1771081724190843 -0.12858165557627399 0 -0.1657403305795716 -0.1457198243751579 0 -0.1495375495484938 -0.13920976264386131 0 -0.1657403305795716 -0.1457198243751579 0 -0.1565788900312228 -0.1539282077738576 0 -0.1644332209404851 -0.16385738620051341 0 -0.18104381995857091 -0.14302210968128279 0 -0.1657403305795716 -0.1457198243751579 0 -0.1644332209404851 -0.16385738620051341 0 -0.1657403305795716 -0.1457198243751579 0 -0.1565788900312228 -0.1539282077738576 0 -0.139217952159014 -0.25772733589897689 0 -0.14801368645113169 -0.23321734503586691 0 -0.139217952159014 -0.25772733589897689 0 -0.15127485692657869 -0.25823722899614071 0 -0.14801368645113169 -0.23321734503586691 0 -0.15127485692657869 -0.25823722899614071 0 -0.14801368645113169 -0.23321734503586691 0 -0.15127485692657869 -0.25823722899614071 0 -0.14801368645113169 -0.23321734503586691 0 -0.1633424338862392 -0.24834242444346341 0 -0.139217952159014 -0.25772733589897689 0 -0.13591918647405871 -0.24048900391613789 0 -0.14801368645113169 -0.23321734503586691 0 -0.13145879489179529 -0.2526639271976463 0 -0.1244732572907425 -0.23694673844022579 0 -0.13591918647405871 -0.24048900391613789 0 -0.1258036623764924 -0.21979862541517509 0 -0.14801368645113169 -0.23321734503586691 0 -0.14425018340341639 -0.20434353722763551 0 -0.1244732572907425 -0.23694673844022579 0 -0.13591918647405871 -0.24048900391613789 0 -0.1258036623764924 -0.21979862541517509 0 -0.13591918647405871 -0.24048900391613789 0 -0.1258036623764924 -0.21979862541517509 0 -0.14801368645113169 -0.23321734503586691 0 -0.14801368645113169 -0.23321734503586691 0 -0.14425018340341639 -0.20434353722763551 0 -0.14801368645113169 -0.23321734503586691 0 -0.1562310247756741 -0.21031909907201399 0 -0.14801368645113169 -0.23321734503586691 0 -0.1562310247756741 -0.21031909907201399 0 -0.14425018340341639 -0.20434353722763551 0 -0.1258036623764924 -0.21979862541517509 0 -0.14425018340341639 -0.20434353722763551 0 -0.1258036623764924 -0.21979862541517509 0 -0.14425018340341639 -0.20434353722763551 0 -0.13028668286636291 -0.20456095131218849 0 -0.14425018340341639 -0.20434353722763551 0 -0.13028668286636291 -0.20456095131218849 0 -0.13589786844009979 -0.1981893966692142 0 -0.13028668286636291 -0.20456095131218849 0 -0.13589786844009979 -0.1981893966692142 0 -0.12570726048984121 -0.19136794154072639 0 -0.13589786844009979 -0.1981893966692142 0 -0.12570726048984121 -0.19136794154072639 0 -0.13996907400678371 -0.1879713947995747 0 -0.13589786844009979 -0.1981893966692142 0 -0.13996907400678371 -0.1879713947995747 0 -0.14324788897263141 -0.1939397719466433 0 -0.16444836310021591 -0.18742085310816081 0 -0.1562310247756741 -0.21031909907201399 0 -0.14425018340341639 -0.20434353722763551 0 -0.16444836310021591 -0.18742085310816081 0 -0.14425018340341639 -0.20434353722763551 0 -0.1501525800939332 -0.1916447189057128 0 -0.13996907400678371 -0.1879713947995747 0 -0.14324788897263141 -0.1939397719466433 0 -0.1501525800939332 -0.1916447189057128 0 -0.16444836310021591 -0.18742085310816081 0 -0.14425018340341639 -0.20434353722763551 0 -0.14324788897263141 -0.1939397719466433 0 -0.1438393783595823 -0.20119181774396139 0 -0.1501525800939332 -0.1916447189057128 0 -0.13589786844009979 -0.1981893966692142 0 -0.14324788897263141 -0.1939397719466433 0 -0.1438393783595823 -0.20119181774396139 0 -0.14425018340341639 -0.20434353722763551 0 -0.1438393783595823 -0.20119181774396139 0 -0.1501525800939332 -0.1916447189057128 0 -0.14425018340341639 -0.20434353722763551 0 -0.13589786844009979 -0.1981893966692142 0 -0.1438393783595823 -0.20119181774396139 0 -0.14425018340341639 -0.20434353722763551 0 -0.1438393783595823 -0.20119181774396139 0 -0.16444836310021591 -0.18742085310816081 0 -0.1562310247756741 -0.21031909907201399 0 -0.17185568473372059 -0.2057793685060926 0 -0.16444836310021591 -0.18742085310816081 0 -0.1562310247756741 -0.21031909907201399 0 -0.16444836310021591 -0.18742085310816081 0 -0.17486928145899069 -0.19032516174913211 0 -0.17185568473372059 -0.2057793685060926 0 -0.17486928145899069 -0.19032516174913211 0 -0.18706244460059909 -0.2145889397787471 0 -0.17486928145899069 -0.19032516174913211 0 -0.1845056998680506 -0.1960801791109146 0 -0.18748681253055749 -0.21170825556932521 0 -0.18499632321587209 -0.18632912630854739 0 -0.17486928145899069 -0.19032516174913211 0 -0.1845056998680506 -0.1960801791109146 0 -0.18499632321587209 -0.18632912630854739 0 -0.1845056998680506 -0.1960801791109146 0 -0.19067038226678221 -0.19595817281665379 0 -0.17486928145899069 -0.19032516174913211 0 -0.18706244460059909 -0.2145889397787471 0 -0.17185568473372059 -0.2057793685060926 0 -0.17486928145899069 -0.19032516174913211 0 -0.18748681253055749 -0.21170825556932521 0 -0.18706244460059909 -0.2145889397787471 0 -0.18706244460059909 -0.2145889397787471 0 -0.17185568473372059 -0.2057793685060926 0 -0.17053307858903199 -0.2216348908795131 0 -0.1562310247756741 -0.21031909907201399 0 -0.17185568473372059 -0.2057793685060926 0 -0.17053307858903199 -0.2216348908795131 0 -0.14801368645113169 -0.23321734503586691 0 -0.17053307858903199 -0.2216348908795131 0 -0.17357675764715999 -0.2365614148105982 0 -0.14801368645113169 -0.23321734503586691 0 -0.1562310247756741 -0.21031909907201399 0 -0.17053307858903199 -0.2216348908795131 0 -0.18706244460059909 -0.2145889397787471 0 -0.17053307858903199 -0.2216348908795131 0 -0.18313440094061359 -0.23187360603631829 0 -0.17053307858903199 -0.2216348908795131 0 -0.18313440094061359 -0.23187360603631829 0 -0.17357675764715999 -0.2365614148105982 0 -0.17357675764715999 -0.2365614148105982 0 -0.1831283259367055 -0.24646170020316219 0 -0.1633424338862392 -0.24834242444346341 0 -0.18313440094061359 -0.23187360603631829 0 -0.17357675764715999 -0.2365614148105982 0 -0.1831283259367055 -0.24646170020316219 0 -0.14801368645113169 -0.23321734503586691 0 -0.17357675764715999 -0.2365614148105982 0 -0.1633424338862392 -0.24834242444346341 0 -0.22216414812508381 -0.25556308654710619 0 -0.2085961274049509 -0.25204373705344069 0 -0.21496550729837299 -0.23978769946231451 0 -0.2085961274049509 -0.25204373705344069 0 -0.21496550729837299 -0.23978769946231451 0 -0.19925560774220741 -0.23885271780836209 0 -0.18313440094061359 -0.23187360603631829 0 -0.1831283259367055 -0.24646170020316219 0 -0.19925560774220741 -0.23885271780836209 0 -0.19542950224683009 -0.25775052655061859 0 -0.1831283259367055 -0.24646170020316219 0 -0.19925560774220741 -0.23885271780836209 0 -0.19542950224683009 -0.25775052655061859 0 -0.2085961274049509 -0.25204373705344069 0 -0.19925560774220741 -0.23885271780836209 0 -0.18706244460059909 -0.2145889397787471 0 -0.19925560774220741 -0.23885271780836209 0 -0.2058313297006428 -0.2201105782855487 0 -0.18706244460059909 -0.2145889397787471 0 -0.18313440094061359 -0.23187360603631829 0 -0.19925560774220741 -0.23885271780836209 0 -0.18706244460059909 -0.2145889397787471 0 -0.19925560774220741 -0.23885271780836209 0 -0.21496550729837299 -0.23978769946231451 0 -0.19925560774220741 -0.23885271780836209 0 -0.2058313297006428 -0.2201105782855487 0 -0.2058313297006428 -0.2201105782855487 0 -0.22417584687072811 -0.2285129010017721 0 -0.21496550729837299 -0.23978769946231451 0 -0.2058313297006428 -0.2201105782855487 0 -0.22417584687072811 -0.2285129010017721 0 -0.2058313297006428 -0.2201105782855487 0 -0.20230520973234409 -0.20335193225707091 0 -0.22325023517875819 -0.20615650830739701 0 -0.2058313297006428 -0.2201105782855487 0 -0.22325023517875819 -0.20615650830739701 0 -0.22417584687072811 -0.2285129010017721 0 -0.18748681253055749 -0.21170825556932521 0 -0.18706244460059909 -0.2145889397787471 0 -0.2058313297006428 -0.2201105782855487 0 -0.18748681253055749 -0.21170825556932521 0 -0.20230520973234409 -0.20335193225707091 0 -0.19067038226678221 -0.19595817281665379 0 -0.18748681253055749 -0.21170825556932521 0 -0.2058313297006428 -0.2201105782855487 0 -0.20230520973234409 -0.20335193225707091 0 -0.18748681253055749 -0.21170825556932521 0 -0.2058313297006428 -0.2201105782855487 0 -0.20230520973234409 -0.20335193225707091 0 -0.19067038226678221 -0.19595817281665379 0 -0.1972024346788554 -0.1837432770420826 0 -0.1845056998680506 -0.1960801791109146 0 -0.18748681253055749 -0.21170825556932521 0 -0.19067038226678221 -0.19595817281665379 0 -0.18499632321587209 -0.18632912630854739 0 -0.19067038226678221 -0.19595817281665379 0 -0.1972024346788554 -0.1837432770420826 0 -0.20230520973234409 -0.20335193225707091 0 -0.21146275887221511 -0.18994193191646019 0 -0.22325023517875819 -0.20615650830739701 0 -0.20230520973234409 -0.20335193225707091 0 -0.21146275887221511 -0.18994193191646019 0 -0.1972024346788554 -0.1837432770420826 0 -0.24224808373301501 -0.20222981672090101 0 -0.22325023517875819 -0.20615650830739701 0 -0.22580205168060069 -0.1802030052315193 0 -0.21146275887221511 -0.18994193191646019 0 -0.22325023517875819 -0.20615650830739701 0 -0.22580205168060069 -0.1802030052315193 0 -0.24224808373301501 -0.20222981672090101 0 -0.22580205168060069 -0.1802030052315193 0 -0.25474498459293587 -0.18904997959439709 0 -0.24224808373301501 -0.20222981672090101 0 -0.22325023517875819 -0.20615650830739701 0 -0.24189504502654169 -0.2203890017647181 0 -0.24224808373301501 -0.20222981672090101 0 -0.24189504502654169 -0.2203890017647181 0 -0.26070826614519721 -0.2083567688920665 0 -0.22325023517875819 -0.20615650830739701 0 -0.22417584687072811 -0.2285129010017721 0 -0.24189504502654169 -0.2203890017647181 0 -0.22417584687072811 -0.2285129010017721 0 -0.24252036404081309 -0.2369152237179962 0 -0.22417584687072811 -0.2285129010017721 0 -0.24487403972011709 -0.22855122397832259 0 -0.24252036404081309 -0.2369152237179962 0 -0.22417584687072811 -0.2285129010017721 0 -0.24189504502654169 -0.2203890017647181 0 -0.24487403972011709 -0.22855122397832259 0 -0.24189504502654169 -0.2203890017647181 0 -0.24487403972011709 -0.22855122397832259 0 -0.25250477308712949 -0.2265099558855713 0 -0.24487403972011709 -0.22855122397832259 0 -0.24252036404081309 -0.2369152237179962 0 -0.25250477308712949 -0.2265099558855713 0 -0.22417584687072811 -0.2285129010017721 0 -0.23683353244117369 -0.24176985931727299 0 -0.24252036404081309 -0.2369152237179962 0 -0.24188290406533 -0.23950624351627389 0 -0.2404023493560272 -0.2413194907562384 0 -0.24252036404081309 -0.2369152237179962 0 -0.23683353244117369 -0.24176985931727299 0 -0.2404023493560272 -0.2413194907562384 0 -0.24252036404081309 -0.2369152237179962 0 -0.24188290406533 -0.23950624351627389 0 -0.2404023493560272 -0.2413194907562384 0 -0.2435057183802378 -0.2424044402530191 0 -0.24188290406533 -0.23950624351627389 0 -0.24252036404081309 -0.2369152237179962 0 -0.2435057183802378 -0.2424044402530191 0 -0.2435057183802378 -0.2424044402530191 0 -0.24434930689386869 -0.24968832328900131 0 -0.25326344970455439 -0.24921698247872701 0 -0.24252036404081309 -0.2369152237179962 0 -0.2435057183802378 -0.2424044402530191 0 -0.25326344970455439 -0.24921698247872701 0 -0.23598303366787521 -0.2544663532418156 0 -0.2383615760939706 -0.24570410471229659 0 -0.22942034713982301 -0.2444031480609202 0 -0.23683353244117369 -0.24176985931727299 0 -0.2383615760939706 -0.24570410471229659 0 -0.22942034713982301 -0.2444031480609202 0 -0.23598303366787521 -0.2544663532418156 0 -0.24434930689386869 -0.24968832328900131 0 -0.2383615760939706 -0.24570410471229659 0 -0.2435057183802378 -0.2424044402530191 0 -0.24434930689386869 -0.24968832328900131 0 -0.2383615760939706 -0.24570410471229659 0 -0.23683353244117369 -0.24176985931727299 0 -0.2404023493560272 -0.2413194907562384 0 -0.2383615760939706 -0.24570410471229659 0 -0.2404023493560272 -0.2413194907562384 0 -0.2435057183802378 -0.2424044402530191 0 -0.2383615760939706 -0.24570410471229659 0 -0.21496550729837299 -0.23978769946231451 0 -0.22417584687072811 -0.2285129010017721 0 -0.22942034713982301 -0.2444031480609202 0 -0.22216414812508381 -0.25556308654710619 0 -0.21496550729837299 -0.23978769946231451 0 -0.22942034713982301 -0.2444031480609202 0 -0.22417584687072811 -0.2285129010017721 0 -0.23683353244117369 -0.24176985931727299 0 -0.22942034713982301 -0.2444031480609202 0 -0.20668734273359521 -0.1509462344612813 0 -0.22836585226830269 -0.14432215817699751 0 -0.20668734273359521 -0.1509462344612813 0 -0.20924177563600649 -0.13534065963961101 0 -0.22836585226830269 -0.14432215817699751 0 -0.20668734273359521 -0.1509462344612813 0 -0.20924177563600649 -0.13534065963961101 0 -0.19768577396171819 -0.1394263123758458 0 -0.2211198202754685 -0.1319415908395026 0 -0.21896419417125709 -0.1203112829452766 0 -0.21176171816064021 -0.12324555720773921 0 -0.20924177563600649 -0.13534065963961101 0 -0.2211198202754685 -0.1319415908395026 0 -0.21176171816064021 -0.12324555720773921 0 -0.20924177563600649 -0.13534065963961101 0 -0.21176171816064021 -0.12324555720773921 0 -0.1994101674429766 -0.1199845342109961 0 -0.20924177563600649 -0.13534065963961101 0 -0.19768577396171819 -0.1394263123758458 0 -0.1994101674429766 -0.1199845342109961 0 -0.18104381995857091 -0.14302210968128279 0 -0.19768577396171819 -0.1394263123758458 0 -0.1994101674429766 -0.1199845342109961 0 -0.18104381995857091 -0.14302210968128279 0 -0.1994101674429766 -0.1199845342109961 0 -0.18500883319888761 -0.15757031074556499 0 -0.20668734273359521 -0.1509462344612813 0 -0.18104381995857091 -0.14302210968128279 0 -0.19768577396171819 -0.1394263123758458 0 -0.19260644246319311 -0.14774124181599391 0 -0.18500883319888761 -0.15757031074556499 0 -0.20668734273359521 -0.1509462344612813 0 -0.19260644246319311 -0.14774124181599391 0 -0.20668734273359521 -0.1509462344612813 0 -0.19768577396171819 -0.1394263123758458 0 -0.19260644246319311 -0.14774124181599391 0 -0.18650583006974161 -0.1630630065197918 0 -0.18500883319888761 -0.15757031074556499 0 -0.20270616313923739 -0.16718063929361629 0 -0.18650583006974161 -0.1630630065197918 0 -0.20270616313923739 -0.16718063929361629 0 -0.19114585085426569 -0.17219698820699511 0 -0.18500883319888761 -0.15757031074556499 0 -0.20668734273359521 -0.1509462344612813 0 -0.20270616313923739 -0.16718063929361629 0 -0.20270616313923739 -0.16718063929361629 0 -0.19114585085426569 -0.17219698820699511 0 -0.1972024346788554 -0.1837432770420826 0 -0.18551238176784271 -0.17733795679332701 0 -0.18499632321587209 -0.18632912630854739 0 -0.1972024346788554 -0.1837432770420826 0 -0.18551238176784271 -0.17733795679332701 0 -0.19114585085426569 -0.17219698820699511 0 -0.1972024346788554 -0.1837432770420826 0 -0.21146275887221511 -0.18994193191646019 0 -0.20270616313923739 -0.16718063929361629 0 -0.1972024346788554 -0.1837432770420826 0 -0.21146275887221511 -0.18994193191646019 0 -0.20270616313923739 -0.16718063929361629 0 -0.22580205168060069 -0.1802030052315193 0 -0.20270616313923739 -0.16718063929361629 0 -0.22668588880058721 -0.16072016637776601 0 -0.22580205168060069 -0.1802030052315193 0 -0.20668734273359521 -0.1509462344612813 0 -0.20270616313923739 -0.16718063929361629 0 -0.22668588880058721 -0.16072016637776601 0 -0.22580205168060069 -0.1802030052315193 0 -0.2530619017956105 -0.1689134438408601 0 -0.22580205168060069 -0.1802030052315193 0 -0.25474498459293587 -0.18904997959439709 0 -0.2530619017956105 -0.1689134438408601 0 -0.22668588880058721 -0.16072016637776601 0 -0.24349202118617669 -0.15275551726232131 0 -0.2530619017956105 -0.1689134438408601 0 -0.22668588880058721 -0.16072016637776601 0 -0.22580205168060069 -0.1802030052315193 0 -0.2530619017956105 -0.1689134438408601 0 -0.22836585226830269 -0.14432215817699751 0 -0.25004436180301032 -0.13769808189271379 0 -0.24349202118617669 -0.15275551726232131 0 -0.22836585226830269 -0.14432215817699751 0 -0.25004436180301032 -0.13769808189271379 0 -0.22668588880058721 -0.16072016637776601 0 -0.24349202118617669 -0.15275551726232131 0 -0.22836585226830269 -0.14432215817699751 0 -0.20668734273359521 -0.1509462344612813 0 -0.22668588880058721 -0.16072016637776601 0 -0.22836585226830269 -0.14432215817699751 0 -0.20924177563600649 -0.13534065963961101 0 -0.22836585226830269 -0.14432215817699751 0 -0.2211198202754685 -0.1319415908395026 0 -0.2211198202754685 -0.1319415908395026 0 -0.2339709384586745 -0.13671145350930181 0 -0.23491245244405129 -0.12996608631745779 0 -0.22836585226830269 -0.14432215817699751 0 -0.2211198202754685 -0.1319415908395026 0 -0.2339709384586745 -0.13671145350930181 0 -0.2211198202754685 -0.1319415908395026 0 -0.23491245244405129 -0.12996608631745779 0 -0.226031113501033 -0.1170640876451315 0 -0.22836585226830269 -0.14432215817699751 0 -0.2339709384586745 -0.13671145350930181 0 -0.25004436180301032 -0.13769808189271379 0 -0.2339709384586745 -0.13671145350930181 0 -0.2421882661673623 -0.1342162083483999 0 -0.25004436180301032 -0.13769808189271379 0 -0.23491245244405129 -0.12996608631745779 0 -0.226031113501033 -0.1170640876451315 0 -0.25030223064789259 -0.1321082191367223 0 -0.2339709384586745 -0.13671145350930181 0 -0.23491245244405129 -0.12996608631745779 0 -0.2421882661673623 -0.1342162083483999 0 -0.2421882661673623 -0.1342162083483999 0 -0.25030223064789259 -0.1321082191367223 0 -0.25004436180301032 -0.13769808189271379 0 -0.23491245244405129 -0.12996608631745779 0 -0.2421882661673623 -0.1342162083483999 0 -0.25030223064789259 -0.1321082191367223 0 -0.24120802237439709 -0.1194401866379733 0 -0.226031113501033 -0.1170640876451315 0 -0.25030223064789259 -0.1321082191367223 0 -0.24120802237439709 -0.1194401866379733 0 -0.25127600885182111 -0.1207935333161253 0 -0.25030223064789259 -0.1321082191367223 0 -0.226031113501033 -0.1170640876451315 0 -0.25030223064789259 -0.1321082191367223 0 -0.2351082592218304 -0.1125823311022742 0 -0.2408745329879505 -0.1126369953606932 0 -0.23854971147061579 -0.1048967624745798 0 -0.24120802237439709 -0.1194401866379733 0 -0.2351082592218304 -0.1125823311022742 0 -0.2408745329879505 -0.1126369953606932 0 -0.24120802237439709 -0.1194401866379733 0 -0.2408745329879505 -0.1126369953606932 0 -0.2478381361207303 -0.1111100829214466 0 -0.2408745329879505 -0.1126369953606932 0 -0.2478381361207303 -0.1111100829214466 0 -0.23854971147061579 -0.1048967624745798 0 -0.24120802237439709 -0.1194401866379733 0 -0.2478381361207303 -0.1111100829214466 0 -0.25127600885182111 -0.1207935333161253 0 -0.22880806052069669 -0.1086520388713752 0 -0.23809773504415799 -0.080511352488007504 0 -0.24398573986649591 -0.092599113663045754 0 -0.23854971147061579 -0.1048967624745798 0 -0.22880806052069669 -0.1086520388713752 0 -0.24398573986649591 -0.092599113663045754 0 -0.23854971147061579 -0.1048967624745798 0 -0.24398573986649591 -0.092599113663045754 0 -0.25445804849926851 -0.1035680778320642 0 -0.2478381361207303 -0.1111100829214466 0 -0.23854971147061579 -0.1048967624745798 0 -0.25445804849926851 -0.1035680778320642 0 -0.23854971147061579 -0.1048967624745798 0 -0.22880806052069669 -0.1086520388713752 0 -0.2351082592218304 -0.1125823311022742 0 -0.23854971147061579 -0.1048967624745798 0 -0.22880806052069669 -0.1086520388713752 0 -0.22880806052069669 -0.1086520388713752 0 -0.23809773504415799 -0.080511352488007504 0 -0.22880806052069669 -0.1086520388713752 0 -0.21955152596569991 -0.094419051894296183 0 -0.23809773504415799 -0.080511352488007504 0 -0.22880806052069669 -0.1086520388713752 0 -0.21955152596569991 -0.094419051894296183 0 -0.22044864111786411 -0.104505409072636 0 -0.22880806052069669 -0.1086520388713752 0 -0.22044864111786411 -0.104505409072636 0 -0.21872841625361819 -0.1125376071799505 0 -0.22880806052069669 -0.1086520388713752 0 -0.226031113501033 -0.1170640876451315 0 -0.21872841625361819 -0.1125376071799505 0 -0.22880806052069669 -0.1086520388713752 0 -0.21872841625361819 -0.1125376071799505 0 -0.226031113501033 -0.1170640876451315 0 -0.21896419417125709 -0.1203112829452766 0 -0.21872841625361819 -0.1125376071799505 0 -0.226031113501033 -0.1170640876451315 0 -0.21872841625361819 -0.1125376071799505 0 -0.2211198202754685 -0.1319415908395026 0 -0.226031113501033 -0.1170640876451315 0 -0.2211198202754685 -0.1319415908395026 0 -0.226031113501033 -0.1170640876451315 0 -0.21896419417125709 -0.1203112829452766 0 -0.22880806052069669 -0.1086520388713752 0 -0.226031113501033 -0.1170640876451315 0 -0.2351082592218304 -0.1125823311022742 0 -0.22880806052069669 -0.1086520388713752 0 -0.226031113501033 -0.1170640876451315 0 -0.24120802237439709 -0.1194401866379733 0 -0.2351082592218304 -0.1125823311022742 0 -0.226031113501033 -0.1170640876451315 0 -0.23809773504415799 -0.080511352488007504 0 -0.2272234272434013 -0.060330195903647417 0 -0.24738740956761601 -0.052370666104638718 0 -0.23809773504415799 -0.080511352488007504 0 -0.24738740956761601 -0.052370666104638718 0 -0.23809773504415799 -0.080511352488007504 0 -0.24738740956761601 -0.052370666104638718 0 -0.25898461841731502 -0.073915256537161383 0 -0.23809773504415799 -0.080511352488007504 0 -0.24398573986649591 -0.092599113663045754 0 -0.25898461841731502 -0.073915256537161383 0 -0.21955152596569991 -0.094419051894296183 0 -0.23809773504415799 -0.080511352488007504 0 -0.2192936703339923 -0.076245823293276421 0 -0.23809773504415799 -0.080511352488007504 0 -0.2192936703339923 -0.076245823293276421 0 -0.2272234272434013 -0.060330195903647417 0 -0.2192936703339923 -0.076245823293276421 0 -0.20653881105991409 -0.062053291343171363 0 -0.2272234272434013 -0.060330195903647417 0 -0.2192936703339923 -0.076245823293276421 0 -0.20480389978589539 -0.084868085077447475 0 -0.20653881105991409 -0.062053291343171363 0 -0.21955152596569991 -0.094419051894296183 0 -0.2192936703339923 -0.076245823293276421 0 -0.20480389978589539 -0.084868085077447475 0 -0.21955152596569991 -0.094419051894296183 0 -0.20480389978589539 -0.084868085077447475 0 -0.20869820181576071 -0.095935945270887155 0 -0.20480389978589539 -0.084868085077447475 0 -0.20869820181576071 -0.095935945270887155 0 -0.20042895118978479 -0.094571214560788597 0 -0.20480389978589539 -0.084868085077447475 0 -0.18927172455835151 -0.094279265774014492 0 -0.18743505908263899 -0.07255620770851641 0 -0.20480389978589539 -0.084868085077447475 0 -0.20042895118978479 -0.094571214560788597 0 -0.18927172455835151 -0.094279265774014492 0 -0.20480389978589539 -0.084868085077447475 0 -0.18743505908263899 -0.07255620770851641 0 -0.20653881105991409 -0.062053291343171363 0 -0.20656195550121809 -0.1110137871814537 0 -0.21872841625361819 -0.1125376071799505 0 -0.1994101674429766 -0.1199845342109961 0 -0.21872841625361819 -0.1125376071799505 0 -0.1994101674429766 -0.1199845342109961 0 -0.21176171816064021 -0.12324555720773921 0 -0.21872841625361819 -0.1125376071799505 0 -0.1994101674429766 -0.1199845342109961 0 -0.21896419417125709 -0.1203112829452766 0 -0.21176171816064021 -0.12324555720773921 0 -0.21872841625361819 -0.1125376071799505 0 -0.21872841625361819 -0.1125376071799505 0 -0.21470656173143859 -0.10241293834492091 0 -0.20400007040598481 -0.1034084364769825 0 -0.22044864111786411 -0.104505409072636 0 -0.21872841625361819 -0.1125376071799505 0 -0.21470656173143859 -0.10241293834492091 0 -0.21872841625361819 -0.1125376071799505 0 -0.20400007040598481 -0.1034084364769825 0 -0.21955152596569991 -0.094419051894296183 0 -0.22044864111786411 -0.104505409072636 0 -0.21470656173143859 -0.10241293834492091 0 -0.21955152596569991 -0.094419051894296183 0 -0.21470656173143859 -0.10241293834492091 0 -0.20869820181576071 -0.095935945270887155 0 -0.21470656173143859 -0.10241293834492091 0 -0.20869820181576071 -0.095935945270887155 0 -0.20400007040598481 -0.1034084364769825 0 -0.20869820181576071 -0.095935945270887155 0 -0.20400007040598481 -0.1034084364769825 0 -0.20042895118978479 -0.094571214560788597 0 -0.20656195550121809 -0.1110137871814537 0 -0.21872841625361819 -0.1125376071799505 0 -0.20400007040598481 -0.1034084364769825 0 -0.20656195550121809 -0.1110137871814537 0 -0.20400007040598481 -0.1034084364769825 0 -0.20013779006105781 -0.1107556060333484 0 -0.20400007040598481 -0.1034084364769825 0 -0.19057896689405229 -0.1086156662639616 0 -0.20013779006105781 -0.1107556060333484 0 -0.20400007040598481 -0.1034084364769825 0 -0.18927172455835151 -0.094279265774014492 0 -0.20400007040598481 -0.1034084364769825 0 -0.20042895118978479 -0.094571214560788597 0 -0.18927172455835151 -0.094279265774014492 0 -0.20400007040598481 -0.1034084364769825 0 -0.18927172455835151 -0.094279265774014492 0 -0.19057896689405229 -0.1086156662639616 0 -0.1771081724190843 -0.12858165557627399 0 -0.19057896689405229 -0.1086156662639616 0 -0.1994101674429766 -0.1199845342109961 0 -0.1771081724190843 -0.12858165557627399 0 -0.1994101674429766 -0.1199845342109961 0 -0.19057896689405229 -0.1086156662639616 0 -0.20013779006105781 -0.1107556060333484 0 -0.1994101674429766 -0.1199845342109961 0 -0.20656195550121809 -0.1110137871814537 0 -0.1994101674429766 -0.1199845342109961 0 -0.20656195550121809 -0.1110137871814537 0 -0.20013779006105781 -0.1107556060333484 0 -0.1994101674429766 -0.1199845342109961 0 -0.1771081724190843 -0.12858165557627399 0 -0.19057896689405229 -0.1086156662639616 0 -0.16943805513155391 -0.1004388974762247 0 -0.1771081724190843 -0.12858165557627399 0 -0.16943805513155391 -0.1004388974762247 0 -0.1771081724190843 -0.12858165557627399 0 -0.15968283676074191 -0.112895103098321 0 -0.15639221479190751 -0.1247511956167188 0 -0.1771081724190843 -0.12858165557627399 0 -0.15968283676074191 -0.112895103098321 0 -0.16943805513155391 -0.1004388974762247 0 -0.15968283676074191 -0.112895103098321 0 -0.16943805513155391 -0.1004388974762247 0 -0.1488953705524762 -0.095491872655267152 0 -0.18927172455835151 -0.094279265774014492 0 -0.19057896689405229 -0.1086156662639616 0 -0.16943805513155391 -0.1004388974762247 0 -0.18927172455835151 -0.094279265774014492 0 -0.17697819415414109 -0.084892627583732963 0 -0.18743505908263899 -0.07255620770851641 0 -0.18927172455835151 -0.094279265774014492 0 -0.16943805513155391 -0.1004388974762247 0 -0.17697819415414109 -0.084892627583732963 0 -0.17697819415414109 -0.084892627583732963 0 -0.18743505908263899 -0.07255620770851641 0 -0.1617679378440198 -0.07229613937617628 0 -0.18743505908263899 -0.07255620770851641 0 -0.1617679378440198 -0.07229613937617628 0 -0.18116055476129331 -0.050442219006726248 0 -0.16943805513155391 -0.1004388974762247 0 -0.1617679378440198 -0.07229613937617628 0 -0.1488953705524762 -0.095491872655267152 0 -0.16943805513155391 -0.1004388974762247 0 -0.1617679378440198 -0.07229613937617628 0 -0.16943805513155391 -0.1004388974762247 0 -0.17697819415414109 -0.084892627583732963 0 -0.1617679378440198 -0.07229613937617628 0 -0.1617679378440198 -0.07229613937617628 0 -0.13633038379660131 -0.074063236049282374 0 -0.1488953705524762 -0.095491872655267152 0 -0.1617679378440198 -0.07229613937617628 0 -0.13633038379660131 -0.074063236049282374 0 -0.14562926598361531 -0.060306743544835208 0 -0.1187552070582093 -0.067549590777025603 0 -0.13633038379660131 -0.074063236049282374 0 -0.13032092173735429 -0.050714217477754273 0 -0.13633038379660131 -0.074063236049282374 0 -0.1334417440853771 -0.090193745912829346 0 -0.1488953705524762 -0.095491872655267152 0 -0.1178841669001897 -0.087472175321314793 0 -0.13633038379660131 -0.074063236049282374 0 -0.1334417440853771 -0.090193745912829346 0 -0.1178841669001897 -0.087472175321314793 0 -0.1334417440853771 -0.090193745912829346 0 -0.13065705509224121 -0.1037476996254531 0 -0.1334417440853771 -0.090193745912829346 0 -0.13065705509224121 -0.1037476996254531 0 -0.1488953705524762 -0.095491872655267152 0 -0.13092690364411441 -0.1265409505354686 0 -0.13065705509224121 -0.1037476996254531 0 -0.14658037090868781 -0.1152118941671207 0 -0.11545733997741971 -0.10929442453651091 0 -0.13092690364411441 -0.1265409505354686 0 -0.13065705509224121 -0.1037476996254531 0 -0.13092690364411441 -0.1265409505354686 0 -0.14585925972330091 -0.12642845074079229 0 -0.14658037090868781 -0.1152118941671207 0 -0.15968283676074191 -0.112895103098321 0 -0.15639221479190751 -0.1247511956167188 0 -0.14658037090868781 -0.1152118941671207 0 -0.14585925972330091 -0.12642845074079229 0 -0.15639221479190751 -0.1247511956167188 0 -0.14658037090868781 -0.1152118941671207 0 -0.15968283676074191 -0.112895103098321 0 -0.14658037090868781 -0.1152118941671207 0 -0.1488953705524762 -0.095491872655267152 0 -0.13065705509224121 -0.1037476996254531 0 -0.14658037090868781 -0.1152118941671207 0 -0.1488953705524762 -0.095491872655267152 0 -0.14642770326895321 -0.016010623176079181 0 -0.15409782055648569 -0.044153381276127952 0 -0.14642770326895321 -0.016010623176079181 0 -0.15409782055648569 -0.044153381276127952 0 -0.1672904820072624 -0.026983347752226772 0 -0.14642770326895321 -0.016010623176079181 0 -0.13098577720095919 -0.025235662709939741 0 -0.15409782055648569 -0.044153381276127952 0 -0.14642770326895321 -0.016010623176079181 0 -0.14227034481614481 -0.00075667999809755221 0 -0.1645487358015624 -0.0051850797321069536 0 -0.14642770326895321 -0.016010623176079181 0 -0.1645487358015624 -0.0051850797321069536 0 -0.14642770326895321 -0.016010623176079181 0 -0.14227034481614481 -0.00075667999809755221 0 -0.12182524733560091 -0.015523096402856359 0 -0.14642770326895321 -0.016010623176079181 0 -0.14227034481614481 -0.00075667999809755221 0 -0.12182524733560091 -0.015523096402856359 0 -0.12854145031494629 0.0047253962359545196 0 -0.12182524733560091 -0.015523096402856359 0 -0.14227034481614481 -0.00075667999809755221 0 -0.12854145031494629 0.0047253962359545196 0 -0.12182524733560091 -0.015523096402856359 0 -0.14227034481614481 -0.00075667999809755221 0 -0.12182524733560091 -0.015523096402856359 0 -0.14642770326895321 -0.016010623176079181 0 -0.13098577720095919 -0.025235662709939741 0 -0.14642770326895321 -0.016010623176079181 0 -0.13098577720095919 -0.025235662709939741 0 -0.1155438511329643 -0.034460702243798817 0 -0.13098577720095919 -0.025235662709939741 0 -0.13032092173735429 -0.050714217477754273 0 -0.13098577720095919 -0.025235662709939741 0 -0.13032092173735429 -0.050714217477754273 0 -0.15409782055648569 -0.044153381276127952 0 -0.13633038379660131 -0.074063236049282374 0 -0.13032092173735429 -0.050714217477754273 0 -0.14562926598361531 -0.060306743544835208 0 -0.1617679378440198 -0.07229613937617628 0 -0.14562926598361531 -0.060306743544835208 0 -0.15409782055648569 -0.044153381276127952 0 -0.13032092173735429 -0.050714217477754273 0 -0.14562926598361531 -0.060306743544835208 0 -0.15409782055648569 -0.044153381276127952 0 -0.15409782055648569 -0.044153381276127952 0 -0.18116055476129331 -0.050442219006726248 0 -0.1672904820072624 -0.026983347752226772 0 -0.1617679378440198 -0.07229613937617628 0 -0.15409782055648569 -0.044153381276127952 0 -0.18116055476129331 -0.050442219006726248 0 -0.1617679378440198 -0.07229613937617628 0 -0.15409782055648569 -0.044153381276127952 0 -0.18116055476129331 -0.050442219006726248 0 -0.1873835636720092 -0.032194723117865642 0 -0.1672904820072624 -0.026983347752226772 0 -0.1873835636720092 -0.032194723117865642 0 -0.1672904820072624 -0.026983347752226772 0 -0.1826544244738543 -0.01231190546291203 0 -0.14642770326895321 -0.016010623176079181 0 -0.1672904820072624 -0.026983347752226772 0 -0.1645487358015624 -0.0051850797321069536 0 -0.1672904820072624 -0.026983347752226772 0 -0.1645487358015624 -0.0051850797321069536 0 -0.1826544244738543 -0.01231190546291203 0 -0.1826544244738543 -0.01231190546291203 0 -0.17677062004640959 0.0057961302073779933 0 -0.1934257132969133 0.0045407741827038824 0 -0.1645487358015624 -0.0051850797321069536 0 -0.1826544244738543 -0.01231190546291203 0 -0.17677062004640959 0.0057961302073779933 0 -0.1826544244738543 -0.01231190546291203 0 -0.2099765986836159 -0.015482271656309349 0 -0.1934257132969133 0.0045407741827038824 0 -0.1873835636720092 -0.032194723117865642 0 -0.2099765986836159 -0.015482271656309349 0 -0.20361020910672309 -0.042858442472999407 0 -0.1873835636720092 -0.032194723117865642 0 -0.1826544244738543 -0.01231190546291203 0 -0.2099765986836159 -0.015482271656309349 0 -0.18116055476129331 -0.050442219006726248 0 -0.20361020910672309 -0.042858442472999407 0 -0.20653881105991409 -0.062053291343171363 0 -0.18743505908263899 -0.07255620770851641 0 -0.18116055476129331 -0.050442219006726248 0 -0.20653881105991409 -0.062053291343171363 0 -0.18116055476129331 -0.050442219006726248 0 -0.1873835636720092 -0.032194723117865642 0 -0.20361020910672309 -0.042858442472999407 0 -0.2099765986836159 -0.015482271656309349 0 -0.20361020910672309 -0.042858442472999407 0 -0.22259376379314111 -0.03877878758358129 0 -0.20361020910672309 -0.042858442472999407 0 -0.20653881105991409 -0.062053291343171363 0 -0.22259376379314111 -0.03877878758358129 0 -0.22259376379314111 -0.03877878758358129 0 -0.24738740956761601 -0.052370666104638718 0 -0.24406646980874039 -0.020222515413696619 0 -0.2272234272434013 -0.060330195903647417 0 -0.22259376379314111 -0.03877878758358129 0 -0.24738740956761601 -0.052370666104638718 0 -0.20653881105991409 -0.062053291343171363 0 -0.2272234272434013 -0.060330195903647417 0 -0.22259376379314111 -0.03877878758358129 0 -0.2099765986836159 -0.015482271656309349 0 -0.24406646980874039 -0.020222515413696619 0 -0.2337160865262925 0.0017344760905013 0 -0.2099765986836159 -0.015482271656309349 0 -0.22259376379314111 -0.03877878758358129 0 -0.24406646980874039 -0.020222515413696619 0 -0.24406646980874039 -0.020222515413696619 0 -0.2524730899657871 0.002620317666743947 0 -0.2337160865262925 0.0017344760905013 0 -0.24406646980874039 -0.020222515413696619 0 -0.27256492024186901 -0.011683114862415271 0 -0.2524730899657871 0.002620317666743947 0 -0.24406646980874039 -0.020222515413696619 0 -0.27256492024186901 -0.011683114862415271 0 -0.26506042169409361 -0.035987677109705463 0 -0.27256492024186901 -0.011683114862415271 0 -0.28842934899257278 -0.037937465970881462 0 -0.26506042169409361 -0.035987677109705463 0 -0.27256492024186901 -0.011683114862415271 0 -0.29336439161630767 -0.015729301795790272 0 -0.28763510092564448 0.01396908177017148 0 -0.27256492024186901 -0.011683114862415271 0 -0.29336439161630767 -0.015729301795790272 0 -0.28842934899257278 -0.037937465970881462 0 -0.29336439161630767 -0.015729301795790272 0 -0.28842934899257278 -0.037937465970881462 0 -0.31352583540375728 -0.027574284799572871 0 -0.29336439161630767 -0.015729301795790272 0 -0.31314961176658529 -0.0081441385305092706 0 -0.31352583540375728 -0.027574284799572871 0 -0.29336439161630767 -0.015729301795790272 0 -0.31314961176658529 -0.0081441385305092706 0 -0.28763510092564448 0.01396908177017148 0 -0.30532052086078171 -0.050521538229011752 0 -0.28842934899257278 -0.037937465970881462 0 -0.28741309656698638 -0.069337693907746717 0 -0.28842934899257278 -0.037937465970881462 0 -0.26933249423323818 -0.054788489874417833 0 -0.28741309656698638 -0.069337693907746717 0 -0.30532052086078171 -0.050521538229011752 0 -0.28842934899257278 -0.037937465970881462 0 -0.31352583540375728 -0.027574284799572871 0 -0.24738740956761601 -0.052370666104638718 0 -0.24406646980874039 -0.020222515413696619 0 -0.26506042169409361 -0.035987677109705463 0 -0.28842934899257278 -0.037937465970881462 0 -0.26933249423323818 -0.054788489874417833 0 -0.26506042169409361 -0.035987677109705463 0 -0.24738740956761601 -0.052370666104638718 0 -0.26933249423323818 -0.054788489874417833 0 -0.26506042169409361 -0.035987677109705463 0 -0.24738740956761601 -0.052370666104638718 0 -0.26933249423323818 -0.054788489874417833 0 -0.25898461841731502 -0.073915256537161383 0 -0.24398573986649591 -0.092599113663045754 0 -0.25898461841731502 -0.073915256537161383 0 -0.26799744726159153 -0.091687378314134163 0 -0.26799744726159153 -0.091687378314134163 0 -0.28741309656698638 -0.069337693907746717 0 -0.28741583458053582 -0.093048312189451948 0 -0.25898461841731502 -0.073915256537161383 0 -0.26799744726159153 -0.091687378314134163 0 -0.28741309656698638 -0.069337693907746717 0 -0.26933249423323818 -0.054788489874417833 0 -0.25898461841731502 -0.073915256537161383 0 -0.28741309656698638 -0.069337693907746717 0 -0.25819375882274559 -0.11427773087739269 0 -0.26759886816990708 -0.1173464856508443 0 -0.26106186369438761 -0.12502239806573329 0 -0.25127600885182111 -0.1207935333161253 0 -0.25819375882274559 -0.11427773087739269 0 -0.26106186369438761 -0.12502239806573329 0 -0.2478381361207303 -0.1111100829214466 0 -0.25127600885182111 -0.1207935333161253 0 -0.25819375882274559 -0.11427773087739269 0 -0.2478381361207303 -0.1111100829214466 0 -0.25819375882274559 -0.11427773087739269 0 -0.25445804849926851 -0.1035680778320642 0 -0.25819375882274559 -0.11427773087739269 0 -0.27018349745343168 -0.1068373987417861 0 -0.26759886816990708 -0.1173464856508443 0 -0.26799744726159153 -0.091687378314134163 0 -0.25445804849926851 -0.1035680778320642 0 -0.27018349745343168 -0.1068373987417861 0 -0.25819375882274559 -0.11427773087739269 0 -0.25445804849926851 -0.1035680778320642 0 -0.27018349745343168 -0.1068373987417861 0 -0.24398573986649591 -0.092599113663045754 0 -0.26799744726159153 -0.091687378314134163 0 -0.25445804849926851 -0.1035680778320642 0 -0.27018349745343168 -0.1068373987417861 0 -0.28220425536107069 -0.11748960263554931 0 -0.28741583458053582 -0.093048312189451948 0 -0.26799744726159153 -0.091687378314134163 0 -0.27018349745343168 -0.1068373987417861 0 -0.28741583458053582 -0.093048312189451948 0 -0.27018349745343168 -0.1068373987417861 0 -0.26759886816990708 -0.1173464856508443 0 -0.28220425536107069 -0.11748960263554931 0 -0.26759886816990708 -0.1173464856508443 0 -0.28220425536107069 -0.11748960263554931 0 -0.27072370109804039 -0.1273500930325199 0 -0.26759886816990708 -0.1173464856508443 0 -0.26106186369438761 -0.12502239806573329 0 -0.27072370109804039 -0.1273500930325199 0 -0.28220425536107069 -0.11748960263554931 0 -0.30210540009272469 -0.1104384698647544 0 -0.29439136700192092 -0.13115029502462081 0 -0.28220425536107069 -0.11748960263554931 0 -0.30210540009272469 -0.1104384698647544 0 -0.28741583458053582 -0.093048312189451948 0 -0.30210540009272469 -0.1104384698647544 0 -0.3037180262208955 -0.085387511552541026 0 -0.31985354906786451 -0.093904143806664828 0 -0.30210540009272469 -0.1104384698647544 0 -0.28741583458053582 -0.093048312189451948 0 -0.3037180262208955 -0.085387511552541026 0 -0.30210540009272469 -0.1104384698647544 0 -0.31985354906786451 -0.093904143806664828 0 -0.30210540009272469 -0.1104384698647544 0 -0.29439136700192092 -0.13115029502462081 0 -0.3154463265729513 -0.12676884881984379 0 -0.28741309656698638 -0.069337693907746717 0 -0.28741583458053582 -0.093048312189451948 0 -0.3037180262208955 -0.085387511552541026 0 -0.28741309656698638 -0.069337693907746717 0 -0.3037180262208955 -0.085387511552541026 0 -0.31541355214619698 -0.067866478841462158 0 -0.30532052086078171 -0.050521538229011752 0 -0.28741309656698638 -0.069337693907746717 0 -0.31541355214619698 -0.067866478841462158 0 -0.3037180262208955 -0.085387511552541026 0 -0.31541355214619698 -0.067866478841462158 0 -0.31985354906786451 -0.093904143806664828 0 -0.31541355214619698 -0.067866478841462158 0 -0.33760169804300427 -0.077369817748575181 0 -0.31985354906786451 -0.093904143806664828 0 -0.33760169804300427 -0.077369817748575181 0 -0.31985354906786451 -0.093904143806664828 0 -0.33914554028312821 -0.094863814424989923 0 -0.33760169804300427 -0.077369817748575181 0 -0.31985354906786451 -0.093904143806664828 0 -0.31541355214619698 -0.067866478841462158 0 -0.33760169804300427 -0.077369817748575181 0 -0.33872230242454149 -0.052308041145211308 0 -0.33195595105886838 -0.1127223960201493 0 -0.3154463265729513 -0.12676884881984379 0 -0.33484145214063982 -0.13504475966888241 0 -0.30210540009272469 -0.1104384698647544 0 -0.33195595105886838 -0.1127223960201493 0 -0.3154463265729513 -0.12676884881984379 0 -0.30210540009272469 -0.1104384698647544 0 -0.31985354906786451 -0.093904143806664828 0 -0.33195595105886838 -0.1127223960201493 0 -0.33914554028312821 -0.094863814424989923 0 -0.33195595105886838 -0.1127223960201493 0 -0.35626605292775482 -0.10249292726764191 0 -0.31985354906786451 -0.093904143806664828 0 -0.33914554028312821 -0.094863814424989923 0 -0.33195595105886838 -0.1127223960201493 0 -0.33195595105886838 -0.1127223960201493 0 -0.33484145214063982 -0.13504475966888241 0 -0.35603333632701561 -0.12554380828826811 0 -0.33195595105886838 -0.1127223960201493 0 -0.35626605292775482 -0.10249292726764191 0 -0.35603333632701561 -0.12554380828826811 0 -0.33914554028312821 -0.094863814424989923 0 -0.35626605292775482 -0.10249292726764191 0 -0.35485967490135928 -0.083907783265857225 0 -0.35626605292775482 -0.10249292726764191 0 -0.37550420936536277 -0.093343086593504876 0 -0.38105015918785412 -0.1170517985583005 0 -0.35626605292775482 -0.10249292726764191 0 -0.35603333632701561 -0.12554380828826811 0 -0.38105015918785412 -0.1170517985583005 0 -0.33760169804300427 -0.077369817748575181 0 -0.35534984701814398 -0.060835491690485542 0 -0.33872230242454149 -0.052308041145211308 0 -0.33760169804300427 -0.077369817748575181 0 -0.35534984701814398 -0.060835491690485542 0 -0.33760169804300427 -0.077369817748575181 0 -0.35485967490135928 -0.083907783265857225 0 -0.35534984701814398 -0.060835491690485542 0 -0.33760169804300427 -0.077369817748575181 0 -0.33914554028312821 -0.094863814424989923 0 -0.35485967490135928 -0.083907783265857225 0 -0.35485967490135928 -0.083907783265857225 0 -0.36954043907186451 -0.075056641139928049 0 -0.37550420936536277 -0.093343086593504876 0 -0.35626605292775482 -0.10249292726764191 0 -0.35485967490135928 -0.083907783265857225 0 -0.37550420936536277 -0.093343086593504876 0 -0.35485967490135928 -0.083907783265857225 0 -0.36954043907186451 -0.075056641139928049 0 -0.35534984701814398 -0.060835491690485542 0 -0.36954043907186451 -0.075056641139928049 0 -0.35534984701814398 -0.060835491690485542 0 -0.38460502433228499 -0.060895238748742121 0 -0.35534984701814398 -0.060835491690485542 0 -0.37309799599328392 -0.044301165632395917 0 -0.38460502433228499 -0.060895238748742121 0 -0.35534984701814398 -0.060835491690485542 0 -0.37309799599328392 -0.044301165632395917 0 -0.35534984701814398 -0.060835491690485542 0 -0.35188825096228182 -0.038876239122399937 0 -0.37309799599328392 -0.044301165632395917 0 -0.35534984701814398 -0.060835491690485542 0 -0.35188825096228182 -0.038876239122399937 0 -0.33872230242454149 -0.052308041145211308 0 -0.35188825096228182 -0.038876239122399937 0 -0.3622989416244346 -0.031909157371975243 0 -0.35467568002401301 -0.029341415354986002 0 -0.3622989416244346 -0.031909157371975243 0 -0.37309799599328392 -0.044301165632395917 0 -0.37386469003277067 -0.025622291247220749 0 -0.35188825096228182 -0.038876239122399937 0 -0.3622989416244346 -0.031909157371975243 0 -0.37309799599328392 -0.044301165632395917 0 -0.37386469003277067 -0.025622291247220749 0 -0.36704294731186271 -0.0046943202715755018 0 -0.35874664073871437 -0.022099560746481731 0 -0.3622989416244346 -0.031909157371975243 0 -0.37386469003277067 -0.025622291247220749 0 -0.35874664073871437 -0.022099560746481731 0 -0.36704294731186271 -0.0046943202715755018 0 -0.35874664073871437 -0.022099560746481731 0 -0.35312068326451168 -0.0160452109766131 0 -0.37386469003277067 -0.025622291247220749 0 -0.36704294731186271 -0.0046943202715755018 0 -0.383603564472072 -0.012098883920076331 0 -0.36704294731186271 -0.0046943202715755018 0 -0.34092425823684869 -0.01290625870930805 0 -0.36704294731186271 -0.0046943202715755018 0 -0.34661561390107859 -0.010090426369404821 0 -0.34092425823684869 -0.01290625870930805 0 -0.36704294731186271 -0.0046943202715755018 0 -0.34661561390107859 -0.010090426369404821 0 -0.35874072808383523 2.368727293597579e-05 0 -0.36704294731186271 -0.0046943202715755018 0 -0.35312068326451168 -0.0160452109766131 0 -0.34092425823684869 -0.01290625870930805 0 -0.34661561390107859 -0.010090426369404821 0 -0.35511398119079668 0.0092691537269610526 0 -0.34661561390107859 -0.010090426369404821 0 -0.35874072808383523 2.368727293597579e-05 0 -0.35472683228226981 0.0066565317562330686 0 -0.3622989416244346 -0.031909157371975243 0 -0.35467568002401301 -0.029341415354986002 0 -0.35874664073871437 -0.022099560746481731 0 -0.35467568002401301 -0.029341415354986002 0 -0.35874664073871437 -0.022099560746481731 0 -0.34576888677062129 -0.024480704179087109 0 -0.35874664073871437 -0.022099560746481731 0 -0.35312068326451168 -0.0160452109766131 0 -0.34576888677062129 -0.024480704179087109 0 -0.35312068326451168 -0.0160452109766131 0 -0.34576888677062129 -0.024480704179087109 0 -0.34092425823684869 -0.01290625870930805 0 -0.35188825096228182 -0.038876239122399937 0 -0.35467568002401301 -0.029341415354986002 0 -0.34576888677062129 -0.024480704179087109 0 -0.34576888677062129 -0.024480704179087109 0 -0.33554921227042522 -0.02022256296116956 0 -0.3334767862619632 -0.031746384742102382 0 -0.34576888677062129 -0.024480704179087109 0 -0.33554921227042522 -0.02022256296116956 0 -0.34092425823684869 -0.01290625870930805 0 -0.33554921227042522 -0.02022256296116956 0 -0.32717891870591342 -0.0096970911718550386 0 -0.32457607288172891 -0.01947689244104182 0 -0.33554921227042522 -0.02022256296116956 0 -0.32457607288172891 -0.01947689244104182 0 -0.3334767862619632 -0.031746384742102382 0 -0.34661561390107859 -0.010090426369404821 0 -0.33806769043839408 -0.0052815962120841371 0 -0.34364033572837438 0.0023346474945074719 0 -0.34661561390107859 -0.010090426369404821 0 -0.33806769043839408 -0.0052815962120841371 0 -0.34092425823684869 -0.01290625870930805 0 -0.33806769043839408 -0.0052815962120841371 0 -0.34092425823684869 -0.01290625870930805 0 -0.32717891870591342 -0.0096970911718550386 0 -0.33554921227042522 -0.02022256296116956 0 -0.34092425823684869 -0.01290625870930805 0 -0.32717891870591342 -0.0096970911718550386 0 -0.33806769043839408 -0.0052815962120841371 0 -0.32717891870591342 -0.0096970911718550386 0 -0.33197932561975563 0.0039511476956397493 0 -0.32717891870591342 -0.0096970911718550386 0 -0.31314961176658529 -0.0081441385305092706 0 -0.33197932561975563 0.0039511476956397493 0 -0.32717891870591342 -0.0096970911718550386 0 -0.31314961176658529 -0.0081441385305092706 0 -0.32457607288172891 -0.01947689244104182 0 -0.31352583540375728 -0.027574284799572871 0 -0.32457607288172891 -0.01947689244104182 0 -0.3334767862619632 -0.031746384742102382 0 -0.31314961176658529 -0.0081441385305092706 0 -0.31352583540375728 -0.027574284799572871 0 -0.32457607288172891 -0.01947689244104182 0 -0.31352583540375728 -0.027574284799572871 0 -0.32086735623403267 -0.045548189264421182 0 -0.3334767862619632 -0.031746384742102382 0 -0.30532052086078171 -0.050521538229011752 0 -0.31352583540375728 -0.027574284799572871 0 -0.32086735623403267 -0.045548189264421182 0 -0.30532052086078171 -0.050521538229011752 0 -0.31541355214619698 -0.067866478841462158 0 -0.32086735623403267 -0.045548189264421182 0 -0.31541355214619698 -0.067866478841462158 0 -0.32086735623403267 -0.045548189264421182 0 -0.33872230242454149 -0.052308041145211308 0 -0.35188825096228182 -0.038876239122399937 0 -0.33872230242454149 -0.052308041145211308 0 -0.3334767862619632 -0.031746384742102382 0 -0.32086735623403267 -0.045548189264421182 0 -0.33872230242454149 -0.052308041145211308 0 -0.3334767862619632 -0.031746384742102382 0 -0.35188825096228182 -0.038876239122399937 0 -0.34576888677062129 -0.024480704179087109 0 -0.3334767862619632 -0.031746384742102382 0 -0.31007351155781449 -0.2437470698782758 0 -0.29243357304739442 -0.22331764998326881 0 -0.3173901775506851 -0.21651886311590479 0 -0.29243357304739442 -0.22331764998326881 0 -0.3173901775506851 -0.21651886311590479 0 -0.29243357304739442 -0.22331764998326881 0 -0.28471683507770318 -0.2404827603702297 0 -0.26747696854410391 -0.23011643685063279 0 -0.31007351155781449 -0.2437470698782758 0 -0.29243357304739442 -0.22331764998326881 0 -0.28471683507770318 -0.2404827603702297 0 -0.28822662681253119 -0.25785002218664882 0 -0.31007351155781449 -0.2437470698782758 0 -0.28471683507770318 -0.2404827603702297 0 -0.28822662681253119 -0.25785002218664882 0 -0.28471683507770318 -0.2404827603702297 0 -0.26537349542667238 -0.2473826229523223 0 -0.28471683507770318 -0.2404827603702297 0 -0.26537349542667238 -0.2473826229523223 0 -0.26747696854410391 -0.23011643685063279 0 -0.24252036404081309 -0.2369152237179962 0 -0.26537349542667238 -0.2473826229523223 0 -0.24252036404081309 -0.2369152237179962 0 -0.26537349542667238 -0.2473826229523223 0 -0.26747696854410391 -0.23011643685063279 0 -0.24252036404081309 -0.2369152237179962 0 -0.26537349542667238 -0.2473826229523223 0 -0.25326344970455439 -0.24921698247872701 0 -0.24252036404081309 -0.2369152237179962 0 -0.25250477308712949 -0.2265099558855713 0 -0.26747696854410391 -0.23011643685063279 0 -0.24252036404081309 -0.2369152237179962 0 -0.26747696854410391 -0.23011643685063279 0 -0.25250477308712949 -0.2265099558855713 0 -0.26747696854410391 -0.23011643685063279 0 -0.26070826614519721 -0.2083567688920665 0 -0.29243357304739442 -0.22331764998326881 0 -0.26747696854410391 -0.23011643685063279 0 -0.27749436723618942 -0.21387899189652559 0 -0.29243357304739442 -0.22331764998326881 0 -0.26747696854410391 -0.23011643685063279 0 -0.26747696854410391 -0.23011643685063279 0 -0.27749436723618942 -0.21387899189652559 0 -0.26070826614519721 -0.2083567688920665 0 -0.27749436723618942 -0.21387899189652559 0 -0.26070826614519721 -0.2083567688920665 0 -0.27952148726385267 -0.19632453601941491 0 -0.24189504502654169 -0.2203890017647181 0 -0.26070826614519721 -0.2083567688920665 0 -0.24189504502654169 -0.2203890017647181 0 -0.25250477308712949 -0.2265099558855713 0 -0.26070826614519721 -0.2083567688920665 0 -0.26070826614519721 -0.2083567688920665 0 -0.25474498459293587 -0.18904997959439709 0 -0.26614357299317998 -0.19613124679998001 0 -0.24224808373301501 -0.20222981672090101 0 -0.26070826614519721 -0.2083567688920665 0 -0.25474498459293587 -0.18904997959439709 0 -0.25474498459293587 -0.18904997959439709 0 -0.26614357299317998 -0.19613124679998001 0 -0.27469544361061182 -0.18584186101177469 0 -0.26070826614519721 -0.2083567688920665 0 -0.26614357299317998 -0.19613124679998001 0 -0.27952148726385267 -0.19632453601941491 0 -0.26070826614519721 -0.2083567688920665 0 -0.27952148726385267 -0.19632453601941491 0 -0.26614357299317998 -0.19613124679998001 0 -0.27952148726385267 -0.19632453601941491 0 -0.27469544361061182 -0.18584186101177469 0 -0.27952148726385267 -0.19632453601941491 0 -0.29833470838250858 -0.18429230314676379 0 -0.27469544361061182 -0.18584186101177469 0 -0.27952148726385267 -0.19632453601941491 0 -0.29833470838250858 -0.18429230314676379 0 -0.27952148726385267 -0.19632453601941491 0 -0.29739518618176602 -0.20422549172476279 0 -0.29833470838250858 -0.18429230314676379 0 -0.27749436723618942 -0.21387899189652559 0 -0.27952148726385267 -0.19632453601941491 0 -0.29739518618176602 -0.20422549172476279 0 -0.29243357304739442 -0.22331764998326881 0 -0.27749436723618942 -0.21387899189652559 0 -0.29739518618176602 -0.20422549172476279 0 -0.29243357304739442 -0.22331764998326881 0 -0.29739518618176602 -0.20422549172476279 0 -0.3173901775506851 -0.21651886311590479 0 -0.29739518618176602 -0.20422549172476279 0 -0.31288832222571389 -0.19762975320212711 0 -0.3173901775506851 -0.21651886311590479 0 -0.29739518618176602 -0.20422549172476279 0 -0.29833470838250858 -0.18429230314676379 0 -0.31288832222571389 -0.19762975320212711 0 -0.29833470838250858 -0.18429230314676379 0 -0.32537153670884161 -0.1825200344073484 0 -0.31288832222571389 -0.19762975320212711 0 -0.29833470838250858 -0.18429230314676379 0 -0.32377394263855253 -0.16802231999288789 0 -0.29833470838250858 -0.18429230314676379 0 -0.29895715488821162 -0.16419753734635681 0 -0.32377394263855253 -0.16802231999288789 0 -0.29833470838250858 -0.18429230314676379 0 -0.32537153670884161 -0.1825200344073484 0 -0.29895715488821162 -0.16419753734635681 0 -0.30758160202563001 -0.14633432105954169 0 -0.32377394263855253 -0.16802231999288789 0 -0.29895715488821162 -0.16419753734635681 0 -0.28771020967418348 -0.17206955866584239 0 -0.28032175191062031 -0.1576238824502009 0 -0.29833470838250858 -0.18429230314676379 0 -0.27469544361061182 -0.18584186101177469 0 -0.29833470838250858 -0.18429230314676379 0 -0.29895715488821162 -0.16419753734635681 0 -0.28771020967418348 -0.17206955866584239 0 -0.29833470838250858 -0.18429230314676379 0 -0.28771020967418348 -0.17206955866584239 0 -0.27469544361061182 -0.18584186101177469 0 -0.25474498459293587 -0.18904997959439709 0 -0.27469544361061182 -0.18584186101177469 0 -0.2530619017956105 -0.1689134438408601 0 -0.2530619017956105 -0.1689134438408601 0 -0.28032175191062031 -0.1576238824502009 0 -0.26009497160843431 -0.15261885590238899 0 -0.24349202118617669 -0.15275551726232131 0 -0.2530619017956105 -0.1689134438408601 0 -0.26009497160843431 -0.15261885590238899 0 -0.28771020967418348 -0.17206955866584239 0 -0.27469544361061182 -0.18584186101177469 0 -0.28032175191062031 -0.1576238824502009 0 -0.2530619017956105 -0.1689134438408601 0 -0.28032175191062031 -0.1576238824502009 0 -0.27469544361061182 -0.18584186101177469 0 -0.2530619017956105 -0.1689134438408601 0 -0.28032175191062031 -0.1576238824502009 0 -0.28032175191062031 -0.1576238824502009 0 -0.27457334779475229 -0.14715235062831289 0 -0.26009497160843431 -0.15261885590238899 0 -0.28032175191062031 -0.1576238824502009 0 -0.27457334779475229 -0.14715235062831289 0 -0.28729334799422868 -0.14334927050683491 0 -0.27457334779475229 -0.14715235062831289 0 -0.27959867123821991 -0.13448550337149801 0 -0.28729334799422868 -0.14334927050683491 0 -0.27457334779475229 -0.14715235062831289 0 -0.26009497160843431 -0.15261885590238899 0 -0.25004436180301032 -0.13769808189271379 0 -0.24349202118617669 -0.15275551726232131 0 -0.26009497160843431 -0.15261885590238899 0 -0.25004436180301032 -0.13769808189271379 0 -0.27457334779475229 -0.14715235062831289 0 -0.25030223064789259 -0.1321082191367223 0 -0.27457334779475229 -0.14715235062831289 0 -0.25030223064789259 -0.1321082191367223 0 -0.26725196289465852 -0.1332237128469573 0 -0.25030223064789259 -0.1321082191367223 0 -0.26106186369438761 -0.12502239806573329 0 -0.26725196289465852 -0.1332237128469573 0 -0.27457334779475229 -0.14715235062831289 0 -0.25030223064789259 -0.1321082191367223 0 -0.25004436180301032 -0.13769808189271379 0 -0.25127600885182111 -0.1207935333161253 0 -0.25030223064789259 -0.1321082191367223 0 -0.26106186369438761 -0.12502239806573329 0 -0.28220425536107069 -0.11748960263554931 0 -0.27072370109804039 -0.1273500930325199 0 -0.27959867123821991 -0.13448550337149801 0 -0.27072370109804039 -0.1273500930325199 0 -0.26725196289465852 -0.1332237128469573 0 -0.27959867123821991 -0.13448550337149801 0 -0.26106186369438761 -0.12502239806573329 0 -0.27072370109804039 -0.1273500930325199 0 -0.26725196289465852 -0.1332237128469573 0 -0.27457334779475229 -0.14715235062831289 0 -0.26725196289465852 -0.1332237128469573 0 -0.27959867123821991 -0.13448550337149801 0 -0.29439136700192092 -0.13115029502462081 0 -0.28729334799422868 -0.14334927050683491 0 -0.30758160202563001 -0.14633432105954169 0 -0.28220425536107069 -0.11748960263554931 0 -0.27959867123821991 -0.13448550337149801 0 -0.29439136700192092 -0.13115029502462081 0 -0.27959867123821991 -0.13448550337149801 0 -0.29439136700192092 -0.13115029502462081 0 -0.28729334799422868 -0.14334927050683491 0 -0.28032175191062031 -0.1576238824502009 0 -0.28729334799422868 -0.14334927050683491 0 -0.30758160202563001 -0.14633432105954169 0 -0.28032175191062031 -0.1576238824502009 0 -0.30758160202563001 -0.14633432105954169 0 -0.29895715488821162 -0.16419753734635681 0 -0.28032175191062031 -0.1576238824502009 0 -0.30758160202563001 -0.14633432105954169 0 -0.29439136700192092 -0.13115029502462081 0 -0.30758160202563001 -0.14633432105954169 0 -0.3154463265729513 -0.12676884881984379 0 -0.30758160202563001 -0.14633432105954169 0 -0.3154463265729513 -0.12676884881984379 0 -0.33484145214063982 -0.13504475966888241 0 -0.30758160202563001 -0.14633432105954169 0 -0.33484145214063982 -0.13504475966888241 0 -0.30758160202563001 -0.14633432105954169 0 -0.33023932504507519 -0.1518462008594185 0 -0.32377394263855253 -0.16802231999288789 0 -0.30758160202563001 -0.14633432105954169 0 -0.33023932504507519 -0.1518462008594185 0 -0.33484145214063982 -0.13504475966888241 0 -0.33023932504507519 -0.1518462008594185 0 -0.35475770219178182 -0.14882678094213189 0 -0.34269545824414549 -0.1640245729020928 0 -0.33023932504507519 -0.1518462008594185 0 -0.33484145214063982 -0.13504475966888241 0 -0.35475770219178182 -0.14882678094213189 0 -0.33484145214063982 -0.13504475966888241 0 -0.35603333632701561 -0.12554380828826811 0 -0.35475770219178182 -0.14882678094213189 0 -0.35603333632701561 -0.12554380828826811 0 -0.37467681482193882 -0.13801713847274361 0 -0.38105015918785412 -0.1170517985583005 0 -0.35603333632701561 -0.12554380828826811 0 -0.37467681482193882 -0.13801713847274361 0 -0.35475770219178182 -0.14882678094213189 0 -0.37467681482193882 -0.13801713847274361 0 -0.37127604760323929 -0.15425172644207549 0 -0.35475770219178182 -0.14882678094213189 0 -0.35475770219178182 -0.14882678094213189 0 -0.35921065004210218 -0.1664102554851456 0 -0.34269545824414549 -0.1640245729020928 0 -0.35921065004210218 -0.1664102554851456 0 -0.35240836503517448 -0.1807477656679326 0 -0.34269545824414549 -0.1640245729020928 0 -0.37127604760323929 -0.15425172644207549 0 -0.35475770219178182 -0.14882678094213189 0 -0.35921065004210218 -0.1664102554851456 0 -0.35921065004210218 -0.1664102554851456 0 -0.3743540822614187 -0.16632197927049719 0 -0.36409935508291691 -0.18072029736033679 0 -0.37127604760323929 -0.15425172644207549 0 -0.35921065004210218 -0.1664102554851456 0 -0.3743540822614187 -0.16632197927049719 0 -0.36409935508291691 -0.18072029736033679 0 -0.3382112901059206 -0.1873032043992213 0 -0.36409935508291691 -0.18072029736033679 0 -0.35240836503517448 -0.1807477656679326 0 -0.3382112901059206 -0.1873032043992213 0 -0.35921065004210218 -0.1664102554851456 0 -0.36409935508291691 -0.18072029736033679 0 -0.35240836503517448 -0.1807477656679326 0 -0.35240836503517448 -0.1807477656679326 0 -0.33606232565667837 -0.1738286732425654 0 -0.32537153670884161 -0.1825200344073484 0 -0.35240836503517448 -0.1807477656679326 0 -0.3382112901059206 -0.1873032043992213 0 -0.32537153670884161 -0.1825200344073484 0 -0.35240836503517448 -0.1807477656679326 0 -0.32537153670884161 -0.1825200344073484 0 -0.35240836503517448 -0.1807477656679326 0 -0.33606232565667837 -0.1738286732425654 0 -0.34269545824414549 -0.1640245729020928 0 -0.33606232565667837 -0.1738286732425654 0 -0.32377394263855253 -0.16802231999288789 0 -0.32537153670884161 -0.1825200344073484 0 -0.33023932504507519 -0.1518462008594185 0 -0.34269545824414549 -0.1640245729020928 0 -0.32377394263855253 -0.16802231999288789 0 -0.33606232565667837 -0.1738286732425654 0 -0.34269545824414549 -0.1640245729020928 0 -0.32377394263855253 -0.16802231999288789 0 -0.29833470838250858 -0.18429230314676379 0 -0.32377394263855253 -0.16802231999288789 0 -0.32537153670884161 -0.1825200344073484 0 -0.32537153670884161 -0.1825200344073484 0 -0.32595000230476878 -0.20059207361585579 0 -0.31288832222571389 -0.19762975320212711 0 -0.32595000230476878 -0.20059207361585579 0 -0.31288832222571389 -0.19762975320212711 0 -0.3173901775506851 -0.21651886311590479 0 -0.32595000230476878 -0.20059207361585579 0 -0.3173901775506851 -0.21651886311590479 0 -0.34234678205397578 -0.20972007624854089 0 -0.3173901775506851 -0.21651886311590479 0 -0.34234678205397578 -0.20972007624854089 0 -0.3382112901059206 -0.1873032043992213 0 -0.32537153670884161 -0.1825200344073484 0 -0.32595000230476878 -0.20059207361585579 0 -0.3382112901059206 -0.1873032043992213 0 -0.32595000230476878 -0.20059207361585579 0 -0.34234678205397578 -0.20972007624854089 0 -0.3382112901059206 -0.1873032043992213 0 -0.34234678205397578 -0.20972007624854089 0 -0.3547227712097541 -0.1967541953563193 0 -0.36409935508291691 -0.18072029736033679 0 -0.3382112901059206 -0.1873032043992213 0 -0.3547227712097541 -0.1967541953563193 0 -0.36409935508291691 -0.18072029736033679 0 -0.36737550214270348 -0.19369006425660171 0 -0.3803362456847923 -0.1903784000621217 0 -0.36409935508291691 -0.18072029736033679 0 -0.3547227712097541 -0.1967541953563193 0 -0.36737550214270348 -0.19369006425660171 0 -0.3547227712097541 -0.1967541953563193 0 -0.36737550214270348 -0.19369006425660171 0 -0.36897598874601167 -0.20703636471057291 0 -0.36737550214270348 -0.19369006425660171 0 -0.36897598874601167 -0.20703636471057291 0 -0.38213170992260498 -0.20346501256523 0 -0.36897598874601167 -0.20703636471057291 0 -0.36605271049587967 -0.23047935322310331 0 -0.38522485898440129 -0.21823004788216591 0 -0.3547227712097541 -0.1967541953563193 0 -0.36897598874601167 -0.20703636471057291 0 -0.35564327352492708 -0.2147019842924166 0 -0.36897598874601167 -0.20703636471057291 0 -0.35564327352492708 -0.2147019842924166 0 -0.36605271049587967 -0.23047935322310331 0 -0.34234678205397578 -0.20972007624854089 0 -0.35564327352492708 -0.2147019842924166 0 -0.34611811511901452 -0.22951993192354689 0 -0.34234678205397578 -0.20972007624854089 0 -0.3547227712097541 -0.1967541953563193 0 -0.35564327352492708 -0.2147019842924166 0 -0.35564327352492708 -0.2147019842924166 0 -0.34611811511901452 -0.22951993192354689 0 -0.36605271049587967 -0.23047935322310331 0 -0.36276416121781768 -0.25026291011615542 0 -0.36605271049587967 -0.23047935322310331 0 -0.3754815455226328 -0.24515134388580481 0 -0.36276416121781768 -0.25026291011615542 0 -0.36605271049587967 -0.23047935322310331 0 -0.3497292610593602 -0.24450603086655481 0 -0.34611811511901452 -0.22951993192354689 0 -0.36605271049587967 -0.23047935322310331 0 -0.3497292610593602 -0.24450603086655481 0 -0.34611811511901452 -0.22951993192354689 0 -0.3497292610593602 -0.24450603086655481 0 -0.33422280334630938 -0.2474119697110238 0 -0.34611811511901452 -0.22951993192354689 0 -0.33422280334630938 -0.2474119697110238 0 -0.32818825608441438 -0.231659332092359 0 -0.3173901775506851 -0.21651886311590479 0 -0.34234678205397578 -0.20972007624854089 0 -0.32818825608441438 -0.231659332092359 0 -0.34234678205397578 -0.20972007624854089 0 -0.34611811511901452 -0.22951993192354689 0 -0.32818825608441438 -0.231659332092359 0 -0.31007351155781449 -0.2437470698782758 0 -0.3173901775506851 -0.21651886311590479 0 -0.32818825608441438 -0.231659332092359 0 -0.31007351155781449 -0.2437470698782758 0 -0.33422280334630938 -0.2474119697110238 0 -0.32818825608441438 -0.231659332092359 0 -0.43615447772397598 -0.25463875365883232 0 -0.42842422739751879 -0.24396335671878699 0 -0.44510061421837188 -0.2439699360773388 0 -0.42842422739751879 -0.24396335671878699 0 -0.43630642285243482 -0.23278535401567049 0 -0.44510061421837188 -0.2439699360773388 0 -0.42842422739751879 -0.24396335671878699 0 -0.43630642285243482 -0.23278535401567049 0 -0.42073919474494381 -0.2290866253107017 0 -0.42073919474494381 -0.2290866253107017 0 -0.42986506512247791 -0.21461445575166041 0 -0.44105867115202618 -0.2186522404939448 0 -0.43630642285243482 -0.23278535401567049 0 -0.42073919474494381 -0.2290866253107017 0 -0.44105867115202618 -0.2186522404939448 0 -0.42073919474494381 -0.2290866253107017 0 -0.44105867115202618 -0.2186522404939448 0 -0.41233133140309569 -0.23773118800038329 0 -0.40379357901214807 -0.21984965530865591 0 -0.42986506512247791 -0.21461445575166041 0 -0.42073919474494381 -0.2290866253107017 0 -0.41233133140309569 -0.23773118800038329 0 -0.42986506512247791 -0.21461445575166041 0 -0.41233133140309569 -0.23773118800038329 0 -0.40379357901214807 -0.21984965530865591 0 -0.41233133140309569 -0.23773118800038329 0 -0.42986506512247791 -0.21461445575166041 0 -0.42842422739751879 -0.24396335671878699 0 -0.42073919474494381 -0.2290866253107017 0 -0.41233133140309569 -0.23773118800038329 0 -0.42374012975747299 -0.26162586090792711 0 -0.42842422739751879 -0.24396335671878699 0 -0.41233133140309569 -0.23773118800038329 0 -0.41054962973794951 -0.25699269170388722 0 -0.41233133140309569 -0.23773118800038329 0 -0.40533759214738879 -0.24695183662999681 0 -0.42374012975747299 -0.26162586090792711 0 -0.41233133140309569 -0.23773118800038329 0 -0.41233133140309569 -0.23773118800038329 0 -0.40533759214738879 -0.24695183662999681 0 -0.39905962203334883 -0.253280537170463 0 -0.40533759214738879 -0.24695183662999681 0 -0.39533825663743127 -0.24429407101779799 0 -0.40533759214738879 -0.24695183662999681 0 -0.39836413017475181 -0.23439990515976661 0 -0.39533825663743127 -0.24429407101779799 0 -0.41233133140309569 -0.23773118800038329 0 -0.40533759214738879 -0.24695183662999681 0 -0.39836413017475181 -0.23439990515976661 0 -0.39836413017475181 -0.23439990515976661 0 -0.39533825663743127 -0.24429407101779799 0 -0.38424057204281581 -0.2353297534589805 0 -0.38759006934406082 -0.25292219297864371 0 -0.39533825663743127 -0.24429407101779799 0 -0.38424057204281581 -0.2353297534589805 0 -0.38759006934406082 -0.25292219297864371 0 -0.38424057204281581 -0.2353297534589805 0 -0.3754815455226328 -0.24515134388580481 0 -0.36605271049587967 -0.23047935322310331 0 -0.38424057204281581 -0.2353297534589805 0 -0.3754815455226328 -0.24515134388580481 0 -0.36605271049587967 -0.23047935322310331 0 -0.38424057204281581 -0.2353297534589805 0 -0.38522485898440129 -0.21823004788216591 0 -0.39836413017475181 -0.23439990515976661 0 -0.38424057204281581 -0.2353297534589805 0 -0.38522485898440129 -0.21823004788216591 0 -0.39836413017475181 -0.23439990515976661 0 -0.40379357901214807 -0.21984965530865591 0 -0.38522485898440129 -0.21823004788216591 0 -0.41233133140309569 -0.23773118800038329 0 -0.39836413017475181 -0.23439990515976661 0 -0.40379357901214807 -0.21984965530865591 0 -0.40379357901214807 -0.21984965530865591 0 -0.39525582662120379 -0.20196812261692701 0 -0.40379357901214807 -0.21984965530865591 0 -0.38522485898440129 -0.21823004788216591 0 -0.39525582662120379 -0.20196812261692701 0 -0.40379357901214807 -0.21984965530865591 0 -0.39525582662120379 -0.20196812261692701 0 -0.41404579845200018 -0.20461877501261891 0 -0.38522485898440129 -0.21823004788216591 0 -0.38213170992260498 -0.20346501256523 0 -0.39525582662120379 -0.20196812261692701 0 -0.36897598874601167 -0.20703636471057291 0 -0.38522485898440129 -0.21823004788216591 0 -0.38213170992260498 -0.20346501256523 0 -0.3803362456847923 -0.1903784000621217 0 -0.39525582662120379 -0.20196812261692701 0 -0.3960145127932917 -0.18739051167618981 0 -0.36737550214270348 -0.19369006425660171 0 -0.38213170992260498 -0.20346501256523 0 -0.3803362456847923 -0.1903784000621217 0 -0.38213170992260498 -0.20346501256523 0 -0.3803362456847923 -0.1903784000621217 0 -0.39525582662120379 -0.20196812261692701 0 -0.39525582662120379 -0.20196812261692701 0 -0.41130887339181121 -0.19028366245475359 0 -0.3960145127932917 -0.18739051167618981 0 -0.39525582662120379 -0.20196812261692701 0 -0.41130887339181121 -0.19028366245475359 0 -0.41404579845200018 -0.20461877501261891 0 -0.41130887339181121 -0.19028366245475359 0 -0.42654669865987299 -0.1934972091310852 0 -0.42138958698615803 -0.18000191931131371 0 -0.41130887339181121 -0.19028366245475359 0 -0.41404579845200018 -0.20461877501261891 0 -0.42654669865987299 -0.1934972091310852 0 -0.40379357901214807 -0.21984965530865591 0 -0.41404579845200018 -0.20461877501261891 0 -0.42986506512247791 -0.21461445575166041 0 -0.41404579845200018 -0.20461877501261891 0 -0.42986506512247791 -0.21461445575166041 0 -0.42654669865987299 -0.1934972091310852 0 -0.42986506512247791 -0.21461445575166041 0 -0.42654669865987299 -0.1934972091310852 0 -0.44739879884185862 -0.19149772350293651 0 -0.42654669865987299 -0.1934972091310852 0 -0.43527206916493238 -0.17996671875322789 0 -0.44739879884185862 -0.19149772350293651 0 -0.4304675129301887 -0.1713703412132303 0 -0.41587548503690952 -0.1675544832825677 0 -0.42138958698615803 -0.18000191931131371 0 -0.43527206916493238 -0.17996671875322789 0 -0.4304675129301887 -0.1713703412132303 0 -0.42138958698615803 -0.18000191931131371 0 -0.42654669865987299 -0.1934972091310852 0 -0.43527206916493238 -0.17996671875322789 0 -0.42138958698615803 -0.18000191931131371 0 -0.43527206916493238 -0.17996671875322789 0 -0.4304675129301887 -0.1713703412132303 0 -0.43848929206371001 -0.17046543359702049 0 -0.41587548503690952 -0.1675544832825677 0 -0.44176355001390571 -0.16097157624368319 0 -0.4304675129301887 -0.1713703412132303 0 -0.41587548503690952 -0.1675544832825677 0 -0.44176355001390571 -0.16097157624368319 0 -0.4304675129301887 -0.1713703412132303 0 -0.44176355001390571 -0.16097157624368319 0 -0.43848929206371001 -0.17046543359702049 0 -0.41346790589157628 -0.15718901736956131 0 -0.44011749743671619 -0.15811948772889789 0 -0.41587548503690952 -0.1675544832825677 0 -0.44176355001390571 -0.16097157624368319 0 -0.44011749743671619 -0.15811948772889789 0 -0.41587548503690952 -0.1675544832825677 0 -0.41346790589157628 -0.15718901736956131 0 -0.44011749743671619 -0.15811948772889789 0 -0.41587548503690952 -0.1675544832825677 0 -0.41346790589157628 -0.15718901736956131 0 -0.39991850236931747 -0.1631567703307967 0 -0.41587548503690952 -0.1675544832825677 0 -0.40649373795596011 -0.17951855152499319 0 -0.42138958698615803 -0.18000191931131371 0 -0.41130887339181121 -0.19028366245475359 0 -0.40649373795596011 -0.17951855152499319 0 -0.42138958698615803 -0.18000191931131371 0 -0.41587548503690952 -0.1675544832825677 0 -0.40649373795596011 -0.17951855152499319 0 -0.38998742005991333 -0.1741373903214522 0 -0.41130887339181121 -0.19028366245475359 0 -0.40649373795596011 -0.17951855152499319 0 -0.3960145127932917 -0.18739051167618981 0 -0.40649373795596011 -0.17951855152499319 0 -0.3960145127932917 -0.18739051167618981 0 -0.38998742005991333 -0.1741373903214522 0 -0.36409935508291691 -0.18072029736033679 0 -0.3803362456847923 -0.1903784000621217 0 -0.38998742005991333 -0.1741373903214522 0 -0.3743540822614187 -0.16632197927049719 0 -0.36409935508291691 -0.18072029736033679 0 -0.38998742005991333 -0.1741373903214522 0 -0.3803362456847923 -0.1903784000621217 0 -0.3960145127932917 -0.18739051167618981 0 -0.38998742005991333 -0.1741373903214522 0 -0.36409935508291691 -0.18072029736033679 0 -0.38998742005991333 -0.1741373903214522 0 -0.3743540822614187 -0.16632197927049719 0 -0.38998742005991333 -0.1741373903214522 0 -0.38681831434643632 -0.1562585470102246 0 -0.37127604760323929 -0.15425172644207549 0 -0.3743540822614187 -0.16632197927049719 0 -0.38681831434643632 -0.1562585470102246 0 -0.41346790589157628 -0.15718901736956131 0 -0.38681831434643632 -0.1562585470102246 0 -0.41346790589157628 -0.15718901736956131 0 -0.38681831434643632 -0.1562585470102246 0 -0.39991850236931747 -0.1631567703307967 0 -0.38998742005991333 -0.1741373903214522 0 -0.38681831434643632 -0.1562585470102246 0 -0.39991850236931747 -0.1631567703307967 0 -0.41587548503690952 -0.1675544832825677 0 -0.38998742005991333 -0.1741373903214522 0 -0.39991850236931747 -0.1631567703307967 0 -0.41587548503690952 -0.1675544832825677 0 -0.38998742005991333 -0.1741373903214522 0 -0.41346790589157628 -0.15718901736956131 0 -0.38681831434643632 -0.1562585470102246 0 -0.40139522891787088 -0.14786621909678041 0 -0.38681831434643632 -0.1562585470102246 0 -0.40139522891787088 -0.14786621909678041 0 -0.3918884293007685 -0.1359905333409617 0 -0.37467681482193882 -0.13801713847274361 0 -0.37127604760323929 -0.15425172644207549 0 -0.38681831434643632 -0.1562585470102246 0 -0.37467681482193882 -0.13801713847274361 0 -0.38681831434643632 -0.1562585470102246 0 -0.3918884293007685 -0.1359905333409617 0 -0.37467681482193882 -0.13801713847274361 0 -0.3918884293007685 -0.1359905333409617 0 -0.38105015918785412 -0.1170517985583005 0 -0.40139522891787088 -0.14786621909678041 0 -0.3918884293007685 -0.1359905333409617 0 -0.408409132073492 -0.1350344510788912 0 -0.3918884293007685 -0.1359905333409617 0 -0.408409132073492 -0.1350344510788912 0 -0.39898092645701888 -0.1217150458288304 0 -0.408409132073492 -0.1350344510788912 0 -0.42443257019248248 -0.13030871616955039 0 -0.42059534252594671 -0.1196245816549861 0 -0.41774614104896007 -0.13989084485642639 0 -0.408409132073492 -0.1350344510788912 0 -0.42443257019248248 -0.13030871616955039 0 -0.408409132073492 -0.1350344510788912 0 -0.39898092645701888 -0.1217150458288304 0 -0.42059534252594671 -0.1196245816549861 0 -0.41774614104896007 -0.13989084485642639 0 -0.408409132073492 -0.1350344510788912 0 -0.4111987259044842 -0.14633540316072491 0 -0.40139522891787088 -0.14786621909678041 0 -0.408409132073492 -0.1350344510788912 0 -0.4111987259044842 -0.14633540316072491 0 -0.41346790589157628 -0.15718901736956131 0 -0.4193409690000065 -0.1466843133343379 0 -0.42948711468511758 -0.150301535908303 0 -0.41346790589157628 -0.15718901736956131 0 -0.40139522891787088 -0.14786621909678041 0 -0.4111987259044842 -0.14633540316072491 0 -0.41346790589157628 -0.15718901736956131 0 -0.4111987259044842 -0.14633540316072491 0 -0.4193409690000065 -0.1466843133343379 0 -0.41774614104896007 -0.13989084485642639 0 -0.4193409690000065 -0.1466843133343379 0 -0.42718126759941322 -0.14019774453471509 0 -0.41774614104896007 -0.13989084485642639 0 -0.4111987259044842 -0.14633540316072491 0 -0.4193409690000065 -0.1466843133343379 0 -0.4193409690000065 -0.1466843133343379 0 -0.42948711468511758 -0.150301535908303 0 -0.42718126759941322 -0.14019774453471509 0 -0.41346790589157628 -0.15718901736956131 0 -0.42948711468511758 -0.150301535908303 0 -0.44011749743671619 -0.15811948772889789 0 -0.42948711468511758 -0.150301535908303 0 -0.43829575132507048 -0.14919097666389461 0 -0.44011749743671619 -0.15811948772889789 0 -0.42948711468511758 -0.150301535908303 0 -0.43416375198831197 -0.14349824762054419 0 -0.42718126759941322 -0.14019774453471509 0 -0.42948711468511758 -0.150301535908303 0 -0.43416375198831197 -0.14349824762054419 0 -0.43829575132507048 -0.14919097666389461 0 -0.42443257019248248 -0.13030871616955039 0 -0.42718126759941322 -0.14019774453471509 0 -0.4390297308358993 -0.13122899565131979 0 -0.43416375198831197 -0.14349824762054419 0 -0.42718126759941322 -0.14019774453471509 0 -0.4390297308358993 -0.13122899565131979 0 -0.42443257019248248 -0.13030871616955039 0 -0.4390297308358993 -0.13122899565131979 0 -0.43363380707118337 -0.1158756792409639 0 -0.41774614104896007 -0.13989084485642639 0 -0.42443257019248248 -0.13030871616955039 0 -0.42718126759941322 -0.14019774453471509 0 -0.44825963496598681 -0.13871968911220081 0 -0.4390297308358993 -0.13122899565131979 0 -0.45612184019430752 -0.13012501911324351 0 -0.4390297308358993 -0.13122899565131979 0 -0.45612184019430752 -0.13012501911324351 0 -0.44855516291812941 -0.1136702476144863 0 -0.43416375198831197 -0.14349824762054419 0 -0.4390297308358993 -0.13122899565131979 0 -0.44091163932406452 -0.142658088263906 0 -0.44825963496598681 -0.13871968911220081 0 -0.4390297308358993 -0.13122899565131979 0 -0.44091163932406452 -0.142658088263906 0 -0.44765015815530967 -0.1505621285727004 0 -0.46676708898185632 -0.15904995808823461 0 -0.44011749743671619 -0.15811948772889789 0 -0.44091163932406452 -0.142658088263906 0 -0.43829575132507048 -0.14919097666389461 0 -0.44765015815530967 -0.1505621285727004 0 -0.43416375198831197 -0.14349824762054419 0 -0.44091163932406452 -0.142658088263906 0 -0.43829575132507048 -0.14919097666389461 0 -0.43829575132507048 -0.14919097666389461 0 -0.44765015815530967 -0.1505621285727004 0 -0.44011749743671619 -0.15811948772889789 0 -0.44825963496598681 -0.13871968911220081 0 -0.44765015815530967 -0.1505621285727004 0 -0.4561353863875155 -0.1430997609173546 0 -0.44825963496598681 -0.13871968911220081 0 -0.44091163932406452 -0.142658088263906 0 -0.44765015815530967 -0.1505621285727004 0 -0.44765015815530967 -0.1505621285727004 0 -0.4561353863875155 -0.1430997609173546 0 -0.45965764532177028 -0.14935565988859331 0 -0.44765015815530967 -0.1505621285727004 0 -0.45965764532177028 -0.14935565988859331 0 -0.46676708898185632 -0.15904995808823461 0 -0.45965764532177028 -0.14935565988859331 0 -0.46807794776239969 -0.14471079197608369 0 -0.46676708898185632 -0.15904995808823461 0 -0.4561353863875155 -0.1430997609173546 0 -0.45965764532177028 -0.14935565988859331 0 -0.46807794776239969 -0.14471079197608369 0 -0.46807794776239969 -0.14471079197608369 0 -0.45612184019430752 -0.13012501911324351 0 -0.47595505156672019 -0.1272332183239564 0 -0.44825963496598681 -0.13871968911220081 0 -0.4561353863875155 -0.1430997609173546 0 -0.45612184019430752 -0.13012501911324351 0 -0.4561353863875155 -0.1430997609173546 0 -0.46807794776239969 -0.14471079197608369 0 -0.45612184019430752 -0.13012501911324351 0 -0.46807794776239969 -0.14471079197608369 0 -0.47595505156672019 -0.1272332183239564 0 -0.48246626628062023 -0.14526425900548859 0 -0.49389920798873022 -0.14821260668859379 0 -0.50000000000000067 -0.12214752675676439 0 -0.49389920798873022 -0.14821260668859379 0 -0.48246626628062023 -0.14526425900548859 0 -0.50000000000000067 -0.12214752675676439 0 -0.47595505156672019 -0.1272332183239564 0 -0.48246626628062023 -0.14526425900548859 0 -0.50000000000000067 -0.12214752675676439 0 -0.5 -0.1450797498050185 0 -0.49389920798873022 -0.14821260668859379 0 -0.50000000000000067 -0.12214752675676439 0 -0.48246626628062023 -0.14526425900548859 0 -0.50000000000000067 -0.12214752675676439 0 -0.49389920798873022 -0.14821260668859379 0 -0.48246626628062023 -0.14526425900548859 0 -0.48779841597745921 -0.1729980387745115 0 -0.5 -0.1450797498050185 0 -0.49389920798873022 -0.14821260668859379 0 -0.5 -0.16673232500736079 0 -0.46807794776239969 -0.14471079197608369 0 -0.48246626628062023 -0.14526425900548859 0 -0.46676708898185632 -0.15904995808823461 0 -0.48246626628062023 -0.14526425900548859 0 -0.48779841597745921 -0.1729980387745115 0 -0.46493253256123951 -0.1683809912542126 0 -0.48246626628062023 -0.14526425900548859 0 -0.46493253256123951 -0.1683809912542126 0 -0.48246626628062023 -0.14526425900548859 0 -0.46493253256123951 -0.1683809912542126 0 -0.46676708898185632 -0.15904995808823461 0 -0.49389920798873022 -0.14821260668859379 0 -0.5 -0.16673232500736079 0 -0.48779841597745921 -0.1729980387745115 0 -0.49389920798873022 -0.14821260668859379 0 -0.48779841597745921 -0.1729980387745115 0 -0.5 -0.16673232500736079 0 -0.48779841597745921 -0.1729980387745115 0 -0.50000000000000044 -0.18838490020970311 0 -0.48779841597745921 -0.1729980387745115 0 -0.48169762396619031 -0.19778347086042969 0 -0.50000000000000044 -0.18838490020970311 0 -0.48779841597745921 -0.1729980387745115 0 -0.48169762396619031 -0.19778347086042969 0 -0.48779841597745921 -0.1729980387745115 0 -0.46493253256123951 -0.1683809912542126 0 -0.46864110378117141 -0.18777561601385589 0 -0.48779841597745921 -0.1729980387745115 0 -0.46864110378117141 -0.18777561601385589 0 -0.48169762396619031 -0.19778347086042969 0 -0.46493253256123951 -0.1683809912542126 0 -0.44752570325357599 -0.17528142734483149 0 -0.44739879884185862 -0.19149772350293651 0 -0.46493253256123951 -0.1683809912542126 0 -0.44739879884185862 -0.19149772350293651 0 -0.46864110378117141 -0.18777561601385589 0 -0.46493253256123951 -0.1683809912542126 0 -0.44739879884185862 -0.19149772350293651 0 -0.46676708898185632 -0.15904995808823461 0 -0.44011749743671619 -0.15811948772889789 0 -0.46493253256123951 -0.1683809912542126 0 -0.44899954756517602 -0.16755415556356201 0 -0.44752570325357599 -0.17528142734483149 0 -0.46493253256123951 -0.1683809912542126 0 -0.44899954756517602 -0.16755415556356201 0 -0.45228665993344891 -0.16267134937806199 0 -0.46493253256123951 -0.1683809912542126 0 -0.46676708898185632 -0.15904995808823461 0 -0.45228665993344891 -0.16267134937806199 0 -0.46676708898185632 -0.15904995808823461 0 -0.45228665993344891 -0.16267134937806199 0 -0.44011749743671619 -0.15811948772889789 0 -0.44899954756517602 -0.16755415556356201 0 -0.45228665993344891 -0.16267134937806199 0 -0.44176355001390571 -0.16097157624368319 0 -0.45228665993344891 -0.16267134937806199 0 -0.44176355001390571 -0.16097157624368319 0 -0.44011749743671619 -0.15811948772889789 0 -0.44899954756517602 -0.16755415556356201 0 -0.43848929206371001 -0.17046543359702049 0 -0.44752570325357599 -0.17528142734483149 0 -0.44899954756517602 -0.16755415556356201 0 -0.44176355001390571 -0.16097157624368319 0 -0.43848929206371001 -0.17046543359702049 0 -0.43527206916493238 -0.17996671875322789 0 -0.43848929206371001 -0.17046543359702049 0 -0.44752570325357599 -0.17528142734483149 0 -0.43527206916493238 -0.17996671875322789 0 -0.44752570325357599 -0.17528142734483149 0 -0.44739879884185862 -0.19149772350293651 0 -0.42986506512247791 -0.21461445575166041 0 -0.44739879884185862 -0.19149772350293651 0 -0.44739879884185862 -0.19149772350293651 0 -0.44560162060213998 -0.20754408559195561 0 -0.4613781475591085 -0.2082178556771879 0 -0.44105867115202618 -0.2186522404939448 0 -0.4613781475591085 -0.2082178556771879 0 -0.44560162060213998 -0.20754408559195561 0 -0.44105867115202618 -0.2186522404939448 0 -0.4613781475591085 -0.2082178556771879 0 -0.42986506512247791 -0.21461445575166041 0 -0.44739879884185862 -0.19149772350293651 0 -0.44560162060213998 -0.20754408559195561 0 -0.42986506512247791 -0.21461445575166041 0 -0.44560162060213998 -0.20754408559195561 0 -0.44105867115202618 -0.2186522404939448 0 -0.44105867115202618 -0.2186522404939448 0 -0.4613781475591085 -0.2082178556771879 0 -0.45864885613006218 -0.22641592812780209 0 -0.4613781475591085 -0.2082178556771879 0 -0.47619663240551868 -0.22013211878684341 0 -0.45864885613006218 -0.22641592812780209 0 -0.44739879884185862 -0.19149772350293651 0 -0.4613781475591085 -0.2082178556771879 0 -0.46864110378117141 -0.18777561601385589 0 -0.4613781475591085 -0.2082178556771879 0 -0.48169762396619031 -0.19778347086042969 0 -0.4613781475591085 -0.2082178556771879 0 -0.46864110378117141 -0.18777561601385589 0 -0.48169762396619031 -0.19778347086042969 0 -0.48169762396619031 -0.19778347086042969 0 -0.50000000000000044 -0.18838490020970311 0 -0.5 -0.20367152845382189 0 -0.48169762396619031 -0.19778347086042969 0 -0.50000000000000044 -0.18838490020970311 0 -0.48169762396619031 -0.19778347086042969 0 -0.5 -0.20367152845382189 0 -0.48889906342239731 -0.2132713641637628 0 -0.5 -0.20367152845382189 0 -0.48889906342239731 -0.2132713641637628 0 -0.50000000000000033 -0.21895815669794069 0 -0.4613781475591085 -0.2082178556771879 0 -0.48169762396619031 -0.19778347086042969 0 -0.47619663240551868 -0.22013211878684341 0 -0.48169762396619031 -0.19778347086042969 0 -0.47619663240551868 -0.22013211878684341 0 -0.48169762396619031 -0.19778347086042969 0 -0.48889906342239731 -0.2132713641637628 0 -0.47619663240551868 -0.22013211878684341 0 -0.47619663240551868 -0.22013211878684341 0 -0.48064663003722308 -0.23281295913462419 0 -0.47069564084484927 -0.24248076671325761 0 -0.47619663240551868 -0.22013211878684341 0 -0.47069564084484927 -0.24248076671325761 0 -0.47619663240551868 -0.22013211878684341 0 -0.48064663003722308 -0.23281295913462419 0 -0.48660106074027681 -0.22581154601977721 0 -0.48889906342239731 -0.2132713641637628 0 -0.47619663240551868 -0.22013211878684341 0 -0.48660106074027681 -0.22581154601977721 0 -0.48660106074027681 -0.22581154601977721 0 -0.50000000000000033 -0.21895815669794069 0 -0.48909318615824737 -0.24282740501861871 0 -0.50000000000000033 -0.21895815669794069 0 -0.48909318615824737 -0.24282740501861871 0 -0.48889906342239731 -0.2132713641637628 0 -0.48660106074027681 -0.22581154601977721 0 -0.50000000000000033 -0.21895815669794069 0 -0.48064663003722308 -0.23281295913462419 0 -0.48660106074027681 -0.22581154601977721 0 -0.48909318615824737 -0.24282740501861871 0 -0.50000000000000033 -0.21895815669794069 0 -0.5 -0.24687567812541461 0 -0.48909318615824737 -0.24282740501861871 0 -0.49857429831377958 -0.25440312686868832 0 -0.5 -0.24687567812541461 0 -0.48909318615824737 -0.24282740501861871 0 -0.48064663003722308 -0.23281295913462419 0 -0.48909318615824737 -0.24282740501861871 0 -0.47069564084484927 -0.24248076671325761 0 -0.47390686384186381 -0.25476380209278099 0 -0.48909318615824737 -0.24282740501861871 0 -0.47069564084484927 -0.24248076671325761 0 -0.45886506956069772 -0.25039642629868519 0 -0.46156804221782949 -0.25671402825117062 0 -0.47069564084484927 -0.24248076671325761 0 -0.47069564084484927 -0.24248076671325761 0 -0.45605922755895367 -0.2406105769225815 0 -0.45864885613006218 -0.22641592812780209 0 -0.45886506956069772 -0.25039642629868519 0 -0.47069564084484927 -0.24248076671325761 0 -0.45605922755895367 -0.2406105769225815 0 -0.45886506956069772 -0.25039642629868519 0 -0.45605922755895367 -0.2406105769225815 0 -0.45179914680882421 -0.24963270404343879 0 -0.47619663240551868 -0.22013211878684341 0 -0.47069564084484927 -0.24248076671325761 0 -0.45864885613006218 -0.22641592812780209 0 -0.45605922755895367 -0.2406105769225815 0 -0.45864885613006218 -0.22641592812780209 0 -0.44743475838236968 -0.23248680712746761 0 -0.44105867115202618 -0.2186522404939448 0 -0.45864885613006218 -0.22641592812780209 0 -0.44743475838236968 -0.23248680712746761 0 -0.43630642285243482 -0.23278535401567049 0 -0.44105867115202618 -0.2186522404939448 0 -0.44743475838236968 -0.23248680712746761 0 -0.43630642285243482 -0.23278535401567049 0 -0.44743475838236968 -0.23248680712746761 0 -0.44510061421837188 -0.2439699360773388 0 -0.45605922755895367 -0.2406105769225815 0 -0.44510061421837188 -0.2439699360773388 0 -0.45179914680882421 -0.24963270404343879 0 -0.45605922755895367 -0.2406105769225815 0 -0.44743475838236968 -0.23248680712746761 0 -0.44510061421837188 -0.2439699360773388 0 -0.40705028932688841 -0.052793553274689597 0 -0.42726664030900863 -0.044984642368434392 0 -0.41006921123658407 -0.03081853901660515 0 -0.40705028932688841 -0.052793553274689597 0 -0.42726664030900863 -0.044984642368434392 0 -0.42245556625257491 -0.065841183371676687 0 -0.42726664030900863 -0.044984642368434392 0 -0.42245556625257491 -0.065841183371676687 0 -0.44728355610844373 -0.059282533582093469 0 -0.42726664030900863 -0.044984642368434392 0 -0.43188900239433359 -0.02387479631718414 0 -0.41006921123658407 -0.03081853901660515 0 -0.41872243370916967 -0.0092929525273164684 0 -0.44407855404828123 -0.0034906610811578009 0 -0.41928032546189081 0.01172955660388964 0 -0.43188900239433359 -0.02387479631718414 0 -0.41872243370916967 -0.0092929525273164684 0 -0.44407855404828123 -0.0034906610811578009 0 -0.41872243370916967 -0.0092929525273164684 0 -0.40558727534347139 -0.0033871311787529931 0 -0.41928032546189081 0.01172955660388964 0 -0.41872243370916967 -0.0092929525273164684 0 -0.40558727534347139 -0.0033871311787529931 0 -0.40298703267491498 -0.014523599885359669 0 -0.41872243370916967 -0.0092929525273164684 0 -0.41006921123658407 -0.03081853901660515 0 -0.40298703267491498 -0.014523599885359669 0 -0.43188900239433359 -0.02387479631718414 0 -0.41872243370916967 -0.0092929525273164684 0 -0.41006921123658407 -0.03081853901660515 0 -0.39084614496842363 -0.027766839574306281 0 -0.40298703267491498 -0.014523599885359669 0 -0.39378494848450452 -0.0083662782511355321 0 -0.41006921123658407 -0.03081853901660515 0 -0.39084614496842363 -0.027766839574306281 0 -0.40298703267491498 -0.014523599885359669 0 -0.40558727534347139 -0.0033871311787529931 0 -0.40298703267491498 -0.014523599885359669 0 -0.39378494848450452 -0.0083662782511355321 0 -0.40558727534347139 -0.0033871311787529931 0 -0.39378494848450452 -0.0083662782511355321 0 -0.39316163638687668 0.0035176181661570622 0 -0.36704294731186271 -0.0046943202715755018 0 -0.39316163638687668 0.0035176181661570622 0 -0.36704294731186271 -0.0046943202715755018 0 -0.383603564472072 -0.012098883920076331 0 -0.39316163638687668 0.0035176181661570622 0 -0.39378494848450452 -0.0083662782511355321 0 -0.383603564472072 -0.012098883920076331 0 -0.39316163638687668 0.0035176181661570622 0 -0.37386469003277067 -0.025622291247220749 0 -0.39084614496842363 -0.027766839574306281 0 -0.383603564472072 -0.012098883920076331 0 -0.39084614496842363 -0.027766839574306281 0 -0.39378494848450452 -0.0083662782511355321 0 -0.383603564472072 -0.012098883920076331 0 -0.37309799599328392 -0.044301165632395917 0 -0.37386469003277067 -0.025622291247220749 0 -0.39084614496842363 -0.027766839574306281 0 -0.37309799599328392 -0.044301165632395917 0 -0.39084614496842363 -0.027766839574306281 0 -0.37309799599328392 -0.044301165632395917 0 -0.39084614496842363 -0.027766839574306281 0 -0.39178318828678749 -0.044849336674204612 0 -0.41006921123658407 -0.03081853901660515 0 -0.39084614496842363 -0.027766839574306281 0 -0.39178318828678749 -0.044849336674204612 0 -0.40705028932688841 -0.052793553274689597 0 -0.41006921123658407 -0.03081853901660515 0 -0.39178318828678749 -0.044849336674204612 0 -0.40705028932688841 -0.052793553274689597 0 -0.39178318828678749 -0.044849336674204612 0 -0.38460502433228499 -0.060895238748742121 0 -0.40705028932688841 -0.052793553274689597 0 -0.38460502433228499 -0.060895238748742121 0 -0.40442230130491008 -0.069074115522954199 0 -0.37309799599328392 -0.044301165632395917 0 -0.39178318828678749 -0.044849336674204612 0 -0.38460502433228499 -0.060895238748742121 0 -0.36954043907186451 -0.075056641139928049 0 -0.38460502433228499 -0.060895238748742121 0 -0.39146638553635849 -0.078816435780334523 0 -0.36954043907186451 -0.075056641139928049 0 -0.39146638553635849 -0.078816435780334523 0 -0.36954043907186451 -0.075056641139928049 0 -0.37550420936536277 -0.093343086593504876 0 -0.39146638553635849 -0.078816435780334523 0 -0.37550420936536277 -0.093343086593504876 0 -0.39146638553635849 -0.078816435780334523 0 -0.40058034618176053 -0.102822357033339 0 -0.39146638553635849 -0.078816435780334523 0 -0.40058034618176053 -0.102822357033339 0 -0.41339233200085251 -0.082576230420740984 0 -0.39146638553635849 -0.078816435780334523 0 -0.41339233200085251 -0.082576230420740984 0 -0.39146638553635849 -0.078816435780334523 0 -0.40442230130491008 -0.069074115522954199 0 -0.41339233200085251 -0.082576230420740984 0 -0.38460502433228499 -0.060895238748742121 0 -0.39146638553635849 -0.078816435780334523 0 -0.40442230130491008 -0.069074115522954199 0 -0.37550420936536277 -0.093343086593504876 0 -0.38105015918785412 -0.1170517985583005 0 -0.40058034618176053 -0.102822357033339 0 -0.3918884293007685 -0.1359905333409617 0 -0.38105015918785412 -0.1170517985583005 0 -0.39898092645701888 -0.1217150458288304 0 -0.38105015918785412 -0.1170517985583005 0 -0.40058034618176053 -0.102822357033339 0 -0.39898092645701888 -0.1217150458288304 0 -0.40058034618176053 -0.102822357033339 0 -0.39898092645701888 -0.1217150458288304 0 -0.42059534252594671 -0.1196245816549861 0 -0.40058034618176053 -0.102822357033339 0 -0.42059534252594671 -0.1196245816549861 0 -0.41588558908773049 -0.097576340765692895 0 -0.42059534252594671 -0.1196245816549861 0 -0.41588558908773049 -0.097576340765692895 0 -0.42795681049564671 -0.1029803033580669 0 -0.40058034618176053 -0.102822357033339 0 -0.41588558908773049 -0.097576340765692895 0 -0.41339233200085251 -0.082576230420740984 0 -0.41588558908773049 -0.097576340765692895 0 -0.42795681049564671 -0.1029803033580669 0 -0.43531827846534638 -0.086336025061147542 0 -0.42795681049564671 -0.1029803033580669 0 -0.43531827846534638 -0.086336025061147542 0 -0.42795681049564671 -0.1029803033580669 0 -0.43531827846534638 -0.086336025061147542 0 -0.44282459742635238 -0.10049902711262811 0 -0.42795681049564671 -0.1029803033580669 0 -0.43363380707118337 -0.1158756792409639 0 -0.44282459742635238 -0.10049902711262811 0 -0.42059534252594671 -0.1196245816549861 0 -0.42795681049564671 -0.1029803033580669 0 -0.42059534252594671 -0.1196245816549861 0 -0.42795681049564671 -0.1029803033580669 0 -0.43363380707118337 -0.1158756792409639 0 -0.42443257019248248 -0.13030871616955039 0 -0.42059534252594671 -0.1196245816549861 0 -0.43363380707118337 -0.1158756792409639 0 -0.40705028932688841 -0.052793553274689597 0 -0.40442230130491008 -0.069074115522954199 0 -0.42245556625257491 -0.065841183371676687 0 -0.40442230130491008 -0.069074115522954199 0 -0.41339233200085251 -0.082576230420740984 0 -0.42245556625257491 -0.065841183371676687 0 -0.41588558908773049 -0.097576340765692895 0 -0.41339233200085251 -0.082576230420740984 0 -0.43531827846534638 -0.086336025061147542 0 -0.41339233200085251 -0.082576230420740984 0 -0.43531827846534638 -0.086336025061147542 0 -0.41339233200085251 -0.082576230420740984 0 -0.43531827846534638 -0.086336025061147542 0 -0.42245556625257491 -0.065841183371676687 0 -0.43531827846534638 -0.086336025061147542 0 -0.42245556625257491 -0.065841183371676687 0 -0.44728355610844373 -0.059282533582093469 0 -0.43531827846534638 -0.086336025061147542 0 -0.44728355610844373 -0.059282533582093469 0 -0.43531827846534638 -0.086336025061147542 0 -0.45235237833983077 -0.08925698072050503 0 -0.44728355610844373 -0.059282533582093469 0 -0.43531827846534638 -0.086336025061147542 0 -0.45235237833983077 -0.08925698072050503 0 -0.43531827846534638 -0.086336025061147542 0 -0.45235237833983077 -0.08925698072050503 0 -0.44282459742635238 -0.10049902711262811 0 -0.45235237833983077 -0.08925698072050503 0 -0.4730840874991033 -0.070335345045437592 0 -0.47243859988592918 -0.091500339545936907 0 -0.45235237833983077 -0.08925698072050503 0 -0.4730840874991033 -0.070335345045437592 0 -0.44728355610844373 -0.059282533582093469 0 -0.4390297308358993 -0.13122899565131979 0 -0.43363380707118337 -0.1158756792409639 0 -0.44855516291812941 -0.1136702476144863 0 -0.43363380707118337 -0.1158756792409639 0 -0.44855516291812941 -0.1136702476144863 0 -0.44282459742635238 -0.10049902711262811 0 -0.44855516291812941 -0.1136702476144863 0 -0.44282459742635238 -0.10049902711262811 0 -0.46073661083418588 -0.10185218273278469 0 -0.45235237833983077 -0.08925698072050503 0 -0.44282459742635238 -0.10049902711262811 0 -0.46073661083418588 -0.10185218273278469 0 -0.45235237833983077 -0.08925698072050503 0 -0.46073661083418588 -0.10185218273278469 0 -0.47243859988592918 -0.091500339545936907 0 -0.46073661083418588 -0.10185218273278469 0 -0.46389026018735779 -0.11620889470624129 0 -0.47808263542344598 -0.10816380574673549 0 -0.45612184019430752 -0.13012501911324351 0 -0.47595505156672019 -0.1272332183239564 0 -0.46389026018735779 -0.11620889470624129 0 -0.45612184019430752 -0.13012501911324351 0 -0.44855516291812941 -0.1136702476144863 0 -0.46389026018735779 -0.11620889470624129 0 -0.44855516291812941 -0.1136702476144863 0 -0.46073661083418588 -0.10185218273278469 0 -0.46389026018735779 -0.11620889470624129 0 -0.47595505156672019 -0.1272332183239564 0 -0.46389026018735779 -0.11620889470624129 0 -0.47808263542344598 -0.10816380574673549 0 -0.47808263542344598 -0.10816380574673549 0 -0.47243859988592918 -0.091500339545936907 0 -0.5 -0.092261306646644781 0 -0.46073661083418588 -0.10185218273278469 0 -0.47808263542344598 -0.10816380574673549 0 -0.47243859988592918 -0.091500339545936907 0 -0.47808263542344598 -0.10816380574673549 0 -0.50000000000000067 -0.12214752675676439 0 -0.5 -0.092261306646644781 0 -0.47595505156672019 -0.1272332183239564 0 -0.47808263542344598 -0.10816380574673549 0 -0.50000000000000067 -0.12214752675676439 0 -0.4730840874991033 -0.070335345045437592 0 -0.47243859988592918 -0.091500339545936907 0 -0.5 -0.092261306646644781 0 -0.4730840874991033 -0.070335345045437592 0 -0.5 -0.092261306646644781 0 -0.5 -0.062375086536525133 0 -0.5 -0.062375086536525133 0 -0.5 -0.032488866426405583 0 -0.4795347106842488 -0.046428583608304597 0 -0.5 -0.032488866426405583 0 -0.4795347106842488 -0.046428583608304597 0 -0.47985034610301702 -0.02489928592852959 0 -0.4795347106842488 -0.046428583608304597 0 -0.45924883375154069 -0.032229042103039209 0 -0.47985034610301702 -0.02489928592852959 0 -0.4730840874991033 -0.070335345045437592 0 -0.5 -0.062375086536525133 0 -0.4795347106842488 -0.046428583608304597 0 -0.4795347106842488 -0.046428583608304597 0 -0.45924883375154069 -0.032229042103039209 0 -0.44728355610844373 -0.059282533582093469 0 -0.42726664030900863 -0.044984642368434392 0 -0.43188900239433359 -0.02387479631718414 0 -0.45924883375154069 -0.032229042103039209 0 -0.4730840874991033 -0.070335345045437592 0 -0.4795347106842488 -0.046428583608304597 0 -0.44728355610844373 -0.059282533582093469 0 -0.42726664030900863 -0.044984642368434392 0 -0.45924883375154069 -0.032229042103039209 0 -0.44728355610844373 -0.059282533582093469 0 -0.45924883375154069 -0.032229042103039209 0 -0.44728355610844373 -0.059282533582093469 0 -0.43188900239433359 -0.02387479631718414 0 -0.45924883375154069 -0.032229042103039209 0 -0.44407855404828123 -0.0034906610811578009 0 -0.45924883375154069 -0.032229042103039209 0 -0.47121411139463759 -0.0051755506239849619 0 -0.45924883375154069 -0.032229042103039209 0 -0.44407855404828123 -0.0034906610811578009 0 -0.47121411139463759 -0.0051755506239849619 0 -0.47121411139463759 -0.0051755506239849619 0 -0.47985034610301702 -0.02489928592852959 0 -0.5 -0.0026026463162862612 0 -0.45924883375154069 -0.032229042103039209 0 -0.47121411139463759 -0.0051755506239849619 0 -0.47985034610301702 -0.02489928592852959 0 -0.5 -0.032488866426405583 0 -0.47985034610301702 -0.02489928592852959 0 -0.5 -0.0026026463162862612 0 -0.47121411139463759 -0.0051755506239849619 0 -0.5 -0.0026026463162862612 0 -0.48317938903773461 0.021877940855069319 0 -0.5 -0.0026026463162862612 0 -0.5 0.02728357379383306 0 -0.48317938903773461 0.021877940855069319 0 -0.5 0.02728357379383306 0 -0.48317938903773461 0.021877940855069319 0 -0.48393880842145109 0.039947218198231459 0 -0.4715177036119188 0.028153433479354711 0 -0.48317938903773461 0.021877940855069319 0 -0.48393880842145109 0.039947218198231459 0 -0.4715177036119188 0.028153433479354711 0 -0.48317938903773461 0.021877940855069319 0 -0.4630777545258955 0.0122613315341807 0 -0.47121411139463759 -0.0051755506239849619 0 -0.48317938903773461 0.021877940855069319 0 -0.4630777545258955 0.0122613315341807 0 -0.47121411139463759 -0.0051755506239849619 0 -0.48317938903773461 0.021877940855069319 0 -0.5 0.057169793903952382 0 -0.48393880842145109 0.039947218198231459 0 -0.47033005504529563 0.055236358835870719 0 -0.5 0.02728357379383306 0 -0.5 0.057169793903952382 0 -0.48393880842145109 0.039947218198231459 0 -0.48393880842145109 0.039947218198231459 0 -0.47033005504529563 0.055236358835870719 0 -0.46271601179182592 0.04099668278548789 0 -0.4715177036119188 0.028153433479354711 0 -0.48393880842145109 0.039947218198231459 0 -0.46271601179182592 0.04099668278548789 0 -0.5 0.057169793903952382 0 -0.47033005504529563 0.055236358835870719 0 -0.47714609425374499 0.073921166783849135 0 -0.47033005504529563 0.055236358835870719 0 -0.45627276181183901 0.054536827645239747 0 -0.45666911169983171 0.071215939162900824 0 -0.47033005504529563 0.055236358835870719 0 -0.45627276181183901 0.054536827645239747 0 -0.46271601179182592 0.04099668278548789 0 -0.45627276181183901 0.054536827645239747 0 -0.46271601179182592 0.04099668278548789 0 -0.44799998506499122 0.044937466103419747 0 -0.44799998506499122 0.044937466103419747 0 -0.44539901453690489 0.019941495041622209 0 -0.4290388313196436 0.046168201164070367 0 -0.46271601179182592 0.04099668278548789 0 -0.44799998506499122 0.044937466103419747 0 -0.44539901453690489 0.019941495041622209 0 -0.44799998506499122 0.044937466103419747 0 -0.44364864545725052 0.060297691338519532 0 -0.4290388313196436 0.046168201164070367 0 -0.45627276181183901 0.054536827645239747 0 -0.44364864545725052 0.060297691338519532 0 -0.45666911169983171 0.071215939162900824 0 -0.45627276181183901 0.054536827645239747 0 -0.44799998506499122 0.044937466103419747 0 -0.44364864545725052 0.060297691338519532 0 -0.44407855404828123 -0.0034906610811578009 0 -0.47121411139463759 -0.0051755506239849619 0 -0.4630777545258955 0.0122613315341807 0 -0.4715177036119188 0.028153433479354711 0 -0.44539901453690489 0.019941495041622209 0 -0.4715177036119188 0.028153433479354711 0 -0.4630777545258955 0.0122613315341807 0 -0.44539901453690489 0.019941495041622209 0 -0.4715177036119188 0.028153433479354711 0 -0.46271601179182592 0.04099668278548789 0 -0.44539901453690489 0.019941495041622209 0 -0.44407855404828123 -0.0034906610811578009 0 -0.4630777545258955 0.0122613315341807 0 -0.44539901453690489 0.019941495041622209 0 -0.44407855404828123 -0.0034906610811578009 0 -0.44539901453690489 0.019941495041622209 0 -0.41928032546189081 0.01172955660388964 0 -0.42133024812048447 0.02852880645042109 0 -0.4070747407721822 0.039428787964841068 0 -0.4053224272476742 0.01600643882183031 0 -0.41928032546189081 0.01172955660388964 0 -0.42133024812048447 0.02852880645042109 0 -0.4053224272476742 0.01600643882183031 0 -0.44539901453690489 0.019941495041622209 0 -0.41928032546189081 0.01172955660388964 0 -0.44539901453690489 0.019941495041622209 0 -0.41928032546189081 0.01172955660388964 0 -0.42133024812048447 0.02852880645042109 0 -0.44539901453690489 0.019941495041622209 0 -0.42133024812048447 0.02852880645042109 0 -0.4290388313196436 0.046168201164070367 0 -0.44364864545725052 0.060297691338519532 0 -0.4290388313196436 0.046168201164070367 0 -0.42915456808308761 0.067802850259535627 0 -0.4290388313196436 0.046168201164070367 0 -0.40955742664561767 0.06136239212241866 0 -0.42915456808308761 0.067802850259535627 0 -0.4290388313196436 0.046168201164070367 0 -0.40955742664561767 0.06136239212241866 0 -0.4070747407721822 0.039428787964841068 0 -0.42133024812048447 0.02852880645042109 0 -0.4290388313196436 0.046168201164070367 0 -0.4070747407721822 0.039428787964841068 0 -0.4070747407721822 0.039428787964841068 0 -0.39012952640417409 0.040263842459668603 0 -0.39476515066022061 0.02670100919566509 0 -0.4070747407721822 0.039428787964841068 0 -0.39514740987657621 0.052881422959827853 0 -0.39012952640417409 0.040263842459668603 0 -0.40955742664561767 0.06136239212241866 0 -0.4070747407721822 0.039428787964841068 0 -0.39514740987657621 0.052881422959827853 0 -0.40955742664561767 0.06136239212241866 0 -0.39514740987657621 0.052881422959827853 0 -0.39727088217793449 0.06376737556491642 0 -0.39514740987657621 0.052881422959827853 0 -0.38513376322721732 0.060281059303391067 0 -0.39727088217793449 0.06376737556491642 0 -0.39514740987657621 0.052881422959827853 0 -0.38446703681765138 0.050451295925603483 0 -0.39012952640417409 0.040263842459668603 0 -0.39514740987657621 0.052881422959827853 0 -0.38513376322721732 0.060281059303391067 0 -0.38446703681765138 0.050451295925603483 0 -0.38446703681765138 0.050451295925603483 0 -0.37937571165769718 0.042400823377937782 0 -0.37482735535405842 0.054176914602964747 0 -0.38513376322721732 0.060281059303391067 0 -0.38446703681765138 0.050451295925603483 0 -0.37482735535405842 0.054176914602964747 0 -0.3810340272311365 0.068315931809421748 0 -0.37482735535405842 0.054176914602964747 0 -0.3810340272311365 0.068315931809421748 0 -0.37482735535405842 0.054176914602964747 0 -0.37111499658023278 0.064037810781107221 0 -0.38513376322721732 0.060281059303391067 0 -0.3810340272311365 0.068315931809421748 0 -0.37482735535405842 0.054176914602964747 0 -0.39012952640417409 0.040263842459668603 0 -0.37937571165769718 0.042400823377937782 0 -0.37997324745135203 0.025947958042830961 0 -0.37937571165769718 0.042400823377937782 0 -0.37997324745135203 0.025947958042830961 0 -0.3686206834769824 0.040037897396506802 0 -0.38446703681765138 0.050451295925603483 0 -0.39012952640417409 0.040263842459668603 0 -0.37937571165769718 0.042400823377937782 0 -0.39012952640417409 0.040263842459668603 0 -0.37997324745135203 0.025947958042830961 0 -0.39476515066022061 0.02670100919566509 0 -0.37997324745135203 0.025947958042830961 0 -0.39132581142572082 0.011858018689154501 0 -0.37997324745135203 0.025947958042830961 0 -0.39132581142572082 0.011858018689154501 0 -0.39476515066022061 0.02670100919566509 0 -0.37997324745135203 0.025947958042830961 0 -0.37700050034496302 0.01357910260870961 0 -0.39132581142572082 0.011858018689154501 0 -0.37700050034496302 0.01357910260870961 0 -0.37845448083625521 0.0046526360579804086 0 -0.38498560724845388 0.0084018438805003957 0 -0.36704294731186271 -0.0046943202715755018 0 -0.37845448083625521 0.0046526360579804086 0 -0.39316163638687668 0.0035176181661570622 0 -0.37845448083625521 0.0046526360579804086 0 -0.38498560724845388 0.0084018438805003957 0 -0.39316163638687668 0.0035176181661570622 0 -0.37700050034496302 0.01357910260870961 0 -0.38498560724845388 0.0084018438805003957 0 -0.39132581142572082 0.011858018689154501 0 -0.38498560724845388 0.0084018438805003957 0 -0.39132581142572082 0.011858018689154501 0 -0.39316163638687668 0.0035176181661570622 0 -0.41928032546189081 0.01172955660388964 0 -0.39316163638687668 0.0035176181661570622 0 -0.4053224272476742 0.01600643882183031 0 -0.39132581142572082 0.011858018689154501 0 -0.39316163638687668 0.0035176181661570622 0 -0.4053224272476742 0.01600643882183031 0 -0.40558727534347139 -0.0033871311787529931 0 -0.41928032546189081 0.01172955660388964 0 -0.39316163638687668 0.0035176181661570622 0 -0.41928032546189081 0.01172955660388964 0 -0.39316163638687668 0.0035176181661570622 0 -0.4070747407721822 0.039428787964841068 0 -0.4053224272476742 0.01600643882183031 0 -0.39476515066022061 0.02670100919566509 0 -0.39132581142572082 0.011858018689154501 0 -0.4053224272476742 0.01600643882183031 0 -0.39476515066022061 0.02670100919566509 0 -0.39779768804226889 0.099810832366628521 0 -0.39309797774276589 0.11484902385173899 0 -0.41335609469743467 0.1008081964446662 0 -0.39309797774276589 0.11484902385173899 0 -0.41335609469743467 0.1008081964446662 0 -0.39779768804226889 0.099810832366628521 0 -0.39309797774276589 0.11484902385173899 0 -0.38881149500407602 0.10522090777299389 0 -0.39779768804226889 0.099810832366628521 0 -0.38881149500407602 0.10522090777299389 0 -0.38890844110743911 0.092193914118739256 0 -0.39309797774276589 0.11484902385173899 0 -0.41413606188538532 0.1164945853513954 0 -0.40269489929480728 0.1363111444669157 0 -0.39309797774276589 0.11484902385173899 0 -0.38180638531457378 0.1137320772065072 0 -0.38881149500407602 0.10522090777299389 0 -0.39309797774276589 0.11484902385173899 0 -0.37283986078809711 0.12888985125881189 0 -0.38180638531457378 0.1137320772065072 0 -0.37966223146468242 0.1027999454358668 0 -0.3714730378573759 0.11966603184392639 0 -0.39309797774276589 0.11484902385173899 0 -0.38180638531457378 0.1137320772065072 0 -0.37283986078809711 0.12888985125881189 0 -0.38180638531457378 0.1137320772065072 0 -0.37186965138911587 0.12234252454249191 0 -0.3714730378573759 0.11966603184392639 0 -0.38180638531457378 0.1137320772065072 0 -0.37283986078809711 0.12888985125881189 0 -0.37186965138911587 0.12234252454249191 0 -0.38180638531457378 0.1137320772065072 0 -0.3714730378573759 0.11966603184392639 0 -0.38180638531457378 0.1137320772065072 0 -0.37966223146468242 0.1027999454358668 0 -0.38881149500407602 0.10522090777299389 0 -0.37966223146468242 0.1027999454358668 0 -0.38881149500407602 0.10522090777299389 0 -0.38890844110743911 0.092193914118739256 0 -0.37966223146468242 0.1027999454358668 0 -0.37953623085406007 0.088693829425257234 0 -0.36800313447318611 0.096249858846341754 0 -0.37966223146468242 0.1027999454358668 0 -0.37953623085406007 0.088693829425257234 0 -0.38890844110743911 0.092193914118739256 0 -0.37953623085406007 0.088693829425257234 0 -0.37523743191216852 0.077938482474668502 0 -0.38720297124539821 0.077499778137126149 0 -0.37953623085406007 0.088693829425257234 0 -0.38890844110743911 0.092193914118739256 0 -0.38720297124539821 0.077499778137126149 0 -0.38513376322721732 0.060281059303391067 0 -0.3810340272311365 0.068315931809421748 0 -0.38720297124539821 0.077499778137126149 0 -0.38513376322721732 0.060281059303391067 0 -0.38720297124539821 0.077499778137126149 0 -0.39924492896232688 0.080544627874028107 0 -0.3810340272311365 0.068315931809421748 0 -0.37523743191216852 0.077938482474668502 0 -0.37111499658023278 0.064037810781107221 0 -0.3810340272311365 0.068315931809421748 0 -0.37523743191216852 0.077938482474668502 0 -0.38720297124539821 0.077499778137126149 0 -0.38513376322721732 0.060281059303391067 0 -0.39924492896232688 0.080544627874028107 0 -0.38513376322721732 0.060281059303391067 0 -0.39727088217793449 0.06376737556491642 0 -0.39924492896232688 0.080544627874028107 0 -0.40955742664561767 0.06136239212241866 0 -0.39727088217793449 0.06376737556491642 0 -0.39924492896232688 0.080544627874028107 0 -0.39779768804226889 0.099810832366628521 0 -0.39924492896232688 0.080544627874028107 0 -0.41335609469743467 0.1008081964446662 0 -0.39779768804226889 0.099810832366628521 0 -0.38890844110743911 0.092193914118739256 0 -0.39924492896232688 0.080544627874028107 0 -0.38890844110743911 0.092193914118739256 0 -0.38720297124539821 0.077499778137126149 0 -0.39924492896232688 0.080544627874028107 0 -0.39924492896232688 0.080544627874028107 0 -0.41335609469743467 0.1008081964446662 0 -0.39924492896232688 0.080544627874028107 0 -0.42006312025691722 0.080926409736438387 0 -0.41903236866959842 0.096873991536245985 0 -0.39924492896232688 0.080544627874028107 0 -0.41903236866959842 0.096873991536245985 0 -0.41335609469743467 0.1008081964446662 0 -0.40955742664561767 0.06136239212241866 0 -0.42006312025691722 0.080926409736438387 0 -0.42915456808308761 0.067802850259535627 0 -0.40955742664561767 0.06136239212241866 0 -0.39924492896232688 0.080544627874028107 0 -0.42006312025691722 0.080926409736438387 0 -0.42006312025691722 0.080926409736438387 0 -0.42915456808308761 0.067802850259535627 0 -0.43580433137814711 0.08548660045018186 0 -0.42915456808308761 0.067802850259535627 0 -0.43580433137814711 0.08548660045018186 0 -0.44289791427937902 0.073433609156242238 0 -0.42705343394434242 0.091664196699224459 0 -0.43580433137814711 0.08548660045018186 0 -0.4306685135208414 0.1014881596291083 0 -0.42006312025691722 0.080926409736438387 0 -0.42705343394434242 0.091664196699224459 0 -0.41903236866959842 0.096873991536245985 0 -0.42006312025691722 0.080926409736438387 0 -0.42705343394434242 0.091664196699224459 0 -0.43580433137814711 0.08548660045018186 0 -0.4306685135208414 0.1014881596291083 0 -0.41335609469743467 0.1008081964446662 0 -0.42887594837161458 0.1230946343645667 0 -0.42705343394434242 0.091664196699224459 0 -0.4306685135208414 0.1014881596291083 0 -0.41903236866959842 0.096873991536245985 0 -0.4306685135208414 0.1014881596291083 0 -0.41903236866959842 0.096873991536245985 0 -0.41335609469743467 0.1008081964446662 0 -0.41903236866959842 0.096873991536245985 0 -0.41335609469743467 0.1008081964446662 0 -0.39309797774276589 0.11484902385173899 0 -0.41335609469743467 0.1008081964446662 0 -0.41413606188538532 0.1164945853513954 0 -0.41335609469743467 0.1008081964446662 0 -0.41413606188538532 0.1164945853513954 0 -0.42887594837161458 0.1230946343645667 0 -0.41335609469743467 0.1008081964446662 0 -0.42887594837161458 0.1230946343645667 0 -0.41413606188538532 0.1164945853513954 0 -0.42887594837161458 0.1230946343645667 0 -0.41664700042878272 0.13064622286372729 0 -0.4306685135208414 0.1014881596291083 0 -0.42887594837161458 0.1230946343645667 0 -0.44597163768778769 0.11454406520123139 0 -0.42887594837161458 0.1230946343645667 0 -0.44597163768778769 0.11454406520123139 0 -0.44469311589764421 0.12749794139464049 0 -0.44597163768778769 0.11454406520123139 0 -0.44469311589764421 0.12749794139464049 0 -0.45952907548538152 0.12697199372829551 0 -0.4306685135208414 0.1014881596291083 0 -0.44597163768778769 0.11454406520123139 0 -0.44832139687198458 0.098255208399729788 0 -0.43580433137814711 0.08548660045018186 0 -0.4306685135208414 0.1014881596291083 0 -0.44832139687198458 0.098255208399729788 0 -0.44597163768778769 0.11454406520123139 0 -0.44832139687198458 0.098255208399729788 0 -0.46461130603559209 0.1079684460980459 0 -0.44832139687198458 0.098255208399729788 0 -0.46461130603559209 0.1079684460980459 0 -0.46224855414732119 0.087591946215640662 0 -0.46461130603559209 0.1079684460980459 0 -0.46224855414732119 0.087591946215640662 0 -0.47753050124419621 0.091825952279245074 0 -0.46461130603559209 0.1079684460980459 0 -0.4780439981652162 0.13472721275081109 0 -0.45952907548538152 0.12697199372829551 0 -0.44597163768778769 0.11454406520123139 0 -0.46461130603559209 0.1079684460980459 0 -0.45952907548538152 0.12697199372829551 0 -0.44364864545725052 0.060297691338519532 0 -0.44289791427937902 0.073433609156242238 0 -0.45666911169983171 0.071215939162900824 0 -0.44364864545725052 0.060297691338519532 0 -0.42915456808308761 0.067802850259535627 0 -0.44289791427937902 0.073433609156242238 0 -0.44289791427937902 0.073433609156242238 0 -0.44921291477857772 0.082364964570073335 0 -0.45666911169983171 0.071215939162900824 0 -0.43580433137814711 0.08548660045018186 0 -0.44832139687198458 0.098255208399729788 0 -0.44921291477857772 0.082364964570073335 0 -0.43580433137814711 0.08548660045018186 0 -0.44289791427937902 0.073433609156242238 0 -0.44921291477857772 0.082364964570073335 0 -0.44832139687198458 0.098255208399729788 0 -0.44921291477857772 0.082364964570073335 0 -0.46224855414732119 0.087591946215640662 0 -0.44921291477857772 0.082364964570073335 0 -0.46224855414732119 0.087591946215640662 0 -0.45666911169983171 0.071215939162900824 0 -0.47033005504529563 0.055236358835870719 0 -0.45666911169983171 0.071215939162900824 0 -0.47714609425374499 0.073921166783849135 0 -0.46224855414732119 0.087591946215640662 0 -0.45666911169983171 0.071215939162900824 0 -0.47714609425374499 0.073921166783849135 0 -0.46224855414732119 0.087591946215640662 0 -0.47714609425374499 0.073921166783849135 0 -0.47753050124419621 0.091825952279245074 0 -0.47714609425374499 0.073921166783849135 0 -0.47753050124419621 0.091825952279245074 0 -0.5 0.087056014014071703 0 -0.5 0.057169793903952382 0 -0.47714609425374499 0.073921166783849135 0 -0.5 0.087056014014071703 0 -0.46461130603559209 0.1079684460980459 0 -0.48395619509052729 0.10728496409458591 0 -0.4780439981652162 0.13472721275081109 0 -0.46461130603559209 0.1079684460980459 0 -0.47753050124419621 0.091825952279245074 0 -0.48395619509052729 0.10728496409458591 0 -0.47753050124419621 0.091825952279245074 0 -0.5 0.087056014014071703 0 -0.48395619509052729 0.10728496409458591 0 -0.5 0.087056014014071703 0 -0.48395619509052729 0.10728496409458591 0 -0.5 0.116942234124191 0 -0.48395619509052729 0.10728496409458591 0 -0.5 0.116942234124191 0 -0.4780439981652162 0.13472721275081109 0 -0.5 0.116942234124191 0 -0.4780439981652162 0.13472721275081109 0 -0.5 0.14682845423431029 0 -0.4780439981652162 0.13472721275081109 0 -0.5 0.14682845423431029 0 -0.47442947822498949 0.1601649005026449 0 -0.4780439981652162 0.13472721275081109 0 -0.47442947822498949 0.1601649005026449 0 -0.46162275612798431 0.15082097061686059 0 -0.5 0.14682845423431029 0 -0.5 0.1767146743444297 0 -0.47442947822498949 0.1601649005026449 0 -0.5 0.1767146743444297 0 -0.4764182484176796 0.1785539896578211 0 -0.47980663731201451 0.19656607211068591 0 -0.4764182484176796 0.1785539896578211 0 -0.46027738774709559 0.18529318572109879 0 -0.47980663731201451 0.19656607211068591 0 -0.5 0.1767146743444297 0 -0.4764182484176796 0.1785539896578211 0 -0.47442947822498949 0.1601649005026449 0 -0.4764182484176796 0.1785539896578211 0 -0.47442947822498949 0.1601649005026449 0 -0.46579250726371318 0.17446508480825129 0 -0.45651048129048749 0.16662236165275521 0 -0.45270730969033213 0.1569617269907039 0 -0.46162275612798431 0.15082097061686059 0 -0.47442947822498949 0.1601649005026449 0 -0.45651048129048749 0.16662236165275521 0 -0.46162275612798431 0.15082097061686059 0 -0.47442947822498949 0.1601649005026449 0 -0.45651048129048749 0.16662236165275521 0 -0.46579250726371318 0.17446508480825129 0 -0.4764182484176796 0.1785539896578211 0 -0.46027738774709559 0.18529318572109879 0 -0.46579250726371318 0.17446508480825129 0 -0.45651048129048749 0.16662236165275521 0 -0.46027738774709559 0.18529318572109879 0 -0.46579250726371318 0.17446508480825129 0 -0.45651048129048749 0.16662236165275521 0 -0.46027738774709559 0.18529318572109879 0 -0.43975681285017348 0.18077880470442451 0 -0.46027738774709559 0.18529318572109879 0 -0.43975681285017348 0.18077880470442451 0 -0.44801815376423648 0.1946220718935126 0 -0.44519462288260081 0.16056291007625059 0 -0.44439580204579121 0.1453810722844697 0 -0.42975661778565 0.16318910926463781 0 -0.43975681285017348 0.18077880470442451 0 -0.44519462288260081 0.16056291007625059 0 -0.42975661778565 0.16318910926463781 0 -0.45651048129048749 0.16662236165275521 0 -0.43975681285017348 0.18077880470442451 0 -0.44519462288260081 0.16056291007625059 0 -0.45651048129048749 0.16662236165275521 0 -0.45270730969033213 0.1569617269907039 0 -0.44519462288260081 0.16056291007625059 0 -0.44750137846025601 0.14984066561694939 0 -0.44439580204579121 0.1453810722844697 0 -0.45952907548538152 0.12697199372829551 0 -0.44519462288260081 0.16056291007625059 0 -0.44750137846025601 0.14984066561694939 0 -0.44439580204579121 0.1453810722844697 0 -0.45270730969033213 0.1569617269907039 0 -0.44519462288260081 0.16056291007625059 0 -0.44750137846025601 0.14984066561694939 0 -0.44750137846025601 0.14984066561694939 0 -0.44439580204579121 0.1453810722844697 0 -0.44439580204579121 0.1453810722844697 0 -0.45952907548538152 0.12697199372829551 0 -0.42887594837161458 0.1230946343645667 0 -0.44439580204579121 0.1453810722844697 0 -0.44469311589764421 0.12749794139464049 0 -0.44439580204579121 0.1453810722844697 0 -0.44469311589764421 0.12749794139464049 0 -0.45952907548538152 0.12697199372829551 0 -0.4780439981652162 0.13472721275081109 0 -0.45952907548538152 0.12697199372829551 0 -0.46162275612798431 0.15082097061686059 0 -0.44750137846025601 0.14984066561694939 0 -0.45952907548538152 0.12697199372829551 0 -0.46162275612798431 0.15082097061686059 0 -0.45270730969033213 0.1569617269907039 0 -0.44750137846025601 0.14984066561694939 0 -0.46162275612798431 0.15082097061686059 0 -0.47675850892230648 0.23748435826430511 0 -0.46099016809325821 0.24544934887813891 0 -0.4736346384558503 0.2509449944427371 0 -0.47675850892230648 0.23748435826430511 0 -0.48629441403109691 0.2495838039864175 0 -0.4736346384558503 0.2509449944427371 0 -0.48629441403109691 0.2495838039864175 0 -0.5 0.23432748659434191 0 -0.5 0.262054078734135 0 -0.47675850892230648 0.23748435826430511 0 -0.48629441403109691 0.2495838039864175 0 -0.5 0.23432748659434191 0 -0.47675850892230648 0.23748435826430511 0 -0.5 0.23432748659434191 0 -0.4771999350586803 0.21896416710744579 0 -0.5 0.23432748659434191 0 -0.4771999350586803 0.21896416710744579 0 -0.50000000000000155 0.20660089445454899 0 -0.47675850892230648 0.23748435826430511 0 -0.4771999350586803 0.21896416710744579 0 -0.45439987011735861 0.23132743976034201 0 -0.4771999350586803 0.21896416710744579 0 -0.47980663731201451 0.19656607211068591 0 -0.45641168670786231 0.2075041188308511 0 -0.4771999350586803 0.21896416710744579 0 -0.50000000000000155 0.20660089445454899 0 -0.47980663731201451 0.19656607211068591 0 -0.4771999350586803 0.21896416710744579 0 -0.50000000000000155 0.20660089445454899 0 -0.5 0.1767146743444297 0 -0.50000000000000155 0.20660089445454899 0 -0.47980663731201451 0.19656607211068591 0 -0.46027738774709559 0.18529318572109879 0 -0.44801815376423648 0.1946220718935126 0 -0.45641168670786231 0.2075041188308511 0 -0.46027738774709559 0.18529318572109879 0 -0.47980663731201451 0.19656607211068591 0 -0.45641168670786231 0.2075041188308511 0 -0.44801815376423648 0.1946220718935126 0 -0.45641168670786231 0.2075041188308511 0 -0.43562672775181421 0.204912178317676 0 -0.43975681285017348 0.18077880470442451 0 -0.44801815376423648 0.1946220718935126 0 -0.43562672775181421 0.204912178317676 0 -0.45641168670786231 0.2075041188308511 0 -0.44018516371656408 0.22104838995953241 0 -0.43562672775181421 0.204912178317676 0 -0.4771999350586803 0.21896416710744579 0 -0.45439987011735861 0.23132743976034201 0 -0.4771999350586803 0.21896416710744579 0 -0.45641168670786231 0.2075041188308511 0 -0.45439987011735861 0.23132743976034201 0 -0.45641168670786231 0.2075041188308511 0 -0.45439987011735861 0.23132743976034201 0 -0.44018516371656408 0.22104838995953241 0 -0.45439987011735861 0.23132743976034201 0 -0.44018516371656408 0.22104838995953241 0 -0.43175780585290852 0.2361786356169556 0 -0.45439987011735861 0.23132743976034201 0 -0.44385238052221482 0.24856057350411129 0 -0.43175780585290852 0.2361786356169556 0 -0.45439987011735861 0.23132743976034201 0 -0.44385238052221482 0.24856057350411129 0 -0.46099016809325821 0.24544934887813891 0 -0.47675850892230648 0.23748435826430511 0 -0.45439987011735861 0.23132743976034201 0 -0.46099016809325821 0.24544934887813891 0 -0.43175780585290852 0.2361786356169556 0 -0.40577057457472349 0.24313069415562391 0 -0.43175780585290852 0.2361786356169556 0 -0.40577057457472349 0.24313069415562391 0 -0.42360250984710962 0.25372911735208947 0 -0.44385238052221482 0.24856057350411129 0 -0.43175780585290852 0.2361786356169556 0 -0.42360250984710962 0.25372911735208947 0 -0.44018516371656408 0.22104838995953241 0 -0.43175780585290852 0.2361786356169556 0 -0.41928529583428331 0.2206245649573213 0 -0.41928529583428331 0.2206245649573213 0 -0.40096549596587328 0.22642439854412449 0 -0.40577057457472349 0.24313069415562391 0 -0.43175780585290852 0.2361786356169556 0 -0.41928529583428331 0.2206245649573213 0 -0.40577057457472349 0.24313069415562391 0 -0.41928529583428331 0.2206245649573213 0 -0.40186006723269441 0.21357527886985209 0 -0.40096549596587328 0.22642439854412449 0 -0.41858880666892739 0.19877193073561841 0 -0.40047824926536862 0.19880518322497481 0 -0.40186006723269441 0.21357527886985209 0 -0.41928529583428331 0.2206245649573213 0 -0.41858880666892739 0.19877193073561841 0 -0.40186006723269441 0.21357527886985209 0 -0.44018516371656408 0.22104838995953241 0 -0.41928529583428331 0.2206245649573213 0 -0.43562672775181421 0.204912178317676 0 -0.41928529583428331 0.2206245649573213 0 -0.43562672775181421 0.204912178317676 0 -0.41858880666892739 0.19877193073561841 0 -0.43975681285017348 0.18077880470442451 0 -0.43562672775181421 0.204912178317676 0 -0.41858880666892739 0.19877193073561841 0 -0.40047824926536862 0.19880518322497481 0 -0.41511743352550928 0.18099714624480631 0 -0.41858880666892739 0.19877193073561841 0 -0.40047824926536862 0.19880518322497481 0 -0.41511743352550928 0.18099714624480631 0 -0.40047824926536862 0.19880518322497481 0 -0.38239646710350428 0.1933813145574648 0 -0.39769205940950703 0.18463609810962861 0 -0.40047824926536862 0.19880518322497481 0 -0.41511743352550928 0.18099714624480631 0 -0.39769205940950703 0.18463609810962861 0 -0.40047824926536862 0.19880518322497481 0 -0.38239646710350428 0.1933813145574648 0 -0.3858390650052288 0.21661322020514409 0 -0.38239646710350428 0.1933813145574648 0 -0.39769205940950703 0.18463609810962861 0 -0.38239646710350428 0.1933813145574648 0 -0.37597798323128129 0.1825859301249094 0 -0.36805430097796082 0.1889783187395748 0 -0.38239646710350428 0.1933813145574648 0 -0.37531806796805323 0.2080250123765425 0 -0.3858390650052288 0.21661322020514409 0 -0.37531806796805323 0.2080250123765425 0 -0.3858390650052288 0.21661322020514409 0 -0.36995258670303433 0.21889047848972701 0 -0.38239646710350428 0.1933813145574648 0 -0.3858390650052288 0.21661322020514409 0 -0.3858390650052288 0.21661322020514409 0 -0.38643470655258411 0.22063282650914931 0 -0.40047824926536862 0.19880518322497481 0 -0.3858390650052288 0.21661322020514409 0 -0.40186006723269441 0.21357527886985209 0 -0.3858390650052288 0.21661322020514409 0 -0.40186006723269441 0.21357527886985209 0 -0.38643470655258411 0.22063282650914931 0 -0.40047824926536862 0.19880518322497481 0 -0.3858390650052288 0.21661322020514409 0 -0.40096549596587328 0.22642439854412449 0 -0.38643470655258411 0.22063282650914931 0 -0.38828643046537792 0.23562572782755839 0 -0.40186006723269441 0.21357527886985209 0 -0.40096549596587328 0.22642439854412449 0 -0.38643470655258411 0.22063282650914931 0 -0.3858390650052288 0.21661322020514409 0 -0.37268350437052311 0.2326164828265142 0 -0.3858390650052288 0.21661322020514409 0 -0.36995258670303433 0.21889047848972701 0 -0.37268350437052311 0.2326164828265142 0 -0.3858390650052288 0.21661322020514409 0 -0.38643470655258411 0.22063282650914931 0 -0.37268350437052311 0.2326164828265142 0 -0.38643470655258411 0.22063282650914931 0 -0.38828643046537792 0.23562572782755839 0 -0.37268350437052311 0.2326164828265142 0 -0.38828643046537792 0.23562572782755839 0 -0.37268350437052311 0.2326164828265142 0 -0.37978334329653862 0.2500827526942922 0 -0.40577057457472349 0.24313069415562391 0 -0.37978334329653862 0.2500827526942922 0 -0.38828643046537792 0.23562572782755839 0 -0.40577057457472349 0.24313069415562391 0 -0.37978334329653862 0.2500827526942922 0 -0.40096549596587328 0.22642439854412449 0 -0.38828643046537792 0.23562572782755839 0 -0.40577057457472349 0.24313069415562391 0 -0.41116443937021258 0.15606372678703651 0 -0.4222557845494766 0.14244765167189211 0 -0.40269489929480728 0.1363111444669157 0 -0.41116443937021258 0.15606372678703651 0 -0.4222557845494766 0.14244765167189211 0 -0.42975661778565 0.16318910926463781 0 -0.41413606188538532 0.1164945853513954 0 -0.41664700042878272 0.13064622286372729 0 -0.40269489929480728 0.1363111444669157 0 -0.41413606188538532 0.1164945853513954 0 -0.40269489929480728 0.1363111444669157 0 -0.41664700042878272 0.13064622286372729 0 -0.4222557845494766 0.14244765167189211 0 -0.40269489929480728 0.1363111444669157 0 -0.42887594837161458 0.1230946343645667 0 -0.44439580204579121 0.1453810722844697 0 -0.42887594837161458 0.1230946343645667 0 -0.41664700042878272 0.13064622286372729 0 -0.4222557845494766 0.14244765167189211 0 -0.42887594837161458 0.1230946343645667 0 -0.44439580204579121 0.1453810722844697 0 -0.4222557845494766 0.14244765167189211 0 -0.44439580204579121 0.1453810722844697 0 -0.42975661778565 0.16318910926463781 0 -0.44439580204579121 0.1453810722844697 0 -0.4222557845494766 0.14244765167189211 0 -0.42975661778565 0.16318910926463781 0 -0.43975681285017348 0.18077880470442451 0 -0.41858880666892739 0.19877193073561841 0 -0.41511743352550928 0.18099714624480631 0 -0.42975661778565 0.16318910926463781 0 -0.41511743352550928 0.18099714624480631 0 -0.43975681285017348 0.18077880470442451 0 -0.42975661778565 0.16318910926463781 0 -0.41511743352550928 0.18099714624480631 0 -0.41511743352550928 0.18099714624480631 0 -0.412987651715509 0.17589088166179109 0 -0.39769205940950703 0.18463609810962861 0 -0.42975661778565 0.16318910926463781 0 -0.41511743352550928 0.18099714624480631 0 -0.412987651715509 0.17589088166179109 0 -0.412987651715509 0.17589088166179109 0 -0.40903901181445079 0.1662565756287932 0 -0.40470304577412658 0.17403048765678589 0 -0.42975661778565 0.16318910926463781 0 -0.412987651715509 0.17589088166179109 0 -0.40903901181445079 0.1662565756287932 0 -0.41116443937021258 0.15606372678703651 0 -0.42975661778565 0.16318910926463781 0 -0.40903901181445079 0.1662565756287932 0 -0.41116443937021258 0.15606372678703651 0 -0.40903901181445079 0.1662565756287932 0 -0.39909346015703961 0.16933839522693089 0 -0.41116443937021258 0.15606372678703651 0 -0.39909346015703961 0.16933839522693089 0 -0.39125373670422908 0.15612770358243599 0 -0.39909346015703961 0.16933839522693089 0 -0.39070055241605361 0.17628257451996721 0 -0.39125373670422908 0.15612770358243599 0 -0.40903901181445079 0.1662565756287932 0 -0.39909346015703961 0.16933839522693089 0 -0.40470304577412658 0.17403048765678589 0 -0.412987651715509 0.17589088166179109 0 -0.39769205940950703 0.18463609810962861 0 -0.39909346015703961 0.16933839522693089 0 -0.40470304577412658 0.17403048765678589 0 -0.39769205940950703 0.18463609810962861 0 -0.412987651715509 0.17589088166179109 0 -0.40470304577412658 0.17403048765678589 0 -0.39769205940950703 0.18463609810962861 0 -0.39909346015703961 0.16933839522693089 0 -0.39070055241605361 0.17628257451996721 0 -0.39769205940950703 0.18463609810962861 0 -0.38239646710350428 0.1933813145574648 0 -0.37981257411365049 0.17594426269795599 0 -0.37597798323128129 0.1825859301249094 0 -0.38239646710350428 0.1933813145574648 0 -0.39070055241605361 0.17628257451996721 0 -0.37981257411365049 0.17594426269795599 0 -0.38239646710350428 0.1933813145574648 0 -0.37981257411365049 0.17594426269795599 0 -0.38239646710350428 0.1933813145574648 0 -0.39070055241605361 0.17628257451996721 0 -0.39769205940950703 0.18463609810962861 0 -0.37981257411365049 0.17594426269795599 0 -0.37597798323128129 0.1825859301249094 0 -0.37189710763601591 0.17627618365630821 0 -0.37981257411365049 0.17594426269795599 0 -0.37597798323128129 0.1825859301249094 0 -0.39070055241605361 0.17628257451996721 0 -0.37981257411365049 0.17594426269795599 0 -0.39125373670422908 0.15612770358243599 0 -0.37981257411365049 0.17594426269795599 0 -0.37632621745087358 0.15241705697838401 0 -0.37981257411365049 0.17594426269795599 0 -0.39125373670422908 0.15612770358243599 0 -0.37981257411365049 0.17594426269795599 0 -0.37567904917799028 0.15669549312901959 0 -0.37632621745087358 0.15241705697838401 0 -0.37981257411365049 0.17594426269795599 0 -0.37567904917799028 0.15669549312901959 0 -0.37217721119341612 0.16347027157715971 0 -0.37981257411365049 0.17594426269795599 0 -0.37632621745087358 0.15241705697838401 0 -0.39125373670422908 0.15612770358243599 0 -0.37632621745087358 0.15241705697838401 0 -0.39125373670422908 0.15612770358243599 0 -0.38724253839615458 0.1377189560276573 0 -0.39125373670422908 0.15612770358243599 0 -0.40269489929480728 0.1363111444669157 0 -0.39125373670422908 0.15612770358243599 0 -0.40269489929480728 0.1363111444669157 0 -0.38724253839615458 0.1377189560276573 0 -0.41116443937021258 0.15606372678703651 0 -0.39125373670422908 0.15612770358243599 0 -0.40269489929480728 0.1363111444669157 0 -0.39309797774276589 0.11484902385173899 0 -0.40269489929480728 0.1363111444669157 0 -0.38724253839615458 0.1377189560276573 0 -0.37632621745087358 0.15241705697838401 0 -0.38724253839615458 0.1377189560276573 0 -0.37283986078809711 0.12888985125881189 0 -0.39309797774276589 0.11484902385173899 0 -0.38724253839615458 0.1377189560276573 0 -0.37283986078809711 0.12888985125881189 0 -0.37283986078809711 0.12888985125881189 0 -0.37186965138911587 0.12234252454249191 0 -0.37283986078809711 0.12888985125881189 0 -0.36476541222021619 0.13448622228394599 0 -0.37632621745087358 0.15241705697838401 0 -0.37283986078809711 0.12888985125881189 0 -0.36476541222021619 0.13448622228394599 0 -0.37283986078809711 0.12888985125881189 0 -0.36757992834226172 0.1280565862510615 0 -0.36476541222021619 0.13448622228394599 0 -0.37283986078809711 0.12888985125881189 0 -0.36757992834226172 0.1280565862510615 0 -0.37186965138911587 0.12234252454249191 0 -0.36757992834226172 0.1280565862510615 0 -0.36476541222021619 0.13448622228394599 0 -0.36056179151519407 0.12593184658600001 0 -0.36476541222021619 0.13448622228394599 0 -0.36056179151519407 0.12593184658600001 0 -0.35708601276042878 0.12792782257983171 0 -0.36757992834226172 0.1280565862510615 0 -0.36056179151519407 0.12593184658600001 0 -0.37186965138911587 0.12234252454249191 0 -0.36476541222021619 0.13448622228394599 0 -0.36056179151519407 0.12593184658600001 0 -0.35708601276042878 0.12792782257983171 0 -0.32997166189558752 0.13817169653216979 0 -0.34654223540871221 0.1237417205043463 0 -0.35708601276042878 0.12792782257983171 0 -0.34549783582189109 0.14784050962303349 0 -0.33161819428315359 0.14255279093439621 0 -0.36056179151519407 0.12593184658600001 0 -0.35708601276042878 0.12792782257983171 0 -0.36056179151519407 0.12593184658600001 0 -0.35708601276042878 0.12792782257983171 0 -0.34654223540871221 0.1237417205043463 0 -0.35708601276042878 0.12792782257983171 0 -0.33161819428315359 0.14255279093439621 0 -0.36476541222021619 0.13448622228394599 0 -0.35708601276042878 0.12792782257983171 0 -0.34549783582189109 0.14784050962303349 0 -0.36476541222021619 0.13448622228394599 0 -0.34549783582189109 0.14784050962303349 0 -0.36015102315350278 0.1502478097734844 0 -0.36476541222021619 0.13448622228394599 0 -0.34549783582189109 0.14784050962303349 0 -0.34549783582189109 0.14784050962303349 0 -0.36015102315350278 0.1502478097734844 0 -0.35458651278289482 0.15948964281090811 0 -0.36015102315350278 0.1502478097734844 0 -0.36738612991490638 0.1513053763089699 0 -0.36581379296138877 0.15882569438964711 0 -0.36015102315350278 0.1502478097734844 0 -0.36581379296138877 0.15882569438964711 0 -0.35458651278289482 0.15948964281090811 0 -0.37567904917799028 0.15669549312901959 0 -0.36476541222021619 0.13448622228394599 0 -0.36738612991490638 0.1513053763089699 0 -0.37567904917799028 0.15669549312901959 0 -0.36476541222021619 0.13448622228394599 0 -0.37632621745087358 0.15241705697838401 0 -0.37283986078809711 0.12888985125881189 0 -0.36476541222021619 0.13448622228394599 0 -0.36015102315350278 0.1502478097734844 0 -0.36738612991490638 0.1513053763089699 0 -0.37567904917799028 0.15669549312901959 0 -0.37632621745087358 0.15241705697838401 0 -0.36476541222021619 0.13448622228394599 0 -0.37567904917799028 0.15669549312901959 0 -0.36738612991490638 0.1513053763089699 0 -0.3702640458119254 0.15757420885119899 0 -0.36738612991490638 0.1513053763089699 0 -0.3702640458119254 0.15757420885119899 0 -0.36581379296138877 0.15882569438964711 0 -0.37217721119341612 0.16347027157715971 0 -0.36905926765261732 0.1696142457004233 0 -0.36581379296138877 0.15882569438964711 0 -0.37567904917799028 0.15669549312901959 0 -0.3702640458119254 0.15757420885119899 0 -0.37217721119341612 0.16347027157715971 0 -0.3702640458119254 0.15757420885119899 0 -0.37217721119341612 0.16347027157715971 0 -0.36581379296138877 0.15882569438964711 0 -0.37981257411365049 0.17594426269795599 0 -0.37217721119341612 0.16347027157715971 0 -0.36905926765261732 0.1696142457004233 0 -0.36905926765261732 0.1696142457004233 0 -0.36099591742146397 0.167637108724809 0 -0.36581379296138877 0.15882569438964711 0 -0.36099591742146397 0.167637108724809 0 -0.36581379296138877 0.15882569438964711 0 -0.35458651278289482 0.15948964281090811 0 -0.37597798323128129 0.1825859301249094 0 -0.36325374907306579 0.17907846415931961 0 -0.36805430097796082 0.1889783187395748 0 -0.37597798323128129 0.1825859301249094 0 -0.37189710763601591 0.17627618365630821 0 -0.36325374907306579 0.17907846415931961 0 -0.37981257411365049 0.17594426269795599 0 -0.36905926765261732 0.1696142457004233 0 -0.37189710763601591 0.17627618365630821 0 -0.36905926765261732 0.1696142457004233 0 -0.37189710763601591 0.17627618365630821 0 -0.36325374907306579 0.17907846415931961 0 -0.36905926765261732 0.1696142457004233 0 -0.36099591742146397 0.167637108724809 0 -0.36325374907306579 0.17907846415931961 0 -0.36325374907306579 0.17907846415931961 0 -0.36805430097796082 0.1889783187395748 0 -0.35681994731681221 0.191499133190593 0 -0.36325374907306579 0.17907846415931961 0 -0.34798984363815039 0.1851353083336682 0 -0.35681994731681221 0.191499133190593 0 -0.36099591742146397 0.167637108724809 0 -0.36325374907306579 0.17907846415931961 0 -0.35226626463735328 0.17117749656374701 0 -0.36325374907306579 0.17907846415931961 0 -0.34798984363815039 0.1851353083336682 0 -0.35226626463735328 0.17117749656374701 0 -0.34798984363815039 0.1851353083336682 0 -0.35226626463735328 0.17117749656374701 0 -0.33676964057918651 0.17731445932354159 0 -0.34549783582189109 0.14784050962303349 0 -0.35458651278289482 0.15948964281090811 0 -0.34248353986660512 0.16382920220981589 0 -0.36099591742146397 0.167637108724809 0 -0.35458651278289482 0.15948964281090811 0 -0.35226626463735328 0.17117749656374701 0 -0.35226626463735328 0.17117749656374701 0 -0.34248353986660512 0.16382920220981589 0 -0.33676964057918651 0.17731445932354159 0 -0.35458651278289482 0.15948964281090811 0 -0.35226626463735328 0.17117749656374701 0 -0.34248353986660512 0.16382920220981589 0 -0.34549783582189109 0.14784050962303349 0 -0.34248353986660512 0.16382920220981589 0 -0.32623025942356559 0.1611947969621205 0 -0.34248353986660512 0.16382920220981589 0 -0.33676964057918651 0.17731445932354159 0 -0.32623025942356559 0.1611947969621205 0 -0.33676964057918651 0.17731445932354159 0 -0.32268911462362743 0.17911823868166801 0 -0.32623025942356559 0.1611947969621205 0 -0.34798984363815039 0.1851353083336682 0 -0.33676964057918651 0.17731445932354159 0 -0.33134405203596867 0.19560910388663499 0 -0.33676964057918651 0.17731445932354159 0 -0.32268911462362743 0.17911823868166801 0 -0.33134405203596867 0.19560910388663499 0 -0.32268911462362743 0.17911823868166801 0 -0.30993917094092882 0.19553789426199999 0 -0.30696268302524021 0.17454908430120741 0 -0.32623025942356559 0.1611947969621205 0 -0.30615037580587878 0.15717775928896099 0 -0.30696268302524021 0.17454908430120741 0 -0.32268911462362743 0.17911823868166801 0 -0.32623025942356559 0.1611947969621205 0 -0.30696268302524021 0.17454908430120741 0 -0.32623025942356559 0.1611947969621205 0 -0.30696268302524021 0.17454908430120741 0 -0.33161819428315359 0.14255279093439621 0 -0.30615037580587878 0.15717775928896099 0 -0.32997166189558752 0.13817169653216979 0 -0.33161819428315359 0.14255279093439621 0 -0.30285731103074609 0.14841557048450729 0 -0.32997166189558752 0.13817169653216979 0 -0.30285731103074609 0.14841557048450729 0 -0.32997166189558752 0.13817169653216979 0 -0.30756663117520322 0.13713898436148381 0 -0.30285731103074609 0.14841557048450729 0 -0.32623025942356559 0.1611947969621205 0 -0.33161819428315359 0.14255279093439621 0 -0.30615037580587878 0.15717775928896099 0 -0.33161819428315359 0.14255279093439621 0 -0.30285731103074609 0.14841557048450729 0 -0.30615037580587878 0.15717775928896099 0 -0.31537476438474549 0.13125738153752159 0 -0.32997166189558752 0.13817169653216979 0 -0.30756663117520322 0.13713898436148381 0 -0.31537476438474549 0.13125738153752159 0 -0.32380070494992602 0.12852288969592429 0 -0.31609502722627969 0.12166860123308219 0 -0.31537476438474549 0.13125738153752159 0 -0.32380070494992602 0.12852288969592429 0 -0.32997166189558752 0.13817169653216979 0 -0.35708601276042878 0.12792782257983171 0 -0.32997166189558752 0.13817169653216979 0 -0.32997166189558752 0.13817169653216979 0 -0.33386454596605392 0.1261601336156089 0 -0.34654223540871221 0.1237417205043463 0 -0.35708601276042878 0.12792782257983171 0 -0.32997166189558752 0.13817169653216979 0 -0.33161819428315359 0.14255279093439621 0 -0.32380070494992602 0.12852288969592429 0 -0.33386454596605392 0.1261601336156089 0 -0.32738278272788812 0.12237069330744289 0 -0.32380070494992602 0.12852288969592429 0 -0.32997166189558752 0.13817169653216979 0 -0.33386454596605392 0.1261601336156089 0 -0.34549783582189109 0.14784050962303349 0 -0.32623025942356559 0.1611947969621205 0 -0.33161819428315359 0.14255279093439621 0 -0.34549783582189109 0.14784050962303349 0 -0.32623025942356559 0.1611947969621205 0 -0.35421041704060041 0.2327450296272297 0 -0.33277624872290262 0.2431759369511014 0 -0.35379611201835381 0.25703481123296051 0 -0.36428609693314717 0.24402325401059971 0 -0.35421041704060041 0.2327450296272297 0 -0.35379611201835381 0.25703481123296051 0 -0.36428609693314717 0.24402325401059971 0 -0.37268350437052311 0.2326164828265142 0 -0.35421041704060041 0.2327450296272297 0 -0.36428609693314717 0.24402325401059971 0 -0.37268350437052311 0.2326164828265142 0 -0.37978334329653862 0.2500827526942922 0 -0.36995258670303433 0.21889047848972701 0 -0.35421041704060041 0.2327450296272297 0 -0.35942475591462791 0.2065153326788243 0 -0.36995258670303433 0.21889047848972701 0 -0.37268350437052311 0.2326164828265142 0 -0.35421041704060041 0.2327450296272297 0 -0.35421041704060041 0.2327450296272297 0 -0.35942475591462791 0.2065153326788243 0 -0.33645304472575083 0.21964935080018269 0 -0.35942475591462791 0.2065153326788243 0 -0.34590221032005503 0.19875426435606899 0 -0.33645304472575083 0.21964935080018269 0 -0.35942475591462791 0.2065153326788243 0 -0.33645304472575083 0.21964935080018269 0 -0.37531806796805323 0.2080250123765425 0 -0.36995258670303433 0.21889047848972701 0 -0.35942475591462791 0.2065153326788243 0 -0.35942475591462791 0.2065153326788243 0 -0.36805430097796082 0.1889783187395748 0 -0.35681994731681221 0.191499133190593 0 -0.38239646710350428 0.1933813145574648 0 -0.35942475591462791 0.2065153326788243 0 -0.36805430097796082 0.1889783187395748 0 -0.38239646710350428 0.1933813145574648 0 -0.35942475591462791 0.2065153326788243 0 -0.38239646710350428 0.1933813145574648 0 -0.37531806796805323 0.2080250123765425 0 -0.35942475591462791 0.2065153326788243 0 -0.35942475591462791 0.2065153326788243 0 -0.35681994731681221 0.191499133190593 0 -0.34590221032005503 0.19875426435606899 0 -0.34798984363815039 0.1851353083336682 0 -0.35681994731681221 0.191499133190593 0 -0.34590221032005503 0.19875426435606899 0 -0.34798984363815039 0.1851353083336682 0 -0.34590221032005503 0.19875426435606899 0 -0.33134405203596867 0.19560910388663499 0 -0.32268911462362743 0.17911823868166801 0 -0.33134405203596867 0.19560910388663499 0 -0.30993917094092882 0.19553789426199999 0 -0.33134405203596867 0.19560910388663499 0 -0.31818974344527678 0.21432913181036711 0 -0.30993917094092882 0.19553789426199999 0 -0.33134405203596867 0.19560910388663499 0 -0.31818974344527678 0.21432913181036711 0 -0.33645304472575083 0.21964935080018269 0 -0.34590221032005503 0.19875426435606899 0 -0.33134405203596867 0.19560910388663499 0 -0.33645304472575083 0.21964935080018269 0 -0.35421041704060041 0.2327450296272297 0 -0.33645304472575083 0.21964935080018269 0 -0.33277624872290262 0.2431759369511014 0 -0.31818974344527678 0.21432913181036711 0 -0.33645304472575083 0.21964935080018269 0 -0.31348133353687369 0.232783368921541 0 -0.33645304472575083 0.21964935080018269 0 -0.31348133353687369 0.232783368921541 0 -0.33645304472575083 0.21964935080018269 0 -0.31348133353687369 0.232783368921541 0 -0.33277624872290262 0.2431759369511014 0 -0.31348133353687369 0.232783368921541 0 -0.33277624872290262 0.2431759369511014 0 -0.3093470477056508 0.25302678202252799 0 -0.31348133353687369 0.232783368921541 0 -0.29050962234799671 0.24591738704289931 0 -0.31348133353687369 0.232783368921541 0 -0.29050962234799671 0.24591738704289931 0 -0.3093470477056508 0.25302678202252799 0 -0.31818974344527678 0.21432913181036711 0 -0.31348133353687369 0.232783368921541 0 -0.29418436836282469 0.21789122507113209 0 -0.31348133353687369 0.232783368921541 0 -0.29050962234799671 0.24591738704289931 0 -0.29418436836282469 0.21789122507113209 0 -0.29050962234799671 0.24591738704289931 0 -0.29418436836282469 0.21789122507113209 0 -0.27193084798757372 0.23268238727926821 0 -0.29418436836282469 0.21789122507113209 0 -0.2877459290900638 0.1920624425780352 0 -0.2671035351026565 0.21120983775145299 0 -0.31818974344527678 0.21432913181036711 0 -0.29418436836282469 0.21789122507113209 0 -0.30993917094092882 0.19553789426199999 0 -0.29418436836282469 0.21789122507113209 0 -0.30993917094092882 0.19553789426199999 0 -0.2877459290900638 0.1920624425780352 0 -0.2877459290900638 0.1920624425780352 0 -0.26314889669037839 0.19432258294127289 0 -0.2671035351026565 0.21120983775145299 0 -0.2877459290900638 0.1920624425780352 0 -0.26314889669037839 0.19432258294127289 0 -0.26808125620719753 0.1811742475821537 0 -0.2877459290900638 0.1920624425780352 0 -0.2671035351026565 0.21120983775145299 0 -0.26314889669037839 0.19432258294127289 0 -0.25111163591805252 0.1841976838221375 0 -0.2387365590242915 0.20049379810163989 0 -0.26314889669037839 0.19432258294127289 0 -0.2671035351026565 0.21120983775145299 0 -0.2387365590242915 0.20049379810163989 0 -0.2671035351026565 0.21120983775145299 0 -0.24646114111524919 0.23035723292487079 0 -0.2387365590242915 0.20049379810163989 0 -0.29418436836282469 0.21789122507113209 0 -0.2671035351026565 0.21120983775145299 0 -0.27193084798757372 0.23268238727926821 0 -0.2671035351026565 0.21120983775145299 0 -0.24646114111524919 0.23035723292487079 0 -0.2671035351026565 0.21120983775145299 0 -0.27193084798757372 0.23268238727926821 0 -0.24646114111524919 0.23035723292487079 0 -0.27193084798757372 0.23268238727926821 0 -0.2616708012182547 0.2440301657032401 0 -0.24646114111524919 0.23035723292487079 0 -0.2616708012182547 0.2440301657032401 0 -0.25063676029139842 0.25291648499014979 0 -0.24646114111524919 0.23035723292487079 0 -0.29050962234799671 0.24591738704289931 0 -0.27193084798757372 0.23268238727926821 0 -0.27243740744556921 0.247158999558652 0 -0.2616708012182547 0.2440301657032401 0 -0.27243740744556921 0.247158999558652 0 -0.26744233816693491 0.25654795535771091 0 -0.27193084798757372 0.23268238727926821 0 -0.2616708012182547 0.2440301657032401 0 -0.27243740744556921 0.247158999558652 0 -0.30285731103074609 0.14841557048450729 0 -0.27574296016590472 0.1586594444368449 0 -0.28831475003939172 0.14602375476192181 0 -0.30285731103074609 0.14841557048450729 0 -0.27574296016590472 0.1586594444368449 0 -0.28831475003939172 0.14602375476192181 0 -0.30285731103074609 0.14841557048450729 0 -0.29705865191048658 0.1407703141767053 0 -0.28831475003939172 0.14602375476192181 0 -0.28942548408560648 0.13669010184468869 0 -0.29705865191048658 0.1407703141767053 0 -0.28831475003939172 0.14602375476192181 0 -0.28268679239208683 0.14241524557985019 0 -0.28942548408560648 0.13669010184468869 0 -0.28831475003939172 0.14602375476192181 0 -0.28268679239208683 0.14241524557985019 0 -0.27545895125388542 0.14756106143372341 0 -0.28268679239208683 0.14241524557985019 0 -0.28942548408560648 0.13669010184468869 0 -0.2793350296760036 0.13715765898973109 0 -0.28942548408560648 0.13669010184468869 0 -0.2793350296760036 0.13715765898973109 0 -0.29525783326206201 0.1169146962713736 0 -0.27495932648653321 0.1364702931358131 0 -0.29525783326206201 0.1169146962713736 0 -0.28942548408560648 0.13669010184468869 0 -0.29698562730805372 0.13314086169346259 0 -0.29525783326206201 0.1169146962713736 0 -0.2793350296760036 0.13715765898973109 0 -0.27495932648653321 0.1364702931358131 0 -0.29525783326206201 0.1169146962713736 0 -0.28942548408560648 0.13669010184468869 0 -0.29698562730805372 0.13314086169346259 0 -0.29705865191048658 0.1407703141767053 0 -0.29698562730805372 0.13314086169346259 0 -0.30534856692658729 0.12854777012121929 0 -0.30756663117520322 0.13713898436148381 0 -0.29698562730805372 0.13314086169346259 0 -0.30534856692658729 0.12854777012121929 0 -0.29525783326206201 0.1169146962713736 0 -0.29698562730805372 0.13314086169346259 0 -0.30756663117520322 0.13713898436148381 0 -0.29705865191048658 0.1407703141767053 0 -0.31537476438474549 0.13125738153752159 0 -0.30534856692658729 0.12854777012121929 0 -0.30756663117520322 0.13713898436148381 0 -0.31537476438474549 0.13125738153752159 0 -0.30534856692658729 0.12854777012121929 0 -0.31609502722627969 0.12166860123308219 0 -0.30756663117520322 0.13713898436148381 0 -0.30285731103074609 0.14841557048450729 0 -0.29705865191048658 0.1407703141767053 0 -0.30285731103074609 0.14841557048450729 0 -0.30615037580587878 0.15717775928896099 0 -0.29198621725060597 0.16676715165192479 0 -0.30615037580587878 0.15717775928896099 0 -0.30696268302524021 0.17454908430120741 0 -0.29198621725060597 0.16676715165192479 0 -0.30993917094092882 0.19553789426199999 0 -0.2877459290900638 0.1920624425780352 0 -0.30696268302524021 0.17454908430120741 0 -0.2877459290900638 0.1920624425780352 0 -0.30696268302524021 0.17454908430120741 0 -0.29198621725060597 0.16676715165192479 0 -0.2877459290900638 0.1920624425780352 0 -0.29198621725060597 0.16676715165192479 0 -0.2783528757222487 0.17284180618219461 0 -0.30285731103074609 0.14841557048450729 0 -0.29198621725060597 0.16676715165192479 0 -0.27574296016590472 0.1586594444368449 0 -0.29198621725060597 0.16676715165192479 0 -0.27574296016590472 0.1586594444368449 0 -0.2783528757222487 0.17284180618219461 0 -0.27574296016590472 0.1586594444368449 0 -0.2658392469504246 0.17145408030196629 0 -0.2783528757222487 0.17284180618219461 0 -0.2877459290900638 0.1920624425780352 0 -0.2783528757222487 0.17284180618219461 0 -0.26808125620719753 0.1811742475821537 0 -0.2658392469504246 0.17145408030196629 0 -0.2783528757222487 0.17284180618219461 0 -0.26808125620719753 0.1811742475821537 0 -0.26808125620719753 0.1811742475821537 0 -0.25839053335570877 0.17569158491945591 0 -0.25111163591805252 0.1841976838221375 0 -0.26314889669037839 0.19432258294127289 0 -0.26808125620719753 0.1811742475821537 0 -0.25111163591805252 0.1841976838221375 0 -0.2658392469504246 0.17145408030196629 0 -0.25839053335570877 0.17569158491945591 0 -0.24862860930106331 0.16890331838918241 0 -0.2658392469504246 0.17145408030196629 0 -0.26808125620719753 0.1811742475821537 0 -0.25839053335570877 0.17569158491945591 0 -0.25839053335570877 0.17569158491945591 0 -0.25111163591805252 0.1841976838221375 0 -0.24862860930106331 0.16890331838918241 0 -0.27574296016590472 0.1586594444368449 0 -0.2658392469504246 0.17145408030196629 0 -0.24862860930106331 0.16890331838918241 0 -0.27574296016590472 0.1586594444368449 0 -0.24862860930106331 0.16890331838918241 0 -0.27574296016590472 0.1586594444368449 0 -0.24978662902869239 0.1607216890103832 0 -0.24862860930106331 0.16890331838918241 0 -0.26237297775761248 0.1485959910730979 0 -0.24973077750056691 0.1325072174046828 0 -0.24924630865098449 0.14877550299698519 0 -0.27574296016590472 0.1586594444368449 0 -0.26237297775761248 0.1485959910730979 0 -0.24978662902869239 0.1607216890103832 0 -0.26237297775761248 0.1485959910730979 0 -0.24924630865098449 0.14877550299698519 0 -0.24978662902869239 0.1607216890103832 0 -0.26237297775761248 0.1485959910730979 0 -0.24978662902869239 0.1607216890103832 0 -0.27574296016590472 0.1586594444368449 0 -0.26237297775761248 0.1485959910730979 0 -0.27545895125388542 0.14756106143372341 0 -0.26237297775761248 0.1485959910730979 0 -0.27495932648653321 0.1364702931358131 0 -0.26237297775761248 0.1485959910730979 0 -0.27545895125388542 0.14756106143372341 0 -0.27495932648653321 0.1364702931358131 0 -0.27545895125388542 0.14756106143372341 0 -0.27790139000223513 0.14191902438130191 0 -0.27495932648653321 0.1364702931358131 0 -0.28268679239208683 0.14241524557985019 0 -0.27545895125388542 0.14756106143372341 0 -0.27790139000223513 0.14191902438130191 0 -0.28831475003939172 0.14602375476192181 0 -0.27574296016590472 0.1586594444368449 0 -0.27545895125388542 0.14756106143372341 0 -0.28268679239208683 0.14241524557985019 0 -0.27790139000223513 0.14191902438130191 0 -0.2793350296760036 0.13715765898973109 0 -0.27790139000223513 0.14191902438130191 0 -0.2793350296760036 0.13715765898973109 0 -0.27495932648653321 0.1364702931358131 0 -0.2793350296760036 0.13715765898973109 0 -0.27495932648653321 0.1364702931358131 0 -0.26237297775761248 0.1485959910730979 0 -0.27495932648653321 0.1364702931358131 0 -0.24973077750056691 0.1325072174046828 0 -0.27495932648653321 0.1364702931358131 0 -0.26297056459447937 0.12060595418652451 0 -0.24973077750056691 0.1325072174046828 0 -0.27495932648653321 0.1364702931358131 0 -0.24973077750056691 0.1325072174046828 0 -0.26297056459447937 0.12060595418652451 0 -0.26656998734962772 0.10255445112006679 0 -0.24412649612905951 0.1109158123134662 0 -0.26297056459447937 0.12060595418652451 0 -0.24412649612905951 0.1109158123134662 0 -0.24973077750056691 0.1325072174046828 0 -0.26656998734962772 0.10255445112006679 0 -0.2495686801242398 0.087265410611016947 0 -0.24412649612905951 0.1109158123134662 0 -0.26656998734962772 0.10255445112006679 0 -0.2770957741208171 0.1148350994880601 0 -0.28572115891138339 0.097630102726522783 0 -0.26297056459447937 0.12060595418652451 0 -0.26656998734962772 0.10255445112006679 0 -0.2770957741208171 0.1148350994880601 0 -0.27495932648653321 0.1364702931358131 0 -0.26297056459447937 0.12060595418652451 0 -0.2770957741208171 0.1148350994880601 0 -0.2770957741208171 0.1148350994880601 0 -0.29525783326206201 0.1169146962713736 0 -0.28572115891138339 0.097630102726522783 0 -0.27495932648653321 0.1364702931358131 0 -0.2770957741208171 0.1148350994880601 0 -0.29525783326206201 0.1169146962713736 0 -0.29525783326206201 0.1169146962713736 0 -0.28572115891138339 0.097630102726522783 0 -0.29969944305778662 0.098944480390275591 0 -0.29525783326206201 0.1169146962713736 0 -0.29969944305778662 0.098944480390275591 0 -0.31555634003759131 0.097359099406934574 0 -0.29525783326206201 0.1169146962713736 0 -0.31555634003759131 0.097359099406934574 0 -0.29525783326206201 0.1169146962713736 0 -0.31848920349681331 0.1094619235774094 0 -0.31555634003759131 0.097359099406934574 0 -0.29525783326206201 0.1169146962713736 0 -0.31848920349681331 0.1094619235774094 0 -0.31609502722627969 0.12166860123308219 0 -0.30534856692658729 0.12854777012121929 0 -0.29525783326206201 0.1169146962713736 0 -0.31609502722627969 0.12166860123308219 0 -0.29907921172493279 0.064031126665179752 0 -0.31036105895695643 0.074169545424710714 0 -0.30226244002010971 0.083874023156271404 0 -0.29907921172493279 0.064031126665179752 0 -0.31036105895695643 0.074169545424710714 0 -0.31777546229319559 0.065273475035345002 0 -0.29969944305778662 0.098944480390275591 0 -0.30226244002010971 0.083874023156271404 0 -0.31555634003759131 0.097359099406934574 0 -0.31036105895695643 0.074169545424710714 0 -0.30226244002010971 0.083874023156271404 0 -0.32090569118881312 0.079666296583938589 0 -0.28572115891138339 0.097630102726522783 0 -0.29969944305778662 0.098944480390275591 0 -0.30226244002010971 0.083874023156271404 0 -0.30226244002010971 0.083874023156271404 0 -0.27447437546997611 0.07408361296006713 0 -0.28572115891138339 0.097630102726522783 0 -0.30226244002010971 0.083874023156271404 0 -0.27447437546997611 0.07408361296006713 0 -0.29907921172493279 0.064031126665179752 0 -0.30226244002010971 0.083874023156271404 0 -0.27447437546997611 0.07408361296006713 0 -0.26656998734962772 0.10255445112006679 0 -0.28572115891138339 0.097630102726522783 0 -0.27447437546997611 0.07408361296006713 0 -0.26656998734962772 0.10255445112006679 0 -0.27447437546997611 0.07408361296006713 0 -0.2495686801242398 0.087265410611016947 0 -0.27447437546997611 0.07408361296006713 0 -0.24668631091984261 0.064293202763862828 0 -0.27447437546997611 0.07408361296006713 0 -0.24668631091984261 0.064293202763862828 0 -0.2495686801242398 0.087265410611016947 0 -0.27447437546997611 0.07408361296006713 0 -0.26271753236154932 0.044364767317522487 0 -0.24668631091984261 0.064293202763862828 0 -0.26271753236154932 0.044364767317522487 0 -0.2672152718208281 0.020937870246160971 0 -0.2835107553079429 0.043786610682043439 0 -0.27447437546997611 0.07408361296006713 0 -0.26271753236154932 0.044364767317522487 0 -0.2835107553079429 0.043786610682043439 0 -0.27256492024186901 -0.011683114862415271 0 -0.2672152718208281 0.020937870246160971 0 -0.28763510092564448 0.01396908177017148 0 -0.27256492024186901 -0.011683114862415271 0 -0.2524730899657871 0.002620317666743947 0 -0.2672152718208281 0.020937870246160971 0 -0.2524730899657871 0.002620317666743947 0 -0.2672152718208281 0.020937870246160971 0 -0.24480270143120561 0.02233487227316935 0 -0.26271753236154932 0.044364767317522487 0 -0.2672152718208281 0.020937870246160971 0 -0.24480270143120561 0.02233487227316935 0 -0.2672152718208281 0.020937870246160971 0 -0.28763510092564448 0.01396908177017148 0 -0.2835107553079429 0.043786610682043439 0 -0.27256492024186901 -0.011683114862415271 0 -0.28763510092564448 0.01396908177017148 0 -0.31314961176658529 -0.0081441385305092706 0 -0.28763510092564448 0.01396908177017148 0 -0.31969460253400428 0.01770563413147689 0 -0.28763510092564448 0.01396908177017148 0 -0.31600973694813261 0.032392078055526713 0 -0.31969460253400428 0.01770563413147689 0 -0.28763510092564448 0.01396908177017148 0 -0.30270528160942012 0.039621278402758253 0 -0.28763510092564448 0.01396908177017148 0 -0.30270528160942012 0.039621278402758253 0 -0.31600973694813261 0.032392078055526713 0 -0.29907921172493279 0.064031126665179752 0 -0.27447437546997611 0.07408361296006713 0 -0.2835107553079429 0.043786610682043439 0 -0.29907921172493279 0.064031126665179752 0 -0.2835107553079429 0.043786610682043439 0 -0.30270528160942012 0.039621278402758253 0 -0.28763510092564448 0.01396908177017148 0 -0.2835107553079429 0.043786610682043439 0 -0.30270528160942012 0.039621278402758253 0 -0.29907921172493279 0.064031126665179752 0 -0.30270528160942012 0.039621278402758253 0 -0.31777546229319559 0.065273475035345002 0 -0.30270528160942012 0.039621278402758253 0 -0.31777546229319559 0.065273475035345002 0 -0.32219317418615218 0.047851641287924712 0 -0.33278458406884309 0.06940517945544919 0 -0.32219317418615218 0.047851641287924712 0 -0.31777546229319559 0.065273475035345002 0 -0.33278458406884309 0.06940517945544919 0 -0.32219317418615218 0.047851641287924712 0 -0.32623959330142321 0.043555406793463161 0 -0.33278458406884309 0.06940517945544919 0 -0.30270528160942012 0.039621278402758253 0 -0.32219317418615218 0.047851641287924712 0 -0.31777546229319559 0.065273475035345002 0 -0.30270528160942012 0.039621278402758253 0 -0.32219317418615218 0.047851641287924712 0 -0.31600973694813261 0.032392078055526713 0 -0.32219317418615218 0.047851641287924712 0 -0.31600973694813261 0.032392078055526713 0 -0.32623959330142321 0.043555406793463161 0 -0.32623959330142321 0.043555406793463161 0 -0.33783357645498818 0.040659493977433493 0 -0.33595161521413952 0.051419875148335993 0 -0.32623959330142321 0.043555406793463161 0 -0.33783357645498818 0.040659493977433493 0 -0.33853592606959992 0.02831862868904407 0 -0.33783357645498818 0.040659493977433493 0 -0.33853592606959992 0.02831862868904407 0 -0.35085670018041432 0.04056227251858982 0 -0.33783357645498818 0.040659493977433493 0 -0.33595161521413952 0.051419875148335993 0 -0.34344678179523258 0.04795257331868516 0 -0.34344678179523258 0.04795257331868516 0 -0.34118042989332492 0.057247962368863557 0 -0.34632293690551891 0.05532834718239614 0 -0.33595161521413952 0.051419875148335993 0 -0.34344678179523258 0.04795257331868516 0 -0.34118042989332492 0.057247962368863557 0 -0.33595161521413952 0.051419875148335993 0 -0.34118042989332492 0.057247962368863557 0 -0.33278458406884309 0.06940517945544919 0 -0.32623959330142321 0.043555406793463161 0 -0.33595161521413952 0.051419875148335993 0 -0.33278458406884309 0.06940517945544919 0 -0.32623959330142321 0.043555406793463161 0 -0.33278458406884309 0.06940517945544919 0 -0.31314961176658529 -0.0081441385305092706 0 -0.31969460253400428 0.01770563413147689 0 -0.33197932561975563 0.0039511476956397493 0 -0.31314961176658529 -0.0081441385305092706 0 -0.31969460253400428 0.01770563413147689 0 -0.32623959330142321 0.043555406793463161 0 -0.31969460253400428 0.01770563413147689 0 -0.31600973694813261 0.032392078055526713 0 -0.32623959330142321 0.043555406793463161 0 -0.31969460253400428 0.01770563413147689 0 -0.31969460253400428 0.01770563413147689 0 -0.33853592606959992 0.02831862868904407 0 -0.33340693887910688 0.016278260356625839 0 -0.32623959330142321 0.043555406793463161 0 -0.31969460253400428 0.01770563413147689 0 -0.33853592606959992 0.02831862868904407 0 -0.33853592606959992 0.02831862868904407 0 -0.33340693887910688 0.016278260356625839 0 -0.34341790129306787 0.015137630910342641 0 -0.31969460253400428 0.01770563413147689 0 -0.33340693887910688 0.016278260356625839 0 -0.33197932561975563 0.0039511476956397493 0 -0.33340693887910688 0.016278260356625839 0 -0.34341790129306787 0.015137630910342641 0 -0.33197932561975563 0.0039511476956397493 0 -0.34341790129306787 0.015137630910342641 0 -0.34364033572837438 0.0023346474945074719 0 -0.33197932561975563 0.0039511476956397493 0 -0.33806769043839408 -0.0052815962120841371 0 -0.34364033572837438 0.0023346474945074719 0 -0.33197932561975563 0.0039511476956397493 0 -0.34661561390107859 -0.010090426369404821 0 -0.35472683228226981 0.0066565317562330686 0 -0.35511398119079668 0.0092691537269610526 0 -0.34661561390107859 -0.010090426369404821 0 -0.34364033572837438 0.0023346474945074719 0 -0.35511398119079668 0.0092691537269610526 0 -0.35874072808383523 2.368727293597579e-05 0 -0.35472683228226981 0.0066565317562330686 0 -0.36440244299436342 0.0080534506019937172 0 -0.34341790129306787 0.015137630910342641 0 -0.34364033572837438 0.0023346474945074719 0 -0.35511398119079668 0.0092691537269610526 0 -0.35472683228226981 0.0066565317562330686 0 -0.35511398119079668 0.0092691537269610526 0 -0.36440244299436342 0.0080534506019937172 0 -0.35472683228226981 0.0066565317562330686 0 -0.35511398119079668 0.0092691537269610526 0 -0.34341790129306787 0.015137630910342641 0 -0.35511398119079668 0.0092691537269610526 0 -0.35808865444780141 0.029343333289066881 0 -0.35511398119079668 0.0092691537269610526 0 -0.35808865444780141 0.029343333289066881 0 -0.36186733233388968 0.024653525561733881 0 -0.33853592606959992 0.02831862868904407 0 -0.34341790129306787 0.015137630910342641 0 -0.35808865444780141 0.029343333289066881 0 -0.35511398119079668 0.0092691537269610526 0 -0.35808865444780141 0.029343333289066881 0 -0.35511398119079668 0.0092691537269610526 0 -0.36186733233388968 0.024653525561733881 0 -0.37997324745135203 0.025947958042830961 0 -0.37700050034496302 0.01357910260870961 0 -0.36186733233388968 0.024653525561733881 0 -0.37997324745135203 0.025947958042830961 0 -0.36186733233388968 0.024653525561733881 0 -0.3686206834769824 0.040037897396506802 0 -0.37700050034496302 0.01357910260870961 0 -0.36186733233388968 0.024653525561733881 0 -0.36440244299436342 0.0080534506019937172 0 -0.35511398119079668 0.0092691537269610526 0 -0.36186733233388968 0.024653525561733881 0 -0.36440244299436342 0.0080534506019937172 0 -0.37700050034496302 0.01357910260870961 0 -0.37845448083625521 0.0046526360579804086 0 -0.36440244299436342 0.0080534506019937172 0 -0.36704294731186271 -0.0046943202715755018 0 -0.37845448083625521 0.0046526360579804086 0 -0.36440244299436342 0.0080534506019937172 0 -0.36704294731186271 -0.0046943202715755018 0 -0.35874072808383523 2.368727293597579e-05 0 -0.36440244299436342 0.0080534506019937172 0 -0.36106332770480992 0.049417512851172053 0 -0.36453323108899732 0.072833685848757004 0 -0.34936918232790498 0.063931397073775348 0 -0.35167967381583948 0.049722213443588043 0 -0.36106332770480992 0.049417512851172053 0 -0.34936918232790498 0.063931397073775348 0 -0.36106332770480992 0.049417512851172053 0 -0.34936918232790498 0.063931397073775348 0 -0.34118042989332492 0.057247962368863557 0 -0.34632293690551891 0.05532834718239614 0 -0.34936918232790498 0.063931397073775348 0 -0.35167967381583948 0.049722213443588043 0 -0.34632293690551891 0.05532834718239614 0 -0.34936918232790498 0.063931397073775348 0 -0.34344678179523258 0.04795257331868516 0 -0.35167967381583948 0.049722213443588043 0 -0.34632293690551891 0.05532834718239614 0 -0.33853592606959992 0.02831862868904407 0 -0.35808865444780141 0.029343333289066881 0 -0.35085670018041432 0.04056227251858982 0 -0.34344678179523258 0.04795257331868516 0 -0.35167967381583948 0.049722213443588043 0 -0.35085670018041432 0.04056227251858982 0 -0.33783357645498818 0.040659493977433493 0 -0.34344678179523258 0.04795257331868516 0 -0.35085670018041432 0.04056227251858982 0 -0.35808865444780141 0.029343333289066881 0 -0.35085670018041432 0.04056227251858982 0 -0.36106332770480992 0.049417512851172053 0 -0.35167967381583948 0.049722213443588043 0 -0.35085670018041432 0.04056227251858982 0 -0.36106332770480992 0.049417512851172053 0 -0.3686206834769824 0.040037897396506802 0 -0.36106332770480992 0.049417512851172053 0 -0.35808865444780141 0.029343333289066881 0 -0.3686206834769824 0.040037897396506802 0 -0.36106332770480992 0.049417512851172053 0 -0.35808865444780141 0.029343333289066881 0 -0.36106332770480992 0.049417512851172053 0 -0.35808865444780141 0.029343333289066881 0 -0.36186733233388968 0.024653525561733881 0 -0.3686206834769824 0.040037897396506802 0 -0.36186733233388968 0.024653525561733881 0 -0.3686206834769824 0.040037897396506802 0 -0.37997324745135203 0.025947958042830961 0 -0.3686206834769824 0.040037897396506802 0 -0.37937571165769718 0.042400823377937782 0 -0.3686206834769824 0.040037897396506802 0 -0.37482735535405842 0.054176914602964747 0 -0.36106332770480992 0.049417512851172053 0 -0.37111499658023278 0.064037810781107221 0 -0.36453323108899732 0.072833685848757004 0 -0.3686206834769824 0.040037897396506802 0 -0.37482735535405842 0.054176914602964747 0 -0.36106332770480992 0.049417512851172053 0 -0.36453323108899732 0.072833685848757004 0 -0.3686206834769824 0.040037897396506802 0 -0.37482735535405842 0.054176914602964747 0 -0.36106332770480992 0.049417512851172053 0 -0.37482735535405842 0.054176914602964747 0 -0.36106332770480992 0.049417512851172053 0 -0.37111499658023278 0.064037810781107221 0 -0.37523743191216852 0.077938482474668502 0 -0.37111499658023278 0.064037810781107221 0 -0.36453323108899732 0.072833685848757004 0 -0.36453323108899732 0.072833685848757004 0 -0.35161929760174648 0.078105157304854747 0 -0.34936918232790498 0.063931397073775348 0 -0.35161929760174648 0.078105157304854747 0 -0.34936918232790498 0.063931397073775348 0 -0.33731405773028522 0.078622666505989564 0 -0.36453323108899732 0.072833685848757004 0 -0.35161929760174648 0.078105157304854747 0 -0.35550040774959363 0.088505145608280461 0 -0.35161929760174648 0.078105157304854747 0 -0.35550040774959363 0.088505145608280461 0 -0.34204365321762742 0.088247401832299205 0 -0.37523743191216852 0.077938482474668502 0 -0.36453323108899732 0.072833685848757004 0 -0.36800313447318611 0.096249858846341754 0 -0.37953623085406007 0.088693829425257234 0 -0.37523743191216852 0.077938482474668502 0 -0.36800313447318611 0.096249858846341754 0 -0.36453323108899732 0.072833685848757004 0 -0.35550040774959363 0.088505145608280461 0 -0.36800313447318611 0.096249858846341754 0 -0.36453323108899732 0.072833685848757004 0 -0.36800313447318611 0.096249858846341754 0 -0.37966223146468242 0.1027999454358668 0 -0.36800313447318611 0.096249858846341754 0 -0.3714730378573759 0.11966603184392639 0 -0.36800313447318611 0.096249858846341754 0 -0.3714730378573759 0.11966603184392639 0 -0.36800313447318611 0.096249858846341754 0 -0.36146406062307918 0.11356221558468869 0 -0.3513027223664108 0.10708962420914959 0 -0.36800313447318611 0.096249858846341754 0 -0.3714730378573759 0.11966603184392639 0 -0.36146406062307918 0.11356221558468869 0 -0.36056179151519407 0.12593184658600001 0 -0.37186965138911587 0.12234252454249191 0 -0.3714730378573759 0.11966603184392639 0 -0.37186965138911587 0.12234252454249191 0 -0.3714730378573759 0.11966603184392639 0 -0.36056179151519407 0.12593184658600001 0 -0.3714730378573759 0.11966603184392639 0 -0.36146406062307918 0.11356221558468869 0 -0.36056179151519407 0.12593184658600001 0 -0.37186965138911587 0.12234252454249191 0 -0.36056179151519407 0.12593184658600001 0 -0.3714730378573759 0.11966603184392639 0 -0.36056179151519407 0.12593184658600001 0 -0.3513027223664108 0.10708962420914959 0 -0.36056179151519407 0.12593184658600001 0 -0.36146406062307918 0.11356221558468869 0 -0.3513027223664108 0.10708962420914959 0 -0.36056179151519407 0.12593184658600001 0 -0.34654223540871221 0.1237417205043463 0 -0.3513027223664108 0.10708962420914959 0 -0.3513027223664108 0.10708962420914959 0 -0.34204365321762742 0.088247401832299205 0 -0.34654223540871221 0.1237417205043463 0 -0.3513027223664108 0.10708962420914959 0 -0.33966340973877718 0.096573449979897905 0 -0.35550040774959363 0.088505145608280461 0 -0.36800313447318611 0.096249858846341754 0 -0.3513027223664108 0.10708962420914959 0 -0.3513027223664108 0.10708962420914959 0 -0.33966340973877718 0.096573449979897905 0 -0.34204365321762742 0.088247401832299205 0 -0.35550040774959363 0.088505145608280461 0 -0.3513027223664108 0.10708962420914959 0 -0.34204365321762742 0.088247401832299205 0 -0.33966340973877718 0.096573449979897905 0 -0.33161034161413189 0.1058474493736201 0 -0.33551070641253278 0.11515342247429999 0 -0.33161034161413189 0.1058474493736201 0 -0.33177158930862261 0.099257313627644297 0 -0.3257621013113382 0.10094392180458341 0 -0.33177158930862261 0.099257313627644297 0 -0.3257621013113382 0.10094392180458341 0 -0.33005050457024349 0.09366443335247579 0 -0.33966340973877718 0.096573449979897905 0 -0.33177158930862261 0.099257313627644297 0 -0.33005050457024349 0.09366443335247579 0 -0.33966340973877718 0.096573449979897905 0 -0.33161034161413189 0.1058474493736201 0 -0.33177158930862261 0.099257313627644297 0 -0.34654223540871221 0.1237417205043463 0 -0.33966340973877718 0.096573449979897905 0 -0.34654223540871221 0.1237417205043463 0 -0.33966340973877718 0.096573449979897905 0 -0.33551070641253278 0.11515342247429999 0 -0.33386454596605392 0.1261601336156089 0 -0.34654223540871221 0.1237417205043463 0 -0.33551070641253278 0.11515342247429999 0 -0.33161034161413189 0.1058474493736201 0 -0.33551070641253278 0.11515342247429999 0 -0.32688125148364561 0.114547687702275 0 -0.33386454596605392 0.1261601336156089 0 -0.33551070641253278 0.11515342247429999 0 -0.32738278272788812 0.12237069330744289 0 -0.33551070641253278 0.11515342247429999 0 -0.32738278272788812 0.12237069330744289 0 -0.32688125148364561 0.114547687702275 0 -0.32380070494992602 0.12852288969592429 0 -0.32738278272788812 0.12237069330744289 0 -0.31609502722627969 0.12166860123308219 0 -0.32738278272788812 0.12237069330744289 0 -0.32688125148364561 0.114547687702275 0 -0.31609502722627969 0.12166860123308219 0 -0.33161034161413189 0.1058474493736201 0 -0.32688125148364561 0.114547687702275 0 -0.31848920349681331 0.1094619235774094 0 -0.32688125148364561 0.114547687702275 0 -0.31848920349681331 0.1094619235774094 0 -0.31609502722627969 0.12166860123308219 0 -0.3257621013113382 0.10094392180458341 0 -0.31555634003759131 0.097359099406934574 0 -0.33005050457024349 0.09366443335247579 0 -0.33161034161413189 0.1058474493736201 0 -0.31848920349681331 0.1094619235774094 0 -0.3257621013113382 0.10094392180458341 0 -0.31848920349681331 0.1094619235774094 0 -0.3257621013113382 0.10094392180458341 0 -0.31555634003759131 0.097359099406934574 0 -0.30226244002010971 0.083874023156271404 0 -0.31555634003759131 0.097359099406934574 0 -0.33005050457024349 0.09366443335247579 0 -0.30226244002010971 0.083874023156271404 0 -0.32090569118881312 0.079666296583938589 0 -0.33005050457024349 0.09366443335247579 0 -0.32090569118881312 0.079666296583938589 0 -0.33278458406884309 0.06940517945544919 0 -0.33005050457024349 0.09366443335247579 0 -0.30226244002010971 0.083874023156271404 0 -0.33005050457024349 0.09366443335247579 0 -0.31036105895695643 0.074169545424710714 0 -0.32090569118881312 0.079666296583938589 0 -0.31777546229319559 0.065273475035345002 0 -0.32090569118881312 0.079666296583938589 0 -0.31777546229319559 0.065273475035345002 0 -0.33278458406884309 0.06940517945544919 0 -0.34118042989332492 0.057247962368863557 0 -0.34936918232790498 0.063931397073775348 0 -0.33278458406884309 0.06940517945544919 0 -0.34936918232790498 0.063931397073775348 0 -0.33278458406884309 0.06940517945544919 0 -0.33731405773028522 0.078622666505989564 0 -0.33278458406884309 0.06940517945544919 0 -0.33731405773028522 0.078622666505989564 0 -0.34936918232790498 0.063931397073775348 0 -0.33731405773028522 0.078622666505989564 0 -0.33966340973877718 0.096573449979897905 0 -0.33278458406884309 0.06940517945544919 0 -0.33966340973877718 0.096573449979897905 0 -0.33278458406884309 0.06940517945544919 0 -0.33005050457024349 0.09366443335247579 0 -0.33966340973877718 0.096573449979897905 0 -0.33731405773028522 0.078622666505989564 0 -0.34204365321762742 0.088247401832299205 0 -0.33966340973877718 0.096573449979897905 0 -0.33278458406884309 0.06940517945544919 0 -0.33731405773028522 0.078622666505989564 0 -0.35161929760174648 0.078105157304854747 0 -0.33731405773028522 0.078622666505989564 0 -0.34204365321762742 0.088247401832299205 0 -0.33731405773028522 0.078622666505989564 0 -0.34204365321762742 0.088247401832299205 0 -0.40238286469040901 0.47663793499862123 0 -0.39121329185248183 0.46635761121431307 0 -0.41290573267449421 0.46473459016810009 0 -0.40238286469040901 0.47663793499862123 0 -0.40002569382721898 0.49132971719092561 0 -0.38941478022255549 0.48153494532181118 0 -0.40238286469040901 0.47663793499862123 0 -0.38941478022255549 0.48153494532181118 0 -0.39121329185248183 0.46635761121431307 0 -0.40238286469040901 0.47663793499862123 0 -0.40002569382721898 0.49132971719092561 0 -0.41502033478992451 0.48271894582609642 0 -0.38482779842745751 0.5 0 -0.38665123452756622 0.49723461666833102 0 -0.41181411260010697 0.49999999999999989 0 -0.40002569382721898 0.49132971719092561 0 -0.38665123452756622 0.49723461666833102 0 -0.41181411260010697 0.49999999999999989 0 -0.38665123452756622 0.49723461666833102 0 -0.41181411260010697 0.49999999999999989 0 -0.40002569382721898 0.49132971719092561 0 -0.39035096104677292 0.4897735438020891 0 -0.38665123452756622 0.49723461666833102 0 -0.40002569382721898 0.49132971719092561 0 -0.39035096104677292 0.4897735438020891 0 -0.38941478022255549 0.48153494532181118 0 -0.38460179781997678 0.48806751274411758 0 -0.39035096104677292 0.4897735438020891 0 -0.38665123452756622 0.49723461666833102 0 -0.38482779842745751 0.5 0 -0.38665123452756622 0.49723461666833102 0 -0.36148835645502531 0.49446923333666221 0 -0.38460179781997678 0.48806751274411758 0 -0.39035096104677292 0.4897735438020891 0 -0.38941478022255549 0.48153494532181118 0 -0.38665123452756622 0.49723461666833102 0 -0.37638951432927531 0.48840212903384927 0 -0.369152346519662 0.48948878099050602 0 -0.38460179781997678 0.48806751274411758 0 -0.37638951432927531 0.48840212903384927 0 -0.37975853785510572 0.48281271434252571 0 -0.38460179781997678 0.48806751274411758 0 -0.38665123452756622 0.49723461666833102 0 -0.37638951432927531 0.48840212903384927 0 -0.37975853785510572 0.48281271434252571 0 -0.38941478022255549 0.48153494532181118 0 -0.37796734355910272 0.47293612834561438 0 -0.37638951432927531 0.48840212903384927 0 -0.37975853785510572 0.48281271434252571 0 -0.37225706123870639 0.48100674866295301 0 -0.37975853785510572 0.48281271434252571 0 -0.37796734355910272 0.47293612834561438 0 -0.37225706123870639 0.48100674866295301 0 -0.38460179781997678 0.48806751274411758 0 -0.37975853785510572 0.48281271434252571 0 -0.38941478022255549 0.48153494532181118 0 -0.38941478022255549 0.48153494532181118 0 -0.37796734355910272 0.47293612834561438 0 -0.39121329185248183 0.46635761121431307 0 -0.37796734355910272 0.47293612834561438 0 -0.38121719652013158 0.46286071326470951 0 -0.37233533601448809 0.46031367839212439 0 -0.38121719652013158 0.46286071326470951 0 -0.38335281465445409 0.45183543510678598 0 -0.37233533601448809 0.46031367839212439 0 -0.38121719652013158 0.46286071326470951 0 -0.38335281465445409 0.45183543510678598 0 -0.39121329185248183 0.46635761121431307 0 -0.37796734355910272 0.47293612834561438 0 -0.38121719652013158 0.46286071326470951 0 -0.39121329185248183 0.46635761121431307 0 -0.38335281465445409 0.45183543510678598 0 -0.39103453089599088 0.43883790537951589 0 -0.37725777757625412 0.43344442267531541 0 -0.38335281465445409 0.45183543510678598 0 -0.37725777757625412 0.43344442267531541 0 -0.36972833167532548 0.44672894741451702 0 -0.38335281465445409 0.45183543510678598 0 -0.36972833167532548 0.44672894741451702 0 -0.37233533601448809 0.46031367839212439 0 -0.39942086103592522 0.44998897885654848 0 -0.4149860164551763 0.4457162658260363 0 -0.40351341848830419 0.43339111409957931 0 -0.38335281465445409 0.45183543510678598 0 -0.39942086103592522 0.44998897885654848 0 -0.39103453089599088 0.43883790537951589 0 -0.39942086103592522 0.44998897885654848 0 -0.39103453089599088 0.43883790537951589 0 -0.40351341848830419 0.43339111409957931 0 -0.39942086103592522 0.44998897885654848 0 -0.39121329185248183 0.46635761121431307 0 -0.41290573267449421 0.46473459016810009 0 -0.38335281465445409 0.45183543510678598 0 -0.39942086103592522 0.44998897885654848 0 -0.39121329185248183 0.46635761121431307 0 -0.41290573267449421 0.46473459016810009 0 -0.4149860164551763 0.4457162658260363 0 -0.42615682922371378 0.45396674949329868 0 -0.39942086103592522 0.44998897885654848 0 -0.41290573267449421 0.46473459016810009 0 -0.4149860164551763 0.4457162658260363 0 -0.4149860164551763 0.4457162658260363 0 -0.41458667353850892 0.43357726507732031 0 -0.40351341848830419 0.43339111409957931 0 -0.4149860164551763 0.4457162658260363 0 -0.42615682922371378 0.45396674949329868 0 -0.42813208308547179 0.43132225407126101 0 -0.44169183222861957 0.45376631595447992 0 -0.42813208308547179 0.43132225407126101 0 -0.42615682922371378 0.45396674949329868 0 -0.44169183222861957 0.45376631595447992 0 -0.42813208308547179 0.43132225407126101 0 -0.41290573267449421 0.46473459016810009 0 -0.42615682922371378 0.45396674949329868 0 -0.43306848167480733 0.47429432144661599 0 -0.42615682922371378 0.45396674949329868 0 -0.43306848167480733 0.47429432144661599 0 -0.44169183222861957 0.45376631595447992 0 -0.43306848167480733 0.47429432144661599 0 -0.41502033478992451 0.48271894582609642 0 -0.42884546134313412 0.48826105120495672 0 -0.43306848167480733 0.47429432144661599 0 -0.42884546134313412 0.48826105120495672 0 -0.44364274751061461 0.48599599999203441 0 -0.40238286469040901 0.47663793499862123 0 -0.41290573267449421 0.46473459016810009 0 -0.41502033478992451 0.48271894582609642 0 -0.41290573267449421 0.46473459016810009 0 -0.43306848167480733 0.47429432144661599 0 -0.41502033478992451 0.48271894582609642 0 -0.41502033478992451 0.48271894582609642 0 -0.41181411260010697 0.49999999999999989 0 -0.42884546134313412 0.48826105120495672 0 -0.40002569382721898 0.49132971719092561 0 -0.41502033478992451 0.48271894582609642 0 -0.41181411260010697 0.49999999999999989 0 -0.41181411260010697 0.49999999999999989 0 -0.42884546134313412 0.48826105120495672 0 -0.44094514135121682 0.49999999999999978 0 -0.44094514135121682 0.49999999999999978 0 -0.44364274751061461 0.48599599999203441 0 -0.46063009423414591 0.49462227195082692 0 -0.44094514135121682 0.49999999999999978 0 -0.46063009423414591 0.49462227195082692 0 -0.5 0.5 0 -0.44094514135121682 0.49999999999999978 0 -0.46063009423414591 0.49462227195082692 0 -0.42884546134313412 0.48826105120495672 0 -0.44094514135121682 0.49999999999999978 0 -0.44364274751061461 0.48599599999203441 0 -0.43306848167480733 0.47429432144661599 0 -0.44364274751061461 0.48599599999203441 0 -0.45525158137176752 0.47621037783769871 0 -0.45525158137176752 0.47621037783769871 0 -0.47223173932012408 0.47178945836549763 0 -0.45819400091953449 0.45905981736975582 0 -0.45525158137176752 0.47621037783769871 0 -0.46710711551077821 0.48296666301391938 0 -0.47223173932012408 0.47178945836549763 0 -0.44364274751061461 0.48599599999203441 0 -0.45525158137176752 0.47621037783769871 0 -0.46063009423414591 0.49462227195082692 0 -0.45525158137176752 0.47621037783769871 0 -0.46710711551077821 0.48296666301391938 0 -0.46063009423414591 0.49462227195082692 0 -0.46063009423414591 0.49462227195082692 0 -0.48031504711707512 0.48924454390165428 0 -0.46710711551077821 0.48296666301391938 0 -0.46063009423414591 0.49462227195082692 0 -0.48031504711707512 0.48924454390165428 0 -0.46063009423414591 0.49462227195082692 0 -0.48031504711707512 0.48924454390165428 0 -0.5 0.5 0 -0.46710711551077821 0.48296666301391938 0 -0.48031504711707512 0.48924454390165428 0 -0.47223173932012408 0.47178945836549763 0 -0.48031504711707512 0.48924454390165428 0 -0.47223173932012408 0.47178945836549763 0 -0.48623220906158382 0.47160715716200019 0 -0.500000000000004 0.4838668158524807 0 -0.48623220906158382 0.47160715716200019 0 -0.5 0.45614022371268748 0 -0.48031504711707512 0.48924454390165428 0 -0.500000000000004 0.4838668158524807 0 -0.48623220906158382 0.47160715716200019 0 -0.48031504711707512 0.48924454390165428 0 -0.500000000000004 0.4838668158524807 0 -0.48031504711707512 0.48924454390165428 0 -0.500000000000004 0.4838668158524807 0 -0.5 0.5 0 -0.4848352729932553 0.43955590582223952 0 -0.5 0.45614022371268748 0 -0.5 0.42841363157289442 0 -0.4848352729932553 0.43955590582223952 0 -0.5 0.45614022371268748 0 -0.47861425887071929 0.45699474397768097 0 -0.48623220906158382 0.47160715716200019 0 -0.5 0.45614022371268748 0 -0.47861425887071929 0.45699474397768097 0 -0.47223173932012408 0.47178945836549763 0 -0.47861425887071929 0.45699474397768097 0 -0.45819400091953449 0.45905981736975582 0 -0.47223173932012408 0.47178945836549763 0 -0.48623220906158382 0.47160715716200019 0 -0.47861425887071929 0.45699474397768097 0 -0.4848352729932553 0.43955590582223952 0 -0.47861425887071929 0.45699474397768097 0 -0.46756990009417942 0.43815016340063118 0 -0.47861425887071929 0.45699474397768097 0 -0.46756990009417942 0.43815016340063118 0 -0.45819400091953449 0.45905981736975582 0 -0.46756990009417942 0.43815016340063118 0 -0.45819400091953449 0.45905981736975582 0 -0.44563677248474343 0.43280907221520509 0 -0.45525158137176752 0.47621037783769871 0 -0.45819400091953449 0.45905981736975582 0 -0.44169183222861957 0.45376631595447992 0 -0.45525158137176752 0.47621037783769871 0 -0.44169183222861957 0.45376631595447992 0 -0.43306848167480733 0.47429432144661599 0 -0.45525158137176752 0.47621037783769871 0 -0.44169183222861957 0.45376631595447992 0 -0.44169183222861957 0.45376631595447992 0 -0.44563677248474343 0.43280907221520509 0 -0.42813208308547179 0.43132225407126101 0 -0.45819400091953449 0.45905981736975582 0 -0.44169183222861957 0.45376631595447992 0 -0.44563677248474343 0.43280907221520509 0 -0.45819400091953449 0.45905981736975582 0 -0.44563677248474343 0.43280907221520509 0 -0.44563677248474343 0.43280907221520509 0 -0.4537544324387488 0.41373360287049532 0 -0.4595697764005463 0.42612631956542618 0 -0.44563677248474343 0.43280907221520509 0 -0.43307954404995219 0.40655832706065448 0 -0.44563677248474343 0.43280907221520509 0 -0.4537544324387488 0.41373360287049532 0 -0.43307954404995219 0.40655832706065448 0 -0.4537544324387488 0.41373360287049532 0 -0.4595697764005463 0.42612631956542618 0 -0.4751104783315766 0.41655958553576411 0 -0.4537544324387488 0.41373360287049532 0 -0.4751104783315766 0.41655958553576411 0 -0.46369856168449142 0.40066943618775802 0 -0.46756990009417942 0.43815016340063118 0 -0.4595697764005463 0.42612631956542618 0 -0.4751104783315766 0.41655958553576411 0 -0.46756990009417942 0.43815016340063118 0 -0.44563677248474343 0.43280907221520509 0 -0.4595697764005463 0.42612631956542618 0 -0.4848352729932553 0.43955590582223952 0 -0.46756990009417942 0.43815016340063118 0 -0.4751104783315766 0.41655958553576411 0 -0.4751104783315766 0.41655958553576411 0 -0.5 0.42841363157289442 0 -0.5 0.40068703943310108 0 -0.4848352729932553 0.43955590582223952 0 -0.4751104783315766 0.41655958553576411 0 -0.5 0.42841363157289442 0 -0.5 0.40068703943310108 0 -0.48056625429294392 0.39007739280928871 0 -0.5 0.37296044729330791 0 -0.48056625429294392 0.39007739280928871 0 -0.48278279059743462 0.36573341856167452 0 -0.5 0.37296044729330791 0 -0.4751104783315766 0.41655958553576411 0 -0.5 0.40068703943310108 0 -0.48056625429294392 0.39007739280928871 0 -0.4751104783315766 0.41655958553576411 0 -0.48056625429294392 0.39007739280928871 0 -0.46369856168449142 0.40066943618775802 0 -0.48056625429294392 0.39007739280928871 0 -0.46305513385887159 0.38235965462319171 0 -0.46369856168449142 0.40066943618775802 0 -0.48056625429294392 0.39007739280928871 0 -0.46305513385887159 0.38235965462319171 0 -0.48278279059743462 0.36573341856167452 0 -0.4537544324387488 0.41373360287049532 0 -0.46369856168449142 0.40066943618775802 0 -0.44850538692973779 0.39762739465818031 0 -0.46305513385887159 0.38235965462319171 0 -0.46369856168449142 0.40066943618775802 0 -0.44850538692973779 0.39762739465818031 0 -0.4537544324387488 0.41373360287049532 0 -0.44850538692973779 0.39762739465818031 0 -0.43307954404995219 0.40655832706065448 0 -0.44850538692973779 0.39762739465818031 0 -0.44135762672262829 0.3825327620140726 0 -0.43307954404995219 0.40655832706065448 0 -0.46305513385887159 0.38235965462319171 0 -0.44850538692973779 0.39762739465818031 0 -0.44135762672262829 0.3825327620140726 0 -0.46305513385887159 0.38235965462319171 0 -0.44135762672262829 0.3825327620140726 0 -0.44923032442813893 0.36645196570045319 0 -0.44135762672262829 0.3825327620140726 0 -0.42052231561516112 0.38030758190610392 0 -0.43307954404995219 0.40655832706065448 0 -0.42052231561516112 0.38030758190610392 0 -0.40101258479917612 0.38643413030482332 0 -0.40296808621962638 0.37070139713490941 0 -0.42052231561516112 0.38030758190610392 0 -0.41457233394232401 0.40887819218804222 0 -0.40101258479917612 0.38643413030482332 0 -0.41457233394232401 0.40887819218804222 0 -0.40101258479917612 0.38643413030482332 0 -0.42052231561516112 0.38030758190610392 0 -0.43307954404995219 0.40655832706065448 0 -0.42052231561516112 0.38030758190610392 0 -0.43307954404995219 0.40655832706065448 0 -0.41457233394232401 0.40887819218804222 0 -0.43307954404995219 0.40655832706065448 0 -0.42813208308547179 0.43132225407126101 0 -0.41457233394232401 0.40887819218804222 0 -0.44563677248474343 0.43280907221520509 0 -0.43307954404995219 0.40655832706065448 0 -0.42813208308547179 0.43132225407126101 0 -0.42813208308547179 0.43132225407126101 0 -0.41458667353850892 0.43357726507732031 0 -0.41171517612508318 0.42387942631240438 0 -0.4149860164551763 0.4457162658260363 0 -0.42813208308547179 0.43132225407126101 0 -0.41458667353850892 0.43357726507732031 0 -0.41458667353850892 0.43357726507732031 0 -0.41171517612508318 0.42387942631240438 0 -0.40351341848830419 0.43339111409957931 0 -0.42813208308547179 0.43132225407126101 0 -0.41457233394232401 0.40887819218804222 0 -0.41171517612508318 0.42387942631240438 0 -0.41457233394232401 0.40887819218804222 0 -0.39870929055914461 0.41719170425641661 0 -0.42813208308547179 0.43132225407126101 0 -0.41171517612508318 0.42387942631240438 0 -0.41457233394232401 0.40887819218804222 0 -0.39870929055914461 0.41719170425641661 0 -0.39107883642827018 0.42683645631403172 0 -0.38224422239727329 0.41759015990180209 0 -0.41457233394232401 0.40887819218804222 0 -0.39870929055914461 0.41719170425641661 0 -0.38861173365081991 0.40007655122806168 0 -0.39870929055914461 0.41719170425641661 0 -0.40351341848830419 0.43339111409957931 0 -0.39107883642827018 0.42683645631403172 0 -0.41171517612508318 0.42387942631240438 0 -0.39870929055914461 0.41719170425641661 0 -0.40351341848830419 0.43339111409957931 0 -0.39103453089599088 0.43883790537951589 0 -0.40351341848830419 0.43339111409957931 0 -0.39107883642827018 0.42683645631403172 0 -0.39107883642827018 0.42683645631403172 0 -0.37725777757625412 0.43344442267531541 0 -0.38224422239727329 0.41759015990180209 0 -0.39103453089599088 0.43883790537951589 0 -0.39107883642827018 0.42683645631403172 0 -0.37725777757625412 0.43344442267531541 0 -0.39870929055914461 0.41719170425641661 0 -0.38224422239727329 0.41759015990180209 0 -0.38861173365081991 0.40007655122806168 0 -0.38224422239727329 0.41759015990180209 0 -0.38861173365081991 0.40007655122806168 0 -0.37262694462895762 0.40953714644184108 0 -0.38861173365081991 0.40007655122806168 0 -0.37972885165370901 0.38715201548729872 0 -0.37131714700829549 0.39748888062532062 0 -0.38861173365081991 0.40007655122806168 0 -0.37131714700829549 0.39748888062532062 0 -0.37262694462895762 0.40953714644184108 0 -0.38861173365081991 0.40007655122806168 0 -0.37972885165370901 0.38715201548729872 0 -0.40101258479917612 0.38643413030482332 0 -0.37972885165370901 0.38715201548729872 0 -0.40101258479917612 0.38643413030482332 0 -0.38473487600604839 0.37291704145495369 0 -0.37972885165370901 0.38715201548729872 0 -0.38473487600604839 0.37291704145495369 0 -0.3699864109590707 0.37741506647222678 0 -0.40101258479917612 0.38643413030482332 0 -0.40296808621962638 0.37070139713490941 0 -0.38473487600604839 0.37291704145495369 0 -0.41457233394232401 0.40887819218804222 0 -0.38861173365081991 0.40007655122806168 0 -0.40101258479917612 0.38643413030482332 0 -0.40321910070300909 0.35658891413923199 0 -0.39234029174566531 0.36237875355477789 0 -0.39027275342375362 0.35091256228140039 0 -0.40124670150395803 0.345450897887567 0 -0.39027275342375362 0.35091256228140039 0 -0.38817416787512771 0.33739688933664991 0 -0.40124670150395803 0.345450897887567 0 -0.40321910070300909 0.35658891413923199 0 -0.39027275342375362 0.35091256228140039 0 -0.40124670150395803 0.345450897887567 0 -0.40321910070300909 0.35658891413923199 0 -0.41270085997702938 0.34862770755649169 0 -0.40296808621962638 0.37070139713490941 0 -0.39234029174566531 0.36237875355477789 0 -0.38473487600604839 0.37291704145495369 0 -0.40321910070300909 0.35658891413923199 0 -0.40296808621962638 0.37070139713490941 0 -0.39234029174566531 0.36237875355477789 0 -0.39234029174566531 0.36237875355477789 0 -0.38473487600604839 0.37291704145495369 0 -0.38092249945398943 0.35886446663359478 0 -0.38473487600604839 0.37291704145495369 0 -0.38092249945398943 0.35886446663359478 0 -0.36968375071915682 0.36508379924367751 0 -0.38092249945398943 0.35886446663359478 0 -0.3785908648924512 0.34815308868201028 0 -0.3689187022479119 0.3525043622488932 0 -0.38092249945398943 0.35886446663359478 0 -0.39027275342375362 0.35091256228140039 0 -0.3785908648924512 0.34815308868201028 0 -0.39234029174566531 0.36237875355477789 0 -0.38092249945398943 0.35886446663359478 0 -0.39027275342375362 0.35091256228140039 0 -0.39027275342375362 0.35091256228140039 0 -0.3785908648924512 0.34815308868201028 0 -0.38817416787512771 0.33739688933664991 0 -0.37892072672623811 0.33022566068961989 0 -0.38817416787512771 0.33739688933664991 0 -0.36466620146147338 0.34108716290951352 0 -0.3785908648924512 0.34815308868201028 0 -0.38817416787512771 0.33739688933664991 0 -0.36466620146147338 0.34108716290951352 0 -0.37892072672623811 0.33022566068961989 0 -0.38817416787512771 0.33739688933664991 0 -0.39968353259923151 0.32340567593245501 0 -0.38817416787512771 0.33739688933664991 0 -0.36466620146147338 0.34108716290951352 0 -0.39968353259923151 0.32340567593245501 0 -0.38530255797231072 0.30940268968826812 0 -0.37319216171912978 0.31910727167416209 0 -0.37892072672623811 0.33022566068961989 0 -0.39968353259923151 0.32340567593245501 0 -0.37319216171912978 0.31910727167416209 0 -0.39968353259923151 0.32340567593245501 0 -0.37319216171912978 0.31910727167416209 0 -0.38530255797231072 0.30940268968826812 0 -0.37319216171912978 0.31910727167416209 0 -0.39968353259923151 0.32340567593245501 0 -0.39840838968348408 0.30968419609546632 0 -0.38530255797231072 0.30940268968826812 0 -0.39968353259923151 0.32340567593245501 0 -0.40792902660412528 0.31065345283635731 0 -0.39840838968348408 0.30968419609546632 0 -0.38817416787512771 0.33739688933664991 0 -0.41168213428878192 0.33370661576378641 0 -0.40124670150395803 0.345450897887567 0 -0.38817416787512771 0.33739688933664991 0 -0.41168213428878192 0.33370661576378641 0 -0.38817416787512771 0.33739688933664991 0 -0.39968353259923151 0.32340567593245501 0 -0.41168213428878192 0.33370661576378641 0 -0.41168213428878192 0.33370661576378641 0 -0.42617490347933301 0.32770408019074843 0 -0.42541792936357442 0.34556371995185969 0 -0.40124670150395803 0.345450897887567 0 -0.41168213428878192 0.33370661576378641 0 -0.41270085997702938 0.34862770755649169 0 -0.39968353259923151 0.32340567593245501 0 -0.41168213428878192 0.33370661576378641 0 -0.42617490347933301 0.32770408019074843 0 -0.41168213428878192 0.33370661576378641 0 -0.42541792936357442 0.34556371995185969 0 -0.41270085997702938 0.34862770755649169 0 -0.39968353259923151 0.32340567593245501 0 -0.42617490347933301 0.32770408019074843 0 -0.40792902660412528 0.31065345283635731 0 -0.42617490347933301 0.32770408019074843 0 -0.42347662150082849 0.31322924932934848 0 -0.40792902660412528 0.31065345283635731 0 -0.39968353259923151 0.32340567593245501 0 -0.42617490347933301 0.32770408019074843 0 -0.42617490347933301 0.32770408019074843 0 -0.42347662150082849 0.31322924932934848 0 -0.44063576107961322 0.32084085729332301 0 -0.42347662150082849 0.31322924932934848 0 -0.44063576107961322 0.32084085729332301 0 -0.43637005683862973 0.30616198295830788 0 -0.42617490347933301 0.32770408019074843 0 -0.43690028815217968 0.33801225273121949 0 -0.42541792936357442 0.34556371995185969 0 -0.43690028815217968 0.33801225273121949 0 -0.42541792936357442 0.34556371995185969 0 -0.44334204540637667 0.34677872633322859 0 -0.42541792936357442 0.34556371995185969 0 -0.41650184102963272 0.36089390307479902 0 -0.43401781645331888 0.36155496821741617 0 -0.42541792936357442 0.34556371995185969 0 -0.43401781645331888 0.36155496821741617 0 -0.44334204540637667 0.34677872633322859 0 -0.42541792936357442 0.34556371995185969 0 -0.41270085997702938 0.34862770755649169 0 -0.41650184102963272 0.36089390307479902 0 -0.40321910070300909 0.35658891413923199 0 -0.41270085997702938 0.34862770755649169 0 -0.41650184102963272 0.36089390307479902 0 -0.42052231561516112 0.38030758190610392 0 -0.40296808621962638 0.37070139713490941 0 -0.41650184102963272 0.36089390307479902 0 -0.40321910070300909 0.35658891413923199 0 -0.40296808621962638 0.37070139713490941 0 -0.41650184102963272 0.36089390307479902 0 -0.42052231561516112 0.38030758190610392 0 -0.41650184102963272 0.36089390307479902 0 -0.43401781645331888 0.36155496821741617 0 -0.44135762672262829 0.3825327620140726 0 -0.42052231561516112 0.38030758190610392 0 -0.43401781645331888 0.36155496821741617 0 -0.44135762672262829 0.3825327620140726 0 -0.43401781645331888 0.36155496821741617 0 -0.44923032442813893 0.36645196570045319 0 -0.43401781645331888 0.36155496821741617 0 -0.44923032442813893 0.36645196570045319 0 -0.44334204540637667 0.34677872633322859 0 -0.44923032442813893 0.36645196570045319 0 -0.44334204540637667 0.34677872633322859 0 -0.46437899969949897 0.35903371731435701 0 -0.43401781645331888 0.36155496821741617 0 -0.44334204540637667 0.34677872633322859 0 -0.44334204540637667 0.34677872633322859 0 -0.4622325354213882 0.34415435404541178 0 -0.46437899969949897 0.35903371731435701 0 -0.46305513385887159 0.38235965462319171 0 -0.44923032442813893 0.36645196570045319 0 -0.46437899969949897 0.35903371731435701 0 -0.46305513385887159 0.38235965462319171 0 -0.46437899969949897 0.35903371731435701 0 -0.48278279059743462 0.36573341856167452 0 -0.4622325354213882 0.34415435404541178 0 -0.46437899969949897 0.35903371731435701 0 -0.48470194100963082 0.34789264333502717 0 -0.46437899969949897 0.35903371731435701 0 -0.48278279059743462 0.36573341856167452 0 -0.48470194100963082 0.34789264333502717 0 -0.48278279059743462 0.36573341856167452 0 -0.48470194100963082 0.34789264333502717 0 -0.5 0.34523385515351468 0 -0.48470194100963082 0.34789264333502717 0 -0.5 0.34523385515351468 0 -0.49763432548334507 0.3392988551545445 0 -0.48278279059743462 0.36573341856167452 0 -0.5 0.34523385515351468 0 -0.5 0.37296044729330791 0 -0.5 0.31750726301372151 0 -0.48805342818389608 0.32703708996639008 0 -0.48753107233041731 0.31047294152006072 0 -0.5 0.31750726301372151 0 -0.48805342818389608 0.32703708996639008 0 -0.49763432548334507 0.3392988551545445 0 -0.48805342818389608 0.32703708996639008 0 -0.47928126988460651 0.3150912355484205 0 -0.48753107233041731 0.31047294152006072 0 -0.48470194100963082 0.34789264333502717 0 -0.49763432548334507 0.3392988551545445 0 -0.47515029992138991 0.3356506698017932 0 -0.5 0.34523385515351468 0 -0.5 0.31750726301372151 0 -0.49763432548334507 0.3392988551545445 0 -0.48805342818389608 0.32703708996639008 0 -0.49763432548334507 0.3392988551545445 0 -0.47515029992138991 0.3356506698017932 0 -0.49763432548334507 0.3392988551545445 0 -0.47515029992138991 0.3356506698017932 0 -0.4622325354213882 0.34415435404541178 0 -0.48470194100963082 0.34789264333502717 0 -0.47515029992138991 0.3356506698017932 0 -0.48805342818389608 0.32703708996639008 0 -0.47928126988460651 0.3150912355484205 0 -0.46235058519592281 0.31665561554202248 0 -0.48805342818389608 0.32703708996639008 0 -0.47515029992138991 0.3356506698017932 0 -0.46235058519592281 0.31665561554202248 0 -0.47928126988460651 0.3150912355484205 0 -0.46235058519592281 0.31665561554202248 0 -0.47433355216015999 0.3092895033873172 0 -0.48805342818389608 0.32703708996639008 0 -0.46235058519592281 0.31665561554202248 0 -0.47515029992138991 0.3356506698017932 0 -0.46235058519592281 0.31665561554202248 0 -0.45266627435943468 0.33200248444904112 0 -0.46235058519592281 0.31665561554202248 0 -0.45266627435943468 0.33200248444904112 0 -0.47515029992138991 0.3356506698017932 0 -0.45266627435943468 0.33200248444904112 0 -0.4622325354213882 0.34415435404541178 0 -0.47515029992138991 0.3356506698017932 0 -0.45266627435943468 0.33200248444904112 0 -0.42617490347933301 0.32770408019074843 0 -0.43690028815217968 0.33801225273121949 0 -0.45266627435943468 0.33200248444904112 0 -0.42617490347933301 0.32770408019074843 0 -0.45266627435943468 0.33200248444904112 0 -0.43690028815217968 0.33801225273121949 0 -0.44334204540637667 0.34677872633322859 0 -0.45266627435943468 0.33200248444904112 0 -0.44334204540637667 0.34677872633322859 0 -0.4622325354213882 0.34415435404541178 0 -0.45266627435943468 0.33200248444904112 0 -0.44334204540637667 0.34677872633322859 0 -0.45266627435943468 0.33200248444904112 0 -0.46235058519592281 0.31665561554202248 0 -0.45266627435943468 0.33200248444904112 0 -0.44063576107961322 0.32084085729332301 0 -0.46235058519592281 0.31665561554202248 0 -0.44063576107961322 0.32084085729332301 0 -0.43637005683862973 0.30616198295830788 0 -0.42617490347933301 0.32770408019074843 0 -0.45266627435943468 0.33200248444904112 0 -0.44063576107961322 0.32084085729332301 0 -0.46235058519592281 0.31665561554202248 0 -0.46002150126415031 0.30331858147678742 0 -0.43637005683862973 0.30616198295830788 0 -0.46235058519592281 0.31665561554202248 0 -0.43637005683862973 0.30616198295830788 0 -0.44887314784765647 0.29563643817433388 0 -0.46002150126415031 0.30331858147678742 0 -0.43637005683862973 0.30616198295830788 0 -0.438717785400558 0.28201471197966621 0 -0.44887314784765647 0.29563643817433388 0 -0.4538637612119138 0.28378291366510311 0 -0.44887314784765647 0.29563643817433388 0 -0.46321320378472408 0.28730562278876021 0 -0.47306240108016528 0.29968044437008817 0 -0.4538637612119138 0.28378291366510311 0 -0.46321320378472408 0.28730562278876021 0 -0.46326484923437738 0.2756266064169251 0 -0.44887314784765647 0.29563643817433388 0 -0.4538637612119138 0.28378291366510311 0 -0.46321320378472408 0.28730562278876021 0 -0.46235058519592281 0.31665561554202248 0 -0.47306240108016528 0.29968044437008817 0 -0.44887314784765647 0.29563643817433388 0 -0.46002150126415031 0.30331858147678742 0 -0.47306240108016528 0.29968044437008817 0 -0.46235058519592281 0.31665561554202248 0 -0.46002150126415031 0.30331858147678742 0 -0.47306240108016528 0.29968044437008817 0 -0.44887314784765647 0.29563643817433388 0 -0.47306240108016528 0.29968044437008817 0 -0.46235058519592281 0.31665561554202248 0 -0.47433355216015999 0.3092895033873172 0 -0.47306240108016528 0.29968044437008817 0 -0.47928126988460651 0.3150912355484205 0 -0.48087793267422241 0.30786934280627459 0 -0.48753107233041731 0.31047294152006072 0 -0.47433355216015999 0.3092895033873172 0 -0.48087793267422241 0.30786934280627459 0 -0.4773591851783005 0.3003987890559548 0 -0.47928126988460651 0.3150912355484205 0 -0.47433355216015999 0.3092895033873172 0 -0.48087793267422241 0.30786934280627459 0 -0.48087793267422241 0.30786934280627459 0 -0.48379091691715959 0.30275980316689027 0 -0.48753107233041731 0.31047294152006072 0 -0.4773591851783005 0.3003987890559548 0 -0.47306240108016528 0.29968044437008817 0 -0.48366729090925481 0.29413640054592127 0 -0.48379091691715959 0.30275980316689027 0 -0.4773591851783005 0.3003987890559548 0 -0.48366729090925481 0.29413640054592127 0 -0.48087793267422241 0.30786934280627459 0 -0.48379091691715959 0.30275980316689027 0 -0.4773591851783005 0.3003987890559548 0 -0.47433355216015999 0.3092895033873172 0 -0.4773591851783005 0.3003987890559548 0 -0.47306240108016528 0.29968044437008817 0 -0.4773591851783005 0.3003987890559548 0 -0.47306240108016528 0.29968044437008817 0 -0.46321320378472408 0.28730562278876021 0 -0.47306240108016528 0.29968044437008817 0 -0.47318149445830732 0.28056061607353011 0 -0.47306240108016528 0.29968044437008817 0 -0.48366729090925481 0.29413640054592127 0 -0.4886319823727151 0.27500710136527201 0 -0.47306240108016528 0.29968044437008817 0 -0.4886319823727151 0.27500710136527201 0 -0.47318149445830732 0.28056061607353011 0 -0.47306240108016528 0.29968044437008817 0 -0.4886319823727151 0.27500710136527201 0 -0.48366729090925481 0.29413640054592127 0 -0.5 0.28978067087392823 0 -0.4886319823727151 0.27500710136527201 0 -0.48366729090925481 0.29413640054592127 0 -0.5 0.28978067087392823 0 -0.49061376152259861 0.30131566146064048 0 -0.5 0.31750726301372151 0 -0.5 0.28978067087392823 0 -0.49061376152259861 0.30131566146064048 0 -0.5 0.31750726301372151 0 -0.48753107233041731 0.31047294152006072 0 -0.49061376152259861 0.30131566146064048 0 -0.48379091691715959 0.30275980316689027 0 -0.48753107233041731 0.31047294152006072 0 -0.49061376152259861 0.30131566146064048 0 -0.48379091691715959 0.30275980316689027 0 -0.48366729090925481 0.29413640054592127 0 -0.49061376152259861 0.30131566146064048 0 -0.48629441403109691 0.2495838039864175 0 -0.5 0.262054078734135 0 -0.47773503581955412 0.26518330542660518 0 -0.5 0.28978067087392823 0 -0.5 0.262054078734135 0 -0.4886319823727151 0.27500710136527201 0 -0.5 0.262054078734135 0 -0.4886319823727151 0.27500710136527201 0 -0.47773503581955412 0.26518330542660518 0 -0.4886319823727151 0.27500710136527201 0 -0.47318149445830732 0.28056061607353011 0 -0.47773503581955412 0.26518330542660518 0 -0.47318149445830732 0.28056061607353011 0 -0.47773503581955412 0.26518330542660518 0 -0.46326484923437738 0.2756266064169251 0 -0.47773503581955412 0.26518330542660518 0 -0.4736346384558503 0.2509449944427371 0 -0.45630544244856053 0.25892937841919889 0 -0.48629441403109691 0.2495838039864175 0 -0.47773503581955412 0.26518330542660518 0 -0.4736346384558503 0.2509449944427371 0 -0.46099016809325821 0.24544934887813891 0 -0.4736346384558503 0.2509449944427371 0 -0.45630544244856053 0.25892937841919889 0 -0.44385238052221482 0.24856057350411129 0 -0.46099016809325821 0.24544934887813891 0 -0.45630544244856053 0.25892937841919889 0 -0.45630544244856053 0.25892937841919889 0 -0.46326484923437738 0.2756266064169251 0 -0.44998560160308781 0.27308598865475903 0 -0.47773503581955412 0.26518330542660518 0 -0.45630544244856053 0.25892937841919889 0 -0.46326484923437738 0.2756266064169251 0 -0.46321320378472408 0.28730562278876021 0 -0.47318149445830732 0.28056061607353011 0 -0.46326484923437738 0.2756266064169251 0 -0.4538637612119138 0.28378291366510311 0 -0.46326484923437738 0.2756266064169251 0 -0.44998560160308781 0.27308598865475903 0 -0.45630544244856053 0.25892937841919889 0 -0.44998560160308781 0.27308598865475903 0 -0.43605178769515601 0.26646012370944661 0 -0.438717785400558 0.28201471197966621 0 -0.4538637612119138 0.28378291366510311 0 -0.44998560160308781 0.27308598865475903 0 -0.438717785400558 0.28201471197966621 0 -0.44998560160308781 0.27308598865475903 0 -0.43605178769515601 0.26646012370944661 0 -0.44385238052221482 0.24856057350411129 0 -0.45630544244856053 0.25892937841919889 0 -0.43605178769515601 0.26646012370944661 0 -0.42360250984710962 0.25372911735208947 0 -0.4182864907357669 0.26924938877929699 0 -0.43605178769515601 0.26646012370944661 0 -0.44385238052221482 0.24856057350411129 0 -0.42360250984710962 0.25372911735208947 0 -0.43605178769515601 0.26646012370944661 0 -0.42360250984710962 0.25372911735208947 0 -0.4182864907357669 0.26924938877929699 0 -0.40589751577158317 0.25869843288301281 0 -0.40577057457472349 0.24313069415562391 0 -0.42360250984710962 0.25372911735208947 0 -0.40589751577158317 0.25869843288301281 0 -0.4182864907357669 0.26924938877929699 0 -0.41465259698589618 0.28024457430687782 0 -0.40341273974618291 0.27419776471235657 0 -0.4182864907357669 0.26924938877929699 0 -0.40589751577158317 0.25869843288301281 0 -0.40341273974618291 0.27419776471235657 0 -0.4182864907357669 0.26924938877929699 0 -0.41465259698589618 0.28024457430687782 0 -0.42638521844974481 0.27863486028132839 0 -0.4182864907357669 0.26924938877929699 0 -0.42638521844974481 0.27863486028132839 0 -0.43605178769515601 0.26646012370944661 0 -0.438717785400558 0.28201471197966621 0 -0.42638521844974481 0.27863486028132839 0 -0.43605178769515601 0.26646012370944661 0 -0.438717785400558 0.28201471197966621 0 -0.44887314784765647 0.29563643817433388 0 -0.42468389461514772 0.29159243197858042 0 -0.438717785400558 0.28201471197966621 0 -0.42638521844974481 0.27863486028132839 0 -0.42468389461514772 0.29159243197858042 0 -0.44887314784765647 0.29563643817433388 0 -0.42468389461514772 0.29159243197858042 0 -0.41465259698589618 0.28024457430687782 0 -0.42638521844974481 0.27863486028132839 0 -0.42468389461514772 0.29159243197858042 0 -0.42468389461514772 0.29159243197858042 0 -0.43637005683862973 0.30616198295830788 0 -0.41038952848133742 0.2956683503745916 0 -0.43637005683862973 0.30616198295830788 0 -0.41038952848133742 0.2956683503745916 0 -0.44887314784765647 0.29563643817433388 0 -0.42468389461514772 0.29159243197858042 0 -0.43637005683862973 0.30616198295830788 0 -0.42347662150082849 0.31322924932934848 0 -0.43637005683862973 0.30616198295830788 0 -0.41654980875013498 0.30558652862539631 0 -0.43637005683862973 0.30616198295830788 0 -0.41654980875013498 0.30558652862539631 0 -0.41038952848133742 0.2956683503745916 0 -0.42347662150082849 0.31322924932934848 0 -0.41654980875013498 0.30558652862539631 0 -0.40792902660412528 0.31065345283635731 0 -0.41654980875013498 0.30558652862539631 0 -0.41038952848133742 0.2956683503745916 0 -0.40458381032575402 0.3022196076283763 0 -0.41654980875013498 0.30558652862539631 0 -0.40792902660412528 0.31065345283635731 0 -0.40458381032575402 0.3022196076283763 0 -0.42468389461514772 0.29159243197858042 0 -0.41038952848133742 0.2956683503745916 0 -0.40049464138263868 0.28754842578282691 0 -0.41465259698589618 0.28024457430687782 0 -0.42468389461514772 0.29159243197858042 0 -0.40049464138263868 0.28754842578282691 0 -0.42468389461514772 0.29159243197858042 0 -0.40049464138263868 0.28754842578282691 0 -0.41038952848133742 0.2956683503745916 0 -0.40049464138263868 0.28754842578282691 0 -0.3991564358204609 0.2948357191905257 0 -0.40049464138263868 0.28754842578282691 0 -0.3991564358204609 0.2948357191905257 0 -0.39039421615419623 0.29057075972819912 0 -0.3991564358204609 0.2948357191905257 0 -0.39302565637612641 0.29644110614677349 0 -0.39039421615419623 0.29057075972819912 0 -0.40049464138263868 0.28754842578282691 0 -0.39039421615419623 0.29057075972819912 0 -0.38769707246277357 0.27818331919656869 0 -0.40792902660412528 0.31065345283635731 0 -0.40458381032575402 0.3022196076283763 0 -0.39840838968348408 0.30968419609546632 0 -0.41038952848133742 0.2956683503745916 0 -0.3991564358204609 0.2948357191905257 0 -0.40458381032575402 0.3022196076283763 0 -0.40458381032575402 0.3022196076283763 0 -0.39741295422549111 0.29969810770237348 0 -0.39840838968348408 0.30968419609546632 0 -0.3991564358204609 0.2948357191905257 0 -0.40458381032575402 0.3022196076283763 0 -0.39741295422549111 0.29969810770237348 0 -0.39741295422549111 0.29969810770237348 0 -0.39283719144347812 0.30190195979079121 0 -0.38530255797231072 0.30940268968826812 0 -0.39741295422549111 0.29969810770237348 0 -0.38530255797231072 0.30940268968826812 0 -0.3991564358204609 0.2948357191905257 0 -0.39302565637612641 0.29644110614677349 0 -0.39741295422549111 0.29969810770237348 0 -0.39302565637612641 0.29644110614677349 0 -0.39741295422549111 0.29969810770237348 0 -0.39283719144347812 0.30190195979079121 0 -0.39302565637612641 0.29644110614677349 0 -0.39283719144347812 0.30190195979079121 0 -0.3871049307926841 0.2967090455989484 0 -0.39741295422549111 0.29969810770237348 0 -0.39840838968348408 0.30968419609546632 0 -0.38530255797231072 0.30940268968826812 0 -0.39283719144347812 0.30190195979079121 0 -0.3727017644312226 0.30883127592299819 0 -0.39283719144347812 0.30190195979079121 0 -0.38061872177452061 0.29992318037151022 0 -0.3727017644312226 0.30883127592299819 0 -0.39283719144347812 0.30190195979079121 0 -0.38530255797231072 0.30940268968826812 0 -0.3727017644312226 0.30883127592299819 0 -0.39283719144347812 0.30190195979079121 0 -0.38061872177452061 0.29992318037151022 0 -0.3871049307926841 0.2967090455989484 0 -0.38530255797231072 0.30940268968826812 0 -0.3727017644312226 0.30883127592299819 0 -0.37319216171912978 0.31910727167416209 0 -0.39039421615419623 0.29057075972819912 0 -0.37756671606237657 0.29024826707062401 0 -0.38769707246277357 0.27818331919656869 0 -0.39039421615419623 0.29057075972819912 0 -0.3871049307926841 0.2967090455989484 0 -0.37756671606237657 0.29024826707062401 0 -0.39302565637612641 0.29644110614677349 0 -0.39039421615419623 0.29057075972819912 0 -0.3871049307926841 0.2967090455989484 0 -0.38061872177452061 0.29992318037151022 0 -0.37756671606237657 0.29024826707062401 0 -0.37069551450652571 0.29913492970505978 0 -0.38061872177452061 0.29992318037151022 0 -0.3871049307926841 0.2967090455989484 0 -0.37756671606237657 0.29024826707062401 0 -0.37756671606237657 0.29024826707062401 0 -0.38769707246277357 0.27818331919656869 0 -0.36914674478713633 0.27298269276494208 0 -0.38769707246277357 0.27818331919656869 0 -0.38048964028512061 0.26507854931069069 0 -0.36914674478713633 0.27298269276494208 0 -0.38769707246277357 0.27818331919656869 0 -0.38048964028512061 0.26507854931069069 0 -0.39212192164065002 0.26568278977735599 0 -0.38048964028512061 0.26507854931069069 0 -0.37978334329653862 0.2500827526942922 0 -0.39212192164065002 0.26568278977735599 0 -0.40577057457472349 0.24313069415562391 0 -0.37978334329653862 0.2500827526942922 0 -0.40589751577158317 0.25869843288301281 0 -0.37978334329653862 0.2500827526942922 0 -0.40589751577158317 0.25869843288301281 0 -0.39212192164065002 0.26568278977735599 0 -0.40589751577158317 0.25869843288301281 0 -0.40341273974618291 0.27419776471235657 0 -0.39212192164065002 0.26568278977735599 0 -0.40049464138263868 0.28754842578282691 0 -0.38769707246277357 0.27818331919656869 0 -0.40341273974618291 0.27419776471235657 0 -0.38769707246277357 0.27818331919656869 0 -0.40341273974618291 0.27419776471235657 0 -0.39212192164065002 0.26568278977735599 0 -0.41465259698589618 0.28024457430687782 0 -0.40049464138263868 0.28754842578282691 0 -0.40341273974618291 0.27419776471235657 0 -0.34787547462039559 0.28017709041181232 0 -0.35379611201835381 0.25703481123296051 0 -0.36914674478713633 0.27298269276494208 0 -0.34787547462039559 0.28017709041181232 0 -0.36914674478713633 0.27298269276494208 0 -0.38048964028512061 0.26507854931069069 0 -0.35379611201835381 0.25703481123296051 0 -0.36914674478713633 0.27298269276494208 0 -0.37978334329653862 0.2500827526942922 0 -0.35379611201835381 0.25703481123296051 0 -0.38048964028512061 0.26507854931069069 0 -0.37978334329653862 0.2500827526942922 0 -0.35379611201835381 0.25703481123296051 0 -0.36428609693314717 0.24402325401059971 0 -0.37978334329653862 0.2500827526942922 0 -0.35379611201835381 0.25703481123296051 0 -0.37756671606237657 0.29024826707062401 0 -0.35941348456227029 0.29175664037236032 0 -0.37069551450652571 0.29913492970505978 0 -0.37756671606237657 0.29024826707062401 0 -0.36914674478713633 0.27298269276494208 0 -0.35941348456227029 0.29175664037236032 0 -0.3727017644312226 0.30883127592299819 0 -0.36054744261712562 0.30364935140752142 0 -0.35256633741896709 0.31576059205520551 0 -0.3727017644312226 0.30883127592299819 0 -0.35256633741896709 0.31576059205520551 0 -0.38061872177452061 0.29992318037151022 0 -0.3727017644312226 0.30883127592299819 0 -0.37069551450652571 0.29913492970505978 0 -0.3727017644312226 0.30883127592299819 0 -0.37069551450652571 0.29913492970505978 0 -0.36054744261712562 0.30364935140752142 0 -0.35941348456227029 0.29175664037236032 0 -0.37069551450652571 0.29913492970505978 0 -0.36054744261712562 0.30364935140752142 0 -0.34736011216664259 0.302763318981983 0 -0.33430684042404829 0.31279786506034829 0 -0.35256633741896709 0.31576059205520551 0 -0.36054744261712562 0.30364935140752142 0 -0.34736011216664259 0.302763318981983 0 -0.35256633741896709 0.31576059205520551 0 -0.35941348456227029 0.29175664037236032 0 -0.36054744261712562 0.30364935140752142 0 -0.34736011216664259 0.302763318981983 0 -0.34787547462039559 0.28017709041181232 0 -0.35941348456227029 0.29175664037236032 0 -0.34283750074415159 0.29238179971700612 0 -0.35941348456227029 0.29175664037236032 0 -0.34736011216664259 0.302763318981983 0 -0.34283750074415159 0.29238179971700612 0 -0.34787547462039559 0.28017709041181232 0 -0.36914674478713633 0.27298269276494208 0 -0.35941348456227029 0.29175664037236032 0 -0.34787547462039559 0.28017709041181232 0 -0.32660420445365479 0.28737148805868251 0 -0.34787547462039559 0.28017709041181232 0 -0.34283750074415159 0.29238179971700612 0 -0.32660420445365479 0.28737148805868251 0 -0.34283750074415159 0.29238179971700612 0 -0.33293422791779492 0.29984046076019227 0 -0.32660420445365479 0.28737148805868251 0 -0.34736011216664259 0.302763318981983 0 -0.33293422791779492 0.29984046076019227 0 -0.33430684042404829 0.31279786506034829 0 -0.34736011216664259 0.302763318981983 0 -0.34283750074415159 0.29238179971700612 0 -0.33293422791779492 0.29984046076019227 0 -0.32681655943728322 0.30726540755629861 0 -0.32504004410757492 0.31535118892891623 0 -0.33430684042404829 0.31279786506034829 0 -0.33293422791779492 0.29984046076019227 0 -0.32681655943728322 0.30726540755629861 0 -0.33430684042404829 0.31279786506034829 0 -0.32008327701240552 0.30802534842547652 0 -0.31605787973803928 0.31368192326879413 0 -0.32504004410757492 0.31535118892891623 0 -0.32681655943728322 0.30726540755629861 0 -0.32008327701240552 0.30802534842547652 0 -0.32504004410757492 0.31535118892891623 0 -0.32681655943728322 0.30726540755629861 0 -0.3217184077245922 0.30031217460655962 0 -0.32008327701240552 0.30802534842547652 0 -0.33293422791779492 0.29984046076019227 0 -0.32681655943728322 0.30726540755629861 0 -0.3217184077245922 0.30031217460655962 0 -0.3217184077245922 0.30031217460655962 0 -0.32008327701240552 0.30802534842547652 0 -0.31154550622188931 0.30416793111937179 0 -0.3217184077245922 0.30031217460655962 0 -0.31091172513779203 0.29502103249124861 0 -0.31154550622188931 0.30416793111937179 0 -0.32008327701240552 0.30802534842547652 0 -0.31154550622188931 0.30416793111937179 0 -0.31605787973803928 0.31368192326879413 0 -0.3217184077245922 0.30031217460655962 0 -0.32660420445365479 0.28737148805868251 0 -0.31091172513779203 0.29502103249124861 0 -0.32660420445365479 0.28737148805868251 0 -0.30533293428691433 0.29456588570555331 0 -0.32660420445365479 0.28737148805868251 0 -0.31272961347016098 0.28139224846553229 0 -0.30533293428691433 0.29456588570555331 0 -0.32660420445365479 0.28737148805868251 0 -0.30533293428691433 0.29456588570555331 0 -0.31091172513779203 0.29502103249124861 0 -0.33293422791779492 0.29984046076019227 0 -0.3217184077245922 0.30031217460655962 0 -0.32660420445365479 0.28737148805868251 0 -0.32660420445365479 0.28737148805868251 0 -0.31272961347016098 0.28139224846553229 0 -0.32780888074016901 0.26398686977162872 0 -0.32780888074016901 0.26398686977162872 0 -0.30182164946198398 0.27093892831029698 0 -0.31272961347016098 0.28139224846553229 0 -0.32780888074016901 0.26398686977162872 0 -0.30182164946198398 0.27093892831029698 0 -0.34787547462039559 0.28017709041181232 0 -0.35379611201835381 0.25703481123296051 0 -0.32780888074016901 0.26398686977162872 0 -0.34787547462039559 0.28017709041181232 0 -0.32660420445365479 0.28737148805868251 0 -0.32780888074016901 0.26398686977162872 0 -0.35379611201835381 0.25703481123296051 0 -0.32780888074016901 0.26398686977162872 0 -0.33277624872290262 0.2431759369511014 0 -0.35379611201835381 0.25703481123296051 0 -0.32780888074016901 0.26398686977162872 0 -0.33277624872290262 0.2431759369511014 0 -0.32780888074016901 0.26398686977162872 0 -0.3093470477056508 0.25302678202252799 0 -0.32780888074016901 0.26398686977162872 0 -0.3093470477056508 0.25302678202252799 0 -0.30182164946198398 0.27093892831029698 0 -0.3093470477056508 0.25302678202252799 0 -0.30182164946198398 0.27093892831029698 0 -0.28671907102410998 0.26235309269760371 0 -0.31272961347016098 0.28139224846553229 0 -0.30182164946198398 0.27093892831029698 0 -0.29860470019031721 0.28440545789038091 0 -0.30182164946198398 0.27093892831029698 0 -0.27583441818379889 0.27789098684896529 0 -0.28641941121843539 0.28357877240081808 0 -0.30182164946198398 0.27093892831029698 0 -0.28671907102410998 0.26235309269760371 0 -0.27583441818379889 0.27789098684896529 0 -0.30182164946198398 0.27093892831029698 0 -0.27583441818379889 0.27789098684896529 0 -0.30182164946198398 0.27093892831029698 0 -0.28641941121843539 0.28357877240081808 0 -0.29860470019031721 0.28440545789038091 0 -0.29050962234799671 0.24591738704289931 0 -0.3093470477056508 0.25302678202252799 0 -0.28671907102410998 0.26235309269760371 0 -0.29050962234799671 0.24591738704289931 0 -0.28671907102410998 0.26235309269760371 0 -0.26753791115911763 0.25905140516425462 0 -0.29050962234799671 0.24591738704289931 0 -0.26753791115911763 0.25905140516425462 0 -0.28671907102410998 0.26235309269760371 0 -0.26753791115911763 0.25905140516425462 0 -0.27526377728611012 0.26729306679667492 0 -0.29050962234799671 0.24591738704289931 0 -0.27243740744556921 0.247158999558652 0 -0.26753791115911763 0.25905140516425462 0 -0.27243740744556921 0.247158999558652 0 -0.26744233816693491 0.25654795535771091 0 -0.26753791115911763 0.25905140516425462 0 -0.26744233816693491 0.25654795535771091 0 -0.26753791115911763 0.25905140516425462 0 -0.26753791115911763 0.25905140516425462 0 -0.27526377728611012 0.26729306679667492 0 -0.26815889595042841 0.27531755128268431 0 -0.26753791115911763 0.25905140516425462 0 -0.26815889595042841 0.27531755128268431 0 -0.28671907102410998 0.26235309269760371 0 -0.27526377728611012 0.26729306679667492 0 -0.27583441818379889 0.27789098684896529 0 -0.27526377728611012 0.26729306679667492 0 -0.27583441818379889 0.27789098684896529 0 -0.26815889595042841 0.27531755128268431 0 -0.26815889595042841 0.27531755128268431 0 -0.25712606434457969 0.28054433784382538 0 -0.2496629079650042 0.26927139330273492 0 -0.26753791115911763 0.25905140516425462 0 -0.26815889595042841 0.27531755128268431 0 -0.2496629079650042 0.26927139330273492 0 -0.25712606434457969 0.28054433784382538 0 -0.2456847571112388 0.28149670212266792 0 -0.2496629079650042 0.26927139330273492 0 -0.26744233816693491 0.25654795535771091 0 -0.26753791115911763 0.25905140516425462 0 -0.25063676029139842 0.25291648499014979 0 -0.26753791115911763 0.25905140516425462 0 -0.25063676029139842 0.25291648499014979 0 -0.2496629079650042 0.26927139330273492 0 -0.2616708012182547 0.2440301657032401 0 -0.26744233816693491 0.25654795535771091 0 -0.25063676029139842 0.25291648499014979 0 -0.26753791115911763 0.25905140516425462 0 -0.2496629079650042 0.26927139330273492 0 -0.26024295001233572 0.30047082688456239 0 -0.25284064987234101 0.29028329201030878 0 -0.24999302981986149 0.31328302273380082 0 -0.26024295001233572 0.30047082688456239 0 -0.26935823961539301 0.30673329539302518 0 -0.24999302981986149 0.31328302273380082 0 -0.26935823961539301 0.30673329539302518 0 -0.24999302981986149 0.31328302273380082 0 -0.26024295001233572 0.30047082688456239 0 -0.25284064987234101 0.29028329201030878 0 -0.26877988074174702 0.29158369740111367 0 -0.26815889595042841 0.27531755128268431 0 -0.25712606434457969 0.28054433784382538 0 -0.26877988074174702 0.29158369740111367 0 -0.25712606434457969 0.28054433784382538 0 -0.25284064987234101 0.29028329201030878 0 -0.26877988074174702 0.29158369740111367 0 -0.25284064987234101 0.29028329201030878 0 -0.26877988074174702 0.29158369740111367 0 -0.25712606434457969 0.28054433784382538 0 -0.25284064987234101 0.29028329201030878 0 -0.2456847571112388 0.28149670212266792 0 -0.26877988074174702 0.29158369740111367 0 -0.28705640751433059 0.29307479155333382 0 -0.26877988074174702 0.29158369740111367 0 -0.28641941121843539 0.28357877240081808 0 -0.28705640751433059 0.29307479155333382 0 -0.26877988074174702 0.29158369740111367 0 -0.27774296906969159 0.29751555627962689 0 -0.28705640751433059 0.29307479155333382 0 -0.27583441818379889 0.27789098684896529 0 -0.26877988074174702 0.29158369740111367 0 -0.28641941121843539 0.28357877240081808 0 -0.26815889595042841 0.27531755128268431 0 -0.26877988074174702 0.29158369740111367 0 -0.27583441818379889 0.27789098684896529 0 -0.26815889595042841 0.27531755128268431 0 -0.26877988074174702 0.29158369740111367 0 -0.27774296906969159 0.29751555627962689 0 -0.26935823961539301 0.30673329539302518 0 -0.2873455869511537 0.30064959054928941 0 -0.26935823961539301 0.30673329539302518 0 -0.28198812175282051 0.31101696379907651 0 -0.2873455869511537 0.30064959054928941 0 -0.26935823961539301 0.30673329539302518 0 -0.2873455869511537 0.30064959054928941 0 -0.26877988074174702 0.29158369740111367 0 -0.27774296906969159 0.29751555627962689 0 -0.26935823961539301 0.30673329539302518 0 -0.26024295001233572 0.30047082688456239 0 -0.26877988074174702 0.29158369740111367 0 -0.26935823961539301 0.30673329539302518 0 -0.26877988074174702 0.29158369740111367 0 -0.26935823961539301 0.30673329539302518 0 -0.28198812175282051 0.31101696379907651 0 -0.2873455869511537 0.30064959054928941 0 -0.2982470159816456 0.30800497490463469 0 -0.2873455869511537 0.30064959054928941 0 -0.30533293428691433 0.29456588570555331 0 -0.27774296906969159 0.29751555627962689 0 -0.2873455869511537 0.30064959054928941 0 -0.28705640751433059 0.29307479155333382 0 -0.2873455869511537 0.30064959054928941 0 -0.28705640751433059 0.29307479155333382 0 -0.30533293428691433 0.29456588570555331 0 -0.28705640751433059 0.29307479155333382 0 -0.30533293428691433 0.29456588570555331 0 -0.28641941121843539 0.28357877240081808 0 -0.28705640751433059 0.29307479155333382 0 -0.29860470019031721 0.28440545789038091 0 -0.28705640751433059 0.29307479155333382 0 -0.29860470019031721 0.28440545789038091 0 -0.30533293428691433 0.29456588570555331 0 -0.30533293428691433 0.29456588570555331 0 -0.31091172513779203 0.29502103249124861 0 -0.31272961347016098 0.28139224846553229 0 -0.29860470019031721 0.28440545789038091 0 -0.30533293428691433 0.29456588570555331 0 -0.2873455869511537 0.30064959054928941 0 -0.30533293428691433 0.29456588570555331 0 -0.2982470159816456 0.30800497490463469 0 -0.30533293428691433 0.29456588570555331 0 -0.31091172513779203 0.29502103249124861 0 -0.31154550622188931 0.30416793111937179 0 -0.30533293428691433 0.29456588570555331 0 -0.2982470159816456 0.30800497490463469 0 -0.31154550622188931 0.30416793111937179 0 -0.2982470159816456 0.30800497490463469 0 -0.31154550622188931 0.30416793111937179 0 -0.30664875768426442 0.31285521501269431 0 -0.31154550622188931 0.30416793111937179 0 -0.30664875768426442 0.31285521501269431 0 -0.31605787973803928 0.31368192326879413 0 -0.30664875768426442 0.31285521501269431 0 -0.29983442808314659 0.32272174155752442 0 -0.31697181366406268 0.32800993285751168 0 -0.2982470159816456 0.30800497490463469 0 -0.30664875768426442 0.31285521501269431 0 -0.29983442808314659 0.32272174155752442 0 -0.29983442808314659 0.32272174155752442 0 -0.29806924234752907 0.33508812564789509 0 -0.31697181366406268 0.32800993285751168 0 -0.29806924234752907 0.33508812564789509 0 -0.31784872660290381 0.34843655618235869 0 -0.31697181366406268 0.32800993285751168 0 -0.29806924234752907 0.33508812564789509 0 -0.28249951168368398 0.3308093229136303 0 -0.28118535509976428 0.34310148712515143 0 -0.29806924234752907 0.33508812564789509 0 -0.28118535509976428 0.34310148712515143 0 -0.29453921815798861 0.35209567588234042 0 -0.29806924234752907 0.33508812564789509 0 -0.28249951168368398 0.3308093229136303 0 -0.28852679882645582 0.32099006826540333 0 -0.28198812175282051 0.31101696379907651 0 -0.2982470159816456 0.30800497490463469 0 -0.28852679882645582 0.32099006826540333 0 -0.2982470159816456 0.30800497490463469 0 -0.29983442808314659 0.32272174155752442 0 -0.28852679882645582 0.32099006826540333 0 -0.29983442808314659 0.32272174155752442 0 -0.29806924234752907 0.33508812564789509 0 -0.28852679882645582 0.32099006826540333 0 -0.28249951168368398 0.3308093229136303 0 -0.28852679882645582 0.32099006826540333 0 -0.27853332930851687 0.32015873917176152 0 -0.28198812175282051 0.31101696379907651 0 -0.28852679882645582 0.32099006826540333 0 -0.27853332930851687 0.32015873917176152 0 -0.26935823961539301 0.30673329539302518 0 -0.270293974664231 0.33124404548767139 0 -0.26935823961539301 0.30673329539302518 0 -0.28198812175282051 0.31101696379907651 0 -0.27853332930851687 0.32015873917176152 0 -0.26935823961539301 0.30673329539302518 0 -0.27853332930851687 0.32015873917176152 0 -0.270293974664231 0.33124404548767139 0 -0.26935823961539301 0.30673329539302518 0 -0.270293974664231 0.33124404548767139 0 -0.26202580649680629 0.31917500787134678 0 -0.28249951168368398 0.3308093229136303 0 -0.27853332930851687 0.32015873917176152 0 -0.270293974664231 0.33124404548767139 0 -0.28249951168368398 0.3308093229136303 0 -0.28118535509976428 0.34310148712515143 0 -0.270293974664231 0.33124404548767139 0 -0.270293974664231 0.33124404548767139 0 -0.27122970971307259 0.35575479558231748 0 -0.28118535509976428 0.34310148712515143 0 -0.270293974664231 0.33124404548767139 0 -0.27122970971307259 0.35575479558231748 0 -0.270293974664231 0.33124404548767139 0 -0.25846389074062409 0.32900630356289862 0 -0.26693475166138658 0.34472958439199641 0 -0.25846389074062409 0.32900630356289862 0 -0.26693475166138658 0.34472958439199641 0 -0.25846389074062409 0.32900630356289862 0 -0.25322807935694502 0.34145417571987058 0 -0.26693475166138658 0.34472958439199641 0 -0.25846389074062409 0.32900630356289862 0 -0.24525105680585091 0.32539921709460512 0 -0.24843568547779929 0.33368959027150802 0 -0.25846389074062409 0.32900630356289862 0 -0.25322807935694502 0.34145417571987058 0 -0.24843568547779929 0.33368959027150802 0 -0.26935823961539301 0.30673329539302518 0 -0.26202580649680629 0.31917500787134678 0 -0.24999302981986149 0.31328302273380082 0 -0.25846389074062409 0.32900630356289862 0 -0.24999302981986149 0.31328302273380082 0 -0.24525105680585091 0.32539921709460512 0 -0.25846389074062409 0.32900630356289862 0 -0.24999302981986149 0.31328302273380082 0 -0.25846389074062409 0.32900630356289862 0 -0.26202580649680629 0.31917500787134678 0 -0.24999302981986149 0.31328302273380082 0 -0.270293974664231 0.33124404548767139 0 -0.25846389074062409 0.32900630356289862 0 -0.26202580649680629 0.31917500787134678 0 -0.26081078885774162 0.36913593397022759 0 -0.25548558678424371 0.35822630331505512 0 -0.27122970971307259 0.35575479558231748 0 -0.26081078885774162 0.36913593397022759 0 -0.25625490738993473 0.37969005217330459 0 -0.24879224663555319 0.36844123118380262 0 -0.26081078885774162 0.36913593397022759 0 -0.25548558678424371 0.35822630331505512 0 -0.24879224663555319 0.36844123118380262 0 -0.25548558678424371 0.35822630331505512 0 -0.27122970971307259 0.35575479558231748 0 -0.25548558678424371 0.35822630331505512 0 -0.25846489586857713 0.34914914917056028 0 -0.24539265141780139 0.35030913564137889 0 -0.25548558678424371 0.35822630331505512 0 -0.25846489586857713 0.34914914917056028 0 -0.27122970971307259 0.35575479558231748 0 -0.25322807935694502 0.34145417571987058 0 -0.25846489586857713 0.34914914917056028 0 -0.24539265141780139 0.35030913564137889 0 -0.25846489586857713 0.34914914917056028 0 -0.27122970971307259 0.35575479558231748 0 -0.26693475166138658 0.34472958439199641 0 -0.25322807935694502 0.34145417571987058 0 -0.25846489586857713 0.34914914917056028 0 -0.26693475166138658 0.34472958439199641 0 -0.270293974664231 0.33124404548767139 0 -0.27122970971307259 0.35575479558231748 0 -0.26693475166138658 0.34472958439199641 0 -0.26081078885774162 0.36913593397022759 0 -0.27122970971307259 0.35575479558231748 0 -0.27229149376590361 0.38356728759665848 0 -0.27122970971307259 0.35575479558231748 0 -0.28320193204293082 0.36922425145744547 0 -0.27229149376590361 0.38356728759665848 0 -0.27122970971307259 0.35575479558231748 0 -0.27229149376590361 0.38356728759665848 0 -0.28320193204293082 0.36922425145744547 0 -0.29453921815798861 0.35209567588234042 0 -0.29821912320253569 0.37918639574286178 0 -0.27122970971307259 0.35575479558231748 0 -0.28320193204293082 0.36922425145744547 0 -0.29453921815798861 0.35209567588234042 0 -0.27122970971307259 0.35575479558231748 0 -0.29453921815798861 0.35209567588234042 0 -0.28118535509976428 0.34310148712515143 0 -0.27122970971307259 0.35575479558231748 0 -0.29453921815798861 0.35209567588234042 0 -0.29453921815798861 0.35209567588234042 0 -0.31784872660290381 0.34843655618235869 0 -0.29806924234752907 0.33508812564789509 0 -0.29453921815798861 0.35209567588234042 0 -0.31784872660290381 0.34843655618235869 0 -0.29453921815798861 0.35209567588234042 0 -0.3196886791251769 0.36198191611261821 0 -0.31784872660290381 0.34843655618235869 0 -0.3196886791251769 0.36198191611261821 0 -0.31685578826657729 0.38075088796928641 0 -0.29821912320253569 0.37918639574286178 0 -0.3196886791251769 0.36198191611261821 0 -0.29821912320253569 0.37918639574286178 0 -0.29453921815798861 0.35209567588234042 0 -0.3196886791251769 0.36198191611261821 0 -0.29821912320253569 0.37918639574286178 0 -0.3196886791251769 0.36198191611261821 0 -0.32962598459981662 0.37410739765998369 0 -0.31685578826657729 0.38075088796928641 0 -0.3196886791251769 0.36198191611261821 0 -0.32962598459981662 0.37410739765998369 0 -0.33588039036341227 0.36133706558619078 0 -0.33588039036341227 0.36133706558619078 0 -0.34243706503201971 0.36916861468428391 0 -0.34819284057116029 0.35871103953306999 0 -0.32962598459981662 0.37410739765998369 0 -0.34243706503201971 0.36916861468428391 0 -0.33912856949584408 0.38157856908050941 0 -0.32962598459981662 0.37410739765998369 0 -0.33588039036341227 0.36133706558619078 0 -0.34243706503201971 0.36916861468428391 0 -0.3196886791251769 0.36198191611261821 0 -0.34115823504781889 0.34477743648237541 0 -0.33588039036341227 0.36133706558619078 0 -0.34115823504781889 0.34477743648237541 0 -0.34819284057116029 0.35871103953306999 0 -0.3196886791251769 0.36198191611261821 0 -0.33588039036341227 0.36133706558619078 0 -0.34115823504781889 0.34477743648237541 0 -0.34115823504781889 0.34477743648237541 0 -0.31784872660290381 0.34843655618235869 0 -0.3196886791251769 0.36198191611261821 0 -0.34115823504781889 0.34477743648237541 0 -0.31784872660290381 0.34843655618235869 0 -0.31784872660290381 0.34843655618235869 0 -0.31697181366406268 0.32800993285751168 0 -0.32956250168912998 0.33567609446220742 0 -0.31697181366406268 0.32800993285751168 0 -0.33476907554151492 0.32188526245635851 0 -0.32956250168912998 0.33567609446220742 0 -0.31697181366406268 0.32800993285751168 0 -0.32504004410757492 0.31535118892891623 0 -0.33476907554151492 0.32188526245635851 0 -0.31697181366406268 0.32800993285751168 0 -0.33476907554151492 0.32188526245635851 0 -0.30664875768426442 0.31285521501269431 0 -0.31605787973803928 0.31368192326879413 0 -0.31697181366406268 0.32800993285751168 0 -0.31605787973803928 0.31368192326879413 0 -0.31697181366406268 0.32800993285751168 0 -0.32504004410757492 0.31535118892891623 0 -0.33430684042404829 0.31279786506034829 0 -0.33476907554151492 0.32188526245635851 0 -0.35256633741896709 0.31576059205520551 0 -0.33430684042404829 0.31279786506034829 0 -0.35256633741896709 0.31576059205520551 0 -0.33476907554151492 0.32188526245635851 0 -0.35256633741896709 0.31576059205520551 0 -0.32504004410757492 0.31535118892891623 0 -0.33430684042404829 0.31279786506034829 0 -0.33476907554151492 0.32188526245635851 0 -0.33476907554151492 0.32188526245635851 0 -0.33793340065678351 0.33216184675567939 0 -0.34624379034867009 0.32630859362177628 0 -0.34115823504781889 0.34477743648237541 0 -0.31784872660290381 0.34843655618235869 0 -0.32956250168912998 0.33567609446220742 0 -0.34115823504781889 0.34477743648237541 0 -0.33793340065678351 0.33216184675567939 0 -0.34624379034867009 0.32630859362177628 0 -0.33476907554151492 0.32188526245635851 0 -0.32956250168912998 0.33567609446220742 0 -0.33793340065678351 0.33216184675567939 0 -0.34115823504781889 0.34477743648237541 0 -0.32956250168912998 0.33567609446220742 0 -0.33793340065678351 0.33216184675567939 0 -0.34115823504781889 0.34477743648237541 0 -0.36466620146147338 0.34108716290951352 0 -0.34115823504781889 0.34477743648237541 0 -0.35717519838347422 0.33194235407826861 0 -0.34115823504781889 0.34477743648237541 0 -0.35717519838347422 0.33194235407826861 0 -0.36466620146147338 0.34108716290951352 0 -0.34115823504781889 0.34477743648237541 0 -0.35717519838347422 0.33194235407826861 0 -0.34624379034867009 0.32630859362177628 0 -0.35717519838347422 0.33194235407826861 0 -0.34624379034867009 0.32630859362177628 0 -0.35256633741896709 0.31576059205520551 0 -0.33476907554151492 0.32188526245635851 0 -0.34624379034867009 0.32630859362177628 0 -0.35256633741896709 0.31576059205520551 0 -0.35717519838347422 0.33194235407826861 0 -0.37319216171912978 0.31910727167416209 0 -0.3727017644312226 0.30883127592299819 0 -0.35256633741896709 0.31576059205520551 0 -0.37319216171912978 0.31910727167416209 0 -0.35717519838347422 0.33194235407826861 0 -0.35256633741896709 0.31576059205520551 0 -0.37319216171912978 0.31910727167416209 0 -0.35717519838347422 0.33194235407826861 0 -0.37319216171912978 0.31910727167416209 0 -0.36888756997622801 0.33013130359531923 0 -0.35256633741896709 0.31576059205520551 0 -0.37319216171912978 0.31910727167416209 0 -0.37892072672623811 0.33022566068961989 0 -0.37319216171912978 0.31910727167416209 0 -0.36888756997622801 0.33013130359531923 0 -0.35717519838347422 0.33194235407826861 0 -0.36466620146147338 0.34108716290951352 0 -0.36888756997622801 0.33013130359531923 0 -0.37892072672623811 0.33022566068961989 0 -0.36466620146147338 0.34108716290951352 0 -0.36888756997622801 0.33013130359531923 0 -0.3785908648924512 0.34815308868201028 0 -0.36466620146147338 0.34108716290951352 0 -0.3689187022479119 0.3525043622488932 0 -0.36466620146147338 0.34108716290951352 0 -0.3689187022479119 0.3525043622488932 0 -0.35643609263032788 0.35126674832233762 0 -0.3689187022479119 0.3525043622488932 0 -0.35643609263032788 0.35126674832233762 0 -0.35924448382327501 0.35925374043783598 0 -0.3689187022479119 0.3525043622488932 0 -0.36968375071915682 0.36508379924367751 0 -0.35924448382327501 0.35925374043783598 0 -0.38092249945398943 0.35886446663359478 0 -0.3689187022479119 0.3525043622488932 0 -0.36968375071915682 0.36508379924367751 0 -0.38473487600604839 0.37291704145495369 0 -0.36968375071915682 0.36508379924367751 0 -0.3699864109590707 0.37741506647222678 0 -0.36968375071915682 0.36508379924367751 0 -0.35497905310493949 0.37322639921838119 0 -0.3699864109590707 0.37741506647222678 0 -0.36968375071915682 0.36508379924367751 0 -0.35497905310493949 0.37322639921838119 0 -0.35924448382327501 0.35925374043783598 0 -0.35497905310493949 0.37322639921838119 0 -0.34819284057116029 0.35871103953306999 0 -0.35924448382327501 0.35925374043783598 0 -0.34243706503201971 0.36916861468428391 0 -0.35497905310493949 0.37322639921838119 0 -0.33912856949584408 0.38157856908050941 0 -0.34243706503201971 0.36916861468428391 0 -0.35497905310493949 0.37322639921838119 0 -0.34819284057116029 0.35871103953306999 0 -0.34115823504781889 0.34477743648237541 0 -0.34819284057116029 0.35871103953306999 0 -0.35643609263032788 0.35126674832233762 0 -0.34115823504781889 0.34477743648237541 0 -0.36466620146147338 0.34108716290951352 0 -0.35643609263032788 0.35126674832233762 0 -0.34819284057116029 0.35871103953306999 0 -0.35643609263032788 0.35126674832233762 0 -0.35924448382327501 0.35925374043783598 0 -0.35867815291110811 0.40098893511629929 0 -0.35025570333241318 0.40927674511195822 0 -0.34009656096812402 0.39828070959130518 0 -0.35867815291110811 0.40098893511629929 0 -0.35014979929907702 0.3880810179984166 0 -0.34009656096812402 0.39828070959130518 0 -0.35867815291110811 0.40098893511629929 0 -0.35014979929907702 0.3880810179984166 0 -0.36306968288600638 0.38821318682019118 0 -0.35497905310493949 0.37322639921838119 0 -0.35014979929907702 0.3880810179984166 0 -0.33912856949584408 0.38157856908050941 0 -0.35497905310493949 0.37322639921838119 0 -0.35014979929907702 0.3880810179984166 0 -0.36306968288600638 0.38821318682019118 0 -0.37972885165370901 0.38715201548729872 0 -0.36306968288600638 0.38821318682019118 0 -0.3699864109590707 0.37741506647222678 0 -0.35497905310493949 0.37322639921838119 0 -0.36306968288600638 0.38821318682019118 0 -0.3699864109590707 0.37741506647222678 0 -0.37972885165370901 0.38715201548729872 0 -0.36306968288600638 0.38821318682019118 0 -0.37131714700829549 0.39748888062532062 0 -0.35867815291110811 0.40098893511629929 0 -0.36306968288600638 0.38821318682019118 0 -0.37131714700829549 0.39748888062532062 0 -0.35867815291110811 0.40098893511629929 0 -0.37131714700829549 0.39748888062532062 0 -0.37262694462895762 0.40953714644184108 0 -0.35867815291110811 0.40098893511629929 0 -0.37262694462895762 0.40953714644184108 0 -0.36419141706618691 0.41889087166826611 0 -0.38224422239727329 0.41759015990180209 0 -0.37262694462895762 0.40953714644184108 0 -0.36419141706618691 0.41889087166826611 0 -0.37725777757625412 0.43344442267531541 0 -0.36419141706618691 0.41889087166826611 0 -0.35941404467654042 0.43653910209162211 0 -0.37725777757625412 0.43344442267531541 0 -0.38224422239727329 0.41759015990180209 0 -0.36419141706618691 0.41889087166826611 0 -0.35941404467654042 0.43653910209162211 0 -0.34890436281983361 0.42492690405133532 0 -0.34478760235302319 0.4418110738999646 0 -0.36419141706618691 0.41889087166826611 0 -0.35941404467654042 0.43653910209162211 0 -0.34890436281983361 0.42492690405133532 0 -0.34890436281983361 0.42492690405133532 0 -0.35025570333241318 0.40927674511195822 0 -0.33990390352636768 0.41535740287184142 0 -0.35867815291110811 0.40098893511629929 0 -0.36419141706618691 0.41889087166826611 0 -0.35025570333241318 0.40927674511195822 0 -0.36419141706618691 0.41889087166826611 0 -0.34890436281983361 0.42492690405133532 0 -0.35025570333241318 0.40927674511195822 0 -0.35025570333241318 0.40927674511195822 0 -0.33990390352636768 0.41535740287184142 0 -0.34009656096812402 0.39828070959130518 0 -0.33990390352636768 0.41535740287184142 0 -0.33130921891247261 0.40777639588981651 0 -0.34009656096812402 0.39828070959130518 0 -0.33990390352636768 0.41535740287184142 0 -0.333445920930724 0.42951033619747858 0 -0.32560061651747141 0.41804303530043968 0 -0.33990390352636768 0.41535740287184142 0 -0.33130921891247261 0.40777639588981651 0 -0.32560061651747141 0.41804303530043968 0 -0.34890436281983361 0.42492690405133532 0 -0.333445920930724 0.42951033619747858 0 -0.34478760235302319 0.4418110738999646 0 -0.34890436281983361 0.42492690405133532 0 -0.33990390352636768 0.41535740287184142 0 -0.333445920930724 0.42951033619747858 0 -0.333445920930724 0.42951033619747858 0 -0.31767959097266357 0.42639711095597632 0 -0.32566336501616833 0.44464325203482952 0 -0.31767959097266357 0.42639711095597632 0 -0.3032068423967299 0.43381803429725418 0 -0.32566336501616833 0.44464325203482952 0 -0.333445920930724 0.42951033619747858 0 -0.31767959097266357 0.42639711095597632 0 -0.32560061651747141 0.41804303530043968 0 -0.33130921891247261 0.40777639588981651 0 -0.32560061651747141 0.41804303530043968 0 -0.31504407357977959 0.41224592476014521 0 -0.33130921891247261 0.40777639588981651 0 -0.31504407357977959 0.41224592476014521 0 -0.32389121778136343 0.39928057674076978 0 -0.31767959097266357 0.42639711095597632 0 -0.32560061651747141 0.41804303530043968 0 -0.31504407357977959 0.41224592476014521 0 -0.31504407357977959 0.41224592476014521 0 -0.31259789595145571 0.39588437185759812 0 -0.32389121778136343 0.39928057674076978 0 -0.31259789595145571 0.39588437185759812 0 -0.32389121778136343 0.39928057674076978 0 -0.32778411457749279 0.38868580327777441 0 -0.32389121778136343 0.39928057674076978 0 -0.34009656096812402 0.39828070959130518 0 -0.32778411457749279 0.38868580327777441 0 -0.33130921891247261 0.40777639588981651 0 -0.32389121778136343 0.39928057674076978 0 -0.34009656096812402 0.39828070959130518 0 -0.35014979929907702 0.3880810179984166 0 -0.34009656096812402 0.39828070959130518 0 -0.33912856949584408 0.38157856908050941 0 -0.34009656096812402 0.39828070959130518 0 -0.33912856949584408 0.38157856908050941 0 -0.32778411457749279 0.38868580327777441 0 -0.32962598459981662 0.37410739765998369 0 -0.33912856949584408 0.38157856908050941 0 -0.32778411457749279 0.38868580327777441 0 -0.32962598459981662 0.37410739765998369 0 -0.32778411457749279 0.38868580327777441 0 -0.31685578826657729 0.38075088796928641 0 -0.31259789595145571 0.39588437185759812 0 -0.32778411457749279 0.38868580327777441 0 -0.31685578826657729 0.38075088796928641 0 -0.31259789595145571 0.39588437185759812 0 -0.31685578826657729 0.38075088796928641 0 -0.29821912320253569 0.37918639574286178 0 -0.31259789595145571 0.39588437185759812 0 -0.29557964629285338 0.39799531273008149 0 -0.3017531471534648 0.40934319044674661 0 -0.31259789595145571 0.39588437185759812 0 -0.29821912320253569 0.37918639574286178 0 -0.29557964629285338 0.39799531273008149 0 -0.31504407357977959 0.41224592476014521 0 -0.31259789595145571 0.39588437185759812 0 -0.3017531471534648 0.40934319044674661 0 -0.29821912320253569 0.37918639574286178 0 -0.29557964629285338 0.39799531273008149 0 -0.27674956727989458 0.39639087537310558 0 -0.29557964629285338 0.39799531273008149 0 -0.27674956727989458 0.39639087537310558 0 -0.28668751271846721 0.40841889620721911 0 -0.29557964629285338 0.39799531273008149 0 -0.28668751271846721 0.40841889620721911 0 -0.3017531471534648 0.40934319044674661 0 -0.28320193204293082 0.36922425145744547 0 -0.29821912320253569 0.37918639574286178 0 -0.27229149376590361 0.38356728759665848 0 -0.29821912320253569 0.37918639574286178 0 -0.27674956727989458 0.39639087537310558 0 -0.29821912320253569 0.37918639574286178 0 -0.27229149376590361 0.38356728759665848 0 -0.27674956727989458 0.39639087537310558 0 -0.27229149376590361 0.38356728759665848 0 -0.26425798628475949 0.39886374654896423 0 -0.27335327781873497 0.41137977961099947 0 -0.27229149376590361 0.38356728759665848 0 -0.27674956727989458 0.39639087537310558 0 -0.27335327781873497 0.41137977961099947 0 -0.27229149376590361 0.38356728759665848 0 -0.27335327781873497 0.41137977961099947 0 -0.27674956727989458 0.39639087537310558 0 -0.27335327781873497 0.41137977961099947 0 -0.28668751271846721 0.40841889620721911 0 -0.27229149376590361 0.38356728759665848 0 -0.26425798628475949 0.39886374654896423 0 -0.26089971276328833 0.38953383578087181 0 -0.26425798628475949 0.39886374654896423 0 -0.25359904242262599 0.39648249569024879 0 -0.26089971276328833 0.38953383578087181 0 -0.26425798628475949 0.39886374654896423 0 -0.25359904242262599 0.39648249569024879 0 -0.26193838839515837 0.41102331500284067 0 -0.25359904242262599 0.39648249569024879 0 -0.26089971276328833 0.38953383578087181 0 -0.24980757689420091 0.38817448546447791 0 -0.27229149376590361 0.38356728759665848 0 -0.25625490738993473 0.37969005217330459 0 -0.26089971276328833 0.38953383578087181 0 -0.25625490738993473 0.37969005217330459 0 -0.26089971276328833 0.38953383578087181 0 -0.24980757689420091 0.38817448546447791 0 -0.26081078885774162 0.36913593397022759 0 -0.27229149376590361 0.38356728759665848 0 -0.25625490738993473 0.37969005217330459 0 -0.25625490738993473 0.37969005217330459 0 -0.24637633215159119 0.37853607661088812 0 -0.24879224663555319 0.36844123118380262 0 -0.25625490738993473 0.37969005217330459 0 -0.24637633215159119 0.37853607661088812 0 -0.24980757689420091 0.38817448546447791 0 -0.25267333870802228 0.42236187176768752 0 -0.26580829674164919 0.42602868139630318 0 -0.25174763499341851 0.44824124784512631 0 -0.25267333870802228 0.42236187176768752 0 -0.25174763499341851 0.44824124784512631 0 -0.25359904242262599 0.39648249569024879 0 -0.25267333870802228 0.42236187176768752 0 -0.26193838839515837 0.41102331500284067 0 -0.25359904242262599 0.39648249569024879 0 -0.25267333870802228 0.42236187176768752 0 -0.25267333870802228 0.42236187176768752 0 -0.26193838839515837 0.41102331500284067 0 -0.26580829674164919 0.42602868139630318 0 -0.26193838839515837 0.41102331500284067 0 -0.27335327781873497 0.41137977961099947 0 -0.26580829674164919 0.42602868139630318 0 -0.26425798628475949 0.39886374654896423 0 -0.26193838839515837 0.41102331500284067 0 -0.27335327781873497 0.41137977961099947 0 -0.27335327781873497 0.41137977961099947 0 -0.28331387667111579 0.42313147323696032 0 -0.28668751271846721 0.40841889620721911 0 -0.27335327781873497 0.41137977961099947 0 -0.28331387667111579 0.42313147323696032 0 -0.2744150618715665 0.43919227162534041 0 -0.28450279098558551 0.43672729992042553 0 -0.28331387667111579 0.42313147323696032 0 -0.2744150618715665 0.43919227162534041 0 -0.27335327781873497 0.41137977961099947 0 -0.26580829674164919 0.42602868139630318 0 -0.2744150618715665 0.43919227162534041 0 -0.27335327781873497 0.41137977961099947 0 -0.2744150618715665 0.43919227162534041 0 -0.28450279098558551 0.43672729992042553 0 -0.2924818112863582 0.42676921917890481 0 -0.3032068423967299 0.43381803429725418 0 -0.28450279098558551 0.43672729992042553 0 -0.28331387667111579 0.42313147323696032 0 -0.2924818112863582 0.42676921917890481 0 -0.28331387667111579 0.42313147323696032 0 -0.2924818112863582 0.42676921917890481 0 -0.2923418658786085 0.41749763093600117 0 -0.28331387667111579 0.42313147323696032 0 -0.28668751271846721 0.40841889620721911 0 -0.2923418658786085 0.41749763093600117 0 -0.2924818112863582 0.42676921917890481 0 -0.2923418658786085 0.41749763093600117 0 -0.30375122187793402 0.42101185176250472 0 -0.28668751271846721 0.40841889620721911 0 -0.2923418658786085 0.41749763093600117 0 -0.3017531471534648 0.40934319044674661 0 -0.2923418658786085 0.41749763093600117 0 -0.3017531471534648 0.40934319044674661 0 -0.30375122187793402 0.42101185176250472 0 -0.31767959097266357 0.42639711095597632 0 -0.31504407357977959 0.41224592476014521 0 -0.30375122187793402 0.42101185176250472 0 -0.31504407357977959 0.41224592476014521 0 -0.3017531471534648 0.40934319044674661 0 -0.30375122187793402 0.42101185176250472 0 -0.2924818112863582 0.42676921917890481 0 -0.30375122187793402 0.42101185176250472 0 -0.3032068423967299 0.43381803429725418 0 -0.31767959097266357 0.42639711095597632 0 -0.30375122187793402 0.42101185176250472 0 -0.3032068423967299 0.43381803429725418 0 -0.3032068423967299 0.43381803429725418 0 -0.3072133725044639 0.45231811759849122 0 -0.32566336501616833 0.44464325203482952 0 -0.28450279098558551 0.43672729992042553 0 -0.3032068423967299 0.43381803429725418 0 -0.3072133725044639 0.45231811759849122 0 -0.3072133725044639 0.45231811759849122 0 -0.29667255525901087 0.4761006586452422 0 -0.3299239540233424 0.46790893527655691 0 -0.3072133725044639 0.45231811759849122 0 -0.28765612530900492 0.45426862228583598 0 -0.29667255525901087 0.4761006586452422 0 -0.28765612530900492 0.45426862228583598 0 -0.27547684592439792 0.46700476363968119 0 -0.29667255525901087 0.4761006586452422 0 -0.28450279098558551 0.43672729992042553 0 -0.3072133725044639 0.45231811759849122 0 -0.28450279098558551 0.43672729992042553 0 -0.28765612530900492 0.45426862228583598 0 -0.2744150618715665 0.43919227162534041 0 -0.28450279098558551 0.43672729992042553 0 -0.3072133725044639 0.45231811759849122 0 -0.28765612530900492 0.45426862228583598 0 -0.2744150618715665 0.43919227162534041 0 -0.27547684592439792 0.46700476363968119 0 -0.28765612530900492 0.45426862228583598 0 -0.2744150618715665 0.43919227162534041 0 -0.27547684592439792 0.46700476363968119 0 -0.2744150618715665 0.43919227162534041 0 -0.27547684592439792 0.46700476363968119 0 -0.26311536851704942 0.45713972675817821 0 -0.27547684592439792 0.46700476363968119 0 -0.26311536851704942 0.45713972675817821 0 -0.25082193127881469 0.47412062392256488 0 -0.25174763499341851 0.44824124784512631 0 -0.25082193127881469 0.47412062392256488 0 -0.26311536851704942 0.45713972675817821 0 -0.25174763499341851 0.44824124784512631 0 -0.25082193127881469 0.47412062392256488 0 -0.2744150618715665 0.43919227162534041 0 -0.26311536851704942 0.45713972675817821 0 -0.25174763499341851 0.44824124784512631 0 -0.26580829674164919 0.42602868139630318 0 -0.2744150618715665 0.43919227162534041 0 -0.25174763499341851 0.44824124784512631 0 -0.25082193127881469 0.47412062392256488 0 -0.26699693104293809 0.48389359499548001 0 -0.24989622756421079 0.50000000000000366 0 -0.26699693104293809 0.48389359499548001 0 -0.27688254173686011 0.5 0 -0.24989622756421079 0.50000000000000366 0 -0.25082193127881469 0.47412062392256488 0 -0.24989622756421079 0.50000000000000366 0 -0.27547684592439792 0.46700476363968119 0 -0.25082193127881469 0.47412062392256488 0 -0.26699693104293809 0.48389359499548001 0 -0.27547684592439792 0.46700476363968119 0 -0.26699693104293809 0.48389359499548001 0 -0.29667255525901087 0.4761006586452422 0 -0.26699693104293809 0.48389359499548001 0 -0.27688254173686011 0.5 0 -0.29667255525901087 0.4761006586452422 0 -0.27688254173686011 0.5 0 -0.29667255525901087 0.4761006586452422 0 -0.30386885590950952 0.5 0 -0.29667255525901087 0.4761006586452422 0 -0.30386885590950952 0.5 0 -0.3194084581205327 0.48556186647678051 0 -0.29667255525901087 0.4761006586452422 0 -0.3194084581205327 0.48556186647678051 0 -0.3299239540233424 0.46790893527655691 0 -0.30386885590950952 0.5 0 -0.3194084581205327 0.48556186647678051 0 -0.33085517008215881 0.5 0 -0.33085517008215881 0.5 0 -0.33572175532864212 0.48379973846210378 0 -0.35784148425480811 0.5 0 -0.3194084581205327 0.48556186647678051 0 -0.33085517008215881 0.5 0 -0.33572175532864212 0.48379973846210378 0 -0.33572175532864212 0.48379973846210378 0 -0.3299239540233424 0.46790893527655691 0 -0.35263453554222102 0.48349975295462261 0 -0.3299239540233424 0.46790893527655691 0 -0.35263453554222102 0.48349975295462261 0 -0.3194084581205327 0.48556186647678051 0 -0.33572175532864212 0.48379973846210378 0 -0.3299239540233424 0.46790893527655691 0 -0.3072133725044639 0.45231811759849122 0 -0.3299239540233424 0.46790893527655691 0 -0.3072133725044639 0.45231811759849122 0 -0.32566336501616833 0.44464325203482952 0 -0.3299239540233424 0.46790893527655691 0 -0.32566336501616833 0.44464325203482952 0 -0.34207775840022081 0.45608674279286082 0 -0.34478760235302319 0.4418110738999646 0 -0.333445920930724 0.42951033619747858 0 -0.32566336501616833 0.44464325203482952 0 -0.34478760235302319 0.4418110738999646 0 -0.32566336501616833 0.44464325203482952 0 -0.34207775840022081 0.45608674279286082 0 -0.3299239540233424 0.46790893527655691 0 -0.34207775840022081 0.45608674279286082 0 -0.3299239540233424 0.46790893527655691 0 -0.35225348634571452 0.47022880031607123 0 -0.34207775840022081 0.45608674279286082 0 -0.35776038426285572 0.45584165243688157 0 -0.35225348634571452 0.47022880031607123 0 -0.35776038426285572 0.45584165243688157 0 -0.3660627805748764 0.47068731492991239 0 -0.35225348634571452 0.47022880031607123 0 -0.35941404467654042 0.43653910209162211 0 -0.35776038426285572 0.45584165243688157 0 -0.34478760235302319 0.4418110738999646 0 -0.34207775840022081 0.45608674279286082 0 -0.35776038426285572 0.45584165243688157 0 -0.34478760235302319 0.4418110738999646 0 -0.37725777757625412 0.43344442267531541 0 -0.35941404467654042 0.43653910209162211 0 -0.36972833167532548 0.44672894741451702 0 -0.35941404467654042 0.43653910209162211 0 -0.35776038426285572 0.45584165243688157 0 -0.36972833167532548 0.44672894741451702 0 -0.35776038426285572 0.45584165243688157 0 -0.37233533601448809 0.46031367839212439 0 -0.3660627805748764 0.47068731492991239 0 -0.35776038426285572 0.45584165243688157 0 -0.36972833167532548 0.44672894741451702 0 -0.37233533601448809 0.46031367839212439 0 -0.37796734355910272 0.47293612834561438 0 -0.37233533601448809 0.46031367839212439 0 -0.3660627805748764 0.47068731492991239 0 -0.37796734355910272 0.47293612834561438 0 -0.3660627805748764 0.47068731492991239 0 -0.37225706123870639 0.48100674866295301 0 -0.3660627805748764 0.47068731492991239 0 -0.36375299173876041 0.48269599028036902 0 -0.35225348634571452 0.47022880031607123 0 -0.3660627805748764 0.47068731492991239 0 -0.36375299173876041 0.48269599028036902 0 -0.37225706123870639 0.48100674866295301 0 -0.38665123452756622 0.49723461666833102 0 -0.36148835645502531 0.49446923333666221 0 -0.37638951432927531 0.48840212903384927 0 -0.37225706123870639 0.48100674866295301 0 -0.369152346519662 0.48948878099050602 0 -0.38665123452756622 0.49723461666833102 0 -0.369152346519662 0.48948878099050602 0 -0.36148835645502531 0.49446923333666221 0 -0.36375299173876041 0.48269599028036902 0 -0.37225706123870639 0.48100674866295301 0 -0.369152346519662 0.48948878099050602 0 -0.38482779842745751 0.5 0 -0.36148835645502531 0.49446923333666221 0 -0.35784148425480811 0.5 0 -0.36375299173876041 0.48269599028036902 0 -0.369152346519662 0.48948878099050602 0 -0.36148835645502531 0.49446923333666221 0 -0.36375299173876041 0.48269599028036902 0 -0.36148835645502531 0.49446923333666221 0 -0.35263453554222102 0.48349975295462261 0 -0.36148835645502531 0.49446923333666221 0 -0.35784148425480811 0.5 0 -0.35263453554222102 0.48349975295462261 0 -0.33572175532864212 0.48379973846210378 0 -0.35784148425480811 0.5 0 -0.35263453554222102 0.48349975295462261 0 -0.3299239540233424 0.46790893527655691 0 -0.35225348634571452 0.47022880031607123 0 -0.35263453554222102 0.48349975295462261 0 -0.36375299173876041 0.48269599028036902 0 -0.35225348634571452 0.47022880031607123 0 -0.35263453554222102 0.48349975295462261 0 -0.14432612710773671 0.49999999999999972 0 -0.13373884339090261 0.47557617957858389 0 -0.16031113544803841 0.47716579440884582 0 -0.13373884339090261 0.47557617957858389 0 -0.15132814795883939 0.45559544022052489 0 -0.16031113544803841 0.47716579440884582 0 -0.14432612710773671 0.49999999999999972 0 -0.16031113544803841 0.47716579440884582 0 -0.14432612710773671 0.49999999999999972 0 -0.13373884339090261 0.47557617957858389 0 -0.11535377291377789 0.5 0 -0.13373884339090261 0.47557617957858389 0 -0.13088558583442089 0.45167413568938708 0 -0.15132814795883939 0.45559544022052489 0 -0.13373884339090261 0.47557617957858389 0 -0.13088558583442089 0.45167413568938708 0 -0.1109696719261383 0.45974829439590398 0 -0.13088558583442089 0.45167413568938708 0 -0.14234516046963999 0.43402508603220419 0 -0.1189282844760139 0.43536593157966708 0 -0.15132814795883939 0.45559544022052489 0 -0.14234516046963999 0.43402508603220419 0 -0.15132814795883939 0.45559544022052489 0 -0.16413923492203969 0.438685196425803 0 -0.14234516046963999 0.43402508603220419 0 -0.13088558583442089 0.45167413568938708 0 -0.15132814795883939 0.45559544022052489 0 -0.14234516046963999 0.43402508603220419 0 -0.15132814795883939 0.45559544022052489 0 -0.16031113544803841 0.47716579440884582 0 -0.15132814795883939 0.45559544022052489 0 -0.17210906081328031 0.46031273761938768 0 -0.16031113544803841 0.47716579440884582 0 -0.17210906081328031 0.46031273761938768 0 -0.16031113544803841 0.47716579440884582 0 -0.15132814795883939 0.45559544022052489 0 -0.16413923492203969 0.438685196425803 0 -0.17210906081328031 0.46031273761938768 0 -0.16413923492203969 0.438685196425803 0 -0.183906986178523 0.44345968082993009 0 -0.17210906081328031 0.46031273761938768 0 -0.183906986178523 0.44345968082993009 0 -0.17210906081328031 0.46031273761938768 0 -0.19450382052722501 0.45356588439157219 0 -0.183906986178523 0.44345968082993009 0 -0.17210906081328031 0.46031273761938768 0 -0.17210906081328031 0.46031273761938768 0 -0.19450382052722501 0.45356588439157219 0 -0.18978959321759539 0.4678720334394712 0 -0.17210906081328031 0.46031273761938768 0 -0.17767989789199201 0.47301476110769808 0 -0.18978959321759539 0.4678720334394712 0 -0.1841109986086005 0.48167500678729502 0 -0.17767989789199201 0.47301476110769808 0 -0.18978959321759539 0.4678720334394712 0 -0.1841109986086005 0.48167500678729502 0 -0.1719792169982137 0.48344157087583461 0 -0.17767989789199201 0.47301476110769808 0 -0.17210906081328031 0.46031273761938768 0 -0.17767989789199201 0.47301476110769808 0 -0.16031113544803841 0.47716579440884582 0 -0.1719792169982137 0.48344157087583461 0 -0.17767989789199201 0.47301476110769808 0 -0.16031113544803841 0.47716579440884582 0 -0.16031113544803841 0.47716579440884582 0 -0.16939819462334901 0.49898605021765541 0 -0.1719792169982137 0.48344157087583461 0 -0.16031113544803841 0.47716579440884582 0 -0.16939819462334901 0.49898605021765541 0 -0.14432612710773671 0.49999999999999972 0 -0.16031113544803841 0.47716579440884582 0 -0.16939819462334901 0.49898605021765541 0 -0.17565107754167961 0.49220976241087411 0 -0.1971111773359738 0.5 0 -0.18913838998765781 0.48955618239374421 0 -0.16939819462334901 0.49898605021765541 0 -0.17565107754167961 0.49220976241087411 0 -0.1971111773359738 0.5 0 -0.1841109986086005 0.48167500678729502 0 -0.1719792169982137 0.48344157087583461 0 -0.17565107754167961 0.49220976241087411 0 -0.1719792169982137 0.48344157087583461 0 -0.16939819462334901 0.49898605021765541 0 -0.17565107754167961 0.49220976241087411 0 -0.1841109986086005 0.48167500678729502 0 -0.17565107754167961 0.49220976241087411 0 -0.18913838998765781 0.48955618239374421 0 -0.1971111773359738 0.5 0 -0.18913838998765781 0.48955618239374421 0 -0.19968030646437751 0.48433996037680749 0 -0.1841109986086005 0.48167500678729502 0 -0.18913838998765781 0.48955618239374421 0 -0.19968030646437751 0.48433996037680749 0 -0.1841109986086005 0.48167500678729502 0 -0.19968030646437751 0.48433996037680749 0 -0.18978959321759539 0.4678720334394712 0 -0.19968030646437751 0.48433996037680749 0 -0.2089563746461808 0.4559221373664939 0 -0.18978959321759539 0.4678720334394712 0 -0.19968030646437751 0.48433996037680749 0 -0.2222347760603739 0.47597928282186619 0 -0.2089563746461808 0.4559221373664939 0 -0.19968030646437751 0.48433996037680749 0 -0.2089563746461808 0.4559221373664939 0 -0.19968030646437751 0.48433996037680749 0 -0.2235037024500923 0.5 0 -0.2222347760603739 0.47597928282186619 0 -0.1971111773359738 0.5 0 -0.19968030646437751 0.48433996037680749 0 -0.2235037024500923 0.5 0 -0.2235037024500923 0.5 0 -0.2222347760603739 0.47597928282186619 0 -0.2366141593383729 0.48752497668610778 0 -0.25082193127881469 0.47412062392256488 0 -0.2222347760603739 0.47597928282186619 0 -0.2366141593383729 0.48752497668610778 0 -0.25082193127881469 0.47412062392256488 0 -0.2222347760603739 0.47597928282186619 0 -0.2326865391035646 0.45753016393077878 0 -0.25082193127881469 0.47412062392256488 0 -0.2366141593383729 0.48752497668610778 0 -0.24989622756421079 0.50000000000000366 0 -0.2235037024500923 0.5 0 -0.2366141593383729 0.48752497668610778 0 -0.24989622756421079 0.50000000000000366 0 -0.25174763499341851 0.44824124784512631 0 -0.23534300399315899 0.44085574603673122 0 -0.2326865391035646 0.45753016393077878 0 -0.25174763499341851 0.44824124784512631 0 -0.23534300399315899 0.44085574603673122 0 -0.24101400311090229 0.42843677407949432 0 -0.25174763499341851 0.44824124784512631 0 -0.25082193127881469 0.47412062392256488 0 -0.2326865391035646 0.45753016393077878 0 -0.2222347760603739 0.47597928282186619 0 -0.2326865391035646 0.45753016393077878 0 -0.2089563746461808 0.4559221373664939 0 -0.2326865391035646 0.45753016393077878 0 -0.22247309730019399 0.44429169682479352 0 -0.2089563746461808 0.4559221373664939 0 -0.23534300399315899 0.44085574603673122 0 -0.2326865391035646 0.45753016393077878 0 -0.22247309730019399 0.44429169682479352 0 -0.23534300399315899 0.44085574603673122 0 -0.22247309730019399 0.44429169682479352 0 -0.23000320748332401 0.4310545908855633 0 -0.2089563746461808 0.4559221373664939 0 -0.20510375060036731 0.43131386872053068 0 -0.21823244282798421 0.42750431435618019 0 -0.22247309730019399 0.44429169682479352 0 -0.2089563746461808 0.4559221373664939 0 -0.21823244282798421 0.42750431435618019 0 -0.2089563746461808 0.4559221373664939 0 -0.21823244282798421 0.42750431435618019 0 -0.2089563746461808 0.4559221373664939 0 -0.19763516869921241 0.4421736390697999 0 -0.20510375060036731 0.43131386872053068 0 -0.2089563746461808 0.4559221373664939 0 -0.19450382052722501 0.45356588439157219 0 -0.18978959321759539 0.4678720334394712 0 -0.2089563746461808 0.4559221373664939 0 -0.19450382052722501 0.45356588439157219 0 -0.19763516869921241 0.4421736390697999 0 -0.183906986178523 0.44345968082993009 0 -0.19450382052722501 0.45356588439157219 0 -0.19763516869921241 0.4421736390697999 0 -0.183906986178523 0.44345968082993009 0 -0.19763516869921241 0.4421736390697999 0 -0.1957049115437656 0.42660662404047273 0 -0.183906986178523 0.44345968082993009 0 -0.1957049115437656 0.42660662404047273 0 -0.1957049115437656 0.42660662404047273 0 -0.20510375060036731 0.43131386872053068 0 -0.1957049115437656 0.42660662404047273 0 -0.1991856642614912 0.42163445127230892 0 -0.20496866879013961 0.42474756361488708 0 -0.1957049115437656 0.42660662404047273 0 -0.20510375060036731 0.43131386872053068 0 -0.20496866879013961 0.42474756361488708 0 -0.1957049115437656 0.42660662404047273 0 -0.1991856642614912 0.42163445127230892 0 -0.19763516869921241 0.4421736390697999 0 -0.1957049115437656 0.42660662404047273 0 -0.20510375060036731 0.43131386872053068 0 -0.1957049115437656 0.42660662404047273 0 -0.19286600652461569 0.41477479888712843 0 -0.1766359139965622 0.41705624907207961 0 -0.19286600652461569 0.41477479888712843 0 -0.19657015628227739 0.40421968270018682 0 -0.18539296701000221 0.40624671435894472 0 -0.19286600652461569 0.41477479888712843 0 -0.1991856642614912 0.42163445127230892 0 -0.20370642605359529 0.41288507187877821 0 -0.1957049115437656 0.42660662404047273 0 -0.19286600652461569 0.41477479888712843 0 -0.1991856642614912 0.42163445127230892 0 -0.20370642605359529 0.41288507187877821 0 -0.2076276397280456 0.40438170235193499 0 -0.19657015628227739 0.40421968270018682 0 -0.19286600652461569 0.41477479888712843 0 -0.20370642605359529 0.41288507187877821 0 -0.19657015628227739 0.40421968270018682 0 -0.20996709400075911 0.420487240241044 0 -0.21381238253947951 0.41071331612281298 0 -0.21823244282798421 0.42750431435618019 0 -0.20370642605359529 0.41288507187877821 0 -0.21381238253947951 0.41071331612281298 0 -0.2076276397280456 0.40438170235193499 0 -0.1991856642614912 0.42163445127230892 0 -0.20370642605359529 0.41288507187877821 0 -0.20996709400075911 0.420487240241044 0 -0.20370642605359529 0.41288507187877821 0 -0.20996709400075911 0.420487240241044 0 -0.21381238253947951 0.41071331612281298 0 -0.20510375060036731 0.43131386872053068 0 -0.20496866879013961 0.42474756361488708 0 -0.21823244282798421 0.42750431435618019 0 -0.1991856642614912 0.42163445127230892 0 -0.20996709400075911 0.420487240241044 0 -0.20496866879013961 0.42474756361488708 0 -0.20996709400075911 0.420487240241044 0 -0.20496866879013961 0.42474756361488708 0 -0.21823244282798421 0.42750431435618019 0 -0.22247309730019399 0.44429169682479352 0 -0.21823244282798421 0.42750431435618019 0 -0.23000320748332401 0.4310545908855633 0 -0.21823244282798421 0.42750431435618019 0 -0.23000320748332401 0.4310545908855633 0 -0.23277374080110891 0.41652614113810582 0 -0.21823244282798421 0.42750431435618019 0 -0.23277374080110891 0.41652614113810582 0 -0.2275085110097875 0.39908649134586649 0 -0.23277374080110891 0.41652614113810582 0 -0.2373185595905957 0.4072774926954103 0 -0.2275085110097875 0.39908649134586649 0 -0.21381238253947951 0.41071331612281298 0 -0.21823244282798421 0.42750431435618019 0 -0.2275085110097875 0.39908649134586649 0 -0.21823244282798421 0.42750431435618019 0 -0.2275085110097875 0.39908649134586649 0 -0.23277374080110891 0.41652614113810582 0 -0.24354309268638119 0.41158104680375168 0 -0.24101400311090229 0.42843677407949432 0 -0.25359904242262599 0.39648249569024879 0 -0.25267333870802228 0.42236187176768752 0 -0.24354309268638119 0.41158104680375168 0 -0.25267333870802228 0.42236187176768752 0 -0.24354309268638119 0.41158104680375168 0 -0.24101400311090229 0.42843677407949432 0 -0.23277374080110891 0.41652614113810582 0 -0.2373185595905957 0.4072774926954103 0 -0.24354309268638119 0.41158104680375168 0 -0.2373185595905957 0.4072774926954103 0 -0.24354309268638119 0.41158104680375168 0 -0.2437001221017607 0.40074322345905222 0 -0.25267333870802228 0.42236187176768752 0 -0.25174763499341851 0.44824124784512631 0 -0.24101400311090229 0.42843677407949432 0 -0.23534300399315899 0.44085574603673122 0 -0.23000320748332401 0.4310545908855633 0 -0.24101400311090229 0.42843677407949432 0 -0.23000320748332401 0.4310545908855633 0 -0.23277374080110891 0.41652614113810582 0 -0.24101400311090229 0.42843677407949432 0 -0.2402423506466759 0.38570594589730262 0 -0.2275085110097875 0.39908649134586649 0 -0.23678457919159099 0.3706686683355529 0 -0.2402423506466759 0.38570594589730262 0 -0.24637633215159119 0.37853607661088812 0 -0.23678457919159099 0.3706686683355529 0 -0.2402423506466759 0.38570594589730262 0 -0.23678457919159099 0.3706686683355529 0 -0.2402423506466759 0.38570594589730262 0 -0.24637633215159119 0.37853607661088812 0 -0.24980757689420091 0.38817448546447791 0 -0.2373185595905957 0.4072774926954103 0 -0.2437001221017607 0.40074322345905222 0 -0.2275085110097875 0.39908649134586649 0 -0.2402423506466759 0.38570594589730262 0 -0.24980757689420091 0.38817448546447791 0 -0.2437001221017607 0.40074322345905222 0 -0.2402423506466759 0.38570594589730262 0 -0.2437001221017607 0.40074322345905222 0 -0.2275085110097875 0.39908649134586649 0 -0.25359904242262599 0.39648249569024879 0 -0.24980757689420091 0.38817448546447791 0 -0.2437001221017607 0.40074322345905222 0 -0.25359904242262599 0.39648249569024879 0 -0.24354309268638119 0.41158104680375168 0 -0.2437001221017607 0.40074322345905222 0 -0.2402423506466759 0.38570594589730262 0 -0.2437001221017607 0.40074322345905222 0 -0.2275085110097875 0.39908649134586649 0 -0.21998852378880171 0.38090899172599202 0 -0.21620772075668679 0.3991673082120461 0 -0.21381238253947951 0.41071331612281298 0 -0.2275085110097875 0.39908649134586649 0 -0.21620772075668679 0.3991673082120461 0 -0.2275085110097875 0.39908649134586649 0 -0.23678457919159099 0.3706686683355529 0 -0.2275085110097875 0.39908649134586649 0 -0.21998852378880171 0.38090899172599202 0 -0.23678457919159099 0.3706686683355529 0 -0.21998852378880171 0.38090899172599202 0 -0.20572833204759139 0.38042645340413628 0 -0.2128541241823538 0.36647859491925461 0 -0.21998852378880171 0.38090899172599202 0 -0.20572833204759139 0.38042645340413628 0 -0.20672045150578641 0.39339078898591079 0 -0.21998852378880171 0.38090899172599202 0 -0.21620772075668679 0.3991673082120461 0 -0.20672045150578641 0.39339078898591079 0 -0.21381238253947951 0.41071331612281298 0 -0.21620772075668679 0.3991673082120461 0 -0.2076276397280456 0.40438170235193499 0 -0.21620772075668679 0.3991673082120461 0 -0.20672045150578641 0.39339078898591079 0 -0.2076276397280456 0.40438170235193499 0 -0.20672045150578641 0.39339078898591079 0 -0.2076276397280456 0.40438170235193499 0 -0.19657015628227739 0.40421968270018682 0 -0.19657015628227739 0.40421968270018682 0 -0.19365639785219441 0.39002405158135028 0 -0.18539296701000221 0.40624671435894472 0 -0.20672045150578641 0.39339078898591079 0 -0.19657015628227739 0.40421968270018682 0 -0.19365639785219441 0.39002405158135028 0 -0.19365639785219441 0.39002405158135028 0 -0.17972258223470361 0.38007782732375511 0 -0.195422162908821 0.37132983980817402 0 -0.20572833204759139 0.38042645340413628 0 -0.19365639785219441 0.39002405158135028 0 -0.195422162908821 0.37132983980817402 0 -0.20572833204759139 0.38042645340413628 0 -0.20672045150578641 0.39339078898591079 0 -0.19365639785219441 0.39002405158135028 0 -0.19365639785219441 0.39002405158135028 0 -0.17972258223470361 0.38007782732375511 0 -0.17668541232953561 0.39762630263892912 0 -0.17972258223470361 0.38007782732375511 0 -0.16356498037513709 0.38933139449970389 0 -0.17668541232953561 0.39762630263892912 0 -0.17972258223470361 0.38007782732375511 0 -0.16356498037513709 0.38933139449970389 0 -0.1661047557574799 0.37175484221579658 0 -0.16356498037513709 0.38933139449970389 0 -0.14990491497372041 0.3830273858424641 0 -0.1661047557574799 0.37175484221579658 0 -0.16356498037513709 0.38933139449970389 0 -0.17668541232953561 0.39762630263892912 0 -0.15756691644935869 0.40750587410368672 0 -0.16356498037513709 0.38933139449970389 0 -0.15756691644935869 0.40750587410368672 0 -0.15210414491250199 0.39489535167480272 0 -0.19365639785219441 0.39002405158135028 0 -0.17668541232953561 0.39762630263892912 0 -0.18539296701000221 0.40624671435894472 0 -0.17668541232953561 0.39762630263892912 0 -0.18539296701000221 0.40624671435894472 0 -0.1766359139965622 0.41705624907207961 0 -0.1957049115437656 0.42660662404047273 0 -0.1766359139965622 0.41705624907207961 0 -0.19286600652461569 0.41477479888712843 0 -0.18539296701000221 0.40624671435894472 0 -0.1766359139965622 0.41705624907207961 0 -0.16413923492203969 0.438685196425803 0 -0.183906986178523 0.44345968082993009 0 -0.1766359139965622 0.41705624907207961 0 -0.183906986178523 0.44345968082993009 0 -0.1957049115437656 0.42660662404047273 0 -0.1766359139965622 0.41705624907207961 0 -0.16413923492203969 0.438685196425803 0 -0.1766359139965622 0.41705624907207961 0 -0.15740865177825419 0.42278428307105459 0 -0.17668541232953561 0.39762630263892912 0 -0.1766359139965622 0.41705624907207961 0 -0.15756691644935869 0.40750587410368672 0 -0.1766359139965622 0.41705624907207961 0 -0.15740865177825419 0.42278428307105459 0 -0.15756691644935869 0.40750587410368672 0 -0.1766359139965622 0.41705624907207961 0 -0.15756691644935869 0.40750587410368672 0 -0.15756691644935869 0.40750587410368672 0 -0.1463560330536704 0.41664900972149937 0 -0.13999577525351961 0.40759737184703121 0 -0.1463560330536704 0.41664900972149937 0 -0.14234516046963999 0.43402508603220419 0 -0.13336217298044059 0.41245473184388359 0 -0.15740865177825419 0.42278428307105459 0 -0.15756691644935869 0.40750587410368672 0 -0.1463560330536704 0.41664900972149937 0 -0.15740865177825419 0.42278428307105459 0 -0.1463560330536704 0.41664900972149937 0 -0.14234516046963999 0.43402508603220419 0 -0.16413923492203969 0.438685196425803 0 -0.15740865177825419 0.42278428307105459 0 -0.14234516046963999 0.43402508603220419 0 -0.14234516046963999 0.43402508603220419 0 -0.13336217298044059 0.41245473184388359 0 -0.14234516046963999 0.43402508603220419 0 -0.13336217298044059 0.41245473184388359 0 -0.1189282844760139 0.43536593157966708 0 -0.1463560330536704 0.41664900972149937 0 -0.13999577525351961 0.40759737184703121 0 -0.13336217298044059 0.41245473184388359 0 -0.13336217298044059 0.41245473184388359 0 -0.1243791854912419 0.39088437765556261 0 -0.13336217298044059 0.41245473184388359 0 -0.1384979189021549 0.39795549913529449 0 -0.1243791854912419 0.39088437765556261 0 -0.13999577525351961 0.40759737184703121 0 -0.1384979189021549 0.39795549913529449 0 -0.13999577525351961 0.40759737184703121 0 -0.13336217298044059 0.41245473184388359 0 -0.1384979189021549 0.39795549913529449 0 -0.1384979189021549 0.39795549913529449 0 -0.1243791854912419 0.39088437765556261 0 -0.1384979189021549 0.39795549913529449 0 -0.13450668056010309 0.37226344126793498 0 -0.1243791854912419 0.39088437765556261 0 -0.1384979189021549 0.39795549913529449 0 -0.13450668056010309 0.37226344126793498 0 -0.1384979189021549 0.39795549913529449 0 -0.14990491497372041 0.3830273858424641 0 -0.13450668056010309 0.37226344126793498 0 -0.16356498037513709 0.38933139449970389 0 -0.14990491497372041 0.3830273858424641 0 -0.15210414491250199 0.39489535167480272 0 -0.15756691644935869 0.40750587410368672 0 -0.13999577525351961 0.40759737184703121 0 -0.1384979189021549 0.39795549913529449 0 -0.15756691644935869 0.40750587410368672 0 -0.1384979189021549 0.39795549913529449 0 -0.15210414491250199 0.39489535167480272 0 -0.15756691644935869 0.40750587410368672 0 -0.1384979189021549 0.39795549913529449 0 -0.1384979189021549 0.39795549913529449 0 -0.14990491497372041 0.3830273858424641 0 -0.15210414491250199 0.39489535167480272 0 -0.14720129895131639 0.34804938040221561 0 -0.15223762552373121 0.36578219674643891 0 -0.16375924531499739 0.357022770710826 0 -0.14990491497372041 0.3830273858424641 0 -0.15223762552373121 0.36578219674643891 0 -0.13450668056010309 0.37226344126793498 0 -0.14990491497372041 0.3830273858424641 0 -0.15223762552373121 0.36578219674643891 0 -0.1661047557574799 0.37175484221579658 0 -0.14720129895131639 0.34804938040221561 0 -0.15223762552373121 0.36578219674643891 0 -0.13450668056010309 0.37226344126793498 0 -0.13450668056010309 0.37226344126793498 0 -0.1305154422180517 0.34657138340057547 0 -0.13450668056010309 0.37226344126793498 0 -0.1305154422180517 0.34657138340057547 0 -0.1227721358207568 0.35956873080849511 0 -0.14720129895131639 0.34804938040221561 0 -0.1305154422180517 0.34657138340057547 0 -0.14065096733102231 0.33767319647246002 0 -0.14720129895131639 0.34804938040221561 0 -0.13450668056010309 0.37226344126793498 0 -0.1305154422180517 0.34657138340057547 0 -0.1305154422180517 0.34657138340057547 0 -0.12927225891541369 0.33179771917639372 0 -0.1265242038760003 0.32087932553321602 0 -0.1305154422180517 0.34657138340057547 0 -0.1265242038760003 0.32087932553321602 0 -0.1305154422180517 0.34657138340057547 0 -0.1265242038760003 0.32087932553321602 0 -0.11861688076262671 0.33526376774420791 0 -0.12927225891541369 0.33179771917639372 0 -0.14324917117821209 0.32609420879196022 0 -0.14065096733102231 0.33767319647246002 0 -0.1305154422180517 0.34657138340057547 0 -0.12927225891541369 0.33179771917639372 0 -0.14065096733102231 0.33767319647246002 0 -0.12927225891541369 0.33179771917639372 0 -0.1265242038760003 0.32087932553321602 0 -0.14324917117821209 0.32609420879196022 0 -0.1265242038760003 0.32087932553321602 0 -0.1370276733795493 0.31304026082259961 0 -0.14324917117821209 0.32609420879196022 0 -0.12927225891541369 0.33179771917639372 0 -0.1265242038760003 0.32087932553321602 0 -0.14324917117821209 0.32609420879196022 0 -0.15631830242716219 0.33419333110217497 0 -0.16291498418743661 0.31886930063827801 0 -0.1370276733795493 0.31304026082259961 0 -0.14324917117821209 0.32609420879196022 0 -0.14758727142504999 0.30849570499112039 0 -0.14324917117821209 0.32609420879196022 0 -0.16389156516561959 0.3069468136185422 0 -0.14324917117821209 0.32609420879196022 0 -0.16389156516561959 0.3069468136185422 0 -0.14758727142504999 0.30849570499112039 0 -0.14720129895131639 0.34804938040221561 0 -0.14065096733102231 0.33767319647246002 0 -0.15631830242716219 0.33419333110217497 0 -0.14324917117821209 0.32609420879196022 0 -0.14065096733102231 0.33767319647246002 0 -0.15631830242716219 0.33419333110217497 0 -0.14720129895131639 0.34804938040221561 0 -0.15631830242716219 0.33419333110217497 0 -0.17289923166845261 0.33935779098511198 0 -0.14720129895131639 0.34804938040221561 0 -0.17289923166845261 0.33935779098511198 0 -0.15631830242716219 0.33419333110217497 0 -0.16291498418743661 0.31886930063827801 0 -0.17289923166845261 0.33935779098511198 0 -0.14324917117821209 0.32609420879196022 0 -0.16291498418743661 0.31886930063827801 0 -0.16389156516561959 0.3069468136185422 0 -0.16291498418743661 0.31886930063827801 0 -0.18049584438088709 0.32297892788271287 0 -0.17289923166845261 0.33935779098511198 0 -0.16291498418743661 0.31886930063827801 0 -0.18049584438088709 0.32297892788271287 0 -0.1858726243819207 0.30574332757258937 0 -0.17289923166845261 0.33935779098511198 0 -0.19859716438558889 0.33066620156800852 0 -0.18049584438088709 0.32297892788271287 0 -0.17289923166845261 0.33935779098511198 0 -0.19859716438558889 0.33066620156800852 0 -0.17289923166845261 0.33935779098511198 0 -0.16375924531499739 0.357022770710826 0 -0.180353314674007 0.3601696432045669 0 -0.17289923166845261 0.33935779098511198 0 -0.180353314674007 0.3601696432045669 0 -0.19929874874297321 0.35035369282719048 0 -0.14720129895131639 0.34804938040221561 0 -0.17289923166845261 0.33935779098511198 0 -0.16375924531499739 0.357022770710826 0 -0.16375924531499739 0.357022770710826 0 -0.1661047557574799 0.37175484221579658 0 -0.180353314674007 0.3601696432045669 0 -0.15223762552373121 0.36578219674643891 0 -0.16375924531499739 0.357022770710826 0 -0.1661047557574799 0.37175484221579658 0 -0.17972258223470361 0.38007782732375511 0 -0.180353314674007 0.3601696432045669 0 -0.195422162908821 0.37132983980817402 0 -0.17972258223470361 0.38007782732375511 0 -0.1661047557574799 0.37175484221579658 0 -0.180353314674007 0.3601696432045669 0 -0.180353314674007 0.3601696432045669 0 -0.195422162908821 0.37132983980817402 0 -0.19929874874297321 0.35035369282719048 0 -0.195422162908821 0.37132983980817402 0 -0.19929874874297321 0.35035369282719048 0 -0.2128541241823538 0.36647859491925461 0 -0.19929874874297321 0.35035369282719048 0 -0.21615098869349089 0.35205341118941769 0 -0.2128541241823538 0.36647859491925461 0 -0.19929874874297321 0.35035369282719048 0 -0.21615098869349089 0.35205341118941769 0 -0.21526650975860279 0.33761590623888932 0 -0.20572833204759139 0.38042645340413628 0 -0.195422162908821 0.37132983980817402 0 -0.2128541241823538 0.36647859491925461 0 -0.21615098869349089 0.35205341118941769 0 -0.2128541241823538 0.36647859491925461 0 -0.22432801940273811 0.36121864280920041 0 -0.21998852378880171 0.38090899172599202 0 -0.22348881164137119 0.36981872444750002 0 -0.23678457919159099 0.3706686683355529 0 -0.21998852378880171 0.38090899172599202 0 -0.2128541241823538 0.36647859491925461 0 -0.22348881164137119 0.36981872444750002 0 -0.22348881164137119 0.36981872444750002 0 -0.22432801940273811 0.36121864280920041 0 -0.23678457919159099 0.3706686683355529 0 -0.2128541241823538 0.36647859491925461 0 -0.22348881164137119 0.36981872444750002 0 -0.22432801940273811 0.36121864280920041 0 -0.21615098869349089 0.35205341118941769 0 -0.23115749399153959 0.34619740321120301 0 -0.21526650975860279 0.33761590623888932 0 -0.21615098869349089 0.35205341118941769 0 -0.22432801940273811 0.36121864280920041 0 -0.23115749399153959 0.34619740321120301 0 -0.22432801940273811 0.36121864280920041 0 -0.23115749399153959 0.34619740321120301 0 -0.23678457919159099 0.3706686683355529 0 -0.23115749399153959 0.34619740321120301 0 -0.23678457919159099 0.3706686683355529 0 -0.23115749399153959 0.34619740321120301 0 -0.24539265141780139 0.35030913564137889 0 -0.2404111173704549 0.35955853868932319 0 -0.23115749399153959 0.34619740321120301 0 -0.23678457919159099 0.3706686683355529 0 -0.2404111173704549 0.35955853868932319 0 -0.23115749399153959 0.34619740321120301 0 -0.24539265141780139 0.35030913564137889 0 -0.2433301115497512 0.34106232941676179 0 -0.25322807935694502 0.34145417571987058 0 -0.24539265141780139 0.35030913564137889 0 -0.2433301115497512 0.34106232941676179 0 -0.25548558678424371 0.35822630331505512 0 -0.24539265141780139 0.35030913564137889 0 -0.2404111173704549 0.35955853868932319 0 -0.25548558678424371 0.35822630331505512 0 -0.24879224663555319 0.36844123118380262 0 -0.2404111173704549 0.35955853868932319 0 -0.24637633215159119 0.37853607661088812 0 -0.24879224663555319 0.36844123118380262 0 -0.23678457919159099 0.3706686683355529 0 -0.24879224663555319 0.36844123118380262 0 -0.23678457919159099 0.3706686683355529 0 -0.2404111173704549 0.35955853868932319 0 -0.23678457919159099 0.3706686683355529 0 -0.2404111173704549 0.35955853868932319 0 -0.24525105680585091 0.32539921709460512 0 -0.23900682958605099 0.33329729180315221 0 -0.22553040879148811 0.32172613808685302 0 -0.24999302981986149 0.31328302273380082 0 -0.22553040879148811 0.32172613808685302 0 -0.23389575896535619 0.30963340628770081 0 -0.24999302981986149 0.31328302273380082 0 -0.24525105680585091 0.32539921709460512 0 -0.22553040879148811 0.32172613808685302 0 -0.24999302981986149 0.31328302273380082 0 -0.22553040879148811 0.32172613808685302 0 -0.24525105680585091 0.32539921709460512 0 -0.24843568547779929 0.33368959027150802 0 -0.23900682958605099 0.33329729180315221 0 -0.24843568547779929 0.33368959027150802 0 -0.2433301115497512 0.34106232941676179 0 -0.23900682958605099 0.33329729180315221 0 -0.25322807935694502 0.34145417571987058 0 -0.24843568547779929 0.33368959027150802 0 -0.2433301115497512 0.34106232941676179 0 -0.23115749399153959 0.34619740321120301 0 -0.2433301115497512 0.34106232941676179 0 -0.23900682958605099 0.33329729180315221 0 -0.23115749399153959 0.34619740321120301 0 -0.22553040879148811 0.32172613808685302 0 -0.21526650975860279 0.33761590623888932 0 -0.23115749399153959 0.34619740321120301 0 -0.22553040879148811 0.32172613808685302 0 -0.23115749399153959 0.34619740321120301 0 -0.23900682958605099 0.33329729180315221 0 -0.22553040879148811 0.32172613808685302 0 -0.22553040879148811 0.32172613808685302 0 -0.22746194514933821 0.30992121083891028 0 -0.23389575896535619 0.30963340628770081 0 -0.22553040879148811 0.32172613808685302 0 -0.2127736722202295 0.31641956939465532 0 -0.22269181345045941 0.31143846239417461 0 -0.22553040879148811 0.32172613808685302 0 -0.22269181345045941 0.31143846239417461 0 -0.22746194514933821 0.30992121083891028 0 -0.2127736722202295 0.31641956939465532 0 -0.19859716438558889 0.33066620156800852 0 -0.20075964141379171 0.31232975945500718 0 -0.22553040879148811 0.32172613808685302 0 -0.19859716438558889 0.33066620156800852 0 -0.22553040879148811 0.32172613808685302 0 -0.2127736722202295 0.31641956939465532 0 -0.19859716438558889 0.33066620156800852 0 -0.22553040879148811 0.32172613808685302 0 -0.21526650975860279 0.33761590623888932 0 -0.19859716438558889 0.33066620156800852 0 -0.19929874874297321 0.35035369282719048 0 -0.21526650975860279 0.33761590623888932 0 -0.19859716438558889 0.33066620156800852 0 -0.17289923166845261 0.33935779098511198 0 -0.19929874874297321 0.35035369282719048 0 -0.19859716438558889 0.33066620156800852 0 -0.18049584438088709 0.32297892788271287 0 -0.19859716438558889 0.33066620156800852 0 -0.20075964141379171 0.31232975945500718 0 -0.18049584438088709 0.32297892788271287 0 -0.20075964141379171 0.31232975945500718 0 -0.1858726243819207 0.30574332757258937 0 -0.20883026457640491 0.29261735450690068 0 -0.1858726243819207 0.30574332757258937 0 -0.20075964141379171 0.31232975945500718 0 -0.20883026457640491 0.29261735450690068 0 -0.1858726243819207 0.30574332757258937 0 -0.20883026457640491 0.29261735450690068 0 -0.2051763531404345 0.26865202327170629 0 -0.18453395915302709 0.28779941844512419 0 -0.20883026457640491 0.29261735450690068 0 -0.18453395915302709 0.28779941844512419 0 -0.1858726243819207 0.30574332757258937 0 -0.2127736722202295 0.31641956939465532 0 -0.20075964141379171 0.31232975945500718 0 -0.21719347775634151 0.30578569397661309 0 -0.20075964141379171 0.31232975945500718 0 -0.20883026457640491 0.29261735450690068 0 -0.21719347775634151 0.30578569397661309 0 -0.20883026457640491 0.29261735450690068 0 -0.21719347775634151 0.30578569397661309 0 -0.22392504903862601 0.29820992642319222 0 -0.2127736722202295 0.31641956939465532 0 -0.21719347775634151 0.30578569397661309 0 -0.22269181345045941 0.31143846239417461 0 -0.21719347775634151 0.30578569397661309 0 -0.22269181345045941 0.31143846239417461 0 -0.22560719735665921 0.30411114891456942 0 -0.22269181345045941 0.31143846239417461 0 -0.22746194514933821 0.30992121083891028 0 -0.22560719735665921 0.30411114891456942 0 -0.22746194514933821 0.30992121083891028 0 -0.23081985887149101 0.30244842444720182 0 -0.22560719735665921 0.30411114891456942 0 -0.22746194514933821 0.30992121083891028 0 -0.23389575896535619 0.30963340628770081 0 -0.23081985887149101 0.30244842444720182 0 -0.23389575896535619 0.30963340628770081 0 -0.23081985887149101 0.30244842444720182 0 -0.236101132378946 0.30138216514301258 0 -0.2324616814461429 0.29825439783926883 0 -0.23081985887149101 0.30244842444720182 0 -0.2284765813608691 0.2998030771894783 0 -0.2324616814461429 0.29825439783926883 0 -0.23081985887149101 0.30244842444720182 0 -0.236101132378946 0.30138216514301258 0 -0.2324616814461429 0.29825439783926883 0 -0.2336392436144962 0.29368413807314592 0 -0.236101132378946 0.30138216514301258 0 -0.23081985887149101 0.30244842444720182 0 -0.2284765813608691 0.2998030771894783 0 -0.22560719735665921 0.30411114891456942 0 -0.2284765813608691 0.2998030771894783 0 -0.22392504903862601 0.29820992642319222 0 -0.22956912009142669 0.29599148832315908 0 -0.2324616814461429 0.29825439783926883 0 -0.2284765813608691 0.2998030771894783 0 -0.22956912009142669 0.29599148832315908 0 -0.21719347775634151 0.30578569397661309 0 -0.22392504903862601 0.29820992642319222 0 -0.22560719735665921 0.30411114891456942 0 -0.2284765813608691 0.2998030771894783 0 -0.22392504903862601 0.29820992642319222 0 -0.22560719735665921 0.30411114891456942 0 -0.20883026457640491 0.29261735450690068 0 -0.23178790477088901 0.27949138144121211 0 -0.23007657369586931 0.27631487561307738 0 -0.20883026457640491 0.29261735450690068 0 -0.22753640025800709 0.29126726880693188 0 -0.23178790477088901 0.27949138144121211 0 -0.20883026457640491 0.29261735450690068 0 -0.22392504903862601 0.29820992642319222 0 -0.22753640025800709 0.29126726880693188 0 -0.20883026457640491 0.29261735450690068 0 -0.23178790477088901 0.27949138144121211 0 -0.2369014190029349 0.28898288661950478 0 -0.23178790477088901 0.27949138144121211 0 -0.22753640025800709 0.29126726880693188 0 -0.23500501929711851 0.28882816846398129 0 -0.23178790477088901 0.27949138144121211 0 -0.22956912009142669 0.29599148832315908 0 -0.22753640025800709 0.29126726880693188 0 -0.2336392436144962 0.29368413807314592 0 -0.22392504903862601 0.29820992642319222 0 -0.22956912009142669 0.29599148832315908 0 -0.22753640025800709 0.29126726880693188 0 -0.22753640025800709 0.29126726880693188 0 -0.2336392436144962 0.29368413807314592 0 -0.23500501929711851 0.28882816846398129 0 -0.2324616814461429 0.29825439783926883 0 -0.22956912009142669 0.29599148832315908 0 -0.2336392436144962 0.29368413807314592 0 -0.2336392436144962 0.29368413807314592 0 -0.2369014190029349 0.28898288661950478 0 -0.236101132378946 0.30138216514301258 0 -0.25284064987234101 0.29028329201030878 0 -0.2369014190029349 0.28898288661950478 0 -0.25284064987234101 0.29028329201030878 0 -0.2369014190029349 0.28898288661950478 0 -0.2456847571112388 0.28149670212266792 0 -0.2336392436144962 0.29368413807314592 0 -0.23500501929711851 0.28882816846398129 0 -0.2369014190029349 0.28898288661950478 0 -0.2369014190029349 0.28898288661950478 0 -0.2456847571112388 0.28149670212266792 0 -0.23178790477088901 0.27949138144121211 0 -0.23500501929711851 0.28882816846398129 0 -0.2369014190029349 0.28898288661950478 0 -0.23178790477088901 0.27949138144121211 0 -0.23500501929711851 0.28882816846398129 0 -0.2369014190029349 0.28898288661950478 0 -0.25284064987234101 0.29028329201030878 0 -0.24999302981986149 0.31328302273380082 0 -0.2369014190029349 0.28898288661950478 0 -0.24999302981986149 0.31328302273380082 0 -0.23389575896535619 0.30963340628770081 0 -0.236101132378946 0.30138216514301258 0 -0.24999302981986149 0.31328302273380082 0 -0.2369014190029349 0.28898288661950478 0 -0.236101132378946 0.30138216514301258 0 -0.24999302981986149 0.31328302273380082 0 -0.2369014190029349 0.28898288661950478 0 -0.25063676029139842 0.25291648499014979 0 -0.2381386695607017 0.26190206518074372 0 -0.22581874712784181 0.24950462809828861 0 -0.25063676029139842 0.25291648499014979 0 -0.2381386695607017 0.26190206518074372 0 -0.2496629079650042 0.26927139330273492 0 -0.2496629079650042 0.26927139330273492 0 -0.23178790477088901 0.27949138144121211 0 -0.23007657369586931 0.27631487561307738 0 -0.2381386695607017 0.26190206518074372 0 -0.2496629079650042 0.26927139330273492 0 -0.23007657369586931 0.27631487561307738 0 -0.2456847571112388 0.28149670212266792 0 -0.2496629079650042 0.26927139330273492 0 -0.23178790477088901 0.27949138144121211 0 -0.2496629079650042 0.26927139330273492 0 -0.23178790477088901 0.27949138144121211 0 -0.23178790477088901 0.27949138144121211 0 -0.23007657369586931 0.27631487561307738 0 -0.23007657369586931 0.27631487561307738 0 -0.2051763531404345 0.26865202327170629 0 -0.22581874712784181 0.24950462809828861 0 -0.2381386695607017 0.26190206518074372 0 -0.23007657369586931 0.27631487561307738 0 -0.22581874712784181 0.24950462809828861 0 -0.2051763531404345 0.26865202327170629 0 -0.1941330333909061 0.25332751519580893 0 -0.22581874712784181 0.24950462809828861 0 -0.2051763531404345 0.26865202327170629 0 -0.22581874712784181 0.24950462809828861 0 -0.20883026457640491 0.29261735450690068 0 -0.23007657369586931 0.27631487561307738 0 -0.2051763531404345 0.26865202327170629 0 -0.2051763531404345 0.26865202327170629 0 -0.1860609461977539 0.26926039892135861 0 -0.18453395915302709 0.28779941844512419 0 -0.2051763531404345 0.26865202327170629 0 -0.18453395915302709 0.28779941844512419 0 -0.2051763531404345 0.26865202327170629 0 -0.1941330333909061 0.25332751519580893 0 -0.1860609461977539 0.26926039892135861 0 -0.1941330333909061 0.25332751519580893 0 -0.17233362975044281 0.25981348251711189 0 -0.1782134140010995 0.24383171336387921 0 -0.1941330333909061 0.25332751519580893 0 -0.17233362975044281 0.25981348251711189 0 -0.1860609461977539 0.26926039892135861 0 -0.17233362975044281 0.25981348251711189 0 -0.15285664451627359 0.25967865366604093 0 -0.16028035532114809 0.24095137339685299 0 -0.17233362975044281 0.25981348251711189 0 -0.15690951355708119 0.27650455190217621 0 -0.15285664451627359 0.25967865366604093 0 -0.15690951355708119 0.27650455190217621 0 -0.17412775555395901 0.27670955517704149 0 -0.16573606161228691 0.28823456789928531 0 -0.17233362975044281 0.25981348251711189 0 -0.15690951355708119 0.27650455190217621 0 -0.17412775555395901 0.27670955517704149 0 -0.17412775555395901 0.27670955517704149 0 -0.1860609461977539 0.26926039892135861 0 -0.18453395915302709 0.28779941844512419 0 -0.17233362975044281 0.25981348251711189 0 -0.17412775555395901 0.27670955517704149 0 -0.1860609461977539 0.26926039892135861 0 -0.17412775555395901 0.27670955517704149 0 -0.18453395915302709 0.28779941844512419 0 -0.16573606161228691 0.28823456789928531 0 -0.16291498418743661 0.31886930063827801 0 -0.1858726243819207 0.30574332757258937 0 -0.18453395915302709 0.28779941844512419 0 -0.16389156516561959 0.3069468136185422 0 -0.18453395915302709 0.28779941844512419 0 -0.1858726243819207 0.30574332757258937 0 -0.16389156516561959 0.3069468136185422 0 -0.16291498418743661 0.31886930063827801 0 -0.1858726243819207 0.30574332757258937 0 -0.16389156516561959 0.3069468136185422 0 -0.16389156516561959 0.3069468136185422 0 -0.16573606161228691 0.28823456789928531 0 -0.15365978338301511 0.29576459416077422 0 -0.18453395915302709 0.28779941844512419 0 -0.16389156516561959 0.3069468136185422 0 -0.16573606161228691 0.28823456789928531 0 -0.15690951355708119 0.27650455190217621 0 -0.16573606161228691 0.28823456789928531 0 -0.15365978338301511 0.29576459416077422 0 -0.15365978338301511 0.29576459416077422 0 -0.14010816401885401 0.30063264756172609 0 -0.13756852219581611 0.28650291976267223 0 -0.15690951355708119 0.27650455190217621 0 -0.15365978338301511 0.29576459416077422 0 -0.13756852219581611 0.28650291976267223 0 -0.16389156516561959 0.3069468136185422 0 -0.15365978338301511 0.29576459416077422 0 -0.14758727142504999 0.30849570499112039 0 -0.15365978338301511 0.29576459416077422 0 -0.14758727142504999 0.30849570499112039 0 -0.14010816401885401 0.30063264756172609 0 -0.1370276733795493 0.31304026082259961 0 -0.14758727142504999 0.30849570499112039 0 -0.14010816401885401 0.30063264756172609 0 -0.1370276733795493 0.31304026082259961 0 -0.14010816401885401 0.30063264756172609 0 -0.1207125247140959 0.29867808525817707 0 -0.1265242038760003 0.32087932553321602 0 -0.1370276733795493 0.31304026082259961 0 -0.1207125247140959 0.29867808525817707 0 -0.14010816401885401 0.30063264756172609 0 -0.13756852219581611 0.28650291976267223 0 -0.1207125247140959 0.29867808525817707 0 -0.13969918266580009 0.2700128959856482 0 -0.1361912156991702 0.2509193869946269 0 -0.11497001736065959 0.27645896760272481 0 -0.13756852219581611 0.28650291976267223 0 -0.13969918266580009 0.2700128959856482 0 -0.11497001736065959 0.27645896760272481 0 -0.13969918266580009 0.2700128959856482 0 -0.1361912156991702 0.2509193869946269 0 -0.15285664451627359 0.25967865366604093 0 -0.1361912156991702 0.2509193869946269 0 -0.15285664451627359 0.25967865366604093 0 -0.16028035532114809 0.24095137339685299 0 -0.15690951355708119 0.27650455190217621 0 -0.13969918266580009 0.2700128959856482 0 -0.15285664451627359 0.25967865366604093 0 -0.15690951355708119 0.27650455190217621 0 -0.13756852219581611 0.28650291976267223 0 -0.13969918266580009 0.2700128959856482 0 -0.095559379743942879 0.27466260194801928 0 -0.11497001736065959 0.27645896760272481 0 -0.1055403298128576 0.28995040896693453 0 -0.095559379743942879 0.27466260194801928 0 -0.10922751000722319 0.25423984994727239 0 -0.11497001736065959 0.27645896760272481 0 -0.095559379743942879 0.27466260194801928 0 -0.10922751000722319 0.25423984994727239 0 -0.086782026885810326 0.25706796878206128 0 -0.10922751000722319 0.25423984994727239 0 -0.11497001736065959 0.27645896760272481 0 -0.1361912156991702 0.2509193869946269 0 -0.10922751000722319 0.25423984994727239 0 -0.11497001736065959 0.27645896760272481 0 -0.11497001736065959 0.27645896760272481 0 -0.1207125247140959 0.29867808525817707 0 -0.13756852219581611 0.28650291976267223 0 -0.11497001736065959 0.27645896760272481 0 -0.1207125247140959 0.29867808525817707 0 -0.11497001736065959 0.27645896760272481 0 -0.1207125247140959 0.29867808525817707 0 -0.1055403298128576 0.28995040896693453 0 -0.1207125247140959 0.29867808525817707 0 -0.1055403298128576 0.28995040896693453 0 -0.1098712515562172 0.31337732455619632 0 -0.1265242038760003 0.32087932553321602 0 -0.1207125247140959 0.29867808525817707 0 -0.1098712515562172 0.31337732455619632 0 -0.1265242038760003 0.32087932553321602 0 -0.1207125247140959 0.29867808525817707 0 -0.095081128900726744 0.30266037016328601 0 -0.1055403298128576 0.28995040896693453 0 -0.1098712515562172 0.31337732455619632 0 -0.095081128900726744 0.30266037016328601 0 -0.086439924170271229 0.3170374645159747 0 -0.1098712515562172 0.31337732455619632 0 -0.095559379743942879 0.27466260194801928 0 -0.1055403298128576 0.28995040896693453 0 -0.085595761288529429 0.2879245028153431 0 -0.095081128900726744 0.30266037016328601 0 -0.1055403298128576 0.28995040896693453 0 -0.085595761288529429 0.2879245028153431 0 -0.095081128900726744 0.30266037016328601 0 -0.085595761288529429 0.2879245028153431 0 -0.084270533380524884 0.29803683277277049 0 -0.085595761288529429 0.2879245028153431 0 -0.084270533380524884 0.29803683277277049 0 -0.078214129641501623 0.29934216866029911 0 -0.085595761288529429 0.2879245028153431 0 -0.078214129641501623 0.29934216866029911 0 -0.073120001489244649 0.28892768634426241 0 -0.085595761288529429 0.2879245028153431 0 -0.073120001489244649 0.28892768634426241 0 -0.077510052729852771 0.27467344618743789 0 -0.095081128900726744 0.30266037016328601 0 -0.073730686050849176 0.30556659584434742 0 -0.086439924170271229 0.3170374645159747 0 -0.095081128900726744 0.30266037016328601 0 -0.073730686050849176 0.30556659584434742 0 -0.095081128900726744 0.30266037016328601 0 -0.084270533380524884 0.29803683277277049 0 -0.073730686050849176 0.30556659584434742 0 -0.084270533380524884 0.29803683277277049 0 -0.078214129641501623 0.29934216866029911 0 -0.073730686050849176 0.30556659584434742 0 -0.073730686050849176 0.30556659584434742 0 -0.074145712832038205 0.30401463189651567 0 -0.073730686050849176 0.30556659584434742 0 -0.071201690671577 0.30262177243746502 0 -0.066454008281722099 0.30278918866260651 0 -0.071201690671577 0.30262177243746502 0 -0.073040499542914902 0.30046526570898913 0 -0.069336020006202564 0.29958970904012949 0 -0.071201690671577 0.30262177243746502 0 -0.074145712832038205 0.30401463189651567 0 -0.073040499542914902 0.30046526570898913 0 -0.073730686050849176 0.30556659584434742 0 -0.071201690671577 0.30262177243746502 0 -0.074145712832038205 0.30401463189651567 0 -0.078214129641501623 0.29934216866029911 0 -0.074145712832038205 0.30401463189651567 0 -0.073040499542914902 0.30046526570898913 0 -0.078214129641501623 0.29934216866029911 0 -0.073730686050849176 0.30556659584434742 0 -0.074145712832038205 0.30401463189651567 0 -0.078214129641501623 0.29934216866029911 0 -0.073040499542914902 0.30046526570898913 0 -0.072304944563255119 0.29675804651053622 0 -0.073040499542914902 0.30046526570898913 0 -0.069336020006202564 0.29958970904012949 0 -0.072304944563255119 0.29675804651053622 0 -0.069336020006202564 0.29958970904012949 0 -0.066454008281722099 0.30278918866260651 0 -0.064573117377325323 0.29474825152748441 0 -0.069336020006202564 0.29958970904012949 0 -0.072304944563255119 0.29675804651053622 0 -0.064573117377325323 0.29474825152748441 0 -0.071201690671577 0.30262177243746502 0 -0.069336020006202564 0.29958970904012949 0 -0.066454008281722099 0.30278918866260651 0 -0.073120001489244649 0.28892768634426241 0 -0.077510052729852771 0.27467344618743789 0 -0.061751465187922433 0.28201941449154022 0 -0.078214129641501623 0.29934216866029911 0 -0.073120001489244649 0.28892768634426241 0 -0.072304944563255119 0.29675804651053622 0 -0.073120001489244649 0.28892768634426241 0 -0.072304944563255119 0.29675804651053622 0 -0.064573117377325323 0.29474825152748441 0 -0.073120001489244649 0.28892768634426241 0 -0.064573117377325323 0.29474825152748441 0 -0.061751465187922433 0.28201941449154022 0 -0.077510052729852771 0.27467344618743789 0 -0.064865955853641535 0.26008420970769919 0 -0.061751465187922433 0.28201941449154022 0 -0.095559379743942879 0.27466260194801928 0 -0.077510052729852771 0.27467344618743789 0 -0.086782026885810326 0.25706796878206128 0 -0.095559379743942879 0.27466260194801928 0 -0.085595761288529429 0.2879245028153431 0 -0.077510052729852771 0.27467344618743789 0 -0.077510052729852771 0.27467344618743789 0 -0.086782026885810326 0.25706796878206128 0 -0.064865955853641535 0.26008420970769919 0 -0.086782026885810326 0.25706796878206128 0 -0.064865955853641535 0.26008420970769919 0 -0.07009427780289168 0.23322075334515899 0 -0.064865955853641535 0.26008420970769919 0 -0.043034387561298473 0.27650610512222462 0 -0.046527529249147832 0.24935375446300129 0 -0.064865955853641535 0.26008420970769919 0 -0.043034387561298473 0.27650610512222462 0 -0.061751465187922433 0.28201941449154022 0 -0.043034387561298473 0.27650610512222462 0 -0.027654839422797509 0.25479998940689619 0 -0.046527529249147832 0.24935375446300129 0 -0.027654839422797509 0.25479998940689619 0 -0.017819401635662729 0.27140505849965751 0 -0.0094860428890609812 0.25201589383169298 0 -0.043034387561298473 0.27650610512222462 0 -0.017819401635662729 0.27140505849965751 0 -0.019614503291226031 0.29497966883518523 0 -0.043034387561298473 0.27650610512222462 0 -0.027654839422797509 0.25479998940689619 0 -0.017819401635662729 0.27140505849965751 0 -0.017819401635662729 0.27140505849965751 0 -0.00681572830648643 0.28311170123395701 0 5.2964489892887497e-05 0.2684529483346153 0 -0.0094860428890609812 0.25201589383169298 0 0.0093766357309573133 0.25077498028374479 0 5.2964489892887497e-05 0.2684529483346153 0 -0.017819401635662729 0.27140505849965751 0 -0.0094860428890609812 0.25201589383169298 0 5.2964489892887497e-05 0.2684529483346153 0 -0.00050940936906082146 0.29530896721452587 0 -0.019614503291226031 0.29497966883518523 0 0.0038053809788464871 0.31345323254814578 0 -0.019614503291226031 0.29497966883518523 0 -0.01816412791170972 0.3131303245879471 0 0.0038053809788464871 0.31345323254814578 0 -0.019614503291226031 0.29497966883518523 0 0.0038053809788464871 0.31345323254814578 0 -0.00050940936906082146 0.29530896721452587 0 -0.00681572830648643 0.28311170123395701 0 -0.019614503291226031 0.29497966883518523 0 -0.017819401635662729 0.27140505849965751 0 -0.00681572830648643 0.28311170123395701 0 -0.019614503291226031 0.29497966883518523 0 -0.019614503291226031 0.29497966883518523 0 -0.032038962297823312 0.30259778861969899 0 -0.01816412791170972 0.3131303245879471 0 -0.045947406981279498 0.30934846021614748 0 -0.01816412791170972 0.3131303245879471 0 -0.019614503291226031 0.29497966883518523 0 -0.032038962297823312 0.30259778861969899 0 -0.045583101982504558 0.29391488790554737 0 -0.032038962297823312 0.30259778861969899 0 -0.045947406981279498 0.30934846021614748 0 -0.01816412791170972 0.3131303245879471 0 -0.032038962297823312 0.30259778861969899 0 -0.045947406981279498 0.30934846021614748 0 -0.045583101982504558 0.29391488790554737 0 -0.043034387561298473 0.27650610512222462 0 -0.019614503291226031 0.29497966883518523 0 -0.045583101982504558 0.29391488790554737 0 -0.043034387561298473 0.27650610512222462 0 -0.019614503291226031 0.29497966883518523 0 -0.043034387561298473 0.27650610512222462 0 -0.045583101982504558 0.29391488790554737 0 -0.061751465187922433 0.28201941449154022 0 -0.064573117377325323 0.29474825152748441 0 -0.045583101982504558 0.29391488790554737 0 -0.061751465187922433 0.28201941449154022 0 -0.064573117377325323 0.29474825152748441 0 -0.045583101982504558 0.29391488790554737 0 -0.055351085911851228 0.29995465031143859 0 -0.073730686050849176 0.30556659584434742 0 -0.066454008281722099 0.30278918866260651 0 -0.045947406981279498 0.30934846021614748 0 -0.073730686050849176 0.30556659584434742 0 -0.045947406981279498 0.30934846021614748 0 -0.066454008281722099 0.30278918866260651 0 -0.045947406981279498 0.30934846021614748 0 -0.055351085911851228 0.29995465031143859 0 -0.073730686050849176 0.30556659584434742 0 -0.045947406981279498 0.30934846021614748 0 -0.061025285944941728 0.31617217717038731 0 -0.045947406981279498 0.30934846021614748 0 -0.045583101982504558 0.29391488790554737 0 -0.055351085911851228 0.29995465031143859 0 -0.066454008281722099 0.30278918866260651 0 -0.064573117377325323 0.29474825152748441 0 -0.055351085911851228 0.29995465031143859 0 -0.061025285944941728 0.31617217717038731 0 -0.04837601225766465 0.32481363843900868 0 -0.066741025884613364 0.33170394667860731 0 -0.045947406981279498 0.30934846021614748 0 -0.061025285944941728 0.31617217717038731 0 -0.04837601225766465 0.32481363843900868 0 -0.04837601225766465 0.32481363843900868 0 -0.046569396686288428 0.34190497641893852 0 -0.066741025884613364 0.33170394667860731 0 -0.046569396686288428 0.34190497641893852 0 -0.035844911959721559 0.33227031673614849 0 -0.030063742214787699 0.34420855255936789 0 -0.04837601225766465 0.32481363843900868 0 -0.046569396686288428 0.34190497641893852 0 -0.035844911959721559 0.33227031673614849 0 -0.045947406981279498 0.30934846021614748 0 -0.033743870795339137 0.31690051813742909 0 -0.01816412791170972 0.3131303245879471 0 -0.045947406981279498 0.30934846021614748 0 -0.04837601225766465 0.32481363843900868 0 -0.033743870795339137 0.31690051813742909 0 -0.04837601225766465 0.32481363843900868 0 -0.035844911959721559 0.33227031673614849 0 -0.033743870795339137 0.31690051813742909 0 -0.033743870795339137 0.31690051813742909 0 -0.023511011545619229 0.33429909784502471 0 -0.0066262084867721206 0.3297187594929602 0 -0.033743870795339137 0.31690051813742909 0 -0.01816412791170972 0.3131303245879471 0 -0.0066262084867721206 0.3297187594929602 0 -0.035844911959721559 0.33227031673614849 0 -0.033743870795339137 0.31690051813742909 0 -0.023511011545619229 0.33429909784502471 0 -0.033743870795339137 0.31690051813742909 0 -0.0066262084867721206 0.3297187594929602 0 -0.023511011545619229 0.33429909784502471 0 -0.011276324271475629 0.34839734229921748 0 -0.030063742214787699 0.34420855255936789 0 -0.035844911959721559 0.33227031673614849 0 -0.023511011545619229 0.33429909784502471 0 -0.030063742214787699 0.34420855255936789 0 -0.023511011545619229 0.33429909784502471 0 -0.0066262084867721206 0.3297187594929602 0 -0.011276324271475629 0.34839734229921748 0 -0.0066262084867721206 0.3297187594929602 0 -0.011276324271475629 0.34839734229921748 0 0.0036444436723072518 0.34668746978030668 0 -0.01816412791170972 0.3131303245879471 0 -0.0066262084867721206 0.3297187594929602 0 0.0038053809788464871 0.31345323254814578 0 -0.0069122974087097167 0.37020223940993852 0 -0.020229078436823561 0.37088736387382881 0 -0.0088503900507043293 0.38236264802890257 0 -0.011808441714499711 0.36139026384214201 0 -0.0069122974087097167 0.37020223940993852 0 -0.020229078436823561 0.37088736387382881 0 -0.0069122974087097167 0.37020223940993852 0 0.001197760358732865 0.37500202874546518 0 0.0022877633247238771 0.36110461381561082 0 -0.011808441714499711 0.36139026384214201 0 -0.0069122974087097167 0.37020223940993852 0 0.0022877633247238771 0.36110461381561082 0 -0.011276324271475629 0.34839734229921748 0 0.0036444436723072518 0.34668746978030668 0 0.0022877633247238771 0.36110461381561082 0 -0.011808441714499711 0.36139026384214201 0 -0.011276324271475629 0.34839734229921748 0 0.0022877633247238771 0.36110461381561082 0 -0.011808441714499711 0.36139026384214201 0 -0.011276324271475629 0.34839734229921748 0 -0.022912271780213541 0.35635975981211432 0 -0.022912271780213541 0.35635975981211432 0 -0.030063742214787699 0.34420855255936789 0 -0.03989267547647974 0.36194567687577073 0 -0.011276324271475629 0.34839734229921748 0 -0.022912271780213541 0.35635975981211432 0 -0.030063742214787699 0.34420855255936789 0 -0.022912271780213541 0.35635975981211432 0 -0.020229078436823561 0.37088736387382881 0 -0.03989267547647974 0.36194567687577073 0 -0.020229078436823561 0.37088736387382881 0 -0.03989267547647974 0.36194567687577073 0 -0.032166048970949768 0.38262875266943058 0 -0.011808441714499711 0.36139026384214201 0 -0.022912271780213541 0.35635975981211432 0 -0.020229078436823561 0.37088736387382881 0 -0.046569396686288428 0.34190497641893852 0 -0.030063742214787699 0.34420855255936789 0 -0.03989267547647974 0.36194567687577073 0 -0.046569396686288428 0.34190497641893852 0 -0.03989267547647974 0.36194567687577073 0 -0.059751365718378961 0.35784129751286758 0 -0.046569396686288428 0.34190497641893852 0 -0.059751365718378961 0.35784129751286758 0 -0.066741025884613364 0.33170394667860731 0 -0.03989267547647974 0.36194567687577073 0 -0.059751365718378961 0.35784129751286758 0 -0.052761705552144517 0.38397864834712803 0 -0.059751365718378961 0.35784129751286758 0 -0.052761705552144517 0.38397864834712803 0 -0.059751365718378961 0.35784129751286758 0 -0.076004855597825702 0.36870433775896438 0 -0.052761705552144517 0.38397864834712803 0 -0.091389777508730702 0.35664259018885919 0 -0.096924186967709297 0.37713402030157128 0 -0.085667764163913224 0.38569874197602988 0 -0.091389777508730702 0.35664259018885919 0 -0.085667764163913224 0.38569874197602988 0 -0.076004855597825702 0.36870433775896438 0 -0.091389777508730702 0.35664259018885919 0 -0.085667764163913224 0.38569874197602988 0 -0.076004855597825702 0.36870433775896438 0 -0.091389777508730702 0.35664259018885919 0 -0.081957847837041325 0.34116183187751148 0 -0.059751365718378961 0.35784129751286758 0 -0.076004855597825702 0.36870433775896438 0 -0.081957847837041325 0.34116183187751148 0 -0.059751365718378961 0.35784129751286758 0 -0.066741025884613364 0.33170394667860731 0 -0.059751365718378961 0.35784129751286758 0 -0.066741025884613364 0.33170394667860731 0 -0.081957847837041325 0.34116183187751148 0 -0.073730686050849176 0.30556659584434742 0 -0.066741025884613364 0.33170394667860731 0 -0.073730686050849176 0.30556659584434742 0 -0.066741025884613364 0.33170394667860731 0 -0.086439924170271229 0.3170374645159747 0 -0.073730686050849176 0.30556659584434742 0 -0.061025285944941728 0.31617217717038731 0 -0.066741025884613364 0.33170394667860731 0 -0.086439924170271229 0.3170374645159747 0 -0.081957847837041325 0.34116183187751148 0 -0.09711179085354818 0.3275864384016885 0 -0.091389777508730702 0.35664259018885919 0 -0.081957847837041325 0.34116183187751148 0 -0.09711179085354818 0.3275864384016885 0 -0.066741025884613364 0.33170394667860731 0 -0.086439924170271229 0.3170374645159747 0 -0.081957847837041325 0.34116183187751148 0 -0.091389777508730702 0.35664259018885919 0 -0.09711179085354818 0.3275864384016885 0 -0.09711179085354818 0.3275864384016885 0 -0.11861688076262671 0.33526376774420791 0 -0.1107232674827391 0.350253449093339 0 -0.09711179085354818 0.3275864384016885 0 -0.1098712515562172 0.31337732455619632 0 -0.1130310317620981 0.32427671405882719 0 -0.086439924170271229 0.3170374645159747 0 -0.09711179085354818 0.3275864384016885 0 -0.1098712515562172 0.31337732455619632 0 -0.1265242038760003 0.32087932553321602 0 -0.1098712515562172 0.31337732455619632 0 -0.1130310317620981 0.32427671405882719 0 -0.1265242038760003 0.32087932553321602 0 -0.1130310317620981 0.32427671405882719 0 -0.11861688076262671 0.33526376774420791 0 -0.09711179085354818 0.3275864384016885 0 -0.1130310317620981 0.32427671405882719 0 -0.11861688076262671 0.33526376774420791 0 -0.1305154422180517 0.34657138340057547 0 -0.1107232674827391 0.350253449093339 0 -0.1227721358207568 0.35956873080849511 0 -0.1305154422180517 0.34657138340057547 0 -0.11861688076262671 0.33526376774420791 0 -0.1107232674827391 0.350253449093339 0 -0.1107232674827391 0.350253449093339 0 -0.1153431530221333 0.3691866494721307 0 -0.1227721358207568 0.35956873080849511 0 -0.1107232674827391 0.350253449093339 0 -0.1153431530221333 0.3691866494721307 0 -0.1035950962453281 0.36330417726397501 0 -0.13450668056010309 0.37226344126793498 0 -0.1153431530221333 0.3691866494721307 0 -0.1227721358207568 0.35956873080849511 0 -0.1153431530221333 0.3691866494721307 0 -0.1035950962453281 0.36330417726397501 0 -0.096924186967709297 0.37713402030157128 0 -0.091389777508730702 0.35664259018885919 0 -0.1035950962453281 0.36330417726397501 0 -0.096924186967709297 0.37713402030157128 0 -0.091389777508730702 0.35664259018885919 0 -0.1107232674827391 0.350253449093339 0 -0.1035950962453281 0.36330417726397501 0 -0.091389777508730702 0.35664259018885919 0 -0.09711179085354818 0.3275864384016885 0 -0.1107232674827391 0.350253449093339 0 -0.098610720755638384 0.39557033429152122 0 -0.1146281169493216 0.3993919161521573 0 -0.1061368192898107 0.41404093799125341 0 -0.098610720755638384 0.39557033429152122 0 -0.1106516862294759 0.3840091989785665 0 -0.1146281169493216 0.3993919161521573 0 -0.098610720755638384 0.39557033429152122 0 -0.096924186967709297 0.37713402030157128 0 -0.1106516862294759 0.3840091989785665 0 -0.1153431530221333 0.3691866494721307 0 -0.096924186967709297 0.37713402030157128 0 -0.1106516862294759 0.3840091989785665 0 -0.096924186967709297 0.37713402030157128 0 -0.1106516862294759 0.3840091989785665 0 -0.1153431530221333 0.3691866494721307 0 -0.1106516862294759 0.3840091989785665 0 -0.1243791854912419 0.39088437765556261 0 -0.1153431530221333 0.3691866494721307 0 -0.1243791854912419 0.39088437765556261 0 -0.13450668056010309 0.37226344126793498 0 -0.1153431530221333 0.3691866494721307 0 -0.1243791854912419 0.39088437765556261 0 -0.1106516862294759 0.3840091989785665 0 -0.1243791854912419 0.39088437765556261 0 -0.13336217298044059 0.41245473184388359 0 -0.1243791854912419 0.39088437765556261 0 -0.1146281169493216 0.3993919161521573 0 -0.1106516862294759 0.3840091989785665 0 -0.1243791854912419 0.39088437765556261 0 -0.1146281169493216 0.3993919161521573 0 -0.13336217298044059 0.41245473184388359 0 -0.1189282844760139 0.43536593157966708 0 -0.1061368192898107 0.41404093799125341 0 -0.13336217298044059 0.41245473184388359 0 -0.1146281169493216 0.3993919161521573 0 -0.1061368192898107 0.41404093799125341 0 -0.1189282844760139 0.43536593157966708 0 -0.1061368192898107 0.41404093799125341 0 -0.09596182558140795 0.43789019878106361 0 -0.1061368192898107 0.41404093799125341 0 -0.079945750819095718 0.41475489376320079 0 -0.09596182558140795 0.43789019878106361 0 -0.098610720755638384 0.39557033429152122 0 -0.1061368192898107 0.41404093799125341 0 -0.079945750819095718 0.41475489376320079 0 -0.079945750819095718 0.41475489376320079 0 -0.074223737474278212 0.44381104555037182 0 -0.09596182558140795 0.43789019878106361 0 -0.079945750819095718 0.41475489376320079 0 -0.054353202937776589 0.42965008727840359 0 -0.074223737474278212 0.44381104555037182 0 -0.079945750819095718 0.41475489376320079 0 -0.074223737474278212 0.44381104555037182 0 -0.079945750819095718 0.41475489376320079 0 -0.058204587144322653 0.4073911492592886 0 -0.054353202937776589 0.42965008727840359 0 -0.079945750819095718 0.41475489376320079 0 -0.068809720919392109 0.39258676897537492 0 -0.058204587144322653 0.4073911492592886 0 -0.079945750819095718 0.41475489376320079 0 -0.085667764163913224 0.38569874197602988 0 -0.098610720755638384 0.39557033429152122 0 -0.079945750819095718 0.41475489376320079 0 -0.085667764163913224 0.38569874197602988 0 -0.079945750819095718 0.41475489376320079 0 -0.068809720919392109 0.39258676897537492 0 -0.085667764163913224 0.38569874197602988 0 -0.098610720755638384 0.39557033429152122 0 -0.096924186967709297 0.37713402030157128 0 -0.085667764163913224 0.38569874197602988 0 -0.076004855597825702 0.36870433775896438 0 -0.068809720919392109 0.39258676897537492 0 -0.052761705552144517 0.38397864834712803 0 -0.076004855597825702 0.36870433775896438 0 -0.068809720919392109 0.39258676897537492 0 -0.085667764163913224 0.38569874197602988 0 -0.052761705552144517 0.38397864834712803 0 -0.039740731062658248 0.39766097023093039 0 -0.058204587144322653 0.4073911492592886 0 -0.068809720919392109 0.39258676897537492 0 -0.052761705552144517 0.38397864834712803 0 -0.058204587144322653 0.4073911492592886 0 -0.039740731062658248 0.39766097023093039 0 -0.030395034556352271 0.40507811633295321 0 -0.035969056143799152 0.41442950858280148 0 -0.052761705552144517 0.38397864834712803 0 -0.039740731062658248 0.39766097023093039 0 -0.032166048970949768 0.38262875266943058 0 -0.03989267547647974 0.36194567687577073 0 -0.052761705552144517 0.38397864834712803 0 -0.032166048970949768 0.38262875266943058 0 -0.020229078436823561 0.37088736387382881 0 -0.032166048970949768 0.38262875266943058 0 -0.019249460740937939 0.38387785321857948 0 -0.020229078436823561 0.37088736387382881 0 -0.019249460740937939 0.38387785321857948 0 -0.0088503900507043293 0.38236264802890257 0 -0.032166048970949768 0.38262875266943058 0 -0.019249460740937939 0.38387785321857948 0 -0.021122642556654619 0.3974220034703469 0 -0.021122642556654619 0.3974220034703469 0 -0.01332381822228732 0.40703366030976817 0 -0.023091233804221269 0.41319061103594013 0 -0.030395034556352271 0.40507811633295321 0 -0.021122642556654619 0.3974220034703469 0 -0.023091233804221269 0.41319061103594013 0 -0.039740731062658248 0.39766097023093039 0 -0.030395034556352271 0.40507811633295321 0 -0.021122642556654619 0.3974220034703469 0 -0.039740731062658248 0.39766097023093039 0 -0.032166048970949768 0.38262875266943058 0 -0.021122642556654619 0.3974220034703469 0 -0.021122642556654619 0.3974220034703469 0 -0.012839790757586249 0.39946146410559191 0 -0.01332381822228732 0.40703366030976817 0 -0.019249460740937939 0.38387785321857948 0 -0.021122642556654619 0.3974220034703469 0 -0.011277671795755661 0.39270228813238112 0 -0.021122642556654619 0.3974220034703469 0 -0.011277671795755661 0.39270228813238112 0 -0.012839790757586249 0.39946146410559191 0 -0.011277671795755661 0.39270228813238112 0 -0.012839790757586249 0.39946146410559191 0 -0.0056350304556473853 0.40068790450987107 0 -0.0056350304556473853 0.40068790450987107 0 -0.0077492403355966018 0.40932245388245908 0 -0.01332381822228732 0.40703366030976817 0 -0.012839790757586249 0.39946146410559191 0 -0.0056350304556473853 0.40068790450987107 0 -0.01332381822228732 0.40703366030976817 0 -0.0056350304556473853 0.40068790450987107 0 -0.0077492403355966018 0.40932245388245908 0 0.0026143882621884069 0.40727375446200598 0 -0.0056350304556473853 0.40068790450987107 0 0.0026143882621884069 0.40727375446200598 0 0.001240191978069999 0.39807366433780061 0 -0.0056350304556473853 0.40068790450987107 0 -0.0029102898792297718 0.39200733442648922 0 0.001240191978069999 0.39807366433780061 0 -0.011277671795755661 0.39270228813238112 0 -0.0056350304556473853 0.40068790450987107 0 -0.0029102898792297718 0.39200733442648922 0 -0.0029102898792297718 0.39200733442648922 0 -0.0088503900507043293 0.38236264802890257 0 0.00133922831620685 0.38493328910147551 0 -0.011277671795755661 0.39270228813238112 0 -0.0029102898792297718 0.39200733442648922 0 -0.0088503900507043293 0.38236264802890257 0 -0.0069122974087097167 0.37020223940993852 0 -0.0088503900507043293 0.38236264802890257 0 0.001197760358732865 0.37500202874546518 0 -0.0088503900507043293 0.38236264802890257 0 0.001197760358732865 0.37500202874546518 0 0.00133922831620685 0.38493328910147551 0 -0.019249460740937939 0.38387785321857948 0 -0.011277671795755661 0.39270228813238112 0 -0.0088503900507043293 0.38236264802890257 0 -0.010506126185941531 0.43031051981728241 0 -0.0080108279614322531 0.41906629829442488 0 -0.02615499401391504 0.43449189222614759 0 -0.010506126185941531 0.43031051981728241 0 -0.017852508102859269 0.43947328490805171 0 -0.0059786262913216247 0.43795886887328661 0 -0.010506126185941531 0.43031051981728241 0 -0.00098420035874578326 0.4296376637812146 0 -0.0059786262913216247 0.43795886887328661 0 -0.00098420035874578326 0.4296376637812146 0 -0.0048860837777573163 0.42557086169158131 0 -4.3180604909707702e-05 0.4232689648734036 0 -0.010506126185941531 0.43031051981728241 0 -0.00098420035874578326 0.4296376637812146 0 -0.0048860837777573163 0.42557086169158131 0 -0.010506126185941531 0.43031051981728241 0 -0.0048860837777573163 0.42557086169158131 0 -0.0080108279614322531 0.41906629829442488 0 -0.0048860837777573163 0.42557086169158131 0 -4.3180604909707702e-05 0.4232689648734036 0 -0.0080108279614322531 0.41906629829442488 0 -0.014652500926640111 0.42229449624819121 0 0.0026143882621884069 0.40727375446200598 0 -4.3180604909707702e-05 0.4232689648734036 0 -0.0080108279614322531 0.41906629829442488 0 0.0062770988424424388 0.41748857372992892 0 -0.014652500926640111 0.42229449624819121 0 -0.0080108279614322531 0.41906629829442488 0 0.0026143882621884069 0.40727375446200598 0 -0.014652500926640111 0.42229449624819121 0 -0.0077492403355966018 0.40932245388245908 0 0.0026143882621884069 0.40727375446200598 0 -0.014652500926640111 0.42229449624819121 0 -0.0077492403355966018 0.40932245388245908 0 -0.01332381822228732 0.40703366030976817 0 -0.014652500926640111 0.42229449624819121 0 -0.023091233804221269 0.41319061103594013 0 -0.029249535666225429 0.42292887686598318 0 -0.014652500926640111 0.42229449624819121 0 -0.01332381822228732 0.40703366030976817 0 -0.023091233804221269 0.41319061103594013 0 -0.030395034556352271 0.40507811633295321 0 -0.023091233804221269 0.41319061103594013 0 -0.035969056143799152 0.41442950858280148 0 -0.023091233804221269 0.41319061103594013 0 -0.029249535666225429 0.42292887686598318 0 -0.035969056143799152 0.41442950858280148 0 -0.014652500926640111 0.42229449624819121 0 -0.0080108279614322531 0.41906629829442488 0 -0.02615499401391504 0.43449189222614759 0 -0.014652500926640111 0.42229449624819121 0 -0.031919390115468592 0.43731523803437639 0 -0.0080108279614322531 0.41906629829442488 0 -0.02615499401391504 0.43449189222614759 0 -0.010506126185941531 0.43031051981728241 0 -0.02615499401391504 0.43449189222614759 0 -0.017852508102859269 0.43947328490805171 0 -0.014652500926640111 0.42229449624819121 0 -0.02615499401391504 0.43449189222614759 0 -0.031919390115468592 0.43731523803437639 0 -0.014652500926640111 0.42229449624819121 0 -0.029249535666225429 0.42292887686598318 0 -0.031919390115468592 0.43731523803437639 0 -0.031919390115468592 0.43731523803437639 0 -0.040921016067960683 0.42696168173004623 0 -0.044308249003753443 0.43751716184810541 0 -0.029249535666225429 0.42292887686598318 0 -0.031919390115468592 0.43731523803437639 0 -0.040921016067960683 0.42696168173004623 0 -0.040921016067960683 0.42696168173004623 0 -0.054353202937776589 0.42965008727840359 0 -0.044308249003753443 0.43751716184810541 0 -0.039740731062658248 0.39766097023093039 0 -0.035969056143799152 0.41442950858280148 0 -0.047970528742634397 0.41670082552171511 0 -0.029249535666225429 0.42292887686598318 0 -0.040921016067960683 0.42696168173004623 0 -0.035969056143799152 0.41442950858280148 0 -0.040921016067960683 0.42696168173004623 0 -0.035969056143799152 0.41442950858280148 0 -0.047970528742634397 0.41670082552171511 0 -0.039740731062658248 0.39766097023093039 0 -0.058204587144322653 0.4073911492592886 0 -0.047970528742634397 0.41670082552171511 0 -0.058204587144322653 0.4073911492592886 0 -0.047970528742634397 0.41670082552171511 0 -0.054353202937776589 0.42965008727840359 0 -0.040921016067960683 0.42696168173004623 0 -0.047970528742634397 0.41670082552171511 0 -0.054353202937776589 0.42965008727840359 0 -0.054353202937776589 0.42965008727840359 0 -0.049186279304297087 0.45233597982056151 0 -0.074223737474278212 0.44381104555037182 0 -0.054353202937776589 0.42965008727840359 0 -0.049186279304297087 0.45233597982056151 0 -0.044308249003753443 0.43751716184810541 0 -0.049186279304297087 0.45233597982056151 0 -0.043120470515969803 0.47639427788858563 0 -0.069195525465020322 0.47261460932804128 0 -0.049186279304297087 0.45233597982056151 0 -0.033619035154952313 0.45878121621491869 0 -0.043120470515969803 0.47639427788858563 0 -0.031919390115468592 0.43731523803437639 0 -0.049186279304297087 0.45233597982056151 0 -0.033045433981081507 0.44737446475112219 0 -0.031919390115468592 0.43731523803437639 0 -0.049186279304297087 0.45233597982056151 0 -0.044308249003753443 0.43751716184810541 0 -0.031919390115468592 0.43731523803437639 0 -0.049186279304297087 0.45233597982056151 0 -0.049186279304297087 0.45233597982056151 0 -0.033619035154952313 0.45878121621491869 0 -0.033045433981081507 0.44737446475112219 0 -0.031919390115468592 0.43731523803437639 0 -0.033045433981081507 0.44737446475112219 0 -0.026571902000830028 0.44124928293268428 0 -0.02615499401391504 0.43449189222614759 0 -0.031919390115468592 0.43731523803437639 0 -0.026571902000830028 0.44124928293268428 0 -0.02615499401391504 0.43449189222614759 0 -0.026571902000830028 0.44124928293268428 0 -0.017852508102859269 0.43947328490805171 0 -0.017852508102859269 0.43947328490805171 0 -0.023887183790825751 0.44759153474372371 0 -0.013761996974452359 0.44606192331623967 0 -0.026571902000830028 0.44124928293268428 0 -0.017852508102859269 0.43947328490805171 0 -0.023887183790825751 0.44759153474372371 0 -0.023887183790825751 0.44759153474372371 0 -0.017272011611414669 0.45656072486886012 0 -0.013761996974452359 0.44606192331623967 0 -0.033619035154952313 0.45878121621491869 0 -0.033045433981081507 0.44737446475112219 0 -0.023887183790825751 0.44759153474372371 0 -0.033045433981081507 0.44737446475112219 0 -0.026571902000830028 0.44124928293268428 0 -0.023887183790825751 0.44759153474372371 0 -0.033619035154952313 0.45878121621491869 0 -0.023887183790825751 0.44759153474372371 0 -0.017272011611414669 0.45656072486886012 0 -0.033619035154952313 0.45878121621491869 0 -0.017272011611414669 0.45656072486886012 0 -0.020077694831220589 0.47479788772600362 0 -0.017272011611414669 0.45656072486886012 0 -0.00469897694132939 0.46326950737036948 0 -0.020077694831220589 0.47479788772600362 0 -0.017272011611414669 0.45656072486886012 0 -0.00469897694132939 0.46326950737036948 0 -0.0046805405167990952 0.44910465089531287 0 -0.00469897694132939 0.46326950737036948 0 -0.0046805405167990952 0.44910465089531287 0 0.0056488567216386636 0.45351705879088522 0 -0.0046805405167990952 0.44910465089531287 0 -0.0059786262913216247 0.43795886887328661 0 0.0081070481641373152 0.43806399088304138 0 -0.0046805405167990952 0.44910465089531287 0 -0.0059786262913216247 0.43795886887328661 0 -0.013761996974452359 0.44606192331623967 0 -0.017852508102859269 0.43947328490805171 0 -0.0059786262913216247 0.43795886887328661 0 -0.013761996974452359 0.44606192331623967 0 -0.017272011611414669 0.45656072486886012 0 -0.0046805405167990952 0.44910465089531287 0 -0.013761996974452359 0.44606192331623967 0 -0.00035200391082259452 0.47812999780262511 0 -0.020077694831220589 0.47479788772600362 0 0.00053564386205745551 0.5 0 -0.00469897694132939 0.46326950737036948 0 -0.00035200391082259452 0.47812999780262511 0 -0.020077694831220589 0.47479788772600362 0 -0.020077694831220589 0.47479788772600362 0 -0.028436710331901319 0.5 0 -0.043120470515969803 0.47639427788858563 0 -0.020077694831220589 0.47479788772600362 0 -0.028436710331901319 0.5 0 0.00053564386205745551 0.5 0 -0.028436710331901319 0.5 0 -0.043120470515969803 0.47639427788858563 0 -0.057409064525860247 0.5 0 -0.033619035154952313 0.45878121621491869 0 -0.020077694831220589 0.47479788772600362 0 -0.043120470515969803 0.47639427788858563 0 -0.043120470515969803 0.47639427788858563 0 -0.057409064525860247 0.5 0 -0.069195525465020322 0.47261460932804128 0 -0.057409064525860247 0.5 0 -0.086381418719819081 0.5 0 -0.069195525465020322 0.47261460932804128 0 -0.069195525465020322 0.47261460932804128 0 -0.088926494312717042 0.45821613952733442 0 -0.09428171111674051 0.47701654958129153 0 -0.086381418719819081 0.5 0 -0.069195525465020322 0.47261460932804128 0 -0.09428171111674051 0.47701654958129153 0 -0.069195525465020322 0.47261460932804128 0 -0.074223737474278212 0.44381104555037182 0 -0.088926494312717042 0.45821613952733442 0 -0.049186279304297087 0.45233597982056151 0 -0.069195525465020322 0.47261460932804128 0 -0.074223737474278212 0.44381104555037182 0 -0.074223737474278212 0.44381104555037182 0 -0.088926494312717042 0.45821613952733442 0 -0.09596182558140795 0.43789019878106361 0 -0.088926494312717042 0.45821613952733442 0 -0.1109696719261383 0.45974829439590398 0 -0.09428171111674051 0.47701654958129153 0 -0.1189282844760139 0.43536593157966708 0 -0.09596182558140795 0.43789019878106361 0 -0.1109696719261383 0.45974829439590398 0 -0.088926494312717042 0.45821613952733442 0 -0.09596182558140795 0.43789019878106361 0 -0.1109696719261383 0.45974829439590398 0 -0.13088558583442089 0.45167413568938708 0 -0.1189282844760139 0.43536593157966708 0 -0.1109696719261383 0.45974829439590398 0 -0.13373884339090261 0.47557617957858389 0 -0.1109696719261383 0.45974829439590398 0 -0.1141237746416347 0.47940548337254069 0 -0.13373884339090261 0.47557617957858389 0 -0.1141237746416347 0.47940548337254069 0 -0.11535377291377789 0.5 0 -0.086381418719819081 0.5 0 -0.11535377291377789 0.5 0 -0.09428171111674051 0.47701654958129153 0 -0.1141237746416347 0.47940548337254069 0 -0.11535377291377789 0.5 0 -0.09428171111674051 0.47701654958129153 0 -0.1109696719261383 0.45974829439590398 0 -0.1141237746416347 0.47940548337254069 0 -0.09428171111674051 0.47701654958129153 0 -0.17348976586334849 0.079887779897340916 0 -0.1696164118372612 0.1016174745002046 0 -0.15399340220072069 0.081459774572564064 0 -0.16088497586709849 0.063638991902549513 0 -0.17348976586334849 0.079887779897340916 0 -0.15399340220072069 0.081459774572564064 0 -0.16088497586709849 0.063638991902549513 0 -0.17348976586334849 0.079887779897340916 0 -0.17615770434854441 0.05745533482241548 0 -0.17348976586334849 0.079887779897340916 0 -0.17615770434854441 0.05745533482241548 0 -0.19677893922949691 0.068275250036547594 0 -0.17348976586334849 0.079887779897340916 0 -0.1696164118372612 0.1016174745002046 0 -0.19041624211781921 0.086580034520248567 0 -0.17348976586334849 0.079887779897340916 0 -0.19041624211781921 0.086580034520248567 0 -0.19677893922949691 0.068275250036547594 0 -0.1696164118372612 0.1016174745002046 0 -0.19041624211781921 0.086580034520248567 0 -0.18877317656792111 0.10794581800089011 0 -0.1696164118372612 0.1016174745002046 0 -0.19041624211781921 0.086580034520248567 0 -0.17404513054266879 0.1206179902112888 0 -0.19927367952863489 0.12458106594242011 0 -0.18877317656792111 0.10794581800089011 0 -0.17404513054266879 0.1206179902112888 0 -0.19927367952863489 0.12458106594242011 0 -0.17404513054266879 0.1206179902112888 0 -0.1696164118372612 0.1016174745002046 0 -0.18877317656792111 0.10794581800089011 0 -0.17404513054266879 0.1206179902112888 0 -0.14881658155670241 0.11665491448015949 0 -0.17404513054266879 0.1206179902112888 0 -0.1696164118372612 0.1016174745002046 0 -0.14881658155670241 0.11665491448015949 0 -0.1696164118372612 0.1016174745002046 0 -0.15217637582304341 0.099398279025334421 0 -0.15399340220072069 0.081459774572564064 0 -0.1696164118372612 0.1016174745002046 0 -0.15217637582304341 0.099398279025334421 0 -0.14881658155670241 0.11665491448015949 0 -0.1696164118372612 0.1016174745002046 0 -0.14881658155670241 0.11665491448015949 0 -0.15217637582304341 0.099398279025334421 0 -0.14881658155670241 0.11665491448015949 0 -0.1353254054621674 0.094385846219822211 0 -0.14881658155670241 0.11665491448015949 0 -0.12721589412208939 0.1218882594083532 0 -0.12345988444543771 0.1126717083512925 0 -0.14881658155670241 0.11665491448015949 0 -0.12345988444543771 0.1126717083512925 0 -0.14881658155670241 0.11665491448015949 0 -0.12721589412208939 0.1218882594083532 0 -0.12726689902970731 0.1322344674484224 0 -0.14881658155670241 0.11665491448015949 0 -0.12726689902970731 0.1322344674484224 0 -0.14881658155670241 0.11665491448015949 0 -0.1353254054621674 0.094385846219822211 0 -0.12345988444543771 0.1126717083512925 0 -0.1353254054621674 0.094385846219822211 0 -0.1279733391106079 0.071515946478439521 0 -0.1137519520098519 0.091263435447627689 0 -0.1353254054621674 0.094385846219822211 0 -0.15399340220072069 0.081459774572564064 0 -0.1279733391106079 0.071515946478439521 0 -0.15217637582304341 0.099398279025334421 0 -0.1353254054621674 0.094385846219822211 0 -0.15399340220072069 0.081459774572564064 0 -0.16088497586709849 0.063638991902549513 0 -0.15399340220072069 0.081459774572564064 0 -0.1446255277475057 0.053216831723664947 0 -0.15399340220072069 0.081459774572564064 0 -0.1446255277475057 0.053216831723664947 0 -0.15399340220072069 0.081459774572564064 0 -0.1279733391106079 0.071515946478439521 0 -0.1446255277475057 0.053216831723664947 0 -0.1279733391106079 0.071515946478439521 0 -0.1282659440503772 0.05062747076680825 0 -0.1446255277475057 0.053216831723664947 0 -0.1282659440503772 0.05062747076680825 0 -0.13525765329429071 0.02497388887476577 0 -0.1211464216853696 0.034366647401566537 0 -0.1282659440503772 0.05062747076680825 0 -0.13525765329429071 0.02497388887476577 0 -0.1282659440503772 0.05062747076680825 0 -0.1446255277475057 0.053216831723664947 0 -0.13525765329429071 0.02497388887476577 0 -0.1446255277475057 0.053216831723664947 0 -0.13525765329429071 0.02497388887476577 0 -0.1446255277475057 0.053216831723664947 0 -0.13525765329429071 0.02497388887476577 0 -0.15047957583104421 0.029588002999855499 0 -0.1446255277475057 0.053216831723664947 0 -0.15047957583104421 0.029588002999855499 0 -0.16252664716862039 0.041216889162184758 0 -0.16088497586709849 0.063638991902549513 0 -0.1446255277475057 0.053216831723664947 0 -0.16252664716862039 0.041216889162184758 0 -0.12854145031494629 0.0047253962359545196 0 -0.13525765329429071 0.02497388887476577 0 -0.14227034481614481 -0.00075667999809755221 0 -0.12854145031494629 0.0047253962359545196 0 -0.13525765329429071 0.02497388887476577 0 -0.14227034481614481 -0.00075667999809755221 0 -0.13525765329429071 0.02497388887476577 0 -0.12854145031494629 0.0047253962359545196 0 -0.13525765329429071 0.02497388887476577 0 -0.1208102929131879 0.019110855516149189 0 -0.13525765329429071 0.02497388887476577 0 -0.1208102929131879 0.019110855516149189 0 -0.1211464216853696 0.034366647401566537 0 -0.15047957583104421 0.029588002999855499 0 -0.14706113464461801 0.01436993230445968 0 -0.1629269163001858 0.014162472934202339 0 -0.13525765329429071 0.02497388887476577 0 -0.15047957583104421 0.029588002999855499 0 -0.14706113464461801 0.01436993230445968 0 -0.14227034481614481 -0.00075667999809755221 0 -0.1629269163001858 0.014162472934202339 0 -0.14227034481614481 -0.00075667999809755221 0 -0.13525765329429071 0.02497388887476577 0 -0.14706113464461801 0.01436993230445968 0 -0.14227034481614481 -0.00075667999809755221 0 -0.14706113464461801 0.01436993230445968 0 -0.1629269163001858 0.014162472934202339 0 -0.14227034481614481 -0.00075667999809755221 0 -0.1645487358015624 -0.0051850797321069536 0 -0.1629269163001858 0.014162472934202339 0 -0.1645487358015624 -0.0051850797321069536 0 -0.1629269163001858 0.014162472934202339 0 -0.17677062004640959 0.0057961302073779933 0 -0.1629269163001858 0.014162472934202339 0 -0.18358348778422709 0.029081625866501929 0 -0.16252664716862039 0.041216889162184758 0 -0.15047957583104421 0.029588002999855499 0 -0.1629269163001858 0.014162472934202339 0 -0.16252664716862039 0.041216889162184758 0 -0.1629269163001858 0.014162472934202339 0 -0.18358348778422709 0.029081625866501929 0 -0.17677062004640959 0.0057961302073779933 0 -0.1629269163001858 0.014162472934202339 0 -0.18358348778422709 0.029081625866501929 0 -0.18358348778422709 0.029081625866501929 0 -0.17677062004640959 0.0057961302073779933 0 -0.1934257132969133 0.0045407741827038824 0 -0.16088497586709849 0.063638991902549513 0 -0.16252664716862039 0.041216889162184758 0 -0.17615770434854441 0.05745533482241548 0 -0.18358348778422709 0.029081625866501929 0 -0.16252664716862039 0.041216889162184758 0 -0.17615770434854441 0.05745533482241548 0 -0.17615770434854441 0.05745533482241548 0 -0.20424005926826841 0.044000778798801529 0 -0.19677893922949691 0.068275250036547594 0 -0.18358348778422709 0.029081625866501929 0 -0.17615770434854441 0.05745533482241548 0 -0.20424005926826841 0.044000778798801529 0 -0.18358348778422709 0.029081625866501929 0 -0.20424005926826841 0.044000778798801529 0 -0.20424005926826841 0.044000778798801529 0 -0.21598828344653609 0.017597038748402231 0 -0.224113516331827 0.036890149338559573 0 -0.20424005926826841 0.044000778798801529 0 -0.2248966307523097 0.058919931731101133 0 -0.224113516331827 0.036890149338559573 0 -0.20424005926826841 0.044000778798801529 0 -0.2248966307523097 0.058919931731101133 0 -0.20424005926826841 0.044000778798801529 0 -0.2248966307523097 0.058919931731101133 0 -0.19677893922949691 0.068275250036547594 0 -0.18358348778422709 0.029081625866501929 0 -0.1934257132969133 0.0045407741827038824 0 -0.21598828344653609 0.017597038748402231 0 -0.2099765986836159 -0.015482271656309349 0 -0.1934257132969133 0.0045407741827038824 0 -0.21598828344653609 0.017597038748402231 0 -0.18358348778422709 0.029081625866501929 0 -0.20424005926826841 0.044000778798801529 0 -0.21598828344653609 0.017597038748402231 0 -0.2099765986836159 -0.015482271656309349 0 -0.21598828344653609 0.017597038748402231 0 -0.2337160865262925 0.0017344760905013 0 -0.21598828344653609 0.017597038748402231 0 -0.2337160865262925 0.0017344760905013 0 -0.24480270143120561 0.02233487227316935 0 -0.21598828344653609 0.017597038748402231 0 -0.24480270143120561 0.02233487227316935 0 -0.224113516331827 0.036890149338559573 0 -0.2524730899657871 0.002620317666743947 0 -0.2337160865262925 0.0017344760905013 0 -0.24480270143120561 0.02233487227316935 0 -0.2248966307523097 0.058919931731101133 0 -0.224113516331827 0.036890149338559573 0 -0.24024320109540551 0.04521008630310229 0 -0.26271753236154932 0.044364767317522487 0 -0.24480270143120561 0.02233487227316935 0 -0.24024320109540551 0.04521008630310229 0 -0.24480270143120561 0.02233487227316935 0 -0.224113516331827 0.036890149338559573 0 -0.24024320109540551 0.04521008630310229 0 -0.26271753236154932 0.044364767317522487 0 -0.24024320109540551 0.04521008630310229 0 -0.24668631091984261 0.064293202763862828 0 -0.2248966307523097 0.058919931731101133 0 -0.24024320109540551 0.04521008630310229 0 -0.24668631091984261 0.064293202763862828 0 -0.2248966307523097 0.058919931731101133 0 -0.24668631091984261 0.064293202763862828 0 -0.23243709748815139 0.076531488539811732 0 -0.24668631091984261 0.064293202763862828 0 -0.2495686801242398 0.087265410611016947 0 -0.23243709748815139 0.076531488539811732 0 -0.2495686801242398 0.087265410611016947 0 -0.23243709748815139 0.076531488539811732 0 -0.22866823982239901 0.094294722123053731 0 -0.23243709748815139 0.076531488539811732 0 -0.21267272615531099 0.079283366312309339 0 -0.22866823982239901 0.094294722123053731 0 -0.2248966307523097 0.058919931731101133 0 -0.23243709748815139 0.076531488539811732 0 -0.21267272615531099 0.079283366312309339 0 -0.2248966307523097 0.058919931731101133 0 -0.21267272615531099 0.079283366312309339 0 -0.19677893922949691 0.068275250036547594 0 -0.21267272615531099 0.079283366312309339 0 -0.21051441881322139 0.1063325248302885 0 -0.22866823982239901 0.094294722123053731 0 -0.21267272615531099 0.079283366312309339 0 -0.19041624211781921 0.086580034520248567 0 -0.21051441881322139 0.1063325248302885 0 -0.21267272615531099 0.079283366312309339 0 -0.19041624211781921 0.086580034520248567 0 -0.19677893922949691 0.068275250036547594 0 -0.19927367952863489 0.12458106594242011 0 -0.18877317656792111 0.10794581800089011 0 -0.21051441881322139 0.1063325248302885 0 -0.19041624211781921 0.086580034520248567 0 -0.18877317656792111 0.10794581800089011 0 -0.21051441881322139 0.1063325248302885 0 -0.19927367952863489 0.12458106594242011 0 -0.21051441881322139 0.1063325248302885 0 -0.224502228514601 0.12854414167355149 0 -0.21051441881322139 0.1063325248302885 0 -0.22687499499750299 0.11063878907536689 0 -0.224502228514601 0.12854414167355149 0 -0.22687499499750299 0.11063878907536689 0 -0.24412649612905951 0.1109158123134662 0 -0.224502228514601 0.12854414167355149 0 -0.21051441881322139 0.1063325248302885 0 -0.22687499499750299 0.11063878907536689 0 -0.22866823982239901 0.094294722123053731 0 -0.22687499499750299 0.11063878907536689 0 -0.22866823982239901 0.094294722123053731 0 -0.24412649612905951 0.1109158123134662 0 -0.2495686801242398 0.087265410611016947 0 -0.22866823982239901 0.094294722123053731 0 -0.24412649612905951 0.1109158123134662 0 -0.24412649612905951 0.1109158123134662 0 -0.24973077750056691 0.1325072174046828 0 -0.224502228514601 0.12854414167355149 0 -0.24973077750056691 0.1325072174046828 0 -0.224502228514601 0.12854414167355149 0 -0.24973077750056691 0.1325072174046828 0 -0.224502228514601 0.12854414167355149 0 -0.23770474379765569 0.14572798188505259 0 -0.224502228514601 0.12854414167355149 0 -0.22336859145923479 0.1477660237334307 0 -0.20943410751635569 0.14218354848884249 0 -0.224502228514601 0.12854414167355149 0 -0.22336859145923479 0.1477660237334307 0 -0.23770474379765569 0.14572798188505259 0 -0.22336859145923479 0.1477660237334307 0 -0.23770474379765569 0.14572798188505259 0 -0.23342627763902901 0.16274660850939349 0 -0.23770474379765569 0.14572798188505259 0 -0.2427454588960159 0.15600237108861231 0 -0.23342627763902901 0.16274660850939349 0 -0.24973077750056691 0.1325072174046828 0 -0.23770474379765569 0.14572798188505259 0 -0.24924630865098449 0.14877550299698519 0 -0.2427454588960159 0.15600237108861231 0 -0.24924630865098449 0.14877550299698519 0 -0.24978662902869239 0.1607216890103832 0 -0.23770474379765569 0.14572798188505259 0 -0.2427454588960159 0.15600237108861231 0 -0.24924630865098449 0.14877550299698519 0 -0.2427454588960159 0.15600237108861231 0 -0.24978662902869239 0.1607216890103832 0 -0.24301335523323081 0.16406317629058911 0 -0.24301335523323081 0.16406317629058911 0 -0.24862860930106331 0.16890331838918241 0 -0.240942347428349 0.17264993376214019 0 -0.24978662902869239 0.1607216890103832 0 -0.24301335523323081 0.16406317629058911 0 -0.24862860930106331 0.16890331838918241 0 -0.24301335523323081 0.16406317629058911 0 -0.240942347428349 0.17264993376214019 0 -0.23342627763902901 0.16274660850939349 0 -0.2427454588960159 0.15600237108861231 0 -0.24301335523323081 0.16406317629058911 0 -0.23342627763902901 0.16274660850939349 0 -0.25111163591805252 0.1841976838221375 0 -0.23496317464669361 0.18069225438726541 0 -0.240942347428349 0.17264993376214019 0 -0.23496317464669361 0.18069225438726541 0 -0.240942347428349 0.17264993376214019 0 -0.23342627763902901 0.16274660850939349 0 -0.25111163591805252 0.1841976838221375 0 -0.24862860930106331 0.16890331838918241 0 -0.240942347428349 0.17264993376214019 0 -0.23496317464669361 0.18069225438726541 0 -0.23342627763902901 0.16274660850939349 0 -0.21647907694494439 0.1789195528632305 0 -0.23496317464669361 0.18069225438726541 0 -0.21647907694494439 0.1789195528632305 0 -0.2387365590242915 0.20049379810163989 0 -0.23342627763902901 0.16274660850939349 0 -0.211775599828533 0.15962783811031361 0 -0.21647907694494439 0.1789195528632305 0 -0.22336859145923479 0.1477660237334307 0 -0.23342627763902901 0.16274660850939349 0 -0.211775599828533 0.15962783811031361 0 -0.199470824461848 0.17507955454859611 0 -0.1879280205716112 0.15255574775594721 0 -0.17977473624208171 0.1853360913231806 0 -0.211775599828533 0.15962783811031361 0 -0.21647907694494439 0.1789195528632305 0 -0.199470824461848 0.17507955454859611 0 -0.21647907694494439 0.1789195528632305 0 -0.199470824461848 0.17507955454859611 0 -0.2081757220394867 0.1982417329150345 0 -0.199470824461848 0.17507955454859611 0 -0.2081757220394867 0.1982417329150345 0 -0.17977473624208171 0.1853360913231806 0 -0.211775599828533 0.15962783811031361 0 -0.199470824461848 0.17507955454859611 0 -0.1879280205716112 0.15255574775594721 0 -0.211775599828533 0.15962783811031361 0 -0.1879280205716112 0.15255574775594721 0 -0.20943410751635569 0.14218354848884249 0 -0.19927367952863489 0.12458106594242011 0 -0.1879280205716112 0.15255574775594721 0 -0.20943410751635569 0.14218354848884249 0 -0.19927367952863489 0.12458106594242011 0 -0.1879280205716112 0.15255574775594721 0 -0.1757150071063692 0.13887834498908769 0 -0.19927367952863489 0.12458106594242011 0 -0.224502228514601 0.12854414167355149 0 -0.19927367952863489 0.12458106594242011 0 -0.224502228514601 0.12854414167355149 0 -0.20943410751635569 0.14218354848884249 0 -0.22336859145923479 0.1477660237334307 0 -0.211775599828533 0.15962783811031361 0 -0.20943410751635569 0.14218354848884249 0 -0.25063676029139842 0.25291648499014979 0 -0.22581874712784181 0.24950462809828861 0 -0.24646114111524919 0.23035723292487079 0 -0.22581874712784181 0.24950462809828861 0 -0.24646114111524919 0.23035723292487079 0 -0.22581874712784181 0.24950462809828861 0 -0.24646114111524919 0.23035723292487079 0 -0.2176305339160132 0.22045305475365759 0 -0.2387365590242915 0.20049379810163989 0 -0.2081757220394867 0.1982417329150345 0 -0.2176305339160132 0.22045305475365759 0 -0.24646114111524919 0.23035723292487079 0 -0.2387365590242915 0.20049379810163989 0 -0.2176305339160132 0.22045305475365759 0 -0.25111163591805252 0.1841976838221375 0 -0.23496317464669361 0.18069225438726541 0 -0.2387365590242915 0.20049379810163989 0 -0.21647907694494439 0.1789195528632305 0 -0.2387365590242915 0.20049379810163989 0 -0.2081757220394867 0.1982417329150345 0 -0.2081757220394867 0.1982417329150345 0 -0.19002279763753049 0.21209062673740631 0 -0.17977473624208171 0.1853360913231806 0 -0.2081757220394867 0.1982417329150345 0 -0.19002279763753049 0.21209062673740631 0 -0.2176305339160132 0.22045305475365759 0 -0.1941330333909061 0.25332751519580893 0 -0.22581874712784181 0.24950462809828861 0 -0.19470996406475399 0.23250526641025479 0 -0.22581874712784181 0.24950462809828861 0 -0.2176305339160132 0.22045305475365759 0 -0.19470996406475399 0.23250526641025479 0 -0.19002279763753049 0.21209062673740631 0 -0.2176305339160132 0.22045305475365759 0 -0.19470996406475399 0.23250526641025479 0 -0.1941330333909061 0.25332751519580893 0 -0.19470996406475399 0.23250526641025479 0 -0.1782134140010995 0.24383171336387921 0 -0.16028035532114809 0.24095137339685299 0 -0.1782134140010995 0.24383171336387921 0 -0.17324033540093581 0.22758961415680959 0 -0.17233362975044281 0.25981348251711189 0 -0.16028035532114809 0.24095137339685299 0 -0.1782134140010995 0.24383171336387921 0 -0.19470996406475399 0.23250526641025479 0 -0.1782134140010995 0.24383171336387921 0 -0.17324033540093581 0.22758961415680959 0 -0.19002279763753049 0.21209062673740631 0 -0.19470996406475399 0.23250526641025479 0 -0.17324033540093581 0.22758961415680959 0 -0.17324033540093581 0.22758961415680959 0 -0.1666054941619117 0.208418000865501 0 -0.1480072220466232 0.22786576534106021 0 -0.16028035532114809 0.24095137339685299 0 -0.17324033540093581 0.22758961415680959 0 -0.1480072220466232 0.22786576534106021 0 -0.19002279763753049 0.21209062673740631 0 -0.17324033540093581 0.22758961415680959 0 -0.1666054941619117 0.208418000865501 0 -0.19002279763753049 0.21209062673740631 0 -0.1666054941619117 0.208418000865501 0 -0.17977473624208171 0.1853360913231806 0 -0.1666054941619117 0.208418000865501 0 -0.15976741859491131 0.18992808813747719 0 -0.17977473624208171 0.1853360913231806 0 -0.1666054941619117 0.208418000865501 0 -0.15976741859491131 0.18992808813747719 0 -0.14534279361802749 0.20890229283806661 0 -0.15976741859491131 0.18992808813747719 0 -0.14534279361802749 0.20890229283806661 0 -0.1407945234641233 0.18482174999163201 0 -0.14534279361802749 0.20890229283806661 0 -0.1407945234641233 0.18482174999163201 0 -0.1172277749103794 0.20095475110947431 0 -0.1407945234641233 0.18482174999163201 0 -0.1172277749103794 0.20095475110947431 0 -0.14534279361802749 0.20890229283806661 0 -0.129593653586069 0.22987375058400089 0 -0.1172277749103794 0.20095475110947431 0 -0.1666054941619117 0.208418000865501 0 -0.14534279361802749 0.20890229283806661 0 -0.1480072220466232 0.22786576534106021 0 -0.14534279361802749 0.20890229283806661 0 -0.1480072220466232 0.22786576534106021 0 -0.129593653586069 0.22987375058400089 0 -0.1361912156991702 0.2509193869946269 0 -0.1480072220466232 0.22786576534106021 0 -0.129593653586069 0.22987375058400089 0 -0.1361912156991702 0.2509193869946269 0 -0.10922751000722319 0.25423984994727239 0 -0.129593653586069 0.22987375058400089 0 -0.1361912156991702 0.2509193869946269 0 -0.16028035532114809 0.24095137339685299 0 -0.1480072220466232 0.22786576534106021 0 -0.1757150071063692 0.13887834498908769 0 -0.16436127201786729 0.1686887488737896 0 -0.15527460173017479 0.13959394704839051 0 -0.17404513054266879 0.1206179902112888 0 -0.14881658155670241 0.11665491448015949 0 -0.15527460173017479 0.13959394704839051 0 -0.17404513054266879 0.1206179902112888 0 -0.1757150071063692 0.13887834498908769 0 -0.15527460173017479 0.13959394704839051 0 -0.17404513054266879 0.1206179902112888 0 -0.19927367952863489 0.12458106594242011 0 -0.1757150071063692 0.13887834498908769 0 -0.1879280205716112 0.15255574775594721 0 -0.1757150071063692 0.13887834498908769 0 -0.16436127201786729 0.1686887488737896 0 -0.1879280205716112 0.15255574775594721 0 -0.16436127201786729 0.1686887488737896 0 -0.1879280205716112 0.15255574775594721 0 -0.17977473624208171 0.1853360913231806 0 -0.16436127201786729 0.1686887488737896 0 -0.15976741859491131 0.18992808813747719 0 -0.17977473624208171 0.1853360913231806 0 -0.16436127201786729 0.1686887488737896 0 -0.16436127201786729 0.1686887488737896 0 -0.1414427201277329 0.16048921628759369 0 -0.1407945234641233 0.18482174999163201 0 -0.16436127201786729 0.1686887488737896 0 -0.1414427201277329 0.16048921628759369 0 -0.15527460173017479 0.13959394704839051 0 -0.15976741859491131 0.18992808813747719 0 -0.16436127201786729 0.1686887488737896 0 -0.1407945234641233 0.18482174999163201 0 -0.16436127201786729 0.1686887488737896 0 -0.1407945234641233 0.18482174999163201 0 -0.1414427201277329 0.16048921628759369 0 -0.1407945234641233 0.18482174999163201 0 -0.11956230798128489 0.17115410820802321 0 -0.1407945234641233 0.18482174999163201 0 -0.11956230798128489 0.17115410820802321 0 -0.1172277749103794 0.20095475110947431 0 -0.1414427201277329 0.16048921628759369 0 -0.12349728591035911 0.15292295309018089 0 -0.11956230798128489 0.17115410820802321 0 -0.1414427201277329 0.16048921628759369 0 -0.12726689902970731 0.1322344674484224 0 -0.12349728591035911 0.15292295309018089 0 -0.1414427201277329 0.16048921628759369 0 -0.15527460173017479 0.13959394704839051 0 -0.12726689902970731 0.1322344674484224 0 -0.14881658155670241 0.11665491448015949 0 -0.15527460173017479 0.13959394704839051 0 -0.12726689902970731 0.1322344674484224 0 -0.12726689902970731 0.1322344674484224 0 -0.1104230650096248 0.13171968845455501 0 -0.11722390332147729 0.12410673834242721 0 -0.12726689902970731 0.1322344674484224 0 -0.10571721650271131 0.14781402041668409 0 -0.12721589412208939 0.1218882594083532 0 -0.12726689902970731 0.1322344674484224 0 -0.11722390332147729 0.12410673834242721 0 -0.12726689902970731 0.1322344674484224 0 -0.1104230650096248 0.13171968845455501 0 -0.10571721650271131 0.14781402041668409 0 -0.1104230650096248 0.13171968845455501 0 -0.11722390332147729 0.12410673834242721 0 -0.1039749755523806 0.1197529745502216 0 -0.1104230650096248 0.13171968845455501 0 -0.09793233064184742 0.13469024151501979 0 -0.10571721650271131 0.14781402041668409 0 -0.1104230650096248 0.13171968845455501 0 -0.09793233064184742 0.13469024151501979 0 -0.1039749755523806 0.1197529745502216 0 -0.09793233064184742 0.13469024151501979 0 -0.090147444780984159 0.1215664626133551 0 -0.1039749755523806 0.1197529745502216 0 -0.09793233064184742 0.13469024151501979 0 -0.090147444780984159 0.1215664626133551 0 -0.10022319018901429 0.15178598027530579 0 -0.10571721650271131 0.14781402041668409 0 -0.100592491601928 0.1641348710231644 0 -0.09793233064184742 0.13469024151501979 0 -0.10022319018901429 0.15178598027530579 0 -0.088570217575017665 0.14909953178787161 0 -0.09793233064184742 0.13469024151501979 0 -0.10022319018901429 0.15178598027530579 0 -0.10571721650271131 0.14781402041668409 0 -0.10022319018901429 0.15178598027530579 0 -0.100592491601928 0.1641348710231644 0 -0.088570217575017665 0.14909953178787161 0 -0.09793233064184742 0.13469024151501979 0 -0.10571721650271131 0.14781402041668409 0 -0.10022319018901429 0.15178598027530579 0 -0.10571721650271131 0.14781402041668409 0 -0.12726689902970731 0.1322344674484224 0 -0.10571721650271131 0.14781402041668409 0 -0.12349728591035911 0.15292295309018089 0 -0.10571721650271131 0.14781402041668409 0 -0.11956230798128489 0.17115410820802321 0 -0.10571721650271131 0.14781402041668409 0 -0.12349728591035911 0.15292295309018089 0 -0.11956230798128489 0.17115410820802321 0 -0.11956230798128489 0.17115410820802321 0 -0.1172277749103794 0.20095475110947431 0 -0.099945077419318185 0.1880428515803251 0 -0.100592491601928 0.1641348710231644 0 -0.086992990369050283 0.17663260096238809 0 -0.099945077419318185 0.1880428515803251 0 -0.11956230798128489 0.17115410820802321 0 -0.100592491601928 0.1641348710231644 0 -0.099945077419318185 0.1880428515803251 0 -0.10571721650271131 0.14781402041668409 0 -0.11956230798128489 0.17115410820802321 0 -0.100592491601928 0.1641348710231644 0 -0.086992990369050283 0.17663260096238809 0 -0.088570217575017665 0.14909953178787161 0 -0.100592491601928 0.1641348710231644 0 -0.086992990369050283 0.17663260096238809 0 -0.088570217575017665 0.14909953178787161 0 -0.086992990369050283 0.17663260096238809 0 -0.072589899597420543 0.14887428562548169 0 -0.088570217575017665 0.14909953178787161 0 -0.086992990369050283 0.17663260096238809 0 -0.063894129047148862 0.1650376703087133 0 -0.05625069453368306 0.18905923167239511 0 -0.086992990369050283 0.17663260096238809 0 -0.063894129047148862 0.1650376703087133 0 -0.072589899597420543 0.14887428562548169 0 -0.072589899597420543 0.14887428562548169 0 -0.06590759652169037 0.13295191886843549 0 -0.054209437220826093 0.14404286126910709 0 -0.063894129047148862 0.1650376703087133 0 -0.072589899597420543 0.14887428562548169 0 -0.054209437220826093 0.14404286126910709 0 -0.072589899597420543 0.14887428562548169 0 -0.077649500547541633 0.1337144130427613 0 -0.081466929396170229 0.14067965887600961 0 -0.077649500547541633 0.1337144130427613 0 -0.0646612294316979 0.11746634593915781 0 -0.06590759652169037 0.13295191886843549 0 -0.077649500547541633 0.1337144130427613 0 -0.0646612294316979 0.11746634593915781 0 -0.072589899597420543 0.14887428562548169 0 -0.06590759652169037 0.13295191886843549 0 -0.077649500547541633 0.1337144130427613 0 -0.09793233064184742 0.13469024151501979 0 -0.088570217575017665 0.14909953178787161 0 -0.090147444780984159 0.1215664626133551 0 -0.077649500547541633 0.1337144130427613 0 -0.081466929396170229 0.14067965887600961 0 -0.090147444780984159 0.1215664626133551 0 -0.088570217575017665 0.14909953178787161 0 -0.090147444780984159 0.1215664626133551 0 -0.088570217575017665 0.14909953178787161 0 -0.081466929396170229 0.14067965887600961 0 -0.090147444780984159 0.1215664626133551 0 -0.072589899597420543 0.14887428562548169 0 -0.088570217575017665 0.14909953178787161 0 -0.081466929396170229 0.14067965887600961 0 -0.10922751000722319 0.25423984994727239 0 -0.094964645419233662 0.23776362328900039 0 -0.1095596925946687 0.22738819136088401 0 -0.10922751000722319 0.25423984994727239 0 -0.086782026885810326 0.25706796878206128 0 -0.094964645419233662 0.23776362328900039 0 -0.10922751000722319 0.25423984994727239 0 -0.129593653586069 0.22987375058400089 0 -0.1095596925946687 0.22738819136088401 0 -0.129593653586069 0.22987375058400089 0 -0.1095596925946687 0.22738819136088401 0 -0.1172277749103794 0.20095475110947431 0 -0.094964645419233662 0.23776362328900039 0 -0.1095596925946687 0.22738819136088401 0 -0.093661026356635549 0.2170877522273166 0 -0.1095596925946687 0.22738819136088401 0 -0.1172277749103794 0.20095475110947431 0 -0.093661026356635549 0.2170877522273166 0 -0.1172277749103794 0.20095475110947431 0 -0.093661026356635549 0.2170877522273166 0 -0.1172277749103794 0.20095475110947431 0 -0.099945077419318185 0.1880428515803251 0 -0.093661026356635549 0.2170877522273166 0 -0.086992990369050283 0.17663260096238809 0 -0.099945077419318185 0.1880428515803251 0 -0.081633873296630952 0.19829302595158421 0 -0.099945077419318185 0.1880428515803251 0 -0.081633873296630952 0.19829302595158421 0 -0.093661026356635549 0.2170877522273166 0 -0.086992990369050283 0.17663260096238809 0 -0.081633873296630952 0.19829302595158421 0 -0.05625069453368306 0.18905923167239511 0 -0.081633873296630952 0.19829302595158421 0 -0.06799562246031074 0.21240704661297341 0 -0.05625069453368306 0.18905923167239511 0 -0.081633873296630952 0.19829302595158421 0 -0.06799562246031074 0.21240704661297341 0 -0.093661026356635549 0.2170877522273166 0 -0.093661026356635549 0.2170877522273166 0 -0.07009427780289168 0.23322075334515899 0 -0.094964645419233662 0.23776362328900039 0 -0.093661026356635549 0.2170877522273166 0 -0.07009427780289168 0.23322075334515899 0 -0.06799562246031074 0.21240704661297341 0 -0.093661026356635549 0.2170877522273166 0 -0.07009427780289168 0.23322075334515899 0 -0.086782026885810326 0.25706796878206128 0 -0.094964645419233662 0.23776362328900039 0 -0.07009427780289168 0.23322075334515899 0 -0.027654839422797509 0.25479998940689619 0 -0.046527529249147832 0.24935375446300129 0 -0.02270416718690367 0.23320904479819149 0 -0.046527529249147832 0.24935375446300129 0 -0.046000864338903782 0.22330500769394071 0 -0.02270416718690367 0.23320904479819149 0 -0.064865955853641535 0.26008420970769919 0 -0.07009427780289168 0.23322075334515899 0 -0.046527529249147832 0.24935375446300129 0 -0.07009427780289168 0.23322075334515899 0 -0.046527529249147832 0.24935375446300129 0 -0.046000864338903782 0.22330500769394071 0 -0.07009427780289168 0.23322075334515899 0 -0.046527529249147832 0.24935375446300129 0 -0.06799562246031074 0.21240704661297341 0 -0.07009427780289168 0.23322075334515899 0 -0.046000864338903782 0.22330500769394071 0 -0.046000864338903782 0.22330500769394071 0 -0.030234205272074242 0.20256309249700941 0 -0.02270416718690367 0.23320904479819149 0 -0.046000864338903782 0.22330500769394071 0 -0.05625069453368306 0.18905923167239511 0 -0.030234205272074242 0.20256309249700941 0 -0.06799562246031074 0.21240704661297341 0 -0.046000864338903782 0.22330500769394071 0 -0.05625069453368306 0.18905923167239511 0 -0.05625069453368306 0.18905923167239511 0 -0.030234205272074242 0.20256309249700941 0 -0.03061326786726383 0.17324629624753771 0 -0.030234205272074242 0.20256309249700941 0 -0.03061326786726383 0.17324629624753771 0 -0.030234205272074242 0.20256309249700941 0 -0.0081117985611391628 0.20020632315256379 0 -0.008277806428889329 0.1819306387007438 0 -0.0081117985611391628 0.20020632315256379 0 -0.008277806428889329 0.1819306387007438 0 0.0093175891669755994 0.19835633455436341 0 -0.030234205272074242 0.20256309249700941 0 -0.0081117985611391628 0.20020632315256379 0 -0.0032527717105686848 0.21797522685813861 0 -0.0081117985611391628 0.20020632315256379 0 -0.0032527717105686848 0.21797522685813861 0 0.0093175891669755994 0.19835633455436341 0 -0.030234205272074242 0.20256309249700941 0 -0.0032527717105686848 0.21797522685813861 0 -0.02270416718690367 0.23320904479819149 0 -0.0032527717105686848 0.21797522685813861 0 -0.02270416718690367 0.23320904479819149 0 -0.00048021596502030199 0.2357461893728382 0 -0.0094860428890609812 0.25201589383169298 0 -0.00048021596502030199 0.2357461893728382 0 0.0093766357309573133 0.25077498028374479 0 -0.0094860428890609812 0.25201589383169298 0 -0.02270416718690367 0.23320904479819149 0 -0.00048021596502030199 0.2357461893728382 0 -0.027654839422797509 0.25479998940689619 0 -0.0094860428890609812 0.25201589383169298 0 -0.02270416718690367 0.23320904479819149 0 -0.054209437220826093 0.14404286126910709 0 -0.04634768948269552 0.1624068823523549 0 -0.030992330462453411 0.14392949999806631 0 -0.045454154559358563 0.12904929269066689 0 -0.030992330462453411 0.14392949999806631 0 -0.031371393057642999 0.1146127037485947 0 -0.045454154559358563 0.12904929269066689 0 -0.054209437220826093 0.14404286126910709 0 -0.030992330462453411 0.14392949999806631 0 -0.06590759652169037 0.13295191886843549 0 -0.05879027741877238 0.11708509885199481 0 -0.045454154559358563 0.12904929269066689 0 -0.056390966733964237 0.12769105290705379 0 -0.054209437220826093 0.14404286126910709 0 -0.06590759652169037 0.13295191886843549 0 -0.056390966733964237 0.12769105290705379 0 -0.054209437220826093 0.14404286126910709 0 -0.06590759652169037 0.13295191886843549 0 -0.056390966733964237 0.12769105290705379 0 -0.05879027741877238 0.11708509885199481 0 -0.045454154559358563 0.12904929269066689 0 -0.056390966733964237 0.12769105290705379 0 -0.051479425587896109 0.1218600148332348 0 -0.063894129047148862 0.1650376703087133 0 -0.054209437220826093 0.14404286126910709 0 -0.04634768948269552 0.1624068823523549 0 -0.063894129047148862 0.1650376703087133 0 -0.05625069453368306 0.18905923167239511 0 -0.04634768948269552 0.1624068823523549 0 -0.05625069453368306 0.18905923167239511 0 -0.04634768948269552 0.1624068823523549 0 -0.03061326786726383 0.17324629624753771 0 -0.04634768948269552 0.1624068823523549 0 -0.03061326786726383 0.17324629624753771 0 -0.030992330462453411 0.14392949999806631 0 -0.03061326786726383 0.17324629624753771 0 -0.030992330462453411 0.14392949999806631 0 -0.03061326786726383 0.17324629624753771 0 -0.0051377206325900274 0.16075989213823061 0 -0.015220901238395109 0.14805579041894559 0 -0.030234205272074242 0.20256309249700941 0 -0.03061326786726383 0.17324629624753771 0 -0.008277806428889329 0.1819306387007438 0 -0.008277806428889329 0.1819306387007438 0 -0.0051377206325900274 0.16075989213823061 0 0.010984318894288241 0.17357290817306409 0 -0.03061326786726383 0.17324629624753771 0 -0.008277806428889329 0.1819306387007438 0 -0.0051377206325900274 0.16075989213823061 0 -0.0051377206325900274 0.16075989213823061 0 -0.015220901238395109 0.14805579041894559 0 -0.00094612486944474711 0.13739524991114199 0 -0.015220901238395109 0.14805579041894559 0 -0.030992330462453411 0.14392949999806631 0 -0.018153437610692939 0.1319608073280002 0 -0.03061326786726383 0.17324629624753771 0 -0.015220901238395109 0.14805579041894559 0 -0.030992330462453411 0.14392949999806631 0 -0.030992330462453411 0.14392949999806631 0 -0.031371393057642999 0.1146127037485947 0 -0.030992330462453411 0.14392949999806631 0 -0.018153437610692939 0.1319608073280002 0 -0.031371393057642999 0.1146127037485947 0 -0.018153437610692939 0.1319608073280002 0 -0.00094612486944474711 0.13739524991114199 0 -0.012921853350251779 0.1163043731888329 0 -0.015220901238395109 0.14805579041894559 0 -0.018153437610692939 0.1319608073280002 0 -0.00094612486944474711 0.13739524991114199 0 -0.00094612486944474711 0.13739524991114199 0 -0.012921853350251779 0.1163043731888329 0 0.012511556787723111 0.11653562190985491 0 -0.012921853350251779 0.1163043731888329 0 -0.01356323801996244 0.095919082315836804 0 -0.012921853350251779 0.1163043731888329 0 -0.01356323801996244 0.095919082315836804 0 0.003395107760267988 0.098820241130360406 0 -0.012921853350251779 0.1163043731888329 0 -0.01356323801996244 0.095919082315836804 0 -0.023549313639099921 0.1042351462617262 0 -0.01356323801996244 0.095919082315836804 0 -0.023549313639099921 0.1042351462617262 0 -0.02499486458352651 0.08949636628360412 0 -0.023549313639099921 0.1042351462617262 0 -0.02499486458352651 0.08949636628360412 0 -0.034595661280334873 0.1000365731109655 0 -0.023549313639099921 0.1042351462617262 0 -0.031371393057642999 0.1146127037485947 0 -0.034595661280334873 0.1000365731109655 0 -0.018153437610692939 0.1319608073280002 0 -0.012921853350251779 0.1163043731888329 0 -0.031371393057642999 0.1146127037485947 0 -0.012921853350251779 0.1163043731888329 0 -0.023549313639099921 0.1042351462617262 0 -0.031371393057642999 0.1146127037485947 0 -0.01420462268967311 0.07553379144284067 0 -0.01484600735938396 0.055148500569844612 0 -0.01420462268967311 0.07553379144284067 0 -0.0073480863309807248 0.06511532806321231 0 0.0041641368684680307 0.079593073860037625 0 -0.01420462268967311 0.07553379144284067 0 -0.0073480863309807248 0.06511532806321231 0 -0.01484600735938396 0.055148500569844612 0 -0.01356323801996244 0.095919082315836804 0 -0.01420462268967311 0.07553379144284067 0 -0.01356323801996244 0.095919082315836804 0 0.0041641368684680307 0.079593073860037625 0 0.003395107760267988 0.098820241130360406 0 -0.01356323801996244 0.095919082315836804 0 -0.01420462268967311 0.07553379144284067 0 0.0041641368684680307 0.079593073860037625 0 -0.01420462268967311 0.07553379144284067 0 -0.02499486458352651 0.08949636628360412 0 -0.033259482837619127 0.078183389702699266 0 -0.01356323801996244 0.095919082315836804 0 -0.01420462268967311 0.07553379144284067 0 -0.02499486458352651 0.08949636628360412 0 -0.01420462268967311 0.07553379144284067 0 -0.033259482837619127 0.078183389702699266 0 -0.01484600735938396 0.055148500569844612 0 -0.033259482837619127 0.078183389702699266 0 -0.01484600735938396 0.055148500569844612 0 -0.033259482837619127 0.078183389702699266 0 -0.032809657758508692 0.059165844410249108 0 -0.01484600735938396 0.055148500569844612 0 -0.042241308037181513 0.080192061622901559 0 -0.047585925872300691 0.061630732305623298 0 -0.032809657758508692 0.059165844410249108 0 -0.042241308037181513 0.080192061622901559 0 -0.033259482837619127 0.078183389702699266 0 -0.032809657758508692 0.059165844410249108 0 -0.042241308037181513 0.080192061622901559 0 -0.032809657758508692 0.059165844410249108 0 -0.033259482837619127 0.078183389702699266 0 -0.051672958315854292 0.10121827883555411 0 -0.042241308037181513 0.080192061622901559 0 -0.033259482837619127 0.078183389702699266 0 -0.051672958315854292 0.10121827883555411 0 -0.033259482837619127 0.078183389702699266 0 -0.036130741754333701 0.092233651983205739 0 -0.051672958315854292 0.10121827883555411 0 -0.02499486458352651 0.08949636628360412 0 -0.033259482837619127 0.078183389702699266 0 -0.036130741754333701 0.092233651983205739 0 -0.042241308037181513 0.080192061622901559 0 -0.058522641354164427 0.084868902593020851 0 -0.051672958315854292 0.10121827883555411 0 -0.042241308037181513 0.080192061622901559 0 -0.058522641354164427 0.084868902593020851 0 -0.052782379898891341 0.073052188486330272 0 -0.042241308037181513 0.080192061622901559 0 -0.051672958315854292 0.10121827883555411 0 -0.058522641354164427 0.084868902593020851 0 -0.052782379898891341 0.073052188486330272 0 -0.062779644331918738 0.065517057423775393 0 -0.042241308037181513 0.080192061622901559 0 -0.052782379898891341 0.073052188486330272 0 -0.047585925872300691 0.061630732305623298 0 -0.052782379898891341 0.073052188486330272 0 -0.062779644331918738 0.065517057423775393 0 -0.047585925872300691 0.061630732305623298 0 -0.045454154559358563 0.12904929269066689 0 -0.045282303639489249 0.11361461488322371 0 -0.031371393057642999 0.1146127037485947 0 -0.045282303639489249 0.11361461488322371 0 -0.031371393057642999 0.1146127037485947 0 -0.034595661280334873 0.1000365731109655 0 -0.045282303639489249 0.11361461488322371 0 -0.034595661280334873 0.1000365731109655 0 -0.051672958315854292 0.10121827883555411 0 -0.036130741754333701 0.092233651983205739 0 -0.034595661280334873 0.1000365731109655 0 -0.051672958315854292 0.10121827883555411 0 -0.02499486458352651 0.08949636628360412 0 -0.036130741754333701 0.092233651983205739 0 -0.034595661280334873 0.1000365731109655 0 -0.051672958315854292 0.10121827883555411 0 -0.05879027741877238 0.11708509885199481 0 -0.051672958315854292 0.10121827883555411 0 -0.0646612294316979 0.11746634593915781 0 -0.067227529136232464 0.104139845395124 0 -0.058522641354164427 0.084868902593020851 0 -0.051672958315854292 0.10121827883555411 0 -0.062407480998421097 0.095387275034714641 0 -0.051672958315854292 0.10121827883555411 0 -0.0646612294316979 0.11746634593915781 0 -0.051672958315854292 0.10121827883555411 0 -0.062407480998421097 0.095387275034714641 0 -0.067227529136232464 0.104139845395124 0 -0.045282303639489249 0.11361461488322371 0 -0.051672958315854292 0.10121827883555411 0 -0.05879027741877238 0.11708509885199481 0 -0.051672958315854292 0.10121827883555411 0 -0.05879027741877238 0.11708509885199481 0 -0.0646612294316979 0.11746634593915781 0 -0.045282303639489249 0.11361461488322371 0 -0.05879027741877238 0.11708509885199481 0 -0.051479425587896109 0.1218600148332348 0 -0.045454154559358563 0.12904929269066689 0 -0.045282303639489249 0.11361461488322371 0 -0.051479425587896109 0.1218600148332348 0 -0.056390966733964237 0.12769105290705379 0 -0.05879027741877238 0.11708509885199481 0 -0.051479425587896109 0.1218600148332348 0 -0.06590759652169037 0.13295191886843549 0 -0.05879027741877238 0.11708509885199481 0 -0.0646612294316979 0.11746634593915781 0 -0.077649500547541633 0.1337144130427613 0 -0.0646612294316979 0.11746634593915781 0 -0.077250524547315055 0.1190056300655471 0 -0.0646612294316979 0.11746634593915781 0 -0.072579100774863431 0.1117640223410216 0 -0.067227529136232464 0.104139845395124 0 -0.0646612294316979 0.11746634593915781 0 -0.072579100774863431 0.1117640223410216 0 -0.077250524547315055 0.1190056300655471 0 -0.072579100774863431 0.1117640223410216 0 -0.077250524547315055 0.1190056300655471 0 -0.081177119984208346 0.1064442679642575 0 -0.090147444780984159 0.1215664626133551 0 -0.091543658900217872 0.097193271622335806 0 -0.077649500547541633 0.1337144130427613 0 -0.077250524547315055 0.1190056300655471 0 -0.090147444780984159 0.1215664626133551 0 -0.090147444780984159 0.1215664626133551 0 -0.081177119984208346 0.1064442679642575 0 -0.077250524547315055 0.1190056300655471 0 -0.090147444780984159 0.1215664626133551 0 -0.081177119984208346 0.1064442679642575 0 -0.081177119984208346 0.1064442679642575 0 -0.072206795187433184 0.091322073315159472 0 -0.084285244340110616 0.086320250912613777 0 -0.090147444780984159 0.1215664626133551 0 -0.091543658900217872 0.097193271622335806 0 -0.081177119984208346 0.1064442679642575 0 -0.091543658900217872 0.097193271622335806 0 -0.081177119984208346 0.1064442679642575 0 -0.084285244340110616 0.086320250912613777 0 -0.081177119984208346 0.1064442679642575 0 -0.072206795187433184 0.091322073315159472 0 -0.081177119984208346 0.1064442679642575 0 -0.067227529136232464 0.104139845395124 0 -0.072206795187433184 0.091322073315159472 0 -0.072579100774863431 0.1117640223410216 0 -0.081177119984208346 0.1064442679642575 0 -0.067227529136232464 0.104139845395124 0 -0.062407480998421097 0.095387275034714641 0 -0.067227529136232464 0.104139845395124 0 -0.072206795187433184 0.091322073315159472 0 -0.058522641354164427 0.084868902593020851 0 -0.072206795187433184 0.091322073315159472 0 -0.076800310080739509 0.075601905871829023 0 -0.058522641354164427 0.084868902593020851 0 -0.062407480998421097 0.095387275034714641 0 -0.072206795187433184 0.091322073315159472 0 -0.072206795187433184 0.091322073315159472 0 -0.076800310080739509 0.075601905871829023 0 -0.084285244340110616 0.086320250912613777 0 -0.058522641354164427 0.084868902593020851 0 -0.076800310080739509 0.075601905871829023 0 -0.062779644331918738 0.065517057423775393 0 -0.076800310080739509 0.075601905871829023 0 -0.062779644331918738 0.065517057423775393 0 -0.079997976438854396 0.060367567436758772 0 -0.076800310080739509 0.075601905871829023 0 -0.092939873019450725 0.072820080631316536 0 -0.079997976438854396 0.060367567436758772 0 -0.091543658900217872 0.097193271622335806 0 -0.092939873019450725 0.072820080631316536 0 -0.091543658900217872 0.097193271622335806 0 -0.092939873019450725 0.072820080631316536 0 -0.084285244340110616 0.086320250912613777 0 -0.076800310080739509 0.075601905871829023 0 -0.092939873019450725 0.072820080631316536 0 -0.084285244340110616 0.086320250912613777 0 -0.091543658900217872 0.097193271622335806 0 -0.092939873019450725 0.072820080631316536 0 -0.101174121091891 0.086377094572215457 0 -0.101174121091891 0.086377094572215457 0 -0.1040440195742668 0.069855162543962623 0 -0.1137519520098519 0.091263435447627689 0 -0.1040440195742668 0.069855162543962623 0 -0.1137519520098519 0.091263435447627689 0 -0.092939873019450725 0.072820080631316536 0 -0.1040440195742668 0.069855162543962623 0 -0.094336087138682481 0.0484468896402971 0 -0.092939873019450725 0.072820080631316536 0 -0.101174121091891 0.086377094572215457 0 -0.1040440195742668 0.069855162543962623 0 -0.1279733391106079 0.071515946478439521 0 -0.1040440195742668 0.069855162543962623 0 -0.1137519520098519 0.091263435447627689 0 -0.1279733391106079 0.071515946478439521 0 -0.1040440195742668 0.069855162543962623 0 -0.11580712272936559 0.059803104074626863 0 -0.1137519520098519 0.091263435447627689 0 -0.12345988444543771 0.1126717083512925 0 -0.1137519520098519 0.091263435447627689 0 -0.12345988444543771 0.1126717083512925 0 -0.1151130251402205 0.111360525708085 0 -0.1137519520098519 0.091263435447627689 0 -0.1151130251402205 0.111360525708085 0 -0.10231499109429081 0.105962760933106 0 -0.1353254054621674 0.094385846219822211 0 -0.1137519520098519 0.091263435447627689 0 -0.12345988444543771 0.1126717083512925 0 -0.12345988444543771 0.1126717083512925 0 -0.1213090409757021 0.1165718139569934 0 -0.1151130251402205 0.111360525708085 0 -0.12345988444543771 0.1126717083512925 0 -0.1151130251402205 0.111360525708085 0 -0.12721589412208939 0.1218882594083532 0 -0.12345988444543771 0.1126717083512925 0 -0.1213090409757021 0.1165718139569934 0 -0.1213090409757021 0.1165718139569934 0 -0.11722390332147729 0.12410673834242721 0 -0.1151130251402205 0.111360525708085 0 -0.12721589412208939 0.1218882594083532 0 -0.1213090409757021 0.1165718139569934 0 -0.11722390332147729 0.12410673834242721 0 -0.11722390332147729 0.12410673834242721 0 -0.1151130251402205 0.111360525708085 0 -0.1039749755523806 0.1197529745502216 0 -0.1151130251402205 0.111360525708085 0 -0.1039749755523806 0.1197529745502216 0 -0.10231499109429081 0.105962760933106 0 -0.090147444780984159 0.1215664626133551 0 -0.1039749755523806 0.1197529745502216 0 -0.10231499109429081 0.105962760933106 0 -0.101174121091891 0.086377094572215457 0 -0.1137519520098519 0.091263435447627689 0 -0.10231499109429081 0.105962760933106 0 -0.090147444780984159 0.1215664626133551 0 -0.091543658900217872 0.097193271622335806 0 -0.10231499109429081 0.105962760933106 0 -0.091543658900217872 0.097193271622335806 0 -0.101174121091891 0.086377094572215457 0 -0.10231499109429081 0.105962760933106 0 -0.1073132388810286 0.018089109947672641 0 -0.098119734365623962 0.02414088096917336 0 -0.1066230036403176 0.031793070199818543 0 -0.1073132388810286 0.018089109947672641 0 -0.098119734365623962 0.02414088096917336 0 -0.097977441946633964 0.0094916619937897833 0 -0.1073132388810286 0.018089109947672641 0 -0.097977441946633964 0.0094916619937897833 0 -0.1140720588942809 0.0050049600080688426 0 -0.1036825067246547 -0.0045004818770412319 0 -0.097977441946633964 0.0094916619937897833 0 -0.1140720588942809 0.0050049600080688426 0 -0.1073132388810286 0.018089109947672641 0 -0.1140720588942809 0.0050049600080688426 0 -0.1208102929131879 0.019110855516149189 0 -0.12854145031494629 0.0047253962359545196 0 -0.1140720588942809 0.0050049600080688426 0 -0.1208102929131879 0.019110855516149189 0 -0.1073132388810286 0.018089109947672641 0 -0.1208102929131879 0.019110855516149189 0 -0.1066230036403176 0.031793070199818543 0 -0.1208102929131879 0.019110855516149189 0 -0.1211464216853696 0.034366647401566537 0 -0.1066230036403176 0.031793070199818543 0 -0.1282659440503772 0.05062747076680825 0 -0.1211464216853696 0.034366647401566537 0 -0.113637224202901 0.045737731808065459 0 -0.1211464216853696 0.034366647401566537 0 -0.113637224202901 0.045737731808065459 0 -0.1066230036403176 0.031793070199818543 0 -0.1279733391106079 0.071515946478439521 0 -0.1282659440503772 0.05062747076680825 0 -0.11580712272936559 0.059803104074626863 0 -0.1282659440503772 0.05062747076680825 0 -0.113637224202901 0.045737731808065459 0 -0.11580712272936559 0.059803104074626863 0 -0.113637224202901 0.045737731808065459 0 -0.11580712272936559 0.059803104074626863 0 -0.1064902946575948 0.054397096674777087 0 -0.1040440195742668 0.069855162543962623 0 -0.094336087138682481 0.0484468896402971 0 -0.1040440195742668 0.069855162543962623 0 -0.1064902946575948 0.054397096674777087 0 -0.094336087138682481 0.0484468896402971 0 -0.1040440195742668 0.069855162543962623 0 -0.11580712272936559 0.059803104074626863 0 -0.1064902946575948 0.054397096674777087 0 -0.113637224202901 0.045737731808065459 0 -0.1064902946575948 0.054397096674777087 0 -0.1031878219457707 0.043961369800563768 0 -0.1064902946575948 0.054397096674777087 0 -0.094336087138682481 0.0484468896402971 0 -0.1031878219457707 0.043961369800563768 0 -0.113637224202901 0.045737731808065459 0 -0.1066230036403176 0.031793070199818543 0 -0.1031878219457707 0.043961369800563768 0 -0.094336087138682481 0.0484468896402971 0 -0.094852500089358305 0.03943206067986027 0 -0.094336087138682481 0.0484468896402971 0 -0.1031878219457707 0.043961369800563768 0 -0.094852500089358305 0.03943206067986027 0 -0.098119734365623962 0.02414088096917336 0 -0.1066230036403176 0.031793070199818543 0 -0.094852500089358305 0.03943206067986027 0 -0.1066230036403176 0.031793070199818543 0 -0.1031878219457707 0.043961369800563768 0 -0.094852500089358305 0.03943206067986027 0 -0.094336087138682481 0.0484468896402971 0 -0.082911399898925958 0.023252768864263591 0 -0.094336087138682481 0.0484468896402971 0 -0.094852500089358305 0.03943206067986027 0 -0.082911399898925958 0.023252768864263591 0 -0.094336087138682481 0.0484468896402971 0 -0.073438101562964625 0.043486265427885883 0 -0.082911399898925958 0.023252768864263591 0 -0.092939873019450725 0.072820080631316536 0 -0.094336087138682481 0.0484468896402971 0 -0.094336087138682481 0.0484468896402971 0 -0.079997976438854396 0.060367567436758772 0 -0.073438101562964625 0.043486265427885883 0 -0.092939873019450725 0.072820080631316536 0 -0.094336087138682481 0.0484468896402971 0 -0.079997976438854396 0.060367567436758772 0 -0.062779644331918738 0.065517057423775393 0 -0.079997976438854396 0.060367567436758772 0 -0.073438101562964625 0.043486265427885883 0 -0.062779644331918738 0.065517057423775393 0 -0.073438101562964625 0.043486265427885883 0 -0.054503868893867748 0.041851647607949807 0 -0.073438101562964625 0.043486265427885883 0 -0.062578360643045852 0.02574828308206829 0 -0.054503868893867748 0.041851647607949807 0 -0.062578360643045852 0.02574828308206829 0 -0.082911399898925958 0.023252768864263591 0 -0.067886445085581046 0.01462192264763457 0 -0.073438101562964625 0.043486265427885883 0 -0.062578360643045852 0.02574828308206829 0 -0.082911399898925958 0.023252768864263591 0 -0.062578360643045852 0.02574828308206829 0 -0.067886445085581046 0.01462192264763457 0 -0.05888757556048424 0.01666972161550118 0 -0.098119734365623962 0.02414088096917336 0 -0.094852500089358305 0.03943206067986027 0 -0.082911399898925958 0.023252768864263591 0 -0.098119734365623962 0.02414088096917336 0 -0.097977441946633964 0.0094916619937897833 0 -0.082911399898925958 0.023252768864263591 0 -0.097977441946633964 0.0094916619937897833 0 -0.082911399898925958 0.023252768864263591 0 -0.086234308810735433 0.0065585250410969426 0 -0.071486712659171142 -0.0019413519117704699 0 -0.082911399898925958 0.023252768864263591 0 -0.086234308810735433 0.0065585250410969426 0 -0.093508846051188102 -0.0061041289967056463 0 -0.097977441946633964 0.0094916619937897833 0 -0.086234308810735433 0.0065585250410969426 0 -0.071486712659171142 -0.0019413519117704699 0 -0.082911399898925958 0.023252768864263591 0 -0.071486712659171142 -0.0019413519117704699 0 -0.082911399898925958 0.023252768864263591 0 -0.067886445085581046 0.01462192264763457 0 -0.071486712659171142 -0.0019413519117704699 0 -0.067886445085581046 0.01462192264763457 0 -0.058857403057493998 0.0081224429401774746 0 -0.071486712659171142 -0.0019413519117704699 0 -0.058857403057493998 0.0081224429401774746 0 -0.071486712659171142 -0.0019413519117704699 0 -0.058512249514306398 -0.002368351541725492 0 -0.058857403057493998 0.0081224429401774746 0 -0.058512249514306398 -0.002368351541725492 0 -0.049233894485270643 0.011503911400245049 0 -0.058857403057493998 0.0081224429401774746 0 -0.048711118495682479 -0.0061251760765778174 0 -0.058512249514306398 -0.002368351541725492 0 -0.049233894485270643 0.011503911400245049 0 -0.048711118495682479 -0.0061251760765778174 0 -0.049233894485270643 0.011503911400245049 0 -0.049233894485270643 0.011503911400245049 0 -0.058857403057493998 0.0081224429401774746 0 -0.046228093455816077 0.018186237792124409 0 -0.058857403057493998 0.0081224429401774746 0 -0.05888757556048424 0.01666972161550118 0 -0.046228093455816077 0.018186237792124409 0 -0.058857403057493998 0.0081224429401774746 0 -0.046228093455816077 0.018186237792124409 0 -0.067886445085581046 0.01462192264763457 0 -0.058857403057493998 0.0081224429401774746 0 -0.05888757556048424 0.01666972161550118 0 -0.046228093455816077 0.018186237792124409 0 -0.054503868893867748 0.041851647607949807 0 -0.062578360643045852 0.02574828308206829 0 -0.05888757556048424 0.01666972161550118 0 -0.046228093455816077 0.018186237792124409 0 -0.062578360643045852 0.02574828308206829 0 -0.046228093455816077 0.018186237792124409 0 -0.054503868893867748 0.041851647607949807 0 -0.046228093455816077 0.018186237792124409 0 -0.040241798969962647 0.042729936019786897 0 -0.030729959695294792 0.0305360845908061 0 -0.046228093455816077 0.018186237792124409 0 -0.030729959695294792 0.0305360845908061 0 -0.046228093455816077 0.018186237792124409 0 -0.033825795338856927 0.018216443597219301 0 -0.030729959695294792 0.0305360845908061 0 -0.046228093455816077 0.018186237792124409 0 -0.033825795338856927 0.018216443597219301 0 -0.036717465160420883 0.008262852504746121 0 -0.036717465160420883 0.008262852504746121 0 -0.02910033452725326 0.0029567245890428999 0 -0.029920305692151161 0.012308941953208729 0 -0.033825795338856927 0.018216443597219301 0 -0.036717465160420883 0.008262852504746121 0 -0.029920305692151161 0.012308941953208729 0 -0.039385604979905842 -0.001380544215753877 0 -0.046228093455816077 0.018186237792124409 0 -0.048711118495682479 -0.0061251760765778174 0 -0.039385604979905842 -0.001380544215753877 0 -0.049233894485270643 0.011503911400245049 0 -0.039385604979905842 -0.001380544215753877 0 -0.046228093455816077 0.018186237792124409 0 -0.036717465160420883 0.008262852504746121 0 -0.039385604979905842 -0.001380544215753877 0 -0.049233894485270643 0.011503911400245049 0 -0.046228093455816077 0.018186237792124409 0 -0.039385604979905842 -0.001380544215753877 0 -0.036717465160420883 0.008262852504746121 0 -0.02910033452725326 0.0029567245890428999 0 -0.062779644331918738 0.065517057423775393 0 -0.047585925872300691 0.061630732305623298 0 -0.054503868893867748 0.041851647607949807 0 -0.047585925872300691 0.061630732305623298 0 -0.054503868893867748 0.041851647607949807 0 -0.040241798969962647 0.042729936019786897 0 -0.062779644331918738 0.065517057423775393 0 -0.054503868893867748 0.041851647607949807 0 -0.046228093455816077 0.018186237792124409 0 -0.054503868893867748 0.041851647607949807 0 -0.040241798969962647 0.042729936019786897 0 -0.040241798969962647 0.042729936019786897 0 -0.029593288143987921 0.045009069411968639 0 -0.030729959695294792 0.0305360845908061 0 -0.040241798969962647 0.042729936019786897 0 -0.032809657758508692 0.059165844410249108 0 -0.029593288143987921 0.045009069411968639 0 -0.047585925872300691 0.061630732305623298 0 -0.040241798969962647 0.042729936019786897 0 -0.032809657758508692 0.059165844410249108 0 -0.032809657758508692 0.059165844410249108 0 -0.02163240289465683 0.049224667569418117 0 -0.01484600735938396 0.055148500569844612 0 -0.032809657758508692 0.059165844410249108 0 -0.02163240289465683 0.049224667569418117 0 -0.029593288143987921 0.045009069411968639 0 -0.02163240289465683 0.049224667569418117 0 -0.01523182593477472 0.042885931389489262 0 -0.01484600735938396 0.055148500569844612 0 -0.01523182593477472 0.042885931389489262 0 -0.030729959695294792 0.0305360845908061 0 -0.015771306604266819 0.025739481080785401 0 -0.02163240289465683 0.049224667569418117 0 -0.029593288143987921 0.045009069411968639 0 -0.01523182593477472 0.042885931389489262 0 -0.029593288143987921 0.045009069411968639 0 -0.01523182593477472 0.042885931389489262 0 -0.030729959695294792 0.0305360845908061 0 -0.01523182593477472 0.042885931389489262 0 -0.030729959695294792 0.0305360845908061 0 -0.01523182593477472 0.042885931389489262 0 -0.015771306604266819 0.025739481080785401 0 0.0073509797018692508 0.027380514203351261 0 -0.01523182593477472 0.042885931389489262 0 -0.0090080882126249741 0.047845380609081098 0 0.0073509797018692508 0.027380514203351261 0 -0.0090080882126249741 0.047845380609081098 0 0.0073509797018692508 0.027380514203351261 0 -0.0090080882126249741 0.047845380609081098 0 0.0073509797018692508 0.027380514203351261 0 0.001355437152207279 0.045048782796608337 0 -0.01523182593477472 0.042885931389489262 0 -0.015771306604266819 0.025739481080785401 0 -0.01523182593477472 0.042885931389489262 0 -0.0090080882126249741 0.047845380609081098 0 -0.01523182593477472 0.042885931389489262 0 -0.0090080882126249741 0.047845380609081098 0 -0.01484600735938396 0.055148500569844612 0 -0.01523182593477472 0.042885931389489262 0 -0.01484600735938396 0.055148500569844612 0 -0.0090080882126249741 0.047845380609081098 0 -0.01484600735938396 0.055148500569844612 0 -0.0090080882126249741 0.047845380609081098 0 -0.0071669451097028103 0.055302039602462841 0 -0.01484600735938396 0.055148500569844612 0 -0.0090080882126249741 0.047845380609081098 0 -0.0071669451097028103 0.055302039602462841 0 0.00051255236017491712 0.055432000670325367 0 -0.0090080882126249741 0.047845380609081098 0 0.00051255236017491712 0.055432000670325367 0 0.001355437152207279 0.045048782796608337 0 -0.0090080882126249741 0.047845380609081098 0 0.00051255236017491712 0.055432000670325367 0 -0.0073480863309807248 0.06511532806321231 0 -0.0071669451097028103 0.055302039602462841 0 0.00051255236017491712 0.055432000670325367 0 -0.0073480863309807248 0.06511532806321231 0 0.00051255236017491712 0.055432000670325367 0 0.0037573804827743191 0.066098236800881907 0 -0.0073480863309807248 0.06511532806321231 0 -0.0071669451097028103 0.055302039602462841 0 -0.01484600735938396 0.055148500569844612 0 -0.020722876589424861 0.013103775220220571 0 -0.016748537139514911 0.002749501917021599 0 -0.02910033452725326 0.0029567245890428999 0 -0.0264311011064059 -0.0053787064823712667 0 -0.016748537139514911 0.002749501917021599 0 -0.02910033452725326 0.0029567245890428999 0 -0.020722876589424861 0.013103775220220571 0 -0.029920305692151161 0.012308941953208729 0 -0.025774004036591969 0.0211295166493062 0 -0.020722876589424861 0.013103775220220571 0 -0.02910033452725326 0.0029567245890428999 0 -0.029920305692151161 0.012308941953208729 0 -0.033825795338856927 0.018216443597219301 0 -0.029920305692151161 0.012308941953208729 0 -0.025774004036591969 0.0211295166493062 0 -0.033825795338856927 0.018216443597219301 0 -0.025774004036591969 0.0211295166493062 0 -0.030729959695294792 0.0305360845908061 0 -0.025774004036591969 0.0211295166493062 0 -0.030729959695294792 0.0305360845908061 0 -0.015771306604266819 0.025739481080785401 0 -0.020722876589424861 0.013103775220220571 0 -0.025774004036591969 0.0211295166493062 0 -0.015771306604266819 0.025739481080785401 0 -0.020722876589424861 0.013103775220220571 0 -0.015771306604266819 0.025739481080785401 0 -0.007263622882761298 0.01307990063605366 0 -0.015771306604266819 0.025739481080785401 0 -0.007263622882761298 0.01307990063605366 0 0.0073509797018692508 0.027380514203351261 0 -0.020722876589424861 0.013103775220220571 0 -0.016748537139514911 0.002749501917021599 0 -0.007263622882761298 0.01307990063605366 0 -0.0056325041382708106 -0.001671571725724148 0 -0.016748537139514911 0.002749501917021599 0 -0.007263622882761298 0.01307990063605366 0 -0.0056325041382708106 -0.001671571725724148 0 -0.007263622882761298 0.01307990063605366 0 0.005475147787082555 0.0053164928731475134 0 0.005475147787082555 0.0053164928731475134 0 0.0073509797018692508 0.027380514203351261 0 0.023710047616364659 0.0069156477976223402 0 0.005475147787082555 0.0053164928731475134 0 0.023710047616364659 0.0069156477976223402 0 0.01514139729703496 -0.0013759143423081031 0 -0.007263622882761298 0.01307990063605366 0 0.005475147787082555 0.0053164928731475134 0 0.0073509797018692508 0.027380514203351261 0 0.0073509797018692508 0.027380514203351261 0 0.023710047616364659 0.0069156477976223402 0 0.0073509797018692508 0.027380514203351261 0 0.02733374950784179 0.023412717288487529 0 0.02261058245129063 0.037447683157972651 0 0.0073509797018692508 0.027380514203351261 0 0.02733374950784179 0.023412717288487529 0 0.023710047616364659 0.0069156477976223402 0 0.02733374950784179 0.023412717288487529 0 0.02261058245129063 0.037447683157972651 0 0.04136501669684562 0.030132625938608212 0 0.02733374950784179 0.023412717288487529 0 0.023710047616364659 0.0069156477976223402 0 0.041142349573717651 0.014828253033845331 0 0.00051255236017491712 0.055432000670325367 0 0.0093714938661025871 0.048777303560609067 0 0.01488006872589609 0.065334490125391553 0 0.00051255236017491712 0.055432000670325367 0 0.0037573804827743191 0.066098236800881907 0 0.01488006872589609 0.065334490125391553 0 0.00051255236017491712 0.055432000670325367 0 0.0093714938661025871 0.048777303560609067 0 0.001355437152207279 0.045048782796608337 0 0.0073509797018692508 0.027380514203351261 0 0.01017212329286744 0.039663570929635329 0 0.001355437152207279 0.045048782796608337 0 0.0093714938661025871 0.048777303560609067 0 0.01017212329286744 0.039663570929635329 0 0.02261058245129063 0.037447683157972651 0 0.0093714938661025871 0.048777303560609067 0 0.01017212329286744 0.039663570929635329 0 0.001355437152207279 0.045048782796608337 0 0.0073509797018692508 0.027380514203351261 0 0.01017212329286744 0.039663570929635329 0 0.02261058245129063 0.037447683157972651 0 0.02261058245129063 0.037447683157972651 0 0.028794849824871991 0.054805307303607803 0 0.036435361368149219 0.042645621903522522 0 0.0093714938661025871 0.048777303560609067 0 0.028794849824871991 0.054805307303607803 0 0.0093714938661025871 0.048777303560609067 0 0.02261058245129063 0.037447683157972651 0 0.028794849824871991 0.054805307303607803 0 0.0093714938661025871 0.048777303560609067 0 0.028794849824871991 0.054805307303607803 0 0.01488006872589609 0.065334490125391553 0 0.028794849824871991 0.054805307303607803 0 0.036262839133043123 0.065048893889989884 0 0.01488006872589609 0.065334490125391553 0 0.028794849824871991 0.054805307303607803 0 0.048218205783641388 0.060833311046606553 0 0.028794849824871991 0.054805307303607803 0 0.048218205783641388 0.060833311046606553 0 0.036262839133043123 0.065048893889989884 0 0.028794849824871991 0.054805307303607803 0 0.042731825311289877 0.050550362504436099 0 0.048218205783641388 0.060833311046606553 0 0.028794849824871991 0.054805307303607803 0 0.042731825311289877 0.050550362504436099 0 0.036435361368149219 0.042645621903522522 0 0.02261058245129063 0.037447683157972651 0 0.036435361368149219 0.042645621903522522 0 0.04136501669684562 0.030132625938608212 0 0.042731825311289877 0.050550362504436099 0 0.036435361368149219 0.042645621903522522 0 0.048679804797522958 0.043387463735032918 0 0.036435361368149219 0.042645621903522522 0 0.048679804797522958 0.043387463735032918 0 0.04136501669684562 0.030132625938608212 0 0.058789220714268599 0.035293048251648737 0 0.048679804797522958 0.043387463735032918 0 0.04136501669684562 0.030132625938608212 0 0.058789220714268599 0.035293048251648737 0 0.048679804797522958 0.043387463735032918 0 0.062593630588101606 0.048399439101038867 0 0.059830647832711498 0.057385227103138918 0 0.048218205783641388 0.060833311046606553 0 0.067641561742410122 0.06686131478960744 0 0.042731825311289877 0.050550362504436099 0 0.048679804797522958 0.043387463735032918 0 0.052533540902801351 0.05262777509443322 0 0.042731825311289877 0.050550362504436099 0 0.052533540902801351 0.05262777509443322 0 0.048218205783641388 0.060833311046606553 0 0.048679804797522958 0.043387463735032918 0 0.052533540902801351 0.05262777509443322 0 0.062593630588101606 0.048399439101038867 0 0.052533540902801351 0.05262777509443322 0 0.059830647832711498 0.057385227103138918 0 0.062593630588101606 0.048399439101038867 0 0.052533540902801351 0.05262777509443322 0 0.059830647832711498 0.057385227103138918 0 0.048218205783641388 0.060833311046606553 0 0.023710047616364659 0.0069156477976223402 0 0.041142349573717651 0.014828253033845331 0 0.038337861133160352 0.00060673527080243631 0 0.041142349573717651 0.014828253033845331 0 0.038337861133160352 0.00060673527080243631 0 0.052195158055270842 0.001392625036369546 0 0.02733374950784179 0.023412717288487529 0 0.041142349573717651 0.014828253033845331 0 0.04136501669684562 0.030132625938608212 0 0.041142349573717651 0.014828253033845331 0 0.04136501669684562 0.030132625938608212 0 0.055561856281406953 0.020390708012910579 0 0.058789220714268599 0.035293048251648737 0 0.04136501669684562 0.030132625938608212 0 0.055561856281406953 0.020390708012910579 0 0.058789220714268599 0.035293048251648737 0 0.055561856281406953 0.020390708012910579 0 0.069101728619922254 0.02772418671942415 0 0.055561856281406953 0.020390708012910579 0 0.052195158055270842 0.001392625036369546 0 0.069471851171940491 0.012709774079378511 0 0.041142349573717651 0.014828253033845331 0 0.055561856281406953 0.020390708012910579 0 0.052195158055270842 0.001392625036369546 0 0.069471851171940491 0.012709774079378511 0 0.083713321977171906 0.0049096628315781782 0 0.067305906500593371 -0.0035502476455594621 0 0.052195158055270842 0.001392625036369546 0 0.069471851171940491 0.012709774079378511 0 0.067305906500593371 -0.0035502476455594621 0 0.083713321977171906 0.0049096628315781782 0 0.084252737378912146 0.025939642728357429 0 0.1051912895843372 0.01461872904413861 0 0.069471851171940491 0.012709774079378511 0 0.083713321977171906 0.0049096628315781782 0 0.084252737378912146 0.025939642728357429 0 0.069471851171940491 0.012709774079378511 0 0.084252737378912146 0.025939642728357429 0 0.069101728619922254 0.02772418671942415 0 0.055561856281406953 0.020390708012910579 0 0.069471851171940491 0.012709774079378511 0 0.069101728619922254 0.02772418671942415 0 0.058789220714268599 0.035293048251648737 0 0.069101728619922254 0.02772418671942415 0 0.07351969335439365 0.040178647166139128 0 0.058789220714268599 0.035293048251648737 0 0.07351969335439365 0.040178647166139128 0 0.062593630588101606 0.048399439101038867 0 0.084252737378912146 0.025939642728357429 0 0.069101728619922254 0.02772418671942415 0 0.07351969335439365 0.040178647166139128 0 0.059830647832711498 0.057385227103138918 0 0.067220230867089364 0.057267038159213378 0 0.067641561742410122 0.06686131478960744 0 0.059830647832711498 0.057385227103138918 0 0.067220230867089364 0.057267038159213378 0 0.062593630588101606 0.048399439101038867 0 0.067220230867089364 0.057267038159213378 0 0.062593630588101606 0.048399439101038867 0 0.077155592871813339 0.054890228159410553 0 0.07351969335439365 0.040178647166139128 0 0.062593630588101606 0.048399439101038867 0 0.077155592871813339 0.054890228159410553 0 0.067220230867089364 0.057267038159213378 0 0.077155592871813339 0.054890228159410553 0 0.067641561742410122 0.06686131478960744 0 0.077155592871813339 0.054890228159410553 0 0.086897300227746971 0.044263488603864587 0 0.095012931512713131 0.051281924307579267 0 0.077155592871813339 0.054890228159410553 0 0.095012931512713131 0.051281924307579267 0 0.087707435048790625 0.06829797288927511 0 0.084252737378912146 0.025939642728357429 0 0.07351969335439365 0.040178647166139128 0 0.086897300227746971 0.044263488603864587 0 0.084252737378912146 0.025939642728357429 0 0.086897300227746971 0.044263488603864587 0 0.1000879563071853 0.035367367349706642 0 0.07351969335439365 0.040178647166139128 0 0.077155592871813339 0.054890228159410553 0 0.086897300227746971 0.044263488603864587 0 0.086897300227746971 0.044263488603864587 0 0.1000879563071853 0.035367367349706642 0 0.095012931512713131 0.051281924307579267 0 0.1000879563071853 0.035367367349706642 0 0.095012931512713131 0.051281924307579267 0 0.1146582432576219 0.041758073050694788 0 0.1000879563071853 0.035367367349706642 0 0.1146582432576219 0.041758073050694788 0 0.1127403364677841 0.027206252356182799 0 0.095012931512713131 0.051281924307579267 0 0.1146582432576219 0.041758073050694788 0 0.10357106136312021 0.063114415792523262 0 0.1146582432576219 0.041758073050694788 0 0.10357106136312021 0.063114415792523262 0 0.095012931512713131 0.051281924307579267 0 0.10357106136312021 0.063114415792523262 0 0.087707435048790625 0.06829797288927511 0 0.1146582432576219 0.041758073050694788 0 0.10357106136312021 0.063114415792523262 0 0.13037822215607939 0.054354977955372967 0 0.10357106136312021 0.063114415792523262 0 0.13037822215607939 0.054354977955372967 0 0.1146582432576219 0.041758073050694788 0 0.1257454251521086 0.02040173030885872 0 0.12601828966856041 0.034779331412806522 0 0.1146582432576219 0.041758073050694788 0 0.12601828966856041 0.034779331412806522 0 0.13112590113666539 0.047018493875372019 0 0.1146582432576219 0.041758073050694788 0 0.1127403364677841 0.027206252356182799 0 0.1257454251521086 0.02040173030885872 0 0.1146582432576219 0.041758073050694788 0 0.1257454251521086 0.02040173030885872 0 0.1127403364677841 0.027206252356182799 0 0.1051912895843372 0.01461872904413861 0 0.1257454251521086 0.02040173030885872 0 0.1051912895843372 0.01461872904413861 0 0.1257454251521086 0.02040173030885872 0 0.1223363701530287 0.0096311158811146491 0 0.11501839911308701 0.003750665338283013 0 0.1051912895843372 0.01461872904413861 0 0.1223363701530287 0.0096311158811146491 0 0.1051912895843372 0.01461872904413861 0 0.1257454251521086 0.02040173030885872 0 0.1223363701530287 0.0096311158811146491 0 0.11501839911308701 0.003750665338283013 0 0.1254970565252467 -0.00055485016598096602 0 0.11501839911308701 0.003750665338283013 0 0.1070481035368254 0.00038461206621701738 0 0.1167036944564606 -0.0033909693209686429 0 0.083713321977171906 0.0049096628315781782 0 0.1051912895843372 0.01461872904413861 0 0.096288827351058495 -0.00076293681715209455 0 0.1051912895843372 0.01461872904413861 0 0.1070481035368254 0.00038461206621701738 0 0.096288827351058495 -0.00076293681715209455 0 0.11501839911308701 0.003750665338283013 0 0.1051912895843372 0.01461872904413861 0 0.1070481035368254 0.00038461206621701738 0 0.1000879563071853 0.035367367349706642 0 0.1127403364677841 0.027206252356182799 0 0.1051912895843372 0.01461872904413861 0 0.084252737378912146 0.025939642728357429 0 0.1000879563071853 0.035367367349706642 0 0.1051912895843372 0.01461872904413861 0 0.099892081851148895 0.1057249858405324 0 0.1020084042314941 0.092194493812721004 0 0.084254571308508608 0.1003222099913363 0 0.10829254285367999 0.09951402195448332 0 0.099892081851148895 0.1057249858405324 0 0.1111803490947679 0.11170049208988379 0 0.10829254285367999 0.09951402195448332 0 0.099892081851148895 0.1057249858405324 0 0.1020084042314941 0.092194493812721004 0 0.10829254285367999 0.09951402195448332 0 0.1137626826355071 0.090796769076676581 0 0.1020084042314941 0.092194493812721004 0 0.099892081851148895 0.1057249858405324 0 0.094045065294074304 0.1192150351408886 0 0.1111803490947679 0.11170049208988379 0 0.094045065294074304 0.1192150351408886 0 0.1111803490947679 0.11170049208988379 0 0.1132105913856591 0.12466981112322741 0 0.1111803490947679 0.11170049208988379 0 0.1132105913856591 0.12466981112322741 0 0.12457549596567841 0.11129332906836201 0 0.1132105913856591 0.12466981112322741 0 0.12457549596567841 0.11129332906836201 0 0.1132105913856591 0.12466981112322741 0 0.12335421623778491 0.1232769470562404 0 0.12457549596567841 0.11129332906836201 0 0.12335421623778491 0.1232769470562404 0 0.12457549596567841 0.11129332906836201 0 0.1111803490947679 0.11170049208988379 0 0.12457549596567841 0.11129332906836201 0 0.1168856090028805 0.1009132499975417 0 0.12457549596567841 0.11129332906836201 0 0.1168856090028805 0.1009132499975417 0 0.1266169744647683 0.091261637798302819 0 0.10829254285367999 0.09951402195448332 0 0.1111803490947679 0.11170049208988379 0 0.1168856090028805 0.1009132499975417 0 0.10829254285367999 0.09951402195448332 0 0.1168856090028805 0.1009132499975417 0 0.1137626826355071 0.090796769076676581 0 0.1168856090028805 0.1009132499975417 0 0.1137626826355071 0.090796769076676581 0 0.1266169744647683 0.091261637798302819 0 0.11866948178513551 0.079243525340791279 0 0.1137626826355071 0.090796769076676581 0 0.1266169744647683 0.091261637798302819 0 0.11866948178513551 0.079243525340791279 0 0.1286584529638552 0.07122994652824341 0 0.1266169744647683 0.091261637798302819 0 0.11866948178513551 0.079243525340791279 0 0.1137626826355071 0.090796769076676581 0 0.1081015461596279 0.079417998507206641 0 0.11866948178513551 0.079243525340791279 0 0.1004079344247906 0.069207291662484155 0 0.1286584529638552 0.07122994652824341 0 0.10357106136312021 0.063114415792523262 0 0.13037822215607939 0.054354977955372967 0 0.1286584529638552 0.07122994652824341 0 0.10357106136312021 0.063114415792523262 0 0.1004079344247906 0.069207291662484155 0 0.1286584529638552 0.07122994652824341 0 0.1004079344247906 0.069207291662484155 0 0.1286584529638552 0.07122994652824341 0 0.11866948178513551 0.079243525340791279 0 0.1004079344247906 0.069207291662484155 0 0.1081015461596279 0.079417998507206641 0 0.10357106136312021 0.063114415792523262 0 0.087707435048790625 0.06829797288927511 0 0.10357106136312021 0.063114415792523262 0 0.1004079344247906 0.069207291662484155 0 0.087707435048790625 0.06829797288927511 0 0.10357106136312021 0.063114415792523262 0 0.1004079344247906 0.069207291662484155 0 0.09691016004369124 0.075944771865042088 0 0.1004079344247906 0.069207291662484155 0 0.1081015461596279 0.079417998507206641 0 0.09691016004369124 0.075944771865042088 0 0.1081015461596279 0.079417998507206641 0 0.09691016004369124 0.075944771865042088 0 0.1004079344247906 0.069207291662484155 0 0.087707435048790625 0.06829797288927511 0 0.09691016004369124 0.075944771865042088 0 0.1004079344247906 0.069207291662484155 0 0.1004079344247906 0.069207291662484155 0 0.087707435048790625 0.06829797288927511 0 0.09691016004369124 0.075944771865042088 0 0.1020084042314941 0.092194493812721004 0 0.084254571308508608 0.1003222099913363 0 0.09691016004369124 0.075944771865042088 0 0.1020084042314941 0.092194493812721004 0 0.1081015461596279 0.079417998507206641 0 0.1137626826355071 0.090796769076676581 0 0.1020084042314941 0.092194493812721004 0 0.1081015461596279 0.079417998507206641 0 0.09691016004369124 0.075944771865042088 0 0.082952972993842009 0.085437981328002219 0 0.084254571308508608 0.1003222099913363 0 0.09691016004369124 0.075944771865042088 0 0.084254571308508608 0.1003222099913363 0 0.082952972993842009 0.085437981328002219 0 0.080187881348579321 0.070755042614366936 0 0.07520031815392364 0.080861472333226242 0 0.082952972993842009 0.085437981328002219 0 0.070550094782122888 0.094930612436625525 0 0.084254571308508608 0.1003222099913363 0 0.09691016004369124 0.075944771865042088 0 0.087707435048790625 0.06829797288927511 0 0.080187881348579321 0.070755042614366936 0 0.09691016004369124 0.075944771865042088 0 0.082952972993842009 0.085437981328002219 0 0.080187881348579321 0.070755042614366936 0 0.09691016004369124 0.075944771865042088 0 0.080187881348579321 0.070755042614366936 0 0.087707435048790625 0.06829797288927511 0 0.080187881348579321 0.070755042614366936 0 0.067641561742410122 0.06686131478960744 0 0.080187881348579321 0.070755042614366936 0 0.076514730941601425 0.071955271646639188 0 0.087707435048790625 0.06829797288927511 0 0.080187881348579321 0.070755042614366936 0 0.077155592871813339 0.054890228159410553 0 0.087707435048790625 0.06829797288927511 0 0.067641561742410122 0.06686131478960744 0 0.087707435048790625 0.06829797288927511 0 0.067641561742410122 0.06686131478960744 0 0.080187881348579321 0.070755042614366936 0 0.076514730941601425 0.071955271646639188 0 0.067641561742410122 0.06686131478960744 0 0.080187881348579321 0.070755042614366936 0 0.067641561742410122 0.06686131478960744 0 0.076514730941601425 0.071955271646639188 0 0.069151392349810145 0.075276805573343708 0 0.067641561742410122 0.06686131478960744 0 0.080187881348579321 0.070755042614366936 0 0.076514730941601425 0.071955271646639188 0 0.07520031815392364 0.080861472333226242 0 0.076514730941601425 0.071955271646639188 0 0.069151392349810145 0.075276805573343708 0 0.07520031815392364 0.080861472333226242 0 0.069151392349810145 0.075276805573343708 0 0.065617741488414968 0.082232577814534608 0 0.060782609422700758 0.074473391282708884 0 0.069151392349810145 0.075276805573343708 0 0.067641561742410122 0.06686131478960744 0 0.060782609422700758 0.074473391282708884 0 0.065617741488414968 0.082232577814534608 0 0.070550094782122888 0.094930612436625525 0 0.05443049277500088 0.087234330401653959 0 0.082952972993842009 0.085437981328002219 0 0.07520031815392364 0.080861472333226242 0 0.070550094782122888 0.094930612436625525 0 0.07520031815392364 0.080861472333226242 0 0.065617741488414968 0.082232577814534608 0 0.070550094782122888 0.094930612436625525 0 0.069151392349810145 0.075276805573343708 0 0.07520031815392364 0.080861472333226242 0 0.065617741488414968 0.082232577814534608 0 0.070550094782122888 0.094930612436625525 0 0.074825670479102213 0.12028669145737179 0 0.05656889627606787 0.10813902373025359 0 0.070550094782122888 0.094930612436625525 0 0.084254571308508608 0.1003222099913363 0 0.074825670479102213 0.12028669145737179 0 0.099892081851148895 0.1057249858405324 0 0.094045065294074304 0.1192150351408886 0 0.084254571308508608 0.1003222099913363 0 0.094045065294074304 0.1192150351408886 0 0.084254571308508608 0.1003222099913363 0 0.074825670479102213 0.12028669145737179 0 0.094045065294074304 0.1192150351408886 0 0.074825670479102213 0.12028669145737179 0 0.090772391799904331 0.13290508063944451 0 0.074825670479102213 0.12028669145737179 0 0.05656889627606787 0.10813902373025359 0 0.058707299777134868 0.12904371705885331 0 0.05656889627606787 0.10813902373025359 0 0.058707299777134868 0.12904371705885331 0 0.05656889627606787 0.10813902373025359 0 0.047335946029896062 0.13084237403506371 0 0.058707299777134868 0.12904371705885331 0 0.070550094782122888 0.094930612436625525 0 0.05656889627606787 0.10813902373025359 0 0.05443049277500088 0.087234330401653959 0 0.05656889627606787 0.10813902373025359 0 0.05443049277500088 0.087234330401653959 0 0.05656889627606787 0.10813902373025359 0 0.05443049277500088 0.087234330401653959 0 0.037873177525873998 0.093091584331327318 0 0.05656889627606787 0.10813902373025359 0 0.033826188781586178 0.1117363376826761 0 0.037873177525873998 0.093091584331327318 0 0.033826188781586178 0.1117363376826761 0 0.047335946029896062 0.13084237403506371 0 0.05656889627606787 0.10813902373025359 0 0.033826188781586178 0.1117363376826761 0 0.047335946029896062 0.13084237403506371 0 0.033826188781586178 0.1117363376826761 0 0.028477447121909291 0.12589193827908651 0 0.047335946029896062 0.13084237403506371 0 0.048218205783641388 0.060833311046606553 0 0.067641561742410122 0.06686131478960744 0 0.055245130568615443 0.065973766414273952 0 0.048218205783641388 0.060833311046606553 0 0.067641561742410122 0.06686131478960744 0 0.048218205783641388 0.060833311046606553 0 0.055245130568615443 0.065973766414273952 0 0.046783658437846209 0.068842288695174753 0 0.055245130568615443 0.065973766414273952 0 0.05175974627892644 0.074745300920896748 0 0.046783658437846209 0.068842288695174753 0 0.067641561742410122 0.06686131478960744 0 0.055245130568615443 0.065973766414273952 0 0.060782609422700758 0.074473391282708884 0 0.067641561742410122 0.06686131478960744 0 0.055245130568615443 0.065973766414273952 0 0.055245130568615443 0.065973766414273952 0 0.060782609422700758 0.074473391282708884 0 0.05175974627892644 0.074745300920896748 0 0.05175974627892644 0.074745300920896748 0 0.042432370425004647 0.077610171204106654 0 0.046783658437846209 0.068842288695174753 0 0.05175974627892644 0.074745300920896748 0 0.05443049277500088 0.087234330401653959 0 0.042432370425004647 0.077610171204106654 0 0.065617741488414968 0.082232577814534608 0 0.060782609422700758 0.074473391282708884 0 0.05443049277500088 0.087234330401653959 0 0.060782609422700758 0.074473391282708884 0 0.05175974627892644 0.074745300920896748 0 0.05443049277500088 0.087234330401653959 0 0.037873177525873998 0.093091584331327318 0 0.042432370425004647 0.077610171204106654 0 0.02608005348614582 0.077293119671488872 0 0.05443049277500088 0.087234330401653959 0 0.037873177525873998 0.093091584331327318 0 0.042432370425004647 0.077610171204106654 0 0.042432370425004647 0.077610171204106654 0 0.036262839133043123 0.065048893889989884 0 0.02608005348614582 0.077293119671488872 0 0.042432370425004647 0.077610171204106654 0 0.036262839133043123 0.065048893889989884 0 0.046783658437846209 0.068842288695174753 0 0.048218205783641388 0.060833311046606553 0 0.036262839133043123 0.065048893889989884 0 0.046783658437846209 0.068842288695174753 0 0.036262839133043123 0.065048893889989884 0 0.02608005348614582 0.077293119671488872 0 0.01488006872589609 0.065334490125391553 0 0.02608005348614582 0.077293119671488872 0 0.020316431533276301 0.092630301330288461 0 0.0041641368684680307 0.079593073860037625 0 0.037873177525873998 0.093091584331327318 0 0.02608005348614582 0.077293119671488872 0 0.020316431533276301 0.092630301330288461 0 0.020316431533276301 0.092630301330288461 0 0.0041641368684680307 0.079593073860037625 0 0.003395107760267988 0.098820241130360406 0 0.02608005348614582 0.077293119671488872 0 0.0041641368684680307 0.079593073860037625 0 0.01488006872589609 0.065334490125391553 0 0.0041641368684680307 0.079593073860037625 0 0.0037573804827743191 0.066098236800881907 0 0.01488006872589609 0.065334490125391553 0 -0.0073480863309807248 0.06511532806321231 0 0.0041641368684680307 0.079593073860037625 0 0.0037573804827743191 0.066098236800881907 0 0.033826188781586178 0.1117363376826761 0 0.012511556787723111 0.11653562190985491 0 0.028477447121909291 0.12589193827908651 0 0.033826188781586178 0.1117363376826761 0 0.037873177525873998 0.093091584331327318 0 0.020316431533276301 0.092630301330288461 0 0.033826188781586178 0.1117363376826761 0 0.020316431533276301 0.092630301330288461 0 0.033826188781586178 0.1117363376826761 0 0.020316431533276301 0.092630301330288461 0 0.012511556787723111 0.11653562190985491 0 0.020316431533276301 0.092630301330288461 0 0.003395107760267988 0.098820241130360406 0 0.012511556787723111 0.11653562190985491 0 -0.012921853350251779 0.1163043731888329 0 0.003395107760267988 0.098820241130360406 0 0.012511556787723111 0.11653562190985491 0 -0.00094612486944474711 0.13739524991114199 0 0.012511556787723111 0.11653562190985491 0 0.018504875407372869 0.13566728143477111 0 0.012511556787723111 0.11653562190985491 0 0.018504875407372869 0.13566728143477111 0 0.028477447121909291 0.12589193827908651 0 0.018504875407372869 0.13566728143477111 0 0.028477447121909291 0.12589193827908651 0 0.032565211978331843 0.13782386037265709 0 0.018504875407372869 0.13566728143477111 0 0.02792772768526924 0.14917498286437841 0 0.01388635526450629 0.1530452428402774 0 0.02792772768526924 0.14917498286437841 0 0.01388635526450629 0.1530452428402774 0 0.028621745491911529 0.16298829425288081 0 0.018504875407372869 0.13566728143477111 0 0.02792772768526924 0.14917498286437841 0 0.032565211978331843 0.13782386037265709 0 -0.00094612486944474711 0.13739524991114199 0 0.018504875407372869 0.13566728143477111 0 0.01388635526450629 0.1530452428402774 0 -0.0051377206325900274 0.16075989213823061 0 -0.00094612486944474711 0.13739524991114199 0 0.01388635526450629 0.1530452428402774 0 -0.0051377206325900274 0.16075989213823061 0 0.01388635526450629 0.1530452428402774 0 0.010984318894288241 0.17357290817306409 0 -0.008277806428889329 0.1819306387007438 0 0.010984318894288241 0.17357290817306409 0 0.0093175891669755994 0.19835633455436341 0 0.010984318894288241 0.17357290817306409 0 0.027298484315152301 0.18443254109327409 0 0.0093175891669755994 0.19835633455436341 0 0.010984318894288241 0.17357290817306409 0 0.027298484315152301 0.18443254109327409 0 0.028621745491911529 0.16298829425288081 0 0.01388635526450629 0.1530452428402774 0 0.010984318894288241 0.17357290817306409 0 0.028621745491911529 0.16298829425288081 0 0.028621745491911529 0.16298829425288081 0 0.046097598119321917 0.1698013655421847 0 0.028621745491911529 0.16298829425288081 0 0.046097598119321917 0.1698013655421847 0 0.041758335334893502 0.1491156172697812 0 0.027298484315152301 0.18443254109327409 0 0.028621745491911529 0.16298829425288081 0 0.046097598119321917 0.1698013655421847 0 0.027298484315152301 0.18443254109327409 0 0.046097598119321917 0.1698013655421847 0 0.047262258534408373 0.19179842040302339 0 0.046097598119321917 0.1698013655421847 0 0.047262258534408373 0.19179842040302339 0 0.063573450746731874 0.17661443683148961 0 0.046097598119321917 0.1698013655421847 0 0.063573450746731874 0.17661443683148961 0 0.060845703278203968 0.14994841038745271 0 0.063573450746731874 0.17661443683148961 0 0.046097598119321917 0.1698013655421847 0 0.053068771869787812 0.16136995750772709 0 0.041758335334893502 0.1491156172697812 0 0.046097598119321917 0.1698013655421847 0 0.053068771869787812 0.16136995750772709 0 0.063573450746731874 0.17661443683148961 0 0.053068771869787812 0.16136995750772709 0 0.060845703278203968 0.14994841038745271 0 0.063573450746731874 0.17661443683148961 0 0.060845703278203968 0.14994841038745271 0 0.047335946029896062 0.13084237403506371 0 0.041758335334893502 0.1491156172697812 0 0.053068771869787812 0.16136995750772709 0 0.060845703278203968 0.14994841038745271 0 0.041758335334893502 0.1491156172697812 0 0.060845703278203968 0.14994841038745271 0 0.047335946029896062 0.13084237403506371 0 0.058707299777134868 0.12904371705885331 0 0.060845703278203968 0.14994841038745271 0 0.058707299777134868 0.12904371705885331 0 0.067740172142951055 0.13850381093565661 0 0.060845703278203968 0.14994841038745271 0 0.047335946029896062 0.13084237403506371 0 0.060845703278203968 0.14994841038745271 0 0.058707299777134868 0.12904371705885331 0 0.028477447121909291 0.12589193827908651 0 0.047335946029896062 0.13084237403506371 0 0.032565211978331843 0.13782386037265709 0 0.047335946029896062 0.13084237403506371 0 0.032565211978331843 0.13782386037265709 0 0.041758335334893502 0.1491156172697812 0 0.02792772768526924 0.14917498286437841 0 0.032565211978331843 0.13782386037265709 0 0.041758335334893502 0.1491156172697812 0 0.02792772768526924 0.14917498286437841 0 0.028621745491911529 0.16298829425288081 0 0.041758335334893502 0.1491156172697812 0 0.015353354689590679 0.2272527304250567 0 0.0093766357309573133 0.25077498028374479 0 0.025619747750374639 0.25369771249902812 0 0.015353354689590679 0.2272527304250567 0 0.035049849981621632 0.23211604986021819 0 0.025619747750374639 0.25369771249902812 0 -0.00048021596502030199 0.2357461893728382 0 0.015353354689590679 0.2272527304250567 0 0.0093766357309573133 0.25077498028374479 0 -0.0032527717105686848 0.21797522685813861 0 -0.00048021596502030199 0.2357461893728382 0 0.015353354689590679 0.2272527304250567 0 0.015353354689590679 0.2272527304250567 0 0.029521524447512479 0.20699669360019959 0 0.035049849981621632 0.23211604986021819 0 0.015353354689590679 0.2272527304250567 0 0.029521524447512479 0.20699669360019959 0 0.0093175891669755994 0.19835633455436341 0 -0.0032527717105686848 0.21797522685813861 0 0.015353354689590679 0.2272527304250567 0 0.0093175891669755994 0.19835633455436341 0 0.027298484315152301 0.18443254109327409 0 0.029521524447512479 0.20699669360019959 0 0.0093175891669755994 0.19835633455436341 0 0.027298484315152301 0.18443254109327409 0 0.029521524447512479 0.20699669360019959 0 0.047262258534408373 0.19179842040302339 0 0.047262258534408373 0.19179842040302339 0 0.066269913672915362 0.20297463055343651 0 0.063573450746731874 0.17661443683148961 0 0.045224845780118123 0.21584816286474509 0 0.068247802816341893 0.2282745213774906 0 0.066269913672915362 0.20297463055343651 0 0.047262258534408373 0.19179842040302339 0 0.045224845780118123 0.21584816286474509 0 0.066269913672915362 0.20297463055343651 0 0.029521524447512479 0.20699669360019959 0 0.047262258534408373 0.19179842040302339 0 0.045224845780118123 0.21584816286474509 0 0.029521524447512479 0.20699669360019959 0 0.045224845780118123 0.21584816286474509 0 0.035049849981621632 0.23211604986021819 0 0.045224845780118123 0.21584816286474509 0 0.035049849981621632 0.23211604986021819 0 0.054941410009535653 0.24195913327848501 0 0.045224845780118123 0.21584816286474509 0 0.068247802816341893 0.2282745213774906 0 0.045224845780118123 0.21584816286474509 0 0.054941410009535653 0.24195913327848501 0 0.068247802816341893 0.2282745213774906 0 0.035049849981621632 0.23211604986021819 0 0.039638217212598192 0.2469418664937949 0 0.025619747750374639 0.25369771249902812 0 0.035049849981621632 0.23211604986021819 0 0.054941410009535653 0.24195913327848501 0 0.039638217212598192 0.2469418664937949 0 0.091270759852565567 0.24070087989023611 0 0.068247802816341893 0.2282745213774906 0 0.091270759852565567 0.24070087989023611 0 0.068247802816341893 0.2282745213774906 0 0.073110705878909776 0.25296269123706461 0 0.054941410009535653 0.24195913327848501 0 0.068247802816341893 0.2282745213774906 0 0.073110705878909776 0.25296269123706461 0 0.091270759852565567 0.24070087989023611 0 0.068247802816341893 0.2282745213774906 0 0.090586844752056514 0.21380084591176809 0 0.068247802816341893 0.2282745213774906 0 0.090586844752056514 0.21380084591176809 0 0.066269913672915362 0.20297463055343651 0 0.066269913672915362 0.20297463055343651 0 0.063573450746731874 0.17661443683148961 0 0.066269913672915362 0.20297463055343651 0 0.063573450746731874 0.17661443683148961 0 0.086053061182728791 0.18537825463892441 0 0.090586844752056514 0.21380084591176809 0 0.066269913672915362 0.20297463055343651 0 0.086053061182728791 0.18537825463892441 0 0.10853267161872519 0.1941420724463602 0 0.086053061182728791 0.18537825463892441 0 0.090586844752056514 0.21380084591176809 0 0.10853267161872519 0.1941420724463602 0 0.086053061182728791 0.18537825463892441 0 0.10853267161872519 0.1941420724463602 0 0.13101228205472171 0.20290589025379599 0 0.1273244747005258 0.18883760333827521 0 0.10853267161872519 0.1941420724463602 0 0.13101228205472171 0.20290589025379599 0 0.10853267161872519 0.1941420724463602 0 0.11589182582438889 0.21314815286310709 0 0.13101228205472171 0.20290589025379599 0 0.090586844752056514 0.21380084591176809 0 0.11589182582438889 0.21314815286310709 0 0.1032399384109433 0.22674985365639341 0 0.090586844752056514 0.21380084591176809 0 0.10853267161872519 0.1941420724463602 0 0.11589182582438889 0.21314815286310709 0 0.091270759852565567 0.24070087989023611 0 0.090586844752056514 0.21380084591176809 0 0.1032399384109433 0.22674985365639341 0 0.11589182582438889 0.21314815286310709 0 0.1032399384109433 0.22674985365639341 0 0.1209553554335063 0.2304836962384548 0 0.1209553554335063 0.2304836962384548 0 0.12420690320853529 0.24949505869540881 0 0.11429371688878941 0.25312723840298168 0 0.1032399384109433 0.22674985365639341 0 0.1209553554335063 0.2304836962384548 0 0.11429371688878941 0.25312723840298168 0 0.091270759852565567 0.24070087989023611 0 0.1032399384109433 0.22674985365639341 0 0.11429371688878941 0.25312723840298168 0 0.091270759852565567 0.24070087989023611 0 0.11429371688878941 0.25312723840298168 0 0.090469921999165495 0.14508977093978229 0 0.079454644091415144 0.1374831277622468 0 0.077662718086396715 0.15192455335140251 0 0.090469921999165495 0.14508977093978229 0 0.077662718086396715 0.15192455335140251 0 0.092167053724692319 0.15830079842411249 0 0.074825670479102213 0.12028669145737179 0 0.090772391799904331 0.13290508063944451 0 0.079454644091415144 0.1374831277622468 0 0.090469921999165495 0.14508977093978229 0 0.090772391799904331 0.13290508063944451 0 0.079454644091415144 0.1374831277622468 0 0.074825670479102213 0.12028669145737179 0 0.079454644091415144 0.1374831277622468 0 0.067740172142951055 0.13850381093565661 0 0.074825670479102213 0.12028669145737179 0 0.058707299777134868 0.12904371705885331 0 0.067740172142951055 0.13850381093565661 0 0.060845703278203968 0.14994841038745271 0 0.067740172142951055 0.13850381093565661 0 0.077662718086396715 0.15192455335140251 0 0.060845703278203968 0.14994841038745271 0 0.077662718086396715 0.15192455335140251 0 0.070280741750999118 0.16329181728470801 0 0.079454644091415144 0.1374831277622468 0 0.067740172142951055 0.13850381093565661 0 0.077662718086396715 0.15192455335140251 0 0.060845703278203968 0.14994841038745271 0 0.070280741750999118 0.16329181728470801 0 0.077662718086396715 0.15192455335140251 0 0.070280741750999118 0.16329181728470801 0 0.082667828616071415 0.16944226359778161 0 0.060845703278203968 0.14994841038745271 0 0.070280741750999118 0.16329181728470801 0 0.063573450746731874 0.17661443683148961 0 0.070280741750999118 0.16329181728470801 0 0.063573450746731874 0.17661443683148961 0 0.082667828616071415 0.16944226359778161 0 0.063573450746731874 0.17661443683148961 0 0.086053061182728791 0.18537825463892441 0 0.063573450746731874 0.17661443683148961 0 0.086053061182728791 0.18537825463892441 0 0.082667828616071415 0.16944226359778161 0 0.086053061182728791 0.18537825463892441 0 0.082667828616071415 0.16944226359778161 0 0.1017598891683017 0.17469581318365221 0 0.082667828616071415 0.16944226359778161 0 0.092167053724692319 0.15830079842411249 0 0.1017598891683017 0.17469581318365221 0 0.077662718086396715 0.15192455335140251 0 0.082667828616071415 0.16944226359778161 0 0.092167053724692319 0.15830079842411249 0 0.092167053724692319 0.15830079842411249 0 0.1034826409152502 0.15993216369042659 0 0.098691616430821624 0.1514917560447821 0 0.092167053724692319 0.15830079842411249 0 0.1034826409152502 0.15993216369042659 0 0.1017598891683017 0.17469581318365221 0 0.10829539566094409 0.16780069858793731 0 0.1034826409152502 0.15993216369042659 0 0.1017598891683017 0.17469581318365221 0 0.1034826409152502 0.15993216369042659 0 0.1144968081302938 0.16060362044549609 0 0.1085200363059669 0.15037039685648021 0 0.10829539566094409 0.16780069858793731 0 0.1034826409152502 0.15993216369042659 0 0.1144968081302938 0.16060362044549609 0 0.10853267161872519 0.1941420724463602 0 0.086053061182728791 0.18537825463892441 0 0.1017598891683017 0.17469581318365221 0 0.10853267161872519 0.1941420724463602 0 0.1017598891683017 0.17469581318365221 0 0.117256688328662 0.17700963639010839 0 0.10829539566094409 0.16780069858793731 0 0.1017598891683017 0.17469581318365221 0 0.117256688328662 0.17700963639010839 0 0.10853267161872519 0.1941420724463602 0 0.117256688328662 0.17700963639010839 0 0.1273244747005258 0.18883760333827521 0 0.1144968081302938 0.16060362044549609 0 0.1203118653964417 0.15312954301362119 0 0.13779458902477451 0.17586652077539161 0 0.117256688328662 0.17700963639010839 0 0.1144968081302938 0.16060362044549609 0 0.13779458902477451 0.17586652077539161 0 0.10829539566094409 0.16780069858793731 0 0.117256688328662 0.17700963639010839 0 0.1144968081302938 0.16060362044549609 0 0.1203118653964417 0.15312954301362119 0 0.1124696074965011 0.1392342650306268 0 0.1190760380372283 0.1308507562870187 0 0.1203118653964417 0.15312954301362119 0 0.1085200363059669 0.15037039685648021 0 0.1124696074965011 0.1392342650306268 0 0.1144968081302938 0.16060362044549609 0 0.1203118653964417 0.15312954301362119 0 0.1085200363059669 0.15037039685648021 0 0.1034826409152502 0.15993216369042659 0 0.1085200363059669 0.15037039685648021 0 0.098691616430821624 0.1514917560447821 0 0.1085200363059669 0.15037039685648021 0 0.1018456868056401 0.13804629317809311 0 0.1124696074965011 0.1392342650306268 0 0.1085200363059669 0.15037039685648021 0 0.098691616430821624 0.1514917560447821 0 0.1018456868056401 0.13804629317809311 0 0.090469921999165495 0.14508977093978229 0 0.098691616430821624 0.1514917560447821 0 0.1018456868056401 0.13804629317809311 0 0.090469921999165495 0.14508977093978229 0 0.092167053724692319 0.15830079842411249 0 0.098691616430821624 0.1514917560447821 0 0.094045065294074304 0.1192150351408886 0 0.090772391799904331 0.13290508063944451 0 0.1018456868056401 0.13804629317809311 0 0.094045065294074304 0.1192150351408886 0 0.1132105913856591 0.12466981112322741 0 0.1018456868056401 0.13804629317809311 0 0.090469921999165495 0.14508977093978229 0 0.090772391799904331 0.13290508063944451 0 0.1018456868056401 0.13804629317809311 0 0.1132105913856591 0.12466981112322741 0 0.1018456868056401 0.13804629317809311 0 0.1124696074965011 0.1392342650306268 0 0.1132105913856591 0.12466981112322741 0 0.1018456868056401 0.13804629317809311 0 0.12335421623778491 0.1232769470562404 0 0.1203118653964417 0.15312954301362119 0 0.12335421623778491 0.1232769470562404 0 0.1203118653964417 0.15312954301362119 0 0.12972639219712551 0.13445420541320091 0 0.1132105913856591 0.12466981112322741 0 0.1124696074965011 0.1392342650306268 0 0.1190760380372283 0.1308507562870187 0 0.12335421623778491 0.1232769470562404 0 0.1203118653964417 0.15312954301362119 0 0.1190760380372283 0.1308507562870187 0 0.1132105913856591 0.12466981112322741 0 0.12335421623778491 0.1232769470562404 0 0.1190760380372283 0.1308507562870187 0 0.12335421623778491 0.1232769470562404 0 0.12972639219712551 0.13445420541320091 0 0.1368103244389082 0.1183469061142584 0 0.12972639219712551 0.13445420541320091 0 0.13741113762914989 0.13463511772246001 0 0.1368103244389082 0.1183469061142584 0 0.13741113762914989 0.13463511772246001 0 0.1368103244389082 0.1183469061142584 0 0.12972639219712551 0.13445420541320091 0 0.13741113762914989 0.13463511772246001 0 0.13074441728334271 0.14288251315942499 0 0.13741113762914989 0.13463511772246001 0 0.15393489224620491 0.1293710264470965 0 0.15344633335945829 0.14518167887306141 0 0.13741113762914989 0.13463511772246001 0 0.15393489224620491 0.1293710264470965 0 0.1368103244389082 0.1183469061142584 0 0.13741113762914989 0.13463511772246001 0 0.15344633335945829 0.14518167887306141 0 0.13801195081939091 0.15092332933066149 0 0.15344633335945829 0.14518167887306141 0 0.13801195081939091 0.15092332933066149 0 0.1538974850810732 0.1612819574853562 0 0.13741113762914989 0.13463511772246001 0 0.13801195081939091 0.15092332933066149 0 0.1203118653964417 0.15312954301362119 0 0.12972639219712551 0.13445420541320091 0 0.13074441728334271 0.14288251315942499 0 0.1203118653964417 0.15312954301362119 0 0.13801195081939091 0.15092332933066149 0 0.13074441728334271 0.14288251315942499 0 0.13741113762914989 0.13463511772246001 0 0.13801195081939091 0.15092332933066149 0 0.13074441728334271 0.14288251315942499 0 0.1203118653964417 0.15312954301362119 0 0.13801195081939091 0.15092332933066149 0 0.13779458902477451 0.17586652077539161 0 0.1144968081302938 0.16060362044549609 0 0.13779458902477451 0.17586652077539161 0 0.13779458902477451 0.17586652077539161 0 0.1273244747005258 0.18883760333827521 0 0.14202614247574569 0.19426389682572001 0 0.117256688328662 0.17700963639010839 0 0.13779458902477451 0.17586652077539161 0 0.1273244747005258 0.18883760333827521 0 0.13779458902477451 0.17586652077539161 0 0.14202614247574569 0.19426389682572001 0 0.16109236991925549 0.1911294211052868 0 0.13779458902477451 0.17586652077539161 0 0.16109236991925549 0.1911294211052868 0 0.13779458902477451 0.17586652077539161 0 0.16181888877694581 0.17388875412423649 0 0.16109236991925549 0.1911294211052868 0 0.13779458902477451 0.17586652077539161 0 0.1538974850810732 0.1612819574853562 0 0.16181888877694581 0.17388875412423649 0 0.13801195081939091 0.15092332933066149 0 0.13779458902477451 0.17586652077539161 0 0.1538974850810732 0.1612819574853562 0 0.1538974850810732 0.1612819574853562 0 0.16650777425474819 0.157512012631565 0 0.16181888877694581 0.17388875412423649 0 0.16650777425474819 0.157512012631565 0 0.16181888877694581 0.17388875412423649 0 0.17847892549200889 0.17408193263622421 0 0.17847892549200889 0.17408193263622421 0 0.16109236991925549 0.1911294211052868 0 0.16181888877694581 0.17388875412423649 0 0.17847892549200889 0.17408193263622421 0 0.16109236991925549 0.1911294211052868 0 0.17847892549200889 0.17408193263622421 0 0.16109236991925549 0.1911294211052868 0 0.17776105213316151 0.18941026844512401 0 0.17847892549200889 0.17408193263622421 0 0.18607077233572181 0.1837637404532072 0 0.17776105213316151 0.18941026844512401 0 0.17847892549200889 0.17408193263622421 0 0.19586548106476431 0.15703444416716339 0 0.16650777425474819 0.157512012631565 0 0.17847892549200889 0.17408193263622421 0 0.1824476517290915 0.15045066366549761 0 0.17847892549200889 0.17408193263622421 0 0.18607077233572181 0.1837637404532072 0 0.19586548106476431 0.15703444416716339 0 0.17847892549200889 0.17408193263622421 0 0.1824476517290915 0.15045066366549761 0 0.19586548106476431 0.15703444416716339 0 0.16650777425474819 0.157512012631565 0 0.1824476517290915 0.15045066366549761 0 0.16895736108991161 0.14018708900501431 0 0.1824476517290915 0.15045066366549761 0 0.18468246321415149 0.133685096469566 0 0.16895736108991161 0.14018708900501431 0 0.18468246321415149 0.133685096469566 0 0.16895736108991161 0.14018708900501431 0 0.17123158341977199 0.1236141345143271 0 0.15393489224620491 0.1293710264470965 0 0.15344633335945829 0.14518167887306141 0 0.16895736108991161 0.14018708900501431 0 0.15393489224620491 0.1293710264470965 0 0.16895736108991161 0.14018708900501431 0 0.17123158341977199 0.1236141345143271 0 0.15344633335945829 0.14518167887306141 0 0.1538974850810732 0.1612819574853562 0 0.16650777425474819 0.157512012631565 0 0.15344633335945829 0.14518167887306141 0 0.16650777425474819 0.157512012631565 0 0.16895736108991161 0.14018708900501431 0 0.1442092989804529 0.23775790791442661 0 0.14608089257451429 0.24992769762422701 0 0.1514377498938263 0.23315707621043499 0 0.14608089257451429 0.24992769762422701 0 0.1514377498938263 0.23315707621043499 0 0.16695965491323631 0.22928952798461419 0 0.1442092989804529 0.23775790791442661 0 0.13454712077130621 0.24583915084270511 0 0.14477143268216491 0.2221077069803393 0 0.14608089257451429 0.24992769762422701 0 0.1613651790313706 0.24030896687090961 0 0.15691297891071249 0.25204874182608528 0 0.1442092989804529 0.23775790791442661 0 0.14608089257451429 0.24992769762422701 0 0.13454712077130621 0.24583915084270511 0 0.1209553554335063 0.2304836962384548 0 0.12420690320853529 0.24949505869540881 0 0.13454712077130621 0.24583915084270511 0 0.1209553554335063 0.2304836962384548 0 0.13454712077130621 0.24583915084270511 0 0.13483220224408951 0.23189376130201 0 0.1209553554335063 0.2304836962384548 0 0.14102386267638031 0.21080655867187009 0 0.1209553554335063 0.2304836962384548 0 0.13483220224408951 0.23189376130201 0 0.14102386267638031 0.21080655867187009 0 0.13454712077130621 0.24583915084270511 0 0.13483220224408951 0.23189376130201 0 0.14477143268216491 0.2221077069803393 0 0.13483220224408951 0.23189376130201 0 0.14477143268216491 0.2221077069803393 0 0.14102386267638031 0.21080655867187009 0 0.13454712077130621 0.24583915084270511 0 0.14477143268216491 0.2221077069803393 0 0.1442092989804529 0.23775790791442661 0 0.14477143268216491 0.2221077069803393 0 0.1514377498938263 0.23315707621043499 0 0.14477143268216491 0.2221077069803393 0 0.1514377498938263 0.23315707621043499 0 0.15698156193468249 0.22144519879365709 0 0.15347804509114341 0.21123091433173599 0 0.14102386267638031 0.21080655867187009 0 0.16109236991925549 0.1911294211052868 0 0.14477143268216491 0.2221077069803393 0 0.15347804509114341 0.21123091433173599 0 0.15698156193468249 0.22144519879365709 0 0.14477143268216491 0.2221077069803393 0 0.15347804509114341 0.21123091433173599 0 0.14102386267638031 0.21080655867187009 0 0.11589182582438889 0.21314815286310709 0 0.1209553554335063 0.2304836962384548 0 0.14102386267638031 0.21080655867187009 0 0.11589182582438889 0.21314815286310709 0 0.14102386267638031 0.21080655867187009 0 0.13101228205472171 0.20290589025379599 0 0.14102386267638031 0.21080655867187009 0 0.13101228205472171 0.20290589025379599 0 0.14202614247574569 0.19426389682572001 0 0.13101228205472171 0.20290589025379599 0 0.1273244747005258 0.18883760333827521 0 0.14202614247574569 0.19426389682572001 0 0.14102386267638031 0.21080655867187009 0 0.16109236991925549 0.1911294211052868 0 0.14102386267638031 0.21080655867187009 0 0.14202614247574569 0.19426389682572001 0 0.16109236991925549 0.1911294211052868 0 0.16109236991925549 0.1911294211052868 0 0.17446539358560681 0.19989038972514439 0 0.16352099824323399 0.21066568610752609 0 0.16109236991925549 0.1911294211052868 0 0.17776105213316151 0.18941026844512401 0 0.17446539358560681 0.19989038972514439 0 0.16109236991925549 0.1911294211052868 0 0.17446539358560681 0.19989038972514439 0 0.18607077233572181 0.1837637404532072 0 0.17776105213316151 0.18941026844512401 0 0.187336054755781 0.1942652328645835 0 0.17776105213316151 0.18941026844512401 0 0.187336054755781 0.1942652328645835 0 0.17446539358560681 0.19989038972514439 0 0.187336054755781 0.1942652328645835 0 0.17446539358560681 0.19989038972514439 0 0.18783841725195841 0.2086513583450017 0 0.17446539358560681 0.19989038972514439 0 0.17154193969394871 0.21358743889701071 0 0.18783841725195841 0.2086513583450017 0 0.17154193969394871 0.21358743889701071 0 0.16695965491323631 0.22928952798461419 0 0.18783841725195841 0.2086513583450017 0 0.18309474650688271 0.2255311690402288 0 0.19086102637526561 0.22096795256629551 0 0.18783841725195841 0.2086513583450017 0 0.17446539358560681 0.19989038972514439 0 0.18783841725195841 0.2086513583450017 0 0.15347804509114341 0.21123091433173599 0 0.16109236991925549 0.1911294211052868 0 0.16352099824323399 0.21066568610752609 0 0.17154193969394871 0.21358743889701071 0 0.16475103869627539 0.21874696294570201 0 0.16352099824323399 0.21066568610752609 0 0.17446539358560681 0.19989038972514439 0 0.17154193969394871 0.21358743889701071 0 0.16352099824323399 0.21066568610752609 0 0.15347804509114341 0.21123091433173599 0 0.16352099824323399 0.21066568610752609 0 0.15698156193468249 0.22144519879365709 0 0.16475103869627539 0.21874696294570201 0 0.16352099824323399 0.21066568610752609 0 0.15698156193468249 0.22144519879365709 0 0.17154193969394871 0.21358743889701071 0 0.16475103869627539 0.21874696294570201 0 0.16695965491323631 0.22928952798461419 0 0.16475103869627539 0.21874696294570201 0 0.15698156193468249 0.22144519879365709 0 0.16695965491323631 0.22928952798461419 0 0.1514377498938263 0.23315707621043499 0 0.15698156193468249 0.22144519879365709 0 0.16695965491323631 0.22928952798461419 0 0.16695965491323631 0.22928952798461419 0 0.18309474650688271 0.2255311690402288 0 0.1792945085904486 0.23420826177186049 0 0.16695965491323631 0.22928952798461419 0 0.18783841725195841 0.2086513583450017 0 0.16695965491323631 0.22928952798461419 0 0.18309474650688271 0.2255311690402288 0 0.18783841725195841 0.2086513583450017 0 0.18309474650688271 0.2255311690402288 0 0.1792945085904486 0.23420826177186049 0 0.18994291828913851 0.23039491240614579 0 0.16695965491323631 0.22928952798461419 0 0.1792945085904486 0.23420826177186049 0 0.17187594878845641 0.23699203648185879 0 0.1792945085904486 0.23420826177186049 0 0.17187594878845641 0.23699203648185879 0 0.17988445261877001 0.2441613893000508 0 0.18578460157279211 0.2482688543205844 0 0.1613651790313706 0.24030896687090961 0 0.18578460157279211 0.2482688543205844 0 0.1613651790313706 0.24030896687090961 0 0.17265565700519639 0.25152565263121213 0 0.18578460157279211 0.2482688543205844 0 0.17988445261877001 0.2441613893000508 0 0.1613651790313706 0.24030896687090961 0 0.1792945085904486 0.23420826177186049 0 0.18567269612893619 0.23864260566995019 0 0.18994291828913851 0.23039491240614579 0 0.1792945085904486 0.23420826177186049 0 0.18567269612893619 0.23864260566995019 0 0.17988445261877001 0.2441613893000508 0 0.18567269612893619 0.23864260566995019 0 0.18578460157279211 0.2482688543205844 0 0.17988445261877001 0.2441613893000508 0 0.18578460157279211 0.2482688543205844 0 0.17988445261877001 0.2441613893000508 0 0.14608089257451429 0.24992769762422701 0 0.16695965491323631 0.22928952798461419 0 0.1613651790313706 0.24030896687090961 0 0.1613651790313706 0.24030896687090961 0 0.1651050667405432 0.25249092321613159 0 0.17265565700519639 0.25152565263121213 0 0.14608089257451429 0.24992769762422701 0 0.16695965491323631 0.22928952798461419 0 0.17187594878845641 0.23699203648185879 0 0.17988445261877001 0.2441613893000508 0 0.1613651790313706 0.24030896687090961 0 0.16695965491323631 0.22928952798461419 0 0.17187594878845641 0.23699203648185879 0 0.1613651790313706 0.24030896687090961 0 0.1613651790313706 0.24030896687090961 0 0.15691297891071249 0.25204874182608528 0 0.1651050667405432 0.25249092321613159 0 0.20349414574552019 0.2397296304513051 0 0.20548970453276241 0.223395908533632 0 0.21948614212466469 0.24360632728838769 0 0.20349414574552019 0.2397296304513051 0 0.21948614212466469 0.24360632728838769 0 0.20963359064467821 0.25604280018186582 0 0.18578460157279211 0.2482688543205844 0 0.20349414574552019 0.2397296304513051 0 0.20963359064467821 0.25604280018186582 0 0.18578460157279211 0.2482688543205844 0 0.20349414574552019 0.2397296304513051 0 0.1928460655780784 0.23750582580249549 0 0.18567269612893619 0.23864260566995019 0 0.1928460655780784 0.23750582580249549 0 0.18994291828913851 0.23039491240614579 0 0.18567269612893619 0.23864260566995019 0 0.18578460157279211 0.2482688543205844 0 0.1928460655780784 0.23750582580249549 0 0.20349414574552019 0.2397296304513051 0 0.1928460655780784 0.23750582580249549 0 0.19729548302116309 0.23104810088591579 0 0.20349414574552019 0.2397296304513051 0 0.19729548302116309 0.23104810088591579 0 0.20548970453276241 0.223395908533632 0 0.1928460655780784 0.23750582580249549 0 0.19729548302116309 0.23104810088591579 0 0.18994291828913851 0.23039491240614579 0 0.19729548302116309 0.23104810088591579 0 0.18994291828913851 0.23039491240614579 0 0.19595459107232349 0.22428453854525629 0 0.18309474650688271 0.2255311690402288 0 0.18994291828913851 0.23039491240614579 0 0.19086102637526561 0.22096795256629551 0 0.18994291828913851 0.23039491240614579 0 0.19086102637526561 0.22096795256629551 0 0.19595459107232349 0.22428453854525629 0 0.19086102637526561 0.22096795256629551 0 0.19595459107232349 0.22428453854525629 0 0.19868384336730299 0.2157564409528035 0 0.19595459107232349 0.22428453854525629 0 0.20548970453276241 0.223395908533632 0 0.19868384336730299 0.2157564409528035 0 0.19729548302116309 0.23104810088591579 0 0.19595459107232349 0.22428453854525629 0 0.20548970453276241 0.223395908533632 0 0.20548970453276241 0.223395908533632 0 0.22232818105190419 0.22474666308419619 0 0.21948614212466469 0.24360632728838769 0 0.20548970453276241 0.223395908533632 0 0.21478709852807579 0.21824385474796781 0 0.22232818105190419 0.22474666308419619 0 0.20548970453276241 0.223395908533632 0 0.21948614212466469 0.24360632728838769 0 0.20548970453276241 0.223395908533632 0 0.21478709852807579 0.21824385474796781 0 0.20686563759789151 0.2153187730104571 0 0.21244750834462939 0.2094342395159571 0 0.20229092154266759 0.19436539491336119 0 0.22801505765326441 0.20623551661066741 0 0.21478709852807579 0.21824385474796781 0 0.21244750834462939 0.2094342395159571 0 0.22801505765326441 0.20623551661066741 0 0.21478709852807579 0.21824385474796781 0 0.21244750834462939 0.2094342395159571 0 0.20686563759789151 0.2153187730104571 0 0.21244750834462939 0.2094342395159571 0 0.20196166899728371 0.2077755540941445 0 0.20229092154266759 0.19436539491336119 0 0.21244750834462939 0.2094342395159571 0 0.20686563759789151 0.2153187730104571 0 0.20196166899728371 0.2077755540941445 0 0.20548970453276241 0.223395908533632 0 0.20686563759789151 0.2153187730104571 0 0.19868384336730299 0.2157564409528035 0 0.20686563759789151 0.2153187730104571 0 0.19868384336730299 0.2157564409528035 0 0.20196166899728371 0.2077755540941445 0 0.19086102637526561 0.22096795256629551 0 0.19868384336730299 0.2157564409528035 0 0.18783841725195841 0.2086513583450017 0 0.19868384336730299 0.2157564409528035 0 0.18783841725195841 0.2086513583450017 0 0.18783841725195841 0.2086513583450017 0 0.20196166899728371 0.2077755540941445 0 0.20229092154266759 0.19436539491336119 0 0.19868384336730299 0.2157564409528035 0 0.18783841725195841 0.2086513583450017 0 0.20196166899728371 0.2077755540941445 0 0.18783841725195841 0.2086513583450017 0 0.20229092154266759 0.19436539491336119 0 0.187336054755781 0.1942652328645835 0 0.18783841725195841 0.2086513583450017 0 0.20229092154266759 0.19436539491336119 0 0.187336054755781 0.1942652328645835 0 0.20229092154266759 0.19436539491336119 0 0.19753104615154149 0.18393888364014771 0 0.20229092154266759 0.19436539491336119 0 0.22801505765326441 0.20623551661066741 0 0.21674342583337691 0.1800794314817207 0 0.22801505765326441 0.20623551661066741 0 0.21674342583337691 0.1800794314817207 0 0.23023659787377601 0.19123731248323891 0 0.22801505765326441 0.20623551661066741 0 0.21674342583337691 0.1800794314817207 0 0.23023659787377601 0.19123731248323891 0 0.24278683002938581 0.19728741683585771 0 0.22801505765326441 0.20623551661066741 0 0.23023659787377601 0.19123731248323891 0 0.24278683002938581 0.19728741683585771 0 0.24631191293372251 0.18708186623926701 0 0.24278683002938581 0.19728741683585771 0 0.24631191293372251 0.18708186623926701 0 0.25583476687377482 0.1922858934871631 0 0.22801505765326441 0.20623551661066741 0 0.23928668947315221 0.2323916017396139 0 0.25353581481239162 0.20959649535895189 0 0.24278683002938581 0.19728741683585771 0 0.22801505765326441 0.20623551661066741 0 0.25353581481239162 0.20959649535895189 0 0.21478709852807579 0.21824385474796781 0 0.22801505765326441 0.20623551661066741 0 0.22232818105190419 0.22474666308419619 0 0.22232818105190419 0.22474666308419619 0 0.23928668947315221 0.2323916017396139 0 0.21948614212466469 0.24360632728838769 0 0.22801505765326441 0.20623551661066741 0 0.23928668947315221 0.2323916017396139 0 0.22801505765326441 0.20623551661066741 0 0.22232818105190419 0.22474666308419619 0 0.23928668947315221 0.2323916017396139 0 0.23928668947315221 0.2323916017396139 0 0.25594514465354418 0.2278537828045504 0 0.25353581481239162 0.20959649535895189 0 0.23928668947315221 0.2323916017396139 0 0.23618340067457189 0.2480357533165394 0 0.25916419269841368 0.24538229102785139 0 0.23928668947315221 0.2323916017396139 0 0.23618340067457189 0.2480357533165394 0 0.21948614212466469 0.24360632728838769 0 0.20356090809802649 0.14948909091619469 0 0.2101521669657026 0.16478426119895731 0 0.22014420538132101 0.15220340616902031 0 0.20356090809802649 0.14948909091619469 0 0.22072315291004729 0.13266153877040851 0 0.20356090809802649 0.14948909091619469 0 0.2209838849812617 0.14170655023269921 0 0.22014420538132101 0.15220340616902031 0 0.20356090809802649 0.14948909091619469 0 0.2209838849812617 0.14170655023269921 0 0.22072315291004729 0.13266153877040851 0 0.20356090809802649 0.14948909091619469 0 0.20211417175506319 0.14613190541276219 0 0.22072315291004729 0.13266153877040851 0 0.2016481504484037 0.1412538132617038 0 0.20211417175506319 0.14613190541276219 0 0.22072315291004729 0.13266153877040851 0 0.2074308198320419 0.1254731823562438 0 0.2016481504484037 0.1412538132617038 0 0.22072315291004729 0.13266153877040851 0 0.2074308198320419 0.1254731823562438 0 0.2016481504484037 0.1412538132617038 0 0.2074308198320419 0.1254731823562438 0 0.22072315291004729 0.13266153877040851 0 0.21868555336337081 0.1231418643565345 0 0.2074308198320419 0.1254731823562438 0 0.22072315291004729 0.13266153877040851 0 0.18468246321415149 0.133685096469566 0 0.1959892763674233 0.1302303511819253 0 0.18924227465768631 0.11563700501995559 0 0.18468246321415149 0.133685096469566 0 0.1959892763674233 0.1302303511819253 0 0.2016481504484037 0.1412538132617038 0 0.2074308198320419 0.1254731823562438 0 0.1959892763674233 0.1302303511819253 0 0.2016481504484037 0.1412538132617038 0 0.1824476517290915 0.15045066366549761 0 0.18468246321415149 0.133685096469566 0 0.2016481504484037 0.1412538132617038 0 0.2016481504484037 0.1412538132617038 0 0.19586548106476431 0.15703444416716339 0 0.1824476517290915 0.15045066366549761 0 0.2016481504484037 0.1412538132617038 0 0.19586548106476431 0.15703444416716339 0 0.2016481504484037 0.1412538132617038 0 0.20211417175506319 0.14613190541276219 0 0.19586548106476431 0.15703444416716339 0 0.20356090809802649 0.14948909091619469 0 0.20211417175506319 0.14613190541276219 0 0.20356090809802649 0.14948909091619469 0 0.20211417175506319 0.14613190541276219 0 0.19586548106476431 0.15703444416716339 0 0.20356090809802649 0.14948909091619469 0 0.19586548106476431 0.15703444416716339 0 0.18607077233572181 0.1837637404532072 0 0.19586548106476431 0.15703444416716339 0 0.20127257847022131 0.1739201521882392 0 0.18607077233572181 0.1837637404532072 0 0.19586548106476431 0.15703444416716339 0 0.19586548106476431 0.15703444416716339 0 0.20127257847022131 0.1739201521882392 0 0.2101521669657026 0.16478426119895731 0 0.18607077233572181 0.1837637404532072 0 0.20127257847022131 0.1739201521882392 0 0.19753104615154149 0.18393888364014771 0 0.18607077233572181 0.1837637404532072 0 0.187336054755781 0.1942652328645835 0 0.19753104615154149 0.18393888364014771 0 0.20229092154266759 0.19436539491336119 0 0.19753104615154149 0.18393888364014771 0 0.21674342583337691 0.1800794314817207 0 0.20127257847022131 0.1739201521882392 0 0.19753104615154149 0.18393888364014771 0 0.21674342583337691 0.1800794314817207 0 0.20229092154266759 0.19436539491336119 0 0.21674342583337691 0.1800794314817207 0 0.20127257847022131 0.1739201521882392 0 0.21674342583337691 0.1800794314817207 0 0.2101521669657026 0.16478426119895731 0 0.21674342583337691 0.1800794314817207 0 0.2101521669657026 0.16478426119895731 0 0.20356090809802649 0.14948909091619469 0 0.2101521669657026 0.16478426119895731 0 0.20356090809802649 0.14948909091619469 0 0.19586548106476431 0.15703444416716339 0 0.2101521669657026 0.16478426119895731 0 0.2101521669657026 0.16478426119895731 0 0.2357291799966886 0.1613124562749714 0 0.22014420538132101 0.15220340616902031 0 0.21674342583337691 0.1800794314817207 0 0.2357291799966886 0.1613124562749714 0 0.21674342583337691 0.1800794314817207 0 0.2101521669657026 0.16478426119895731 0 0.2357291799966886 0.1613124562749714 0 0.21674342583337691 0.1800794314817207 0 0.2311196731035495 0.17643185918476809 0 0.2357291799966886 0.1613124562749714 0 0.23023659787377601 0.19123731248323891 0 0.21674342583337691 0.1800794314817207 0 0.2311196731035495 0.17643185918476809 0 0.23023659787377601 0.19123731248323891 0 0.24247576601688781 0.16689139677573009 0 0.23023659787377601 0.19123731248323891 0 0.2449165897512576 0.1786649505904794 0 0.24247576601688781 0.16689139677573009 0 0.23023659787377601 0.19123731248323891 0 0.2311196731035495 0.17643185918476809 0 0.24247576601688781 0.16689139677573009 0 0.23023659787377601 0.19123731248323891 0 0.2449165897512576 0.1786649505904794 0 0.24631191293372251 0.18708186623926701 0 0.2449165897512576 0.1786649505904794 0 0.24247576601688781 0.16689139677573009 0 0.25316802083769918 0.17045115467188021 0 0.2449165897512576 0.1786649505904794 0 0.24631191293372251 0.18708186623926701 0 0.25397011602997399 0.1810567586058261 0 0.2357291799966886 0.1613124562749714 0 0.24247576601688781 0.16689139677573009 0 0.25471493415999991 0.1425454810682216 0 0.2311196731035495 0.17643185918476809 0 0.2357291799966886 0.1613124562749714 0 0.24247576601688781 0.16689139677573009 0 0.24247576601688781 0.16689139677573009 0 0.25471493415999991 0.1425454810682216 0 0.2357291799966886 0.1613124562749714 0 0.25471493415999991 0.1425454810682216 0 0.2357291799966886 0.1613124562749714 0 0.23269425393605289 0.1437844830436156 0 0.25471493415999991 0.1425454810682216 0 0.2357291799966886 0.1613124562749714 0 0.23269425393605289 0.1437844830436156 0 0.22014420538132101 0.15220340616902031 0 0.23269425393605289 0.1437844830436156 0 0.2209838849812617 0.14170655023269921 0 0.22683495167522419 0.13830327029964559 0 0.23269425393605289 0.1437844830436156 0 0.2209838849812617 0.14170655023269921 0 0.22014420538132101 0.15220340616902031 0 0.22072315291004729 0.13266153877040851 0 0.22256750796717151 0.13365894693247379 0 0.23416358592868081 0.11948321682242 0 0.2209838849812617 0.14170655023269921 0 0.22256750796717151 0.13365894693247379 0 0.22683495167522419 0.13830327029964559 0 0.2209838849812617 0.14170655023269921 0 0.22072315291004729 0.13266153877040851 0 0.22256750796717151 0.13365894693247379 0 0.22072315291004729 0.13266153877040851 0 0.22256750796717151 0.13365894693247379 0 0.22256750796717151 0.13365894693247379 0 0.2310941598164109 0.1340631009897936 0 0.22683495167522419 0.13830327029964559 0 0.23269425393605289 0.1437844830436156 0 0.2310941598164109 0.1340631009897936 0 0.22683495167522419 0.13830327029964559 0 0.22256750796717151 0.13365894693247379 0 0.2310941598164109 0.1340631009897936 0 0.23416358592868081 0.11948321682242 0 0.22072315291004729 0.13266153877040851 0 0.23416358592868081 0.11948321682242 0 0.23269425393605289 0.1437844830436156 0 0.2398321696551973 0.1349470225859751 0 0.25471493415999991 0.1425454810682216 0 0.2310941598164109 0.1340631009897936 0 0.2398321696551973 0.1349470225859751 0 0.23416358592868081 0.11948321682242 0 0.2398321696551973 0.1349470225859751 0 0.24841421863416779 0.12487025200301539 0 0.23416358592868081 0.11948321682242 0 0.23269425393605289 0.1437844830436156 0 0.2310941598164109 0.1340631009897936 0 0.2398321696551973 0.1349470225859751 0 0.2398321696551973 0.1349470225859751 0 0.25063503352337868 0.13313637413336671 0 0.25471493415999991 0.1425454810682216 0 0.2398321696551973 0.1349470225859751 0 0.24841421863416779 0.12487025200301539 0 0.25063503352337868 0.13313637413336671 0 0.24841421863416779 0.12487025200301539 0 0.24728074087785509 0.1165698880688527 0 0.23416358592868081 0.11948321682242 0 0.24728074087785509 0.1165698880688527 0 0.24760401894731479 0.10630489487443209 0 0.23416358592868081 0.11948321682242 0 0.24760401894731479 0.10630489487443209 0 0.23416358592868081 0.11948321682242 0 0.24760401894731479 0.10630489487443209 0 0.2405671401691338 0.1005223307539007 0 0.23416358592868081 0.11948321682242 0 0.2485246850727259 0.098667562616148161 0 0.24760401894731479 0.10630489487443209 0 0.2405671401691338 0.1005223307539007 0 0.24760401894731479 0.10630489487443209 0 0.2405671401691338 0.1005223307539007 0 0.2405671401691338 0.1005223307539007 0 0.2252755870082471 0.1078744181617976 0 0.22680376583785081 0.11884050096384401 0 0.2405671401691338 0.1005223307539007 0 0.2248077875587832 0.098002701404513046 0 0.2235742407124765 0.08655839392916094 0 0.2248077875587832 0.098002701404513046 0 0.2144147666019216 0.1064143223510941 0 0.2213987133718 0.087355462345943768 0 0.2405671401691338 0.1005223307539007 0 0.2252755870082471 0.1078744181617976 0 0.2248077875587832 0.098002701404513046 0 0.2252755870082471 0.1078744181617976 0 0.2248077875587832 0.098002701404513046 0 0.2144147666019216 0.1064143223510941 0 0.2405671401691338 0.1005223307539007 0 0.22680376583785081 0.11884050096384401 0 0.23416358592868081 0.11948321682242 0 0.2405671401691338 0.1005223307539007 0 0.22680376583785081 0.11884050096384401 0 0.22072315291004729 0.13266153877040851 0 0.22680376583785081 0.11884050096384401 0 0.23416358592868081 0.11948321682242 0 0.2252755870082471 0.1078744181617976 0 0.21852209852868601 0.1163488576379036 0 0.2144147666019216 0.1064143223510941 0 0.2252755870082471 0.1078744181617976 0 0.22680376583785081 0.11884050096384401 0 0.21852209852868601 0.1163488576379036 0 0.22072315291004729 0.13266153877040851 0 0.22680376583785081 0.11884050096384401 0 0.21868555336337081 0.1231418643565345 0 0.22680376583785081 0.11884050096384401 0 0.21868555336337081 0.1231418643565345 0 0.21852209852868601 0.1163488576379036 0 0.2074308198320419 0.1254731823562438 0 0.2144147666019216 0.1064143223510941 0 0.18924227465768631 0.11563700501995559 0 0.2074308198320419 0.1254731823562438 0 0.21868555336337081 0.1231418643565345 0 0.21852209852868601 0.1163488576379036 0 0.2074308198320419 0.1254731823562438 0 0.21852209852868601 0.1163488576379036 0 0.2144147666019216 0.1064143223510941 0 0.2074308198320419 0.1254731823562438 0 0.2144147666019216 0.1064143223510941 0 0.2144147666019216 0.1064143223510941 0 0.19622622142756649 0.096578145014802108 0 0.2213987133718 0.087355462345943768 0 0.2144147666019216 0.1064143223510941 0 0.2213987133718 0.087355462345943768 0 0.2144147666019216 0.1064143223510941 0 0.19622622142756649 0.096578145014802108 0 0.18924227465768631 0.11563700501995559 0 0.2074308198320419 0.1254731823562438 0 0.18924227465768631 0.11563700501995559 0 0.2074308198320419 0.1254731823562438 0 0.1959892763674233 0.1302303511819253 0 0.18924227465768631 0.11563700501995559 0 0.21219957466510919 0.077211247581763523 0 0.19060983722085889 0.059469853271562671 0 0.18649616109928549 0.075370958015263653 0 0.21219957466510919 0.077211247581763523 0 0.19060983722085889 0.059469853271562671 0 0.21219957466510919 0.077211247581763523 0 0.18649616109928549 0.075370958015263653 0 0.19622622142756649 0.096578145014802108 0 0.21219957466510919 0.077211247581763523 0 0.18649616109928549 0.075370958015263653 0 0.19622622142756649 0.096578145014802108 0 0.21219957466510919 0.077211247581763523 0 0.2213987133718 0.087355462345943768 0 0.19622622142756649 0.096578145014802108 0 0.2213987133718 0.087355462345943768 0 0.21219957466510919 0.077211247581763523 0 0.2213987133718 0.087355462345943768 0 0.22212668473864219 0.08536886295945062 0 0.21219957466510919 0.077211247581763523 0 0.22212668473864219 0.08536886295945062 0 0.21219957466510919 0.077211247581763523 0 0.22478575667606129 0.078112381564504479 0 0.21219957466510919 0.077211247581763523 0 0.21969264311253911 0.06090167148366489 0 0.19060983722085889 0.059469853271562671 0 0.22478575667606129 0.078112381564504479 0 0.2408919867780375 0.066576956293413661 0 0.2347000917929985 0.051056630530929667 0 0.22478575667606129 0.078112381564504479 0 0.2347000917929985 0.051056630530929667 0 0.21969264311253911 0.06090167148366489 0 0.22478575667606129 0.078112381564504479 0 0.2347000917929985 0.051056630530929667 0 0.21219957466510919 0.077211247581763523 0 0.22478575667606129 0.078112381564504479 0 0.21969264311253911 0.06090167148366489 0 0.2405671401691338 0.1005223307539007 0 0.2235742407124765 0.08655839392916094 0 0.2405671401691338 0.1005223307539007 0 0.2235742407124765 0.08655839392916094 0 0.2331251293295889 0.083059145022202754 0 0.2248077875587832 0.098002701404513046 0 0.2213987133718 0.087355462345943768 0 0.2235742407124765 0.08655839392916094 0 0.2213987133718 0.087355462345943768 0 0.2235742407124765 0.08655839392916094 0 0.22212668473864219 0.08536886295945062 0 0.2213987133718 0.087355462345943768 0 0.2235742407124765 0.08655839392916094 0 0.2213987133718 0.087355462345943768 0 0.22212668473864219 0.08536886295945062 0 0.2235742407124765 0.08655839392916094 0 0.22212668473864219 0.08536886295945062 0 0.21219957466510919 0.077211247581763523 0 0.22478575667606129 0.078112381564504479 0 0.22212668473864219 0.08536886295945062 0 0.22478575667606129 0.078112381564504479 0 0.2235742407124765 0.08655839392916094 0 0.22212668473864219 0.08536886295945062 0 0.22478575667606129 0.078112381564504479 0 0.22212668473864219 0.08536886295945062 0 0.22478575667606129 0.078112381564504479 0 0.24026273941667151 0.07922048846188387 0 0.22478575667606129 0.078112381564504479 0 0.2331251293295889 0.083059145022202754 0 0.24026273941667151 0.07922048846188387 0 0.2235742407124765 0.08655839392916094 0 0.2331251293295889 0.083059145022202754 0 0.22478575667606129 0.078112381564504479 0 0.2235742407124765 0.08655839392916094 0 0.2331251293295889 0.083059145022202754 0 0.2405671401691338 0.1005223307539007 0 0.2557397221572818 0.080328595359260457 0 0.2405671401691338 0.1005223307539007 0 0.24026273941667151 0.07922048846188387 0 0.2557397221572818 0.080328595359260457 0 0.2405671401691338 0.1005223307539007 0 0.2331251293295889 0.083059145022202754 0 0.24026273941667151 0.07922048846188387 0 0.2485246850727259 0.098667562616148161 0 0.2405671401691338 0.1005223307539007 0 0.2557397221572818 0.080328595359260457 0 0.24026273941667151 0.07922048846188387 0 0.2557397221572818 0.080328595359260457 0 0.22478575667606129 0.078112381564504479 0 0.24026273941667151 0.07922048846188387 0 0.2408919867780375 0.066576956293413661 0 0.24026273941667151 0.07922048846188387 0 0.25224945453329622 0.068441285752912751 0 0.2557397221572818 0.080328595359260457 0 0.24026273941667151 0.07922048846188387 0 0.2408919867780375 0.066576956293413661 0 0.25224945453329622 0.068441285752912751 0 0.2408919867780375 0.066576956293413661 0 0.25246189147116121 0.056053995156836831 0 0.25224945453329622 0.068441285752912751 0 0.2347000917929985 0.051056630530929667 0 0.25177520400336678 0.042524613143754143 0 0.25246189147116121 0.056053995156836831 0 0.2347000917929985 0.051056630530929667 0 0.25246189147116121 0.056053995156836831 0 0.2408919867780375 0.066576956293413661 0 0.2347000917929985 0.051056630530929667 0 0.25246189147116121 0.056053995156836831 0 0.2347000917929985 0.051056630530929667 0 0.24488562426254959 0.023260794764740599 0 0.25177520400336678 0.042524613143754143 0 0.2347000917929985 0.051056630530929667 0 0.22389997361827099 0.03834279921009659 0 0.24488562426254959 0.023260794764740599 0 0.2347000917929985 0.051056630530929667 0 0.24488562426254959 0.023260794764740599 0 0.2347000917929985 0.051056630530929667 0 0.22389997361827099 0.03834279921009659 0 0.20938436611179101 0.043933933828414262 0 0.2347000917929985 0.051056630530929667 0 0.21969264311253911 0.06090167148366489 0 0.20938436611179101 0.043933933828414262 0 0.2347000917929985 0.051056630530929667 0 0.20938436611179101 0.043933933828414262 0 0.24488562426254959 0.023260794764740599 0 0.25507115673211361 -0.0045350410014435294 0 0.24488562426254959 0.023260794764740599 0 0.2307010633220338 0.0065947605314399501 0 0.25507115673211361 -0.0045350410014435294 0 0.24488562426254959 0.023260794764740599 0 0.2223591630395336 0.02429952597767835 0 0.2307010633220338 0.0065947605314399501 0 0.22389997361827099 0.03834279921009659 0 0.24488562426254959 0.023260794764740599 0 0.2223591630395336 0.02429952597767835 0 0.2223591630395336 0.02429952597767835 0 0.2307010633220338 0.0065947605314399501 0 0.21492435258349399 0.0075954742012446612 0 0.2307010633220338 0.0065947605314399501 0 0.21492435258349399 0.0075954742012446612 0 0.21703109114326871 -0.0031006257221327408 0 0.21492435258349399 0.0075954742012446612 0 0.19860552893954281 0.0060187453151524144 0 0.2049739318777517 -0.0019828991504563451 0 0.21492435258349399 0.0075954742012446612 0 0.19236136077934671 0.020195852171098011 0 0.21492435258349399 0.0075954742012446612 0 0.21703109114326871 -0.0031006257221327408 0 0.2049739318777517 -0.0019828991504563451 0 0.21492435258349399 0.0075954742012446612 0 0.20821469453435809 0.020661558475450821 0 0.19236136077934671 0.020195852171098011 0 0.22389997361827099 0.03834279921009659 0 0.2223591630395336 0.02429952597767835 0 0.20321390173505841 0.030555381551782269 0 0.2223591630395336 0.02429952597767835 0 0.20321390173505841 0.030555381551782269 0 0.20821469453435809 0.020661558475450821 0 0.2223591630395336 0.02429952597767835 0 0.20321390173505841 0.030555381551782269 0 0.2223591630395336 0.02429952597767835 0 0.21492435258349399 0.0075954742012446612 0 0.20821469453435809 0.020661558475450821 0 0.20321390173505841 0.030555381551782269 0 0.19236136077934671 0.020195852171098011 0 0.18406864043058521 0.036811237125892522 0 0.20321390173505841 0.030555381551782269 0 0.20821469453435809 0.020661558475450821 0 0.19236136077934671 0.020195852171098011 0 0.21492435258349399 0.0075954742012446612 0 0.19236136077934671 0.020195852171098011 0 0.19860552893954281 0.0060187453151524144 0 0.19236136077934671 0.020195852171098011 0 0.19860552893954281 0.0060187453151524144 0 0.18521698577699611 0.0080719676923715084 0 0.19860552893954281 0.0060187453151524144 0 0.18521698577699611 0.0080719676923715084 0 0.19333238575284159 -0.001624579554046546 0 0.19860552893954281 0.0060187453151524144 0 0.2049739318777517 -0.0019828991504563451 0 0.19333238575284159 -0.001624579554046546 0 0.21969264311253911 0.06090167148366489 0 0.20938436611179101 0.043933933828414262 0 0.19060983722085889 0.059469853271562671 0 0.22389997361827099 0.03834279921009659 0 0.20321390173505841 0.030555381551782269 0 0.20938436611179101 0.043933933828414262 0 0.20938436611179101 0.043933933828414262 0 0.19060983722085889 0.059469853271562671 0 0.18406864043058521 0.036811237125892522 0 0.20321390173505841 0.030555381551782269 0 0.18406864043058521 0.036811237125892522 0 0.20321390173505841 0.030555381551782269 0 0.20938436611179101 0.043933933828414262 0 0.18406864043058521 0.036811237125892522 0 0.20938436611179101 0.043933933828414262 0 0.18406864043058521 0.036811237125892522 0 0.19060983722085889 0.059469853271562671 0 0.16902009977660931 0.041728458961360917 0 0.19060983722085889 0.059469853271562671 0 0.16902009977660931 0.041728458961360917 0 0.16996144821857581 0.059742321319858807 0 0.19060983722085889 0.059469853271562671 0 0.18406864043058521 0.036811237125892522 0 0.16902009977660931 0.041728458961360917 0 0.18406864043058521 0.036811237125892522 0 0.16979836897519601 0.032796230140945633 0 0.18406864043058521 0.036811237125892522 0 0.16902009977660931 0.041728458961360917 0 0.16979836897519601 0.032796230140945633 0 0.18406864043058521 0.036811237125892522 0 0.16902009977660931 0.041728458961360917 0 0.16902009977660931 0.041728458961360917 0 0.151710751272328 0.047384416464503511 0 0.16902009977660931 0.041728458961360917 0 0.16286333016869631 0.0366691256752016 0 0.151710751272328 0.047384416464503511 0 0.16979836897519601 0.032796230140945633 0 0.16286333016869631 0.0366691256752016 0 0.15208587458017561 0.0278127377848696 0 0.16902009977660931 0.041728458961360917 0 0.16286333016869631 0.0366691256752016 0 0.16902009977660931 0.041728458961360917 0 0.16979836897519601 0.032796230140945633 0 0.16286333016869631 0.0366691256752016 0 0.16979836897519601 0.032796230140945633 0 0.16286333016869631 0.0366691256752016 0 0.16286333016869631 0.0366691256752016 0 0.15208587458017561 0.0278127377848696 0 0.16902009977660931 0.041728458961360917 0 0.16996144821857581 0.059742321319858807 0 0.151710751272328 0.047384416464503511 0 0.16996144821857581 0.059742321319858807 0 0.14816013143745951 0.061611578835263907 0 0.151710751272328 0.047384416464503511 0 0.18521698577699611 0.0080719676923715084 0 0.1698631208042346 0.01071675655587848 0 0.1771068603599856 -0.0101407500985923 0 0.19236136077934671 0.020195852171098011 0 0.18521698577699611 0.0080719676923715084 0 0.17930995908394359 0.01794520164007227 0 0.18521698577699611 0.0080719676923715084 0 0.17930995908394359 0.01794520164007227 0 0.1698631208042346 0.01071675655587848 0 0.19236136077934671 0.020195852171098011 0 0.18406864043058521 0.036811237125892522 0 0.16979836897519601 0.032796230140945633 0 0.16979836897519601 0.032796230140945633 0 0.17930995908394359 0.01794520164007227 0 0.1698631208042346 0.01071675655587848 0 0.19236136077934671 0.020195852171098011 0 0.16979836897519601 0.032796230140945633 0 0.19236136077934671 0.020195852171098011 0 0.16979836897519601 0.032796230140945633 0 0.17930995908394359 0.01794520164007227 0 0.16979836897519601 0.032796230140945633 0 0.1573630341696948 0.015509368908725471 0 0.15208587458017561 0.0278127377848696 0 0.16979836897519601 0.032796230140945633 0 0.1698631208042346 0.01071675655587848 0 0.1573630341696948 0.015509368908725471 0 0.16979836897519601 0.032796230140945633 0 0.15208587458017561 0.0278127377848696 0 0.1698631208042346 0.01071675655587848 0 0.16086610818027189 0.00088494390851339051 0 0.1771068603599856 -0.0101407500985923 0 0.1698631208042346 0.01071675655587848 0 0.1573630341696948 0.015509368908725471 0 0.16086610818027189 0.00088494390851339051 0 0.1419667591125528 0.002147773280953317 0 0.14890787086280591 0.0064886139583709684 0 0.14833042641046409 -0.002631935689413961 0 0.1419667591125528 0.002147773280953317 0 0.14890787086280591 0.0064886139583709684 0 0.14133542555979101 0.0090412214129289552 0 0.1573630341696948 0.015509368908725471 0 0.16086610818027189 0.00088494390851339051 0 0.14890787086280591 0.0064886139583709684 0 0.16086610818027189 0.00088494390851339051 0 0.14890787086280591 0.0064886139583709684 0 0.14833042641046409 -0.002631935689413961 0 0.1573630341696948 0.015509368908725471 0 0.14890787086280591 0.0064886139583709684 0 0.14708209162972349 0.014642913179754059 0 0.14890787086280591 0.0064886139583709684 0 0.14708209162972349 0.014642913179754059 0 0.14133542555979101 0.0090412214129289552 0 0.14708209162972349 0.014642913179754059 0 0.14133542555979101 0.0090412214129289552 0 0.13571825297614989 0.014362623833877569 0 0.14708209162972349 0.014642913179754059 0 0.15208587458017561 0.0278127377848696 0 0.13571825297614989 0.014362623833877569 0 0.15208587458017561 0.0278127377848696 0 0.13345456775081521 0.02737141501462825 0 0.14260373822474409 0.034620480461739878 0 0.15208587458017561 0.0278127377848696 0 0.13571825297614989 0.014362623833877569 0 0.1573630341696948 0.015509368908725471 0 0.14708209162972349 0.014642913179754059 0 0.15208587458017561 0.0278127377848696 0 0.15208587458017561 0.0278127377848696 0 0.1257454251521086 0.02040173030885872 0 0.13571825297614989 0.014362623833877569 0 0.15208587458017561 0.0278127377848696 0 0.1257454251521086 0.02040173030885872 0 0.15208587458017561 0.0278127377848696 0 0.13345456775081521 0.02737141501462825 0 0.1257454251521086 0.02040173030885872 0 0.13345456775081521 0.02737141501462825 0 0.1257454251521086 0.02040173030885872 0 0.12601828966856041 0.034779331412806522 0 0.14133542555979101 0.0090412214129289552 0 0.13571825297614989 0.014362623833877569 0 0.13299307729309279 0.006441163532843899 0 0.1257454251521086 0.02040173030885872 0 0.13571825297614989 0.014362623833877569 0 0.13299307729309279 0.006441163532843899 0 0.1223363701530287 0.0096311158811146491 0 0.1257454251521086 0.02040173030885872 0 0.13299307729309279 0.006441163532843899 0 0.1257454251521086 0.02040173030885872 0 0.13299307729309279 0.006441163532843899 0 0.1223363701530287 0.0096311158811146491 0 0.13299307729309279 0.006441163532843899 0 0.1254970565252467 -0.00055485016598096602 0 0.1419667591125528 0.002147773280953317 0 0.14133542555979101 0.0090412214129289552 0 0.13299307729309279 0.006441163532843899 0 0.1419667591125528 0.002147773280953317 0 0.13299307729309279 0.006441163532843899 0 0.14024072943406241 -0.0075194032431784574 0 0.151710751272328 0.047384416464503511 0 0.13440140276804591 0.053040373967643668 0 0.151710751272328 0.047384416464503511 0 0.1486237540368493 0.044621264422986168 0 0.13440140276804591 0.053040373967643668 0 0.14816013143745951 0.061611578835263907 0 0.151710751272328 0.047384416464503511 0 0.13440140276804591 0.053040373967643668 0 0.1486237540368493 0.044621264422986168 0 0.13440140276804591 0.053040373967643668 0 0.16286333016869631 0.0366691256752016 0 0.151710751272328 0.047384416464503511 0 0.1486237540368493 0.044621264422986168 0 0.16286333016869631 0.0366691256752016 0 0.15208587458017561 0.0278127377848696 0 0.1486237540368493 0.044621264422986168 0 0.15208587458017561 0.0278127377848696 0 0.1486237540368493 0.044621264422986168 0 0.14260373822474409 0.034620480461739878 0 0.16286333016869631 0.0366691256752016 0 0.1486237540368493 0.044621264422986168 0 0.1486237540368493 0.044621264422986168 0 0.13976655947935229 0.039796640767531179 0 0.13440140276804591 0.053040373967643668 0 0.1486237540368493 0.044621264422986168 0 0.14260373822474409 0.034620480461739878 0 0.13976655947935229 0.039796640767531179 0 0.13345456775081521 0.02737141501462825 0 0.12601828966856041 0.034779331412806522 0 0.13112590113666539 0.047018493875372019 0 0.13345456775081521 0.02737141501462825 0 0.13976655947935229 0.039796640767531179 0 0.13440140276804591 0.053040373967643668 0 0.13345456775081521 0.02737141501462825 0 0.13112590113666539 0.047018493875372019 0 0.13440140276804591 0.053040373967643668 0 0.13345456775081521 0.02737141501462825 0 0.13440140276804591 0.053040373967643668 0 0.13345456775081521 0.02737141501462825 0 0.14260373822474409 0.034620480461739878 0 0.13976655947935229 0.039796640767531179 0 0.14816013143745951 0.061611578835263907 0 0.13440140276804591 0.053040373967643668 0 0.1350893339676377 0.071690378882270686 0 0.13037822215607939 0.054354977955372967 0 0.13440140276804591 0.053040373967643668 0 0.1350893339676377 0.071690378882270686 0 0.1146582432576219 0.041758073050694788 0 0.13037822215607939 0.054354977955372967 0 0.13112590113666539 0.047018493875372019 0 0.13440140276804591 0.053040373967643668 0 0.1350893339676377 0.071690378882270686 0 0.13037822215607939 0.054354977955372967 0 0.13440140276804591 0.053040373967643668 0 0.13037822215607939 0.054354977955372967 0 0.13112590113666539 0.047018493875372019 0 0.13440140276804591 0.053040373967643668 0 0.13037822215607939 0.054354977955372967 0 0.13112590113666539 0.047018493875372019 0 0.1286584529638552 0.07122994652824341 0 0.1350893339676377 0.071690378882270686 0 0.1266169744647683 0.091261637798302819 0 0.13037822215607939 0.054354977955372967 0 0.1286584529638552 0.07122994652824341 0 0.13037822215607939 0.054354977955372967 0 0.1286584529638552 0.07122994652824341 0 0.1350893339676377 0.071690378882270686 0 0.1286584529638552 0.07122994652824341 0 0.1350893339676377 0.071690378882270686 0 0.1350893339676377 0.071690378882270686 0 0.15666642900398681 0.073235236057330511 0 0.14816013143745951 0.061611578835263907 0 0.1350893339676377 0.071690378882270686 0 0.15666642900398681 0.073235236057330511 0 0.1350893339676377 0.071690378882270686 0 0.14634793763894349 0.085667185594611575 0 0.15666642900398681 0.073235236057330511 0 0.14816013143745951 0.061611578835263907 0 0.16079274753346159 0.073530668448767017 0 0.15666642900398681 0.073235236057330511 0 0.14634793763894349 0.085667185594611575 0 0.1546093363117042 0.096907869732747648 0 0.15877050278237179 0.085502147960700645 0 0.14634793763894349 0.085667185594611575 0 0.15666642900398681 0.073235236057330511 0 0.15877050278237179 0.085502147960700645 0 0.14634793763894349 0.085667185594611575 0 0.15666642900398681 0.073235236057330511 0 0.14634793763894349 0.085667185594611575 0 0.13605189300949519 0.097785620487945563 0 0.1350893339676377 0.071690378882270686 0 0.1266169744647683 0.091261637798302819 0 0.13605189300949519 0.097785620487945563 0 0.1286584529638552 0.07122994652824341 0 0.1266169744647683 0.091261637798302819 0 0.1350893339676377 0.071690378882270686 0 0.13605189300949519 0.097785620487945563 0 0.1350893339676377 0.071690378882270686 0 0.14634793763894349 0.085667185594611575 0 0.13605189300949519 0.097785620487945563 0 0.12457549596567841 0.11129332906836201 0 0.1266169744647683 0.091261637798302819 0 0.13605189300949519 0.097785620487945563 0 0.1368103244389082 0.1183469061142584 0 0.1456503160408891 0.1041058851090583 0 0.12457549596567841 0.11129332906836201 0 0.1266169744647683 0.091261637798302819 0 0.13605189300949519 0.097785620487945563 0 0.12457549596567841 0.11129332906836201 0 0.13605189300949519 0.097785620487945563 0 0.1368103244389082 0.1183469061142584 0 0.13605189300949519 0.097785620487945563 0 0.1368103244389082 0.1183469061142584 0 0.12457549596567841 0.11129332906836201 0 0.13605189300949519 0.097785620487945563 0 0.12335421623778491 0.1232769470562404 0 0.12457549596567841 0.11129332906836201 0 0.1368103244389082 0.1183469061142584 0 0.12335421623778491 0.1232769470562404 0 0.1368103244389082 0.1183469061142584 0 0.1368103244389082 0.1183469061142584 0 0.15393202696112071 0.1120738668989595 0 0.1456503160408891 0.1041058851090583 0 0.15393489224620491 0.1293710264470965 0 0.1368103244389082 0.1183469061142584 0 0.15393202696112071 0.1120738668989595 0 0.1368103244389082 0.1183469061142584 0 0.15393202696112071 0.1120738668989595 0 0.14634793763894349 0.085667185594611575 0 0.1456503160408891 0.1041058851090583 0 0.1546093363117042 0.096907869732747648 0 0.14634793763894349 0.085667185594611575 0 0.13605189300949519 0.097785620487945563 0 0.1456503160408891 0.1041058851090583 0 0.15393202696112071 0.1120738668989595 0 0.1456503160408891 0.1041058851090583 0 0.1546093363117042 0.096907869732747648 0 0.15393202696112071 0.1120738668989595 0 0.1546093363117042 0.096907869732747648 0 0.1710537294833335 0.10580082768366179 0 0.15393202696112071 0.1120738668989595 0 0.1710537294833335 0.10580082768366179 0 0.1710537294833335 0.10580082768366179 0 0.16576359563373649 0.094515371614839652 0 0.17445939959390719 0.088804608003954955 0 0.1546093363117042 0.096907869732747648 0 0.1710537294833335 0.10580082768366179 0 0.1546093363117042 0.096907869732747648 0 0.1710537294833335 0.10580082768366179 0 0.16576359563373649 0.094515371614839652 0 0.15393489224620491 0.1293710264470965 0 0.15393202696112071 0.1120738668989595 0 0.17123158341977199 0.1236141345143271 0 0.15393202696112071 0.1120738668989595 0 0.1710537294833335 0.10580082768366179 0 0.17123158341977199 0.1236141345143271 0 0.18924227465768631 0.11563700501995559 0 0.1710537294833335 0.10580082768366179 0 0.18924227465768631 0.11563700501995559 0 0.1710537294833335 0.10580082768366179 0 0.17123158341977199 0.1236141345143271 0 0.18468246321415149 0.133685096469566 0 0.18924227465768631 0.11563700501995559 0 0.17123158341977199 0.1236141345143271 0 0.19622622142756649 0.096578145014802108 0 0.1710537294833335 0.10580082768366179 0 0.19622622142756649 0.096578145014802108 0 0.1710537294833335 0.10580082768366179 0 0.17445939959390719 0.088804608003954955 0 0.19622622142756649 0.096578145014802108 0 0.18924227465768631 0.11563700501995559 0 0.1710537294833335 0.10580082768366179 0 0.17445939959390719 0.088804608003954955 0 0.18649616109928549 0.075370958015263653 0 0.16079274753346159 0.073530668448767017 0 0.19622622142756649 0.096578145014802108 0 0.17445939959390719 0.088804608003954955 0 0.18649616109928549 0.075370958015263653 0 0.18649616109928549 0.075370958015263653 0 0.16079274753346159 0.073530668448767017 0 0.16996144821857581 0.059742321319858807 0 0.18649616109928549 0.075370958015263653 0 0.16079274753346159 0.073530668448767017 0 0.19060983722085889 0.059469853271562671 0 0.16996144821857581 0.059742321319858807 0 0.18649616109928549 0.075370958015263653 0 0.16996144821857581 0.059742321319858807 0 0.14816013143745951 0.061611578835263907 0 0.16079274753346159 0.073530668448767017 0 0.16079274753346159 0.073530668448767017 0 0.15666642900398681 0.073235236057330511 0 0.15877050278237179 0.085502147960700645 0 0.16079274753346159 0.073530668448767017 0 0.15666642900398681 0.073235236057330511 0 0.16576359563373649 0.094515371614839652 0 0.17445939959390719 0.088804608003954955 0 0.15877050278237179 0.085502147960700645 0 0.17445939959390719 0.088804608003954955 0 0.16079274753346159 0.073530668448767017 0 0.15877050278237179 0.085502147960700645 0 0.1546093363117042 0.096907869732747648 0 0.16576359563373649 0.094515371614839652 0 0.15877050278237179 0.085502147960700645 0 0.098203928779598798 0.4749009609504522 0 0.099636078648620785 0.48991990418480191 0 0.12198042715027541 0.48126814430390719 0 0.099636078648620785 0.48991990418480191 0 0.11342950499742439 0.5 0 0.085954928623699856 0.5 0 0.099636078648620785 0.48991990418480191 0 0.11342950499742439 0.5 0 0.12198042715027541 0.48126814430390719 0 0.12198042715027541 0.48126814430390719 0 0.1180657170444107 0.46235144142567919 0 0.1325274624765877 0.46670780663835049 0 0.098203928779598798 0.4749009609504522 0 0.12198042715027541 0.48126814430390719 0 0.1180657170444107 0.46235144142567919 0 0.1180657170444107 0.46235144142567919 0 0.1142280614004636 0.44188273683014229 0 0.1006418577651744 0.45719296123441772 0 0.1180657170444107 0.46235144142567919 0 0.1142280614004636 0.44188273683014229 0 0.1379275053092226 0.44980192190090618 0 0.1142280614004636 0.44188273683014229 0 0.1006418577651744 0.45719296123441772 0 0.08945811265455185 0.44187222457424408 0 0.098203928779598798 0.4749009609504522 0 0.1006418577651744 0.45719296123441772 0 0.083253468946846917 0.46495744239157039 0 0.098203928779598798 0.4749009609504522 0 0.1180657170444107 0.46235144142567919 0 0.098203928779598798 0.4749009609504522 0 0.1180657170444107 0.46235144142567919 0 0.1006418577651744 0.45719296123441772 0 0.1006418577651744 0.45719296123441772 0 0.083253468946846917 0.46495744239157039 0 0.08945811265455185 0.44187222457424408 0 0.083253468946846917 0.46495744239157039 0 0.08945811265455185 0.44187222457424408 0 0.071223988791703829 0.45126805297906519 0 0.08945811265455185 0.44187222457424408 0 0.071223988791703829 0.45126805297906519 0 0.072845752407117936 0.43633753013195098 0 0.071223988791703829 0.45126805297906519 0 0.058797824826679383 0.44217556405412961 0 0.072845752407117936 0.43633753013195098 0 0.083253468946846917 0.46495744239157039 0 0.071223988791703829 0.45126805297906519 0 0.065486142551985621 0.46951013531691449 0 0.071223988791703829 0.45126805297906519 0 0.065486142551985621 0.46951013531691449 0 0.054893706237382947 0.45624686353390442 0 0.083253468946846917 0.46495744239157039 0 0.065486142551985621 0.46951013531691449 0 0.078342140514786843 0.48745048047522532 0 0.065486142551985621 0.46951013531691449 0 0.078342140514786843 0.48745048047522532 0 0.051775817542262931 0.48492877196559703 0 0.098203928779598798 0.4749009609504522 0 0.078342140514786843 0.48745048047522532 0 0.098203928779598798 0.4749009609504522 0 0.099636078648620785 0.48991990418480191 0 0.078342140514786843 0.48745048047522532 0 0.098203928779598798 0.4749009609504522 0 0.083253468946846917 0.46495744239157039 0 0.078342140514786843 0.48745048047522532 0 0.099636078648620785 0.48991990418480191 0 0.085954928623699856 0.5 0 0.078342140514786843 0.48745048047522532 0 0.078342140514786843 0.48745048047522532 0 0.05848035224997522 0.49999999999999911 0 0.078342140514786843 0.48745048047522532 0 0.05848035224997522 0.49999999999999911 0 0.051775817542262931 0.48492877196559703 0 0.085954928623699856 0.5 0 0.078342140514786843 0.48745048047522532 0 0.05848035224997522 0.49999999999999911 0 0.065486142551985621 0.46951013531691449 0 0.051775817542262931 0.48492877196559703 0 0.045543180858451868 0.46991103840382442 0 0.051775817542262931 0.48492877196559703 0 0.045543180858451868 0.46991103840382442 0 0.033539422154943807 0.48186836052528559 0 0.045543180858451868 0.46991103840382442 0 0.033539422154943807 0.48186836052528559 0 0.026004418162171299 0.46967100194812922 0 0.051775817542262931 0.48492877196559703 0 0.033539422154943807 0.48186836052528559 0 0.029507998056016341 0.5 0 0.05848035224997522 0.49999999999999911 0 0.051775817542262931 0.48492877196559703 0 0.029507998056016341 0.5 0 0.033539422154943807 0.48186836052528559 0 0.029507998056016341 0.5 0 0.014865696155816691 0.48483099030887772 0 0.033539422154943807 0.48186836052528559 0 0.026004418162171299 0.46967100194812922 0 0.014865696155816691 0.48483099030887772 0 0.026004418162171299 0.46967100194812922 0 0.014865696155816691 0.48483099030887772 0 0.0098392767044130913 0.46775716758630398 0 -0.00035200391082259452 0.47812999780262511 0 0.014865696155816691 0.48483099030887772 0 0.0098392767044130913 0.46775716758630398 0 -0.00469897694132939 0.46326950737036948 0 -0.00035200391082259452 0.47812999780262511 0 0.0098392767044130913 0.46775716758630398 0 0.029507998056016341 0.5 0 0.014865696155816691 0.48483099030887772 0 0.00053564386205745551 0.5 0 -0.00035200391082259452 0.47812999780262511 0 0.014865696155816691 0.48483099030887772 0 0.00053564386205745551 0.5 0 0.0081070481641373152 0.43806399088304138 0 0.0056488567216386636 0.45351705879088522 0 0.022430877084856599 0.44566056712785951 0 -0.0046805405167990952 0.44910465089531287 0 0.0081070481641373152 0.43806399088304138 0 0.0056488567216386636 0.45351705879088522 0 -0.00469897694132939 0.46326950737036948 0 0.0056488567216386636 0.45351705879088522 0 0.0098392767044130913 0.46775716758630398 0 0.0056488567216386636 0.45351705879088522 0 0.0098392767044130913 0.46775716758630398 0 0.019988469307264351 0.4583044992525751 0 0.026004418162171299 0.46967100194812922 0 0.019988469307264351 0.4583044992525751 0 0.0360189178632421 0.45491670080969709 0 0.026004418162171299 0.46967100194812922 0 0.0098392767044130913 0.46775716758630398 0 0.019988469307264351 0.4583044992525751 0 0.0081070481641373152 0.43806399088304138 0 0.022430877084856599 0.44566056712785951 0 0.023741158708340131 0.43445249594329438 0 0.019988469307264351 0.4583044992525751 0 0.022430877084856599 0.44566056712785951 0 0.0360189178632421 0.45491670080969709 0 0.0056488567216386636 0.45351705879088522 0 0.019988469307264351 0.4583044992525751 0 0.022430877084856599 0.44566056712785951 0 0.022430877084856599 0.44566056712785951 0 0.03686034117982831 0.43744721183462332 0 0.023741158708340131 0.43445249594329438 0 0.0360189178632421 0.45491670080969709 0 0.047329461275634921 0.44467364492524242 0 0.03686034117982831 0.43744721183462332 0 0.022430877084856599 0.44566056712785951 0 0.0360189178632421 0.45491670080969709 0 0.03686034117982831 0.43744721183462332 0 0.0360189178632421 0.45491670080969709 0 0.054893706237382947 0.45624686353390442 0 0.047329461275634921 0.44467364492524242 0 0.047329461275634921 0.44467364492524242 0 0.050076516271041843 0.4325818843938577 0 0.03686034117982831 0.43744721183462332 0 0.045543180858451868 0.46991103840382442 0 0.0360189178632421 0.45491670080969709 0 0.054893706237382947 0.45624686353390442 0 0.045543180858451868 0.46991103840382442 0 0.026004418162171299 0.46967100194812922 0 0.0360189178632421 0.45491670080969709 0 0.065486142551985621 0.46951013531691449 0 0.045543180858451868 0.46991103840382442 0 0.054893706237382947 0.45624686353390442 0 0.071223988791703829 0.45126805297906519 0 0.054893706237382947 0.45624686353390442 0 0.058797824826679383 0.44217556405412961 0 0.047329461275634921 0.44467364492524242 0 0.058797824826679383 0.44217556405412961 0 0.050076516271041843 0.4325818843938577 0 0.054893706237382947 0.45624686353390442 0 0.047329461275634921 0.44467364492524242 0 0.058797824826679383 0.44217556405412961 0 0.058797824826679383 0.44217556405412961 0 0.061983655983073351 0.43101105797747841 0 0.050076516271041843 0.4325818843938577 0 0.061983655983073351 0.43101105797747841 0 0.050076516271041843 0.4325818843938577 0 0.057870939365693347 0.41990492892177339 0 0.050076516271041843 0.4325818843938577 0 0.057870939365693347 0.41990492892177339 0 0.042672009640380551 0.41990454949214789 0 0.06100663466783416 0.4085900571820264 0 0.057870939365693347 0.41990492892177339 0 0.051753945866508277 0.40693339821267971 0 0.06100663466783416 0.4085900571820264 0 0.057870939365693347 0.41990492892177339 0 0.067611513876549068 0.41432347952730197 0 0.057870939365693347 0.41990492892177339 0 0.051753945866508277 0.40693339821267971 0 0.042672009640380551 0.41990454949214789 0 0.051753945866508277 0.40693339821267971 0 0.042672009640380551 0.41990454949214789 0 0.040715590595156892 0.40544617830085111 0 0.042672009640380551 0.41990454949214789 0 0.031485865569270223 0.42547981917751349 0 0.030717263025017129 0.41246882492550141 0 0.042672009640380551 0.41990454949214789 0 0.030717263025017129 0.41246882492550141 0 0.040715590595156892 0.40544617830085111 0 0.042672009640380551 0.41990454949214789 0 0.031485865569270223 0.42547981917751349 0 0.03686034117982831 0.43744721183462332 0 0.050076516271041843 0.4325818843938577 0 0.042672009640380551 0.41990454949214789 0 0.03686034117982831 0.43744721183462332 0 0.0081070481641373152 0.43806399088304138 0 0.023741158708340131 0.43445249594329438 0 0.01558796686584794 0.42844036827717158 0 0.031485865569270223 0.42547981917751349 0 0.03686034117982831 0.43744721183462332 0 0.023741158708340131 0.43445249594329438 0 0.023741158708340131 0.43445249594329438 0 0.02270547891041581 0.42148064254862427 0 0.01558796686584794 0.42844036827717158 0 0.02270547891041581 0.42148064254862427 0 0.01396084567425326 0.42132534962312362 0 0.01558796686584794 0.42844036827717158 0 0.031485865569270223 0.42547981917751349 0 0.023741158708340131 0.43445249594329438 0 0.02270547891041581 0.42148064254862427 0 0.030717263025017129 0.41246882492550141 0 0.018072624356630981 0.41305212753927711 0 0.02270547891041581 0.42148064254862427 0 0.031485865569270223 0.42547981917751349 0 0.030717263025017129 0.41246882492550141 0 0.02270547891041581 0.42148064254862427 0 0.030717263025017129 0.41246882492550141 0 0.018072624356630981 0.41305212753927711 0 0.024580943804057322 0.40314336508996917 0 0.018072624356630981 0.41305212753927711 0 0.010133338091050581 0.40364070436270222 0 0.024580943804057322 0.40314336508996917 0 0.018072624356630981 0.41305212753927711 0 0.02270547891041581 0.42148064254862427 0 0.01396084567425326 0.42132534962312362 0 0.018072624356630981 0.41305212753927711 0 0.01396084567425326 0.42132534962312362 0 0.0062770988424424388 0.41748857372992892 0 -0.0080108279614322531 0.41906629829442488 0 0.0026143882621884069 0.40727375446200598 0 0.010133338091050581 0.40364070436270222 0 -0.0080108279614322531 0.41906629829442488 0 0.0062770988424424388 0.41748857372992892 0 0.010133338091050581 0.40364070436270222 0 0.01396084567425326 0.42132534962312362 0 0.0062770988424424388 0.41748857372992892 0 0.0071610593959291358 0.42616503602061612 0 -0.0080108279614322531 0.41906629829442488 0 0.010133338091050581 0.40364070436270222 0 0.018072624356630981 0.41305212753927711 0 0.0062770988424424388 0.41748857372992892 0 0.010133338091050581 0.40364070436270222 0 -0.00098420035874578326 0.4296376637812146 0 -4.3180604909707702e-05 0.4232689648734036 0 0.0071610593959291358 0.42616503602061612 0 -4.3180604909707702e-05 0.4232689648734036 0 0.0062770988424424388 0.41748857372992892 0 0.0071610593959291358 0.42616503602061612 0 -0.00098420035874578326 0.4296376637812146 0 -0.0059786262913216247 0.43795886887328661 0 0.0081070481641373152 0.43806399088304138 0 -0.00098420035874578326 0.4296376637812146 0 0.0081070481641373152 0.43806399088304138 0 0.0071610593959291358 0.42616503602061612 0 0.0081070481641373152 0.43806399088304138 0 0.0071610593959291358 0.42616503602061612 0 0.01558796686584794 0.42844036827717158 0 0.01396084567425326 0.42132534962312362 0 0.0071610593959291358 0.42616503602061612 0 0.01558796686584794 0.42844036827717158 0 0.0109255826322065 0.38733252175668009 0 0.012997981448710181 0.38635364521301607 0 0.00133922831620685 0.38493328910147551 0 0.0109255826322065 0.38733252175668009 0 0.012997981448710181 0.38635364521301607 0 0.012997981448710181 0.38635364521301607 0 0.01343807821723361 0.3921569246163577 0 0.01988127745101698 0.3922530126758208 0 0.0109255826322065 0.38733252175668009 0 0.012997981448710181 0.38635364521301607 0 0.01343807821723361 0.3921569246163577 0 0.0086894435353581326 0.37946230484837462 0 0.01793543768698494 0.37747446163999682 0 0.010632814435522379 0.37194707726848952 0 0.012997981448710181 0.38635364521301607 0 0.0086894435353581326 0.37946230484837462 0 0.01793543768698494 0.37747446163999682 0 0.0086894435353581326 0.37946230484837462 0 0.001197760358732865 0.37500202874546518 0 0.00133922831620685 0.38493328910147551 0 0.0086894435353581326 0.37946230484837462 0 0.001197760358732865 0.37500202874546518 0 0.010632814435522379 0.37194707726848952 0 0.012997981448710181 0.38635364521301607 0 0.00133922831620685 0.38493328910147551 0 0.0109255826322065 0.38733252175668009 0 0.00133922831620685 0.38493328910147551 0 0.0057219327324518898 0.39328421244850481 0 0.012997981448710181 0.38635364521301607 0 0.0086894435353581326 0.37946230484837462 0 0.00133922831620685 0.38493328910147551 0 -0.0029102898792297718 0.39200733442648922 0 0.00133922831620685 0.38493328910147551 0 0.0057219327324518898 0.39328421244850481 0 0.0026143882621884069 0.40727375446200598 0 0.01988127745101698 0.3922530126758208 0 0.0026143882621884069 0.40727375446200598 0 0.0057219327324518898 0.39328421244850481 0 0.01343807821723361 0.3921569246163577 0 0.0026143882621884069 0.40727375446200598 0 0.010133338091050581 0.40364070436270222 0 0.01988127745101698 0.3922530126758208 0 0.0026143882621884069 0.40727375446200598 0 0.01343807821723361 0.3921569246163577 0 0.01988127745101698 0.3922530126758208 0 -0.0029102898792297718 0.39200733442648922 0 0.001240191978069999 0.39807366433780061 0 0.0057219327324518898 0.39328421244850481 0 0.0026143882621884069 0.40727375446200598 0 0.001240191978069999 0.39807366433780061 0 0.0057219327324518898 0.39328421244850481 0 0.0109255826322065 0.38733252175668009 0 0.0057219327324518898 0.39328421244850481 0 0.01343807821723361 0.3921569246163577 0 0.010133338091050581 0.40364070436270222 0 0.01988127745101698 0.3922530126758208 0 0.02827750414353453 0.38821511043098073 0 0.010133338091050581 0.40364070436270222 0 0.02827750414353453 0.38821511043098073 0 0.010133338091050581 0.40364070436270222 0 0.024580943804057322 0.40314336508996917 0 0.02827750414353453 0.38821511043098073 0 0.030717263025017129 0.41246882492550141 0 0.024580943804057322 0.40314336508996917 0 0.034864209267269783 0.39784589875691101 0 0.024580943804057322 0.40314336508996917 0 0.02827750414353453 0.38821511043098073 0 0.034864209267269783 0.39784589875691101 0 0.012997981448710181 0.38635364521301607 0 0.02827750414353453 0.38821511043098073 0 0.027929567807377358 0.37930086196985457 0 0.012997981448710181 0.38635364521301607 0 0.01988127745101698 0.3922530126758208 0 0.02827750414353453 0.38821511043098073 0 0.012997981448710181 0.38635364521301607 0 0.02827750414353453 0.38821511043098073 0 0.012997981448710181 0.38635364521301607 0 0.027929567807377358 0.37930086196985457 0 0.01793543768698494 0.37747446163999682 0 0.027929567807377358 0.37930086196985457 0 0.021158674940967369 0.37106670977657652 0 0.012997981448710181 0.38635364521301607 0 0.01793543768698494 0.37747446163999682 0 0.027929567807377358 0.37930086196985457 0 0.02827750414353453 0.38821511043098073 0 0.043570525176608713 0.39007822011701521 0 0.044576097502232043 0.37435856380975002 0 0.027929567807377358 0.37930086196985457 0 0.042861154166044663 0.37224807872669352 0 0.027929567807377358 0.37930086196985457 0 0.042861154166044663 0.37224807872669352 0 0.044576097502232043 0.37435856380975002 0 0.02827750414353453 0.38821511043098073 0 0.044576097502232043 0.37435856380975002 0 0.02827750414353453 0.38821511043098073 0 0.027929567807377358 0.37930086196985457 0 0.044576097502232043 0.37435856380975002 0 0.02827750414353453 0.38821511043098073 0 0.043570525176608713 0.39007822011701521 0 0.051753945866508277 0.40693339821267971 0 0.043570525176608713 0.39007822011701521 0 0.040715590595156892 0.40544617830085111 0 0.030717263025017129 0.41246882492550141 0 0.034864209267269783 0.39784589875691101 0 0.040715590595156892 0.40544617830085111 0 0.02827750414353453 0.38821511043098073 0 0.043570525176608713 0.39007822011701521 0 0.034864209267269783 0.39784589875691101 0 0.043570525176608713 0.39007822011701521 0 0.034864209267269783 0.39784589875691101 0 0.040715590595156892 0.40544617830085111 0 0.06100663466783416 0.4085900571820264 0 0.051753945866508277 0.40693339821267971 0 0.058863546209682732 0.3919413298030513 0 0.051753945866508277 0.40693339821267971 0 0.043570525176608713 0.39007822011701521 0 0.058863546209682732 0.3919413298030513 0 0.043570525176608713 0.39007822011701521 0 0.058863546209682732 0.3919413298030513 0 0.058863546209682732 0.3919413298030513 0 0.044576097502232043 0.37435856380975002 0 0.043570525176608713 0.39007822011701521 0 0.058863546209682732 0.3919413298030513 0 0.044576097502232043 0.37435856380975002 0 0.058863546209682732 0.3919413298030513 0 0.054269256374633881 0.37897820218126038 0 0.044576097502232043 0.37435856380975002 0 0.058863546209682732 0.3919413298030513 0 0.054269256374633881 0.37897820218126038 0 0.062196876961561537 0.38109025247522199 0 0.054269256374633881 0.37897820218126038 0 0.062196876961561537 0.38109025247522199 0 0.052305852959259463 0.36778697112663988 0 0.062196876961561537 0.38109025247522199 0 0.077870414299151369 0.38215030148675522 0 0.071067641496818421 0.37464353941489181 0 0.062196876961561537 0.38109025247522199 0 0.077870414299151369 0.38215030148675522 0 0.072953249098064055 0.39365784231342299 0 0.062196876961561537 0.38109025247522199 0 0.072953249098064055 0.39365784231342299 0 0.058863546209682732 0.3919413298030513 0 0.062196876961561537 0.38109025247522199 0 0.072953249098064055 0.39365784231342299 0 0.077870414299151369 0.38215030148675522 0 0.079083868047293823 0.36990792026461472 0 0.071067641496818421 0.37464353941489181 0 0.077870414299151369 0.38215030148675522 0 0.089318488342665495 0.3741457566562113 0 0.079083868047293823 0.36990792026461472 0 0.077870414299151369 0.38215030148675522 0 0.088322213028552032 0.38577265361853291 0 0.089318488342665495 0.3741457566562113 0 0.077870414299151369 0.38215030148675522 0 0.088322213028552032 0.38577265361853291 0 0.072953249098064055 0.39365784231342299 0 0.072953249098064055 0.39365784231342299 0 0.086711519865529843 0.40973280715233018 0 0.099667691753355034 0.39691239461936678 0 0.076654989741760479 0.40581067451577441 0 0.072953249098064055 0.39365784231342299 0 0.086711519865529843 0.40973280715233018 0 0.088322213028552032 0.38577265361853291 0 0.072953249098064055 0.39365784231342299 0 0.099667691753355034 0.39691239461936678 0 0.072953249098064055 0.39365784231342299 0 0.086711519865529843 0.40973280715233018 0 0.072953249098064055 0.39365784231342299 0 0.099667691753355034 0.39691239461936678 0 0.06100663466783416 0.4085900571820264 0 0.058863546209682732 0.3919413298030513 0 0.068606245404375862 0.40393112613346638 0 0.076654989741760479 0.40581067451577441 0 0.072953249098064055 0.39365784231342299 0 0.068606245404375862 0.40393112613346638 0 0.058863546209682732 0.3919413298030513 0 0.072953249098064055 0.39365784231342299 0 0.068606245404375862 0.40393112613346638 0 0.058863546209682732 0.3919413298030513 0 0.068606245404375862 0.40393112613346638 0 0.058863546209682732 0.3919413298030513 0 0.072953249098064055 0.39365784231342299 0 0.06100663466783416 0.4085900571820264 0 0.068606245404375862 0.40393112613346638 0 0.067611513876549068 0.41432347952730197 0 0.057870939365693347 0.41990492892177339 0 0.067611513876549068 0.41432347952730197 0 0.070327247044834312 0.42405538238568041 0 0.067611513876549068 0.41432347952730197 0 0.070327247044834312 0.42405538238568041 0 0.078348944599072032 0.41592092246387907 0 0.070327247044834312 0.42405538238568041 0 0.083343154250839727 0.42549026987483418 0 0.078348944599072032 0.41592092246387907 0 0.076654989741760479 0.40581067451577441 0 0.068606245404375862 0.40393112613346638 0 0.078348944599072032 0.41592092246387907 0 0.068606245404375862 0.40393112613346638 0 0.078348944599072032 0.41592092246387907 0 0.068606245404375862 0.40393112613346638 0 0.067611513876549068 0.41432347952730197 0 0.078348944599072032 0.41592092246387907 0 0.058797824826679383 0.44217556405412961 0 0.061983655983073351 0.43101105797747841 0 0.072845752407117936 0.43633753013195098 0 0.061983655983073351 0.43101105797747841 0 0.070327247044834312 0.42405538238568041 0 0.072845752407117936 0.43633753013195098 0 0.061983655983073351 0.43101105797747841 0 0.057870939365693347 0.41990492892177339 0 0.070327247044834312 0.42405538238568041 0 0.070327247044834312 0.42405538238568041 0 0.072845752407117936 0.43633753013195098 0 0.083343154250839727 0.42549026987483418 0 0.08945811265455185 0.44187222457424408 0 0.083343154250839727 0.42549026987483418 0 0.1004697906329967 0.42580777199123632 0 0.08945811265455185 0.44187222457424408 0 0.072845752407117936 0.43633753013195098 0 0.083343154250839727 0.42549026987483418 0 0.083343154250839727 0.42549026987483418 0 0.086711519865529843 0.40973280715233018 0 0.1004697906329967 0.42580777199123632 0 0.083343154250839727 0.42549026987483418 0 0.078348944599072032 0.41592092246387907 0 0.086711519865529843 0.40973280715233018 0 0.086711519865529843 0.40973280715233018 0 0.1004697906329967 0.42580777199123632 0 0.076654989741760479 0.40581067451577441 0 0.078348944599072032 0.41592092246387907 0 0.086711519865529843 0.40973280715233018 0 0.086711519865529843 0.40973280715233018 0 0.10333191303229521 0.41083363454743083 0 0.1004697906329967 0.42580777199123632 0 0.10333191303229521 0.41083363454743083 0 0.1004697906329967 0.42580777199123632 0 0.1145213144975494 0.42032829983149311 0 0.1142280614004636 0.44188273683014229 0 0.1004697906329967 0.42580777199123632 0 0.1142280614004636 0.44188273683014229 0 0.08945811265455185 0.44187222457424408 0 0.1004697906329967 0.42580777199123632 0 0.1142280614004636 0.44188273683014229 0 0.1004697906329967 0.42580777199123632 0 0.1145213144975494 0.42032829983149311 0 0.1142280614004636 0.44188273683014229 0 0.1145213144975494 0.42032829983149311 0 0.12819467301334569 0.42295040886334478 0 0.1145213144975494 0.42032829983149311 0 0.12638213440864571 0.40016694692531168 0 0.12819467301334569 0.42295040886334478 0 0.10333191303229521 0.41083363454743083 0 0.1145213144975494 0.42032829983149311 0 0.12638213440864571 0.40016694692531168 0 0.099667691753355034 0.39691239461936678 0 0.12638213440864571 0.40016694692531168 0 0.1047993275352218 0.38255048016428028 0 0.099667691753355034 0.39691239461936678 0 0.12638213440864571 0.40016694692531168 0 0.10333191303229521 0.41083363454743083 0 0.099667691753355034 0.39691239461936678 0 0.12638213440864571 0.40016694692531168 0 0.1204359294245167 0.37540768903004512 0 0.1047993275352218 0.38255048016428028 0 0.12638213440864571 0.40016694692531168 0 0.088322213028552032 0.38577265361853291 0 0.1047993275352218 0.38255048016428028 0 0.099667691753355034 0.39691239461936678 0 0.088322213028552032 0.38577265361853291 0 0.1047993275352218 0.38255048016428028 0 0.089318488342665495 0.3741457566562113 0 0.086711519865529843 0.40973280715233018 0 0.10333191303229521 0.41083363454743083 0 0.099667691753355034 0.39691239461936678 0 0.104669508253596 0.36289744013621422 0 0.11142250153455339 0.34683721705813692 0 0.093574654458364714 0.34829407166593901 0 0.11142250153455339 0.34683721705813692 0 0.10269876148739999 0.33644090466007698 0 0.093574654458364714 0.34829407166593901 0 0.104669508253596 0.36289744013621422 0 0.086172740779867835 0.35933930743304782 0 0.093574654458364714 0.34829407166593901 0 0.1047993275352218 0.38255048016428028 0 0.104669508253596 0.36289744013621422 0 0.089318488342665495 0.3741457566562113 0 0.1204359294245167 0.37540768903004512 0 0.104669508253596 0.36289744013621422 0 0.12996102158567971 0.3542610660932104 0 0.1204359294245167 0.37540768903004512 0 0.1047993275352218 0.38255048016428028 0 0.104669508253596 0.36289744013621422 0 0.104669508253596 0.36289744013621422 0 0.11142250153455339 0.34683721705813692 0 0.12996102158567971 0.3542610660932104 0 0.11142250153455339 0.34683721705813692 0 0.11907224257712271 0.33064618458380363 0 0.12996102158567971 0.3542610660932104 0 0.11142250153455339 0.34683721705813692 0 0.11907224257712271 0.33064618458380363 0 0.10269876148739999 0.33644090466007698 0 0.11907224257712271 0.33064618458380363 0 0.12996102158567971 0.3542610660932104 0 0.11907224257712271 0.33064618458380363 0 0.1081834635685644 0.30703130307439719 0 0.1183379224466953 0.31175409948093541 0 0.11907224257712271 0.33064618458380363 0 0.1013300828232622 0.32293854669553268 0 0.1081834635685644 0.30703130307439719 0 0.11907224257712271 0.33064618458380363 0 0.1183379224466953 0.31175409948093541 0 0.12597518363583121 0.31900508238158909 0 0.11907224257712271 0.33064618458380363 0 0.1081834635685644 0.30703130307439719 0 0.1183379224466953 0.31175409948093541 0 0.13043956581236379 0.31033170467451499 0 0.12597518363583121 0.31900508238158909 0 0.1013300828232622 0.32293854669553268 0 0.1081834635685644 0.30703130307439719 0 0.1013300828232622 0.32293854669553268 0 0.10180294175864681 0.30842278876719109 0 0.1081834635685644 0.30703130307439719 0 0.1013300828232622 0.32293854669553268 0 0.086265450171863739 0.31848140993652979 0 0.094638021884004789 0.30897529007660268 0 0.1013300828232622 0.32293854669553268 0 0.094638021884004789 0.30897529007660268 0 0.10180294175864681 0.30842278876719109 0 0.11907224257712271 0.33064618458380363 0 0.1013300828232622 0.32293854669553268 0 0.10269876148739999 0.33644090466007698 0 0.1013300828232622 0.32293854669553268 0 0.10269876148739999 0.33644090466007698 0 0.087368599908608929 0.33342815106619622 0 0.10269876148739999 0.33644090466007698 0 0.087368599908608929 0.33342815106619622 0 0.093574654458364714 0.34829407166593901 0 0.087368599908608929 0.33342815106619622 0 0.077882364453050482 0.34604263306491528 0 0.093574654458364714 0.34829407166593901 0 0.087368599908608929 0.33342815106619622 0 0.077088617920808733 0.32537627805682268 0 0.072345886820984848 0.33588196610918097 0 0.087368599908608929 0.33342815106619622 0 0.072345886820984848 0.33588196610918097 0 0.077882364453050482 0.34604263306491528 0 0.1013300828232622 0.32293854669553268 0 0.087368599908608929 0.33342815106619622 0 0.086265450171863739 0.31848140993652979 0 0.087368599908608929 0.33342815106619622 0 0.086265450171863739 0.31848140993652979 0 0.077088617920808733 0.32537627805682268 0 0.086265450171863739 0.31848140993652979 0 0.073163807812237427 0.31438511763794702 0 0.077088617920808733 0.32537627805682268 0 0.086265450171863739 0.31848140993652979 0 0.073163807812237427 0.31438511763794702 0 0.083391069067221074 0.30586035920219362 0 0.068658319864983094 0.3234869046366029 0 0.059263156683519232 0.32909955513903161 0 0.061430130087365177 0.31269160624003212 0 0.073163807812237427 0.31438511763794702 0 0.077088617920808733 0.32537627805682268 0 0.068658319864983094 0.3234869046366029 0 0.073163807812237427 0.31438511763794702 0 0.068658319864983094 0.3234869046366029 0 0.061430130087365177 0.31269160624003212 0 0.072345886820984848 0.33588196610918097 0 0.068192550206132505 0.34598918877585638 0 0.077882364453050482 0.34604263306491528 0 0.077088617920808733 0.32537627805682268 0 0.068658319864983094 0.3234869046366029 0 0.072345886820984848 0.33588196610918097 0 0.068658319864983094 0.3234869046366029 0 0.072345886820984848 0.33588196610918097 0 0.059263156683519232 0.32909955513903161 0 0.072345886820984848 0.33588196610918097 0 0.062919275266296246 0.34163520615386439 0 0.059263156683519232 0.32909955513903161 0 0.072345886820984848 0.33588196610918097 0 0.062919275266296246 0.34163520615386439 0 0.068192550206132505 0.34598918877585638 0 0.068192550206132505 0.34598918877585638 0 0.062721115784175968 0.34947133645554368 0 0.065094108706155049 0.35691480209577781 0 0.062919275266296246 0.34163520615386439 0 0.068192550206132505 0.34598918877585638 0 0.062721115784175968 0.34947133645554368 0 0.065094108706155049 0.35691480209577781 0 0.072940253708812089 0.35804052139628928 0 0.077882364453050482 0.34604263306491528 0 0.065094108706155049 0.35691480209577781 0 0.077882364453050482 0.34604263306491528 0 0.068192550206132505 0.34598918877585638 0 0.065094108706155049 0.35691480209577781 0 0.077882364453050482 0.34604263306491528 0 0.072940253708812089 0.35804052139628928 0 0.093574654458364714 0.34829407166593901 0 0.072940253708812089 0.35804052139628928 0 0.086172740779867835 0.35933930743304782 0 0.093574654458364714 0.34829407166593901 0 0.072940253708812089 0.35804052139628928 0 0.077882364453050482 0.34604263306491528 0 0.093574654458364714 0.34829407166593901 0 0.104669508253596 0.36289744013621422 0 0.086172740779867835 0.35933930743304782 0 0.089318488342665495 0.3741457566562113 0 0.086172740779867835 0.35933930743304782 0 0.079083868047293823 0.36990792026461472 0 0.078036907781005166 0.36323621359594283 0 0.072940253708812089 0.35804052139628928 0 0.086172740779867835 0.35933930743304782 0 0.078036907781005166 0.36323621359594283 0 0.086172740779867835 0.35933930743304782 0 0.089318488342665495 0.3741457566562113 0 0.079083868047293823 0.36990792026461472 0 0.079083868047293823 0.36990792026461472 0 0.071067641496818421 0.37464353941489181 0 0.073351750966430512 0.3667291120310161 0 0.072940253708812089 0.35804052139628928 0 0.052305852959259463 0.36778697112663988 0 0.072940253708812089 0.35804052139628928 0 0.065255697784712713 0.36848736969658941 0 0.052305852959259463 0.36778697112663988 0 0.065094108706155049 0.35691480209577781 0 0.072940253708812089 0.35804052139628928 0 0.052305852959259463 0.36778697112663988 0 0.072940253708812089 0.35804052139628928 0 0.073351750966430512 0.3667291120310161 0 0.065255697784712713 0.36848736969658941 0 0.072940253708812089 0.35804052139628928 0 0.078036907781005166 0.36323621359594283 0 0.073351750966430512 0.3667291120310161 0 0.079083868047293823 0.36990792026461472 0 0.078036907781005166 0.36323621359594283 0 0.073351750966430512 0.3667291120310161 0 0.062196876961561537 0.38109025247522199 0 0.071067641496818421 0.37464353941489181 0 0.065255697784712713 0.36848736969658941 0 0.071067641496818421 0.37464353941489181 0 0.073351750966430512 0.3667291120310161 0 0.065255697784712713 0.36848736969658941 0 0.062196876961561537 0.38109025247522199 0 0.052305852959259463 0.36778697112663988 0 0.062196876961561537 0.38109025247522199 0 0.065255697784712713 0.36848736969658941 0 0.052305852959259463 0.36778697112663988 0 0.065094108706155049 0.35691480209577781 0 0.052305852959259463 0.36778697112663988 0 0.065094108706155049 0.35691480209577781 0 0.055142329785785787 0.35960010945056647 0 0.052305852959259463 0.36778697112663988 0 0.055142329785785787 0.35960010945056647 0 0.051939234451670119 0.36420316662076507 0 0.052305852959259463 0.36778697112663988 0 0.050369554599703617 0.36509274271116682 0 0.050608919596797412 0.36755105046781572 0 0.052305852959259463 0.36778697112663988 0 0.051939234451670119 0.36420316662076507 0 0.050369554599703617 0.36509274271116682 0 0.052305852959259463 0.36778697112663988 0 0.055142329785785787 0.35960010945056647 0 0.051939234451670119 0.36420316662076507 0 0.051935029264510352 0.35972270397674888 0 0.051939234451670119 0.36420316662076507 0 0.051935029264510352 0.35972270397674888 0 0.049786803641503681 0.36208534060043379 0 0.049786803641503681 0.36208534060043379 0 0.048205334781730592 0.36465771337483932 0 0.046023787046171952 0.36059304366449491 0 0.051935029264510352 0.35972270397674888 0 0.049786803641503681 0.36208534060043379 0 0.049519800613927578 0.35845436478658421 0 0.049786803641503681 0.36208534060043379 0 0.049519800613927578 0.35845436478658421 0 0.046023787046171952 0.36059304366449491 0 0.048205334781730592 0.36465771337483932 0 0.050608919596797412 0.36755105046781572 0 0.044784898210084911 0.36544712811085789 0 0.050369554599703617 0.36509274271116682 0 0.048205334781730592 0.36465771337483932 0 0.050608919596797412 0.36755105046781572 0 0.049786803641503681 0.36208534060043379 0 0.050369554599703617 0.36509274271116682 0 0.048205334781730592 0.36465771337483932 0 0.051939234451670119 0.36420316662076507 0 0.049786803641503681 0.36208534060043379 0 0.050369554599703617 0.36509274271116682 0 0.052305852959259463 0.36778697112663988 0 0.044576097502232043 0.37435856380975002 0 0.054269256374633881 0.37897820218126038 0 0.052305852959259463 0.36778697112663988 0 0.044576097502232043 0.37435856380975002 0 0.050608919596797412 0.36755105046781572 0 0.052305852959259463 0.36778697112663988 0 0.042861154166044663 0.37224807872669352 0 0.052305852959259463 0.36778697112663988 0 0.042861154166044663 0.37224807872669352 0 0.050608919596797412 0.36755105046781572 0 0.052305852959259463 0.36778697112663988 0 0.057901649290293511 0.34709503685700638 0 0.050645149518991531 0.35040035997406699 0 0.055580797329460703 0.33976371120237309 0 0.062919275266296246 0.34163520615386439 0 0.062721115784175968 0.34947133645554368 0 0.057901649290293511 0.34709503685700638 0 0.062721115784175968 0.34947133645554368 0 0.057901649290293511 0.34709503685700638 0 0.057422590322323858 0.35309386451785069 0 0.057901649290293511 0.34709503685700638 0 0.057422590322323858 0.35309386451785069 0 0.050645149518991531 0.35040035997406699 0 0.065094108706155049 0.35691480209577781 0 0.055142329785785787 0.35960010945056647 0 0.057422590322323858 0.35309386451785069 0 0.062721115784175968 0.34947133645554368 0 0.065094108706155049 0.35691480209577781 0 0.057422590322323858 0.35309386451785069 0 0.055142329785785787 0.35960010945056647 0 0.057422590322323858 0.35309386451785069 0 0.052157163010795683 0.35587914836561663 0 0.055142329785785787 0.35960010945056647 0 0.051935029264510352 0.35972270397674888 0 0.052157163010795683 0.35587914836561663 0 0.051935029264510352 0.35972270397674888 0 0.052157163010795683 0.35587914836561663 0 0.049519800613927578 0.35845436478658421 0 0.052157163010795683 0.35587914836561663 0 0.049519800613927578 0.35845436478658421 0 0.047609116130362117 0.35535524220402248 0 0.049519800613927578 0.35845436478658421 0 0.047609116130362117 0.35535524220402248 0 0.046023787046171952 0.36059304366449491 0 0.052157163010795683 0.35587914836561663 0 0.047609116130362117 0.35535524220402248 0 0.050645149518991531 0.35040035997406699 0 0.057422590322323858 0.35309386451785069 0 0.052157163010795683 0.35587914836561663 0 0.050645149518991531 0.35040035997406699 0 0.047609116130362117 0.35535524220402248 0 0.036026776743675902 0.34485074482030009 0 0.020491453821794871 0.34253700084849131 0 0.047609116130362117 0.35535524220402248 0 0.020491453821794871 0.34253700084849131 0 0.047609116130362117 0.35535524220402248 0 0.037987724378890857 0.35846888185310788 0 0.020491453821794871 0.34253700084849131 0 0.047609116130362117 0.35535524220402248 0 0.050645149518991531 0.35040035997406699 0 0.036026776743675902 0.34485074482030009 0 0.047609116130362117 0.35535524220402248 0 0.037987724378890857 0.35846888185310788 0 0.046023787046171952 0.36059304366449491 0 0.037987724378890857 0.35846888185310788 0 0.042861154166044663 0.37224807872669352 0 0.02703715135849229 0.35277436133041862 0 0.042861154166044663 0.37224807872669352 0 0.028535261899012631 0.36688748892225997 0 0.02703715135849229 0.35277436133041862 0 0.042861154166044663 0.37224807872669352 0 0.02703715135849229 0.35277436133041862 0 0.052305852959259463 0.36778697112663988 0 0.042861154166044663 0.37224807872669352 0 0.044576097502232043 0.37435856380975002 0 0.042861154166044663 0.37224807872669352 0 0.044576097502232043 0.37435856380975002 0 0.050608919596797412 0.36755105046781572 0 0.042861154166044663 0.37224807872669352 0 0.044784898210084911 0.36544712811085789 0 0.037987724378890857 0.35846888185310788 0 0.042861154166044663 0.37224807872669352 0 0.044784898210084911 0.36544712811085789 0 0.048205334781730592 0.36465771337483932 0 0.044784898210084911 0.36544712811085789 0 0.046023787046171952 0.36059304366449491 0 0.037987724378890857 0.35846888185310788 0 0.044784898210084911 0.36544712811085789 0 0.046023787046171952 0.36059304366449491 0 0.027929567807377358 0.37930086196985457 0 0.042861154166044663 0.37224807872669352 0 0.028535261899012631 0.36688748892225997 0 0.027929567807377358 0.37930086196985457 0 0.021158674940967369 0.37106670977657652 0 0.028535261899012631 0.36688748892225997 0 0.01793543768698494 0.37747446163999682 0 0.021158674940967369 0.37106670977657652 0 0.010632814435522379 0.37194707726848952 0 0.021158674940967369 0.37106670977657652 0 0.017782541298082901 0.36220955773823083 0 0.010632814435522379 0.37194707726848952 0 0.021158674940967369 0.37106670977657652 0 0.017782541298082901 0.36220955773823083 0 0.028535261899012631 0.36688748892225997 0 0.017782541298082901 0.36220955773823083 0 0.028535261899012631 0.36688748892225997 0 0.02703715135849229 0.35277436133041862 0 0.037987724378890857 0.35846888185310788 0 0.02703715135849229 0.35277436133041862 0 0.020491453821794871 0.34253700084849131 0 0.02703715135849229 0.35277436133041862 0 0.013806318015007601 0.35238522849492621 0 0.020491453821794871 0.34253700084849131 0 0.017782541298082901 0.36220955773823083 0 0.02703715135849229 0.35277436133041862 0 0.013806318015007601 0.35238522849492621 0 0.013806318015007601 0.35238522849492621 0 0.0036444436723072518 0.34668746978030668 0 0.020491453821794871 0.34253700084849131 0 0.017782541298082901 0.36220955773823083 0 0.013806318015007601 0.35238522849492621 0 0.0022877633247238771 0.36110461381561082 0 0.013806318015007601 0.35238522849492621 0 0.0036444436723072518 0.34668746978030668 0 0.0022877633247238771 0.36110461381561082 0 0.001197760358732865 0.37500202874546518 0 0.0022877633247238771 0.36110461381561082 0 0.010632814435522379 0.37194707726848952 0 0.017782541298082901 0.36220955773823083 0 0.0022877633247238771 0.36110461381561082 0 0.010632814435522379 0.37194707726848952 0 0.0038053809788464871 0.31345323254814578 0 0.01065466620799253 0.32885211847838458 0 0.027225265248919009 0.33192679626110638 0 -0.0066262084867721206 0.3297187594929602 0 0.0038053809788464871 0.31345323254814578 0 0.01065466620799253 0.32885211847838458 0 0.0038053809788464871 0.31345323254814578 0 0.027225265248919009 0.33192679626110638 0 -0.0066262084867721206 0.3297187594929602 0 0.020491453821794871 0.34253700084849131 0 -0.0066262084867721206 0.3297187594929602 0 0.0036444436723072518 0.34668746978030668 0 0.020491453821794871 0.34253700084849131 0 -0.0066262084867721206 0.3297187594929602 0 0.01065466620799253 0.32885211847838458 0 0.020491453821794871 0.34253700084849131 0 0.01065466620799253 0.32885211847838458 0 0.020491453821794871 0.34253700084849131 0 0.027225265248919009 0.33192679626110638 0 0.036026776743675902 0.34485074482030009 0 0.020491453821794871 0.34253700084849131 0 0.027225265248919009 0.33192679626110638 0 0.0038053809788464871 0.31345323254814578 0 0.027225265248919009 0.33192679626110638 0 0.02251955873995283 0.31350821133664858 0 0.027225265248919009 0.33192679626110638 0 0.02251955873995283 0.31350821133664858 0 0.035044894106255907 0.31778021534845619 0 0.027225265248919009 0.33192679626110638 0 0.035044894106255907 0.31778021534845619 0 0.036914922726896893 0.32831348929229892 0 0.035044894106255907 0.31778021534845619 0 0.036914922726896893 0.32831348929229892 0 0.047869488898663923 0.32021143325928941 0 0.036914922726896893 0.32831348929229892 0 0.046874174886637893 0.3310989418067139 0 0.047869488898663923 0.32021143325928941 0 0.035044894106255907 0.31778021534845619 0 0.047869488898663923 0.32021143325928941 0 0.046694939647250591 0.30640467746308347 0 0.050645149518991531 0.35040035997406699 0 0.036026776743675902 0.34485074482030009 0 0.027225265248919009 0.33192679626110638 0 0.050645149518991531 0.35040035997406699 0 0.036914922726896893 0.32831348929229892 0 0.046874174886637893 0.3310989418067139 0 0.050645149518991531 0.35040035997406699 0 0.027225265248919009 0.33192679626110638 0 0.036914922726896893 0.32831348929229892 0 0.050645149518991531 0.35040035997406699 0 0.027225265248919009 0.33192679626110638 0 0.050645149518991531 0.35040035997406699 0 0.046874174886637893 0.3310989418067139 0 0.055580797329460703 0.33976371120237309 0 0.046874174886637893 0.3310989418067139 0 0.059263156683519232 0.32909955513903161 0 0.055580797329460703 0.33976371120237309 0 0.062919275266296246 0.34163520615386439 0 0.059263156683519232 0.32909955513903161 0 0.055580797329460703 0.33976371120237309 0 0.062919275266296246 0.34163520615386439 0 0.057901649290293511 0.34709503685700638 0 0.055580797329460703 0.33976371120237309 0 0.059263156683519232 0.32909955513903161 0 0.047869488898663923 0.32021143325928941 0 0.061430130087365177 0.31269160624003212 0 0.047869488898663923 0.32021143325928941 0 0.061430130087365177 0.31269160624003212 0 0.046694939647250591 0.30640467746308347 0 0.046874174886637893 0.3310989418067139 0 0.059263156683519232 0.32909955513903161 0 0.047869488898663923 0.32021143325928941 0 0.061430130087365177 0.31269160624003212 0 0.046694939647250591 0.30640467746308347 0 0.062833369092125224 0.29287044571717868 0 0.045193229509256867 0.28953861222808752 0 0.056908910806083741 0.27063951466711422 0 0.062833369092125224 0.29287044571717868 0 0.045193229509256867 0.28953861222808752 0 0.046694939647250591 0.30640467746308347 0 0.062833369092125224 0.29287044571717868 0 0.045193229509256867 0.28953861222808752 0 0.02422007193424849 0.2891054562852361 0 0.032310504440292993 0.27657205131120621 0 0.045193229509256867 0.28953861222808752 0 0.031435615793574907 0.30348036937589429 0 0.02422007193424849 0.2891054562852361 0 0.045193229509256867 0.28953861222808752 0 0.046694939647250591 0.30640467746308347 0 0.031435615793574907 0.30348036937589429 0 0.035044894106255907 0.31778021534845619 0 0.046694939647250591 0.30640467746308347 0 0.031435615793574907 0.30348036937589429 0 0.02251955873995283 0.31350821133664858 0 0.035044894106255907 0.31778021534845619 0 0.031435615793574907 0.30348036937589429 0 0.02251955873995283 0.31350821133664858 0 0.031435615793574907 0.30348036937589429 0 0.01486905351163839 0.30067746687814628 0 0.031435615793574907 0.30348036937589429 0 0.02422007193424849 0.2891054562852361 0 0.01486905351163839 0.30067746687814628 0 0.02422007193424849 0.2891054562852361 0 0.0075249839945088944 0.28473317555532918 0 0.01486905351163839 0.30067746687814628 0 -0.00050940936906082146 0.29530896721452587 0 0.0075249839945088944 0.28473317555532918 0 0.01486905351163839 0.30067746687814628 0 -0.00050940936906082146 0.29530896721452587 0 -0.00681572830648643 0.28311170123395701 0 0.0075249839945088944 0.28473317555532918 0 0.0038053809788464871 0.31345323254814578 0 0.02251955873995283 0.31350821133664858 0 0.01486905351163839 0.30067746687814628 0 -0.00050940936906082146 0.29530896721452587 0 0.0038053809788464871 0.31345323254814578 0 0.01486905351163839 0.30067746687814628 0 0.0093766357309573133 0.25077498028374479 0 5.2964489892887497e-05 0.2684529483346153 0 0.016573687272114539 0.26963223381405449 0 0.0075249839945088944 0.28473317555532918 0 5.2964489892887497e-05 0.2684529483346153 0 0.016573687272114539 0.26963223381405449 0 -0.00681572830648643 0.28311170123395701 0 0.0075249839945088944 0.28473317555532918 0 5.2964489892887497e-05 0.2684529483346153 0 0.02422007193424849 0.2891054562852361 0 0.0075249839945088944 0.28473317555532918 0 0.016573687272114539 0.26963223381405449 0 0.016573687272114539 0.26963223381405449 0 0.025619747750374639 0.25369771249902812 0 0.032310504440292993 0.27657205131120621 0 0.02422007193424849 0.2891054562852361 0 0.016573687272114539 0.26963223381405449 0 0.032310504440292993 0.27657205131120621 0 0.0093766357309573133 0.25077498028374479 0 0.016573687272114539 0.26963223381405449 0 0.025619747750374639 0.25369771249902812 0 0.025619747750374639 0.25369771249902812 0 0.041964028151291383 0.26137236922374518 0 0.032310504440292993 0.27657205131120621 0 0.039638217212598192 0.2469418664937949 0 0.025619747750374639 0.25369771249902812 0 0.041964028151291383 0.26137236922374518 0 0.054941410009535653 0.24195913327848501 0 0.039638217212598192 0.2469418664937949 0 0.041964028151291383 0.26137236922374518 0 0.041964028151291383 0.26137236922374518 0 0.032310504440292993 0.27657205131120621 0 0.056908910806083741 0.27063951466711422 0 0.045193229509256867 0.28953861222808752 0 0.032310504440292993 0.27657205131120621 0 0.056908910806083741 0.27063951466711422 0 0.054941410009535653 0.24195913327848501 0 0.056908910806083741 0.27063951466711422 0 0.073110705878909776 0.25296269123706461 0 0.054941410009535653 0.24195913327848501 0 0.041964028151291383 0.26137236922374518 0 0.056908910806083741 0.27063951466711422 0 0.073110705878909776 0.25296269123706461 0 0.076731372971609813 0.27643137050329408 0 0.095242938757805345 0.26332173925879238 0 0.091270759852565567 0.24070087989023611 0 0.073110705878909776 0.25296269123706461 0 0.095242938757805345 0.26332173925879238 0 0.076731372971609813 0.27643137050329408 0 0.096553835137135821 0.28222322633947411 0 0.095242938757805345 0.26332173925879238 0 0.076731372971609813 0.27643137050329408 0 0.096553835137135821 0.28222322633947411 0 0.056908910806083741 0.27063951466711422 0 0.076731372971609813 0.27643137050329408 0 0.062833369092125224 0.29287044571717868 0 0.056908910806083741 0.27063951466711422 0 0.073110705878909776 0.25296269123706461 0 0.076731372971609813 0.27643137050329408 0 0.056908910806083741 0.27063951466711422 0 0.076731372971609813 0.27643137050329408 0 0.062833369092125224 0.29287044571717868 0 0.072300109598025686 0.3036608545703951 0 0.080682171931179575 0.292496744054624 0 0.076731372971609813 0.27643137050329408 0 0.062833369092125224 0.29287044571717868 0 0.080682171931179575 0.292496744054624 0 0.061430130087365177 0.31269160624003212 0 0.062833369092125224 0.29287044571717868 0 0.072300109598025686 0.3036608545703951 0 0.073163807812237427 0.31438511763794702 0 0.061430130087365177 0.31269160624003212 0 0.072300109598025686 0.3036608545703951 0 0.073163807812237427 0.31438511763794702 0 0.072300109598025686 0.3036608545703951 0 0.083391069067221074 0.30586035920219362 0 0.072300109598025686 0.3036608545703951 0 0.083391069067221074 0.30586035920219362 0 0.080682171931179575 0.292496744054624 0 0.083391069067221074 0.30586035920219362 0 0.094276921991693061 0.29682868590857708 0 0.094638021884004789 0.30897529007660268 0 0.083391069067221074 0.30586035920219362 0 0.080682171931179575 0.292496744054624 0 0.094276921991693061 0.29682868590857708 0 0.086265450171863739 0.31848140993652979 0 0.083391069067221074 0.30586035920219362 0 0.094638021884004789 0.30897529007660268 0 0.076731372971609813 0.27643137050329408 0 0.080682171931179575 0.292496744054624 0 0.096553835137135821 0.28222322633947411 0 0.080682171931179575 0.292496744054624 0 0.096553835137135821 0.28222322633947411 0 0.094276921991693061 0.29682868590857708 0 0.096553835137135821 0.28222322633947411 0 0.1163762973026618 0.28801508217565419 0 0.096553835137135821 0.28222322633947411 0 0.1163762973026618 0.28801508217565419 0 0.10685522163906271 0.27398828378951612 0 0.096553835137135821 0.28222322633947411 0 0.10503294426377539 0.29331217048508129 0 0.1163762973026618 0.28801508217565419 0 0.096553835137135821 0.28222322633947411 0 0.094276921991693061 0.29682868590857708 0 0.10503294426377539 0.29331217048508129 0 0.094638021884004789 0.30897529007660268 0 0.10047234770126751 0.30153803195665319 0 0.10180294175864681 0.30842278876719109 0 0.094276921991693061 0.29682868590857708 0 0.10503294426377539 0.29331217048508129 0 0.10047234770126751 0.30153803195665319 0 0.094276921991693061 0.29682868590857708 0 0.094638021884004789 0.30897529007660268 0 0.10047234770126751 0.30153803195665319 0 0.10503294426377539 0.29331217048508129 0 0.10047234770126751 0.30153803195665319 0 0.1070042549003143 0.30447391138211077 0 0.10047234770126751 0.30153803195665319 0 0.1070042549003143 0.30447391138211077 0 0.10180294175864681 0.30842278876719109 0 0.1070042549003143 0.30447391138211077 0 0.10180294175864681 0.30842278876719109 0 0.1081834635685644 0.30703130307439719 0 0.1070042549003143 0.30447391138211077 0 0.1081834635685644 0.30703130307439719 0 0.1081834635685644 0.30703130307439719 0 0.1162834796626484 0.30250330111494389 0 0.1163762973026618 0.28801508217565419 0 0.1070042549003143 0.30447391138211077 0 0.1081834635685644 0.30703130307439719 0 0.1163762973026618 0.28801508217565419 0 0.1081834635685644 0.30703130307439719 0 0.1163762973026618 0.28801508217565419 0 0.1081834635685644 0.30703130307439719 0 0.1162834796626484 0.30250330111494389 0 0.1183379224466953 0.31175409948093541 0 0.12223623533267219 0.30321271972878899 0 0.1163762973026618 0.28801508217565419 0 0.1299985077300343 0.3001104103803367 0 0.1162834796626484 0.30250330111494389 0 0.12223623533267219 0.30321271972878899 0 0.1163762973026618 0.28801508217565419 0 0.1162834796626484 0.30250330111494389 0 0.12223623533267219 0.30321271972878899 0 0.1183379224466953 0.31175409948093541 0 0.12223623533267219 0.30321271972878899 0 0.1183379224466953 0.31175409948093541 0 0.13043956581236379 0.31033170467451499 0 0.10503294426377539 0.29331217048508129 0 0.1070042549003143 0.30447391138211077 0 0.1163762973026618 0.28801508217565419 0 0.1163762973026618 0.28801508217565419 0 0.12520213023579241 0.27056586726383969 0 0.1163762973026618 0.28801508217565419 0 0.12520213023579241 0.27056586726383969 0 0.13050812821457961 0.28467603872362079 0 0.1163762973026618 0.28801508217565419 0 0.11573678264415151 0.27582695249792322 0 0.12520213023579241 0.27056586726383969 0 0.1163762973026618 0.28801508217565419 0 0.11573678264415151 0.27582695249792322 0 0.10685522163906271 0.27398828378951612 0 0.11573678264415151 0.27582695249792322 0 0.117229699101878 0.27016448652343378 0 0.10685522163906271 0.27398828378951612 0 0.117229699101878 0.27016448652343378 0 0.11251308670682229 0.26519313962074398 0 0.10685522163906271 0.27398828378951612 0 0.11573678264415151 0.27582695249792322 0 0.117229699101878 0.27016448652343378 0 0.12520213023579241 0.27056586726383969 0 0.117229699101878 0.27016448652343378 0 0.1216579449276463 0.26047655809485709 0 0.12520213023579241 0.27056586726383969 0 0.12420690320853529 0.24949505869540881 0 0.1216579449276463 0.26047655809485709 0 0.11429371688878941 0.25312723840298168 0 0.1216579449276463 0.26047655809485709 0 0.11429371688878941 0.25312723840298168 0 0.11251308670682229 0.26519313962074398 0 0.117229699101878 0.27016448652343378 0 0.1216579449276463 0.26047655809485709 0 0.11251308670682229 0.26519313962074398 0 0.091270759852565567 0.24070087989023611 0 0.11429371688878941 0.25312723840298168 0 0.095242938757805345 0.26332173925879238 0 0.11429371688878941 0.25312723840298168 0 0.11251308670682229 0.26519313962074398 0 0.095242938757805345 0.26332173925879238 0 0.096553835137135821 0.28222322633947411 0 0.095242938757805345 0.26332173925879238 0 0.10685522163906271 0.27398828378951612 0 0.11251308670682229 0.26519313962074398 0 0.095242938757805345 0.26332173925879238 0 0.10685522163906271 0.27398828378951612 0 0.1458915719643181 0.26883480688446187 0 0.14074742642415419 0.26671902840248057 0 0.14564832583197401 0.26165865655538029 0 0.1458915719643181 0.26883480688446187 0 0.14074742642415419 0.26671902840248057 0 0.13932576958442219 0.27203986347829701 0 0.1458915719643181 0.26883480688446187 0 0.1460028923325746 0.27498131910340939 0 0.13932576958442219 0.27203986347829701 0 0.14076764493699609 0.27743867076657269 0 0.1460028923325746 0.27498131910340939 0 0.13932576958442219 0.27203986347829701 0 0.14076764493699609 0.27743867076657269 0 0.1474584932079093 0.28038167759208849 0 0.14328681314677469 0.28311987860909837 0 0.14076764493699609 0.27743867076657269 0 0.1474584932079093 0.28038167759208849 0 0.1460028923325746 0.27498131910340939 0 0.1474584932079093 0.28038167759208849 0 0.1460028923325746 0.27498131910340939 0 0.15349736059092939 0.27434147438607648 0 0.15349736059092939 0.27434147438607648 0 0.15231911545608501 0.28258530658700709 0 0.1579866314691708 0.28164611127911388 0 0.1474584932079093 0.28038167759208849 0 0.15349736059092939 0.27434147438607648 0 0.15231911545608501 0.28258530658700709 0 0.15349736059092939 0.27434147438607648 0 0.15295318113557649 0.2654035069753985 0 0.16201174606238339 0.27140816125270473 0 0.1458915719643181 0.26883480688446187 0 0.15349736059092939 0.27434147438607648 0 0.15295318113557649 0.2654035069753985 0 0.1458915719643181 0.26883480688446187 0 0.1460028923325746 0.27498131910340939 0 0.15349736059092939 0.27434147438607648 0 0.15295318113557649 0.2654035069753985 0 0.15203491696431279 0.25768554944804589 0 0.1613784721168571 0.26027199968308667 0 0.15295318113557649 0.2654035069753985 0 0.15203491696431279 0.25768554944804589 0 0.14564832583197401 0.26165865655538029 0 0.14608089257451429 0.24992769762422701 0 0.15203491696431279 0.25768554944804589 0 0.15691297891071249 0.25204874182608528 0 0.14608089257451429 0.24992769762422701 0 0.15203491696431279 0.25768554944804589 0 0.14564832583197401 0.26165865655538029 0 0.14608089257451429 0.24992769762422701 0 0.14564832583197401 0.26165865655538029 0 0.13859006684160191 0.2635198561980383 0 0.1458915719643181 0.26883480688446187 0 0.15295318113557649 0.2654035069753985 0 0.14564832583197401 0.26165865655538029 0 0.14074742642415419 0.26671902840248057 0 0.14564832583197401 0.26165865655538029 0 0.13859006684160191 0.2635198561980383 0 0.14608089257451429 0.24992769762422701 0 0.13859006684160191 0.2635198561980383 0 0.12520213023579241 0.27056586726383969 0 0.13454712077130621 0.24583915084270511 0 0.1216579449276463 0.26047655809485709 0 0.12520213023579241 0.27056586726383969 0 0.13454712077130621 0.24583915084270511 0 0.12520213023579241 0.27056586726383969 0 0.14608089257451429 0.24992769762422701 0 0.12520213023579241 0.27056586726383969 0 0.14608089257451429 0.24992769762422701 0 0.13454712077130621 0.24583915084270511 0 0.12520213023579241 0.27056586726383969 0 0.12420690320853529 0.24949505869540881 0 0.13454712077130621 0.24583915084270511 0 0.1216579449276463 0.26047655809485709 0 0.12520213023579241 0.27056586726383969 0 0.1342381792213887 0.27213723271648932 0 0.13503852407291689 0.27519609765038489 0 0.12520213023579241 0.27056586726383969 0 0.13771547191095809 0.27982294139273012 0 0.1428895489845684 0.28995065018485561 0 0.12520213023579241 0.27056586726383969 0 0.1352715591415744 0.26872803114426391 0 0.1342381792213887 0.27213723271648932 0 0.12520213023579241 0.27056586726383969 0 0.1428895489845684 0.28995065018485561 0 0.13859006684160191 0.2635198561980383 0 0.12520213023579241 0.27056586726383969 0 0.1352715591415744 0.26872803114426391 0 0.1352715591415744 0.26872803114426391 0 0.1342381792213887 0.27213723271648932 0 0.13932576958442219 0.27203986347829701 0 0.1342381792213887 0.27213723271648932 0 0.13932576958442219 0.27203986347829701 0 0.13734252945393099 0.27420296615293599 0 0.14074742642415419 0.26671902840248057 0 0.1352715591415744 0.26872803114426391 0 0.13932576958442219 0.27203986347829701 0 0.14074742642415419 0.26671902840248057 0 0.13859006684160191 0.2635198561980383 0 0.1352715591415744 0.26872803114426391 0 0.14076764493699609 0.27743867076657269 0 0.13771547191095809 0.27982294139273012 0 0.14328681314677469 0.28311987860909837 0 0.14076764493699609 0.27743867076657269 0 0.13771547191095809 0.27982294139273012 0 0.13503852407291689 0.27519609765038489 0 0.14076764493699609 0.27743867076657269 0 0.13734252945393099 0.27420296615293599 0 0.13503852407291689 0.27519609765038489 0 0.14076764493699609 0.27743867076657269 0 0.13932576958442219 0.27203986347829701 0 0.13734252945393099 0.27420296615293599 0 0.1342381792213887 0.27213723271648932 0 0.13734252945393099 0.27420296615293599 0 0.13503852407291689 0.27519609765038489 0 0.12520213023579241 0.27056586726383969 0 0.13771547191095809 0.27982294139273012 0 0.13503852407291689 0.27519609765038489 0 0.1163762973026618 0.28801508217565419 0 0.13050812821457961 0.28467603872362079 0 0.14110659811743501 0.29524094220799818 0 0.1163762973026618 0.28801508217565419 0 0.1299985077300343 0.3001104103803367 0 0.14110659811743501 0.29524094220799818 0 0.1163762973026618 0.28801508217565419 0 0.14110659811743501 0.29524094220799818 0 0.12520213023579241 0.27056586726383969 0 0.13050812821457961 0.28467603872362079 0 0.1428895489845684 0.28995065018485561 0 0.13050812821457961 0.28467603872362079 0 0.14110659811743501 0.29524094220799818 0 0.1428895489845684 0.28995065018485561 0 0.13043956581236379 0.31033170467451499 0 0.1299985077300343 0.3001104103803367 0 0.13652772618382131 0.30415546315798481 0 0.12223623533267219 0.30321271972878899 0 0.13043956581236379 0.31033170467451499 0 0.1299985077300343 0.3001104103803367 0 0.1299985077300343 0.3001104103803367 0 0.13652772618382131 0.30415546315798481 0 0.14110659811743501 0.29524094220799818 0 0.13043956581236379 0.31033170467451499 0 0.13652772618382131 0.30415546315798481 0 0.14456623307545199 0.31093879536908942 0 0.14456623307545199 0.31093879536908942 0 0.14110659811743501 0.29524094220799818 0 0.16056199652453779 0.30934907225143382 0 0.13652772618382131 0.30415546315798481 0 0.14456623307545199 0.31093879536908942 0 0.14110659811743501 0.29524094220799818 0 0.1428895489845684 0.28995065018485561 0 0.16056199652453779 0.30934907225143382 0 0.14110659811743501 0.29524094220799818 0 0.1428895489845684 0.28995065018485561 0 0.16056199652453779 0.30934907225143382 0 0.1428895489845684 0.28995065018485561 0 0.1537612380908876 0.2902589604058462 0 0.16056199652453779 0.30934907225143382 0 0.14798099426301631 0.2853008552596244 0 0.1428895489845684 0.28995065018485561 0 0.1537612380908876 0.2902589604058462 0 0.13771547191095809 0.27982294139273012 0 0.14328681314677469 0.28311987860909837 0 0.1428895489845684 0.28995065018485561 0 0.14798099426301631 0.2853008552596244 0 0.14328681314677469 0.28311987860909837 0 0.1428895489845684 0.28995065018485561 0 0.1474584932079093 0.28038167759208849 0 0.14798099426301631 0.2853008552596244 0 0.14328681314677469 0.28311987860909837 0 0.1537612380908876 0.2902589604058462 0 0.15231911545608501 0.28258530658700709 0 0.1579866314691708 0.28164611127911388 0 0.14798099426301631 0.2853008552596244 0 0.1537612380908876 0.2902589604058462 0 0.15231911545608501 0.28258530658700709 0 0.1474584932079093 0.28038167759208849 0 0.14798099426301631 0.2853008552596244 0 0.15231911545608501 0.28258530658700709 0 0.1579866314691708 0.28164611127911388 0 0.16393984472808371 0.28334999046173442 0 0.1627778988013002 0.29213050038661642 0 0.1537612380908876 0.2902589604058462 0 0.1579866314691708 0.28164611127911388 0 0.1627778988013002 0.29213050038661642 0 0.1627778988013002 0.29213050038661642 0 0.17021821662277001 0.28701471607643247 0 0.17070233104689339 0.29947024545406792 0 0.16393984472808371 0.28334999046173442 0 0.17021821662277001 0.28701471607643247 0 0.16721291984588271 0.27884003648454148 0 0.16393984472808371 0.28334999046173442 0 0.1627778988013002 0.29213050038661642 0 0.17021821662277001 0.28701471607643247 0 0.17021821662277001 0.28701471607643247 0 0.1733596290566313 0.27963569039896458 0 0.16721291984588271 0.27884003648454148 0 0.1627778988013002 0.29213050038661642 0 0.16056199652453779 0.30934907225143382 0 0.17070233104689339 0.29947024545406792 0 0.16056199652453779 0.30934907225143382 0 0.17070233104689339 0.29947024545406792 0 0.17649440770189381 0.31228303738950502 0 0.1537612380908876 0.2902589604058462 0 0.1627778988013002 0.29213050038661642 0 0.16056199652453779 0.30934907225143382 0 0.17070233104689339 0.29947024545406792 0 0.17649440770189381 0.31228303738950502 0 0.1799397066357159 0.30421591942325232 0 0.17070233104689339 0.29947024545406792 0 0.1811494576226674 0.29722787934622907 0 0.1799397066357159 0.30421591942325232 0 0.1811494576226674 0.29722787934622907 0 0.18713651330098091 0.30254182671464191 0 0.18810898209814811 0.29489161717331103 0 0.1811494576226674 0.29722787934622907 0 0.18713651330098091 0.30254182671464191 0 0.1799397066357159 0.30421591942325232 0 0.17649440770189381 0.31228303738950502 0 0.1799397066357159 0.30421591942325232 0 0.18421582350614399 0.30955660821181741 0 0.18713651330098091 0.30254182671464191 0 0.1799397066357159 0.30421591942325232 0 0.18421582350614399 0.30955660821181741 0 0.17021821662277001 0.28701471607643247 0 0.17840947948586919 0.28347340206841459 0 0.1781532683007821 0.29078350734134328 0 0.17021821662277001 0.28701471607643247 0 0.17840947948586919 0.28347340206841459 0 0.1733596290566313 0.27963569039896458 0 0.17021821662277001 0.28701471607643247 0 0.17070233104689339 0.29947024545406792 0 0.1781532683007821 0.29078350734134328 0 0.17070233104689339 0.29947024545406792 0 0.1811494576226674 0.29722787934622907 0 0.1781532683007821 0.29078350734134328 0 0.1781532683007821 0.29078350734134328 0 0.18446553209613351 0.29163174108468343 0 0.18514041795407099 0.2861477555486881 0 0.1811494576226674 0.29722787934622907 0 0.1781532683007821 0.29078350734134328 0 0.18446553209613351 0.29163174108468343 0 0.1811494576226674 0.29722787934622907 0 0.18446553209613351 0.29163174108468343 0 0.18810898209814811 0.29489161717331103 0 0.18446553209613351 0.29163174108468343 0 0.18810898209814811 0.29489161717331103 0 0.18936437974896261 0.28985451458231509 0 0.18446553209613351 0.29163174108468343 0 0.18514041795407099 0.2861477555486881 0 0.18936437974896261 0.28985451458231509 0 0.17840947948586919 0.28347340206841459 0 0.1781532683007821 0.29078350734134328 0 0.18514041795407099 0.2861477555486881 0 0.17840947948586919 0.28347340206841459 0 0.18514041795407099 0.2861477555486881 0 0.18495112985105661 0.27991147031196451 0 0.18514041795407099 0.2861477555486881 0 0.18495112985105661 0.27991147031196451 0 0.187976074348262 0.28272679919325422 0 0.18495112985105661 0.27991147031196451 0 0.18598219134136501 0.27460873672179931 0 0.19076520150475901 0.27884973694825371 0 0.18598219134136501 0.27460873672179931 0 0.18052421886174641 0.27130887826027589 0 0.17935377191147789 0.27749114889193122 0 0.18495112985105661 0.27991147031196451 0 0.18598219134136501 0.27460873672179931 0 0.17935377191147789 0.27749114889193122 0 0.17840947948586919 0.28347340206841459 0 0.18495112985105661 0.27991147031196451 0 0.17935377191147789 0.27749114889193122 0 0.18052421886174641 0.27130887826027589 0 0.1768877840647064 0.26495142838226399 0 0.1858625209849401 0.26403672424845231 0 0.18598219134136501 0.27460873672179931 0 0.18052421886174641 0.27130887826027589 0 0.1858625209849401 0.26403672424845231 0 0.17289553049286099 0.27300828771728541 0 0.16848596334080429 0.26620447635876338 0 0.1768877840647064 0.26495142838226399 0 0.18052421886174641 0.27130887826027589 0 0.17289553049286099 0.27300828771728541 0 0.1768877840647064 0.26495142838226399 0 0.17840947948586919 0.28347340206841459 0 0.17935377191147789 0.27749114889193122 0 0.1733596290566313 0.27963569039896458 0 0.18052421886174641 0.27130887826027589 0 0.17289553049286099 0.27300828771728541 0 0.17935377191147789 0.27749114889193122 0 0.17289553049286099 0.27300828771728541 0 0.17935377191147789 0.27749114889193122 0 0.1733596290566313 0.27963569039896458 0 0.17289553049286099 0.27300828771728541 0 0.16721291984588271 0.27884003648454148 0 0.16201174606238339 0.27140816125270473 0 0.16393984472808371 0.28334999046173442 0 0.16721291984588271 0.27884003648454148 0 0.16150355690129459 0.27711858808196832 0 0.17289553049286099 0.27300828771728541 0 0.1733596290566313 0.27963569039896458 0 0.16721291984588271 0.27884003648454148 0 0.17289553049286099 0.27300828771728541 0 0.16848596334080429 0.26620447635876338 0 0.16201174606238339 0.27140816125270473 0 0.15295318113557649 0.2654035069753985 0 0.16201174606238339 0.27140816125270473 0 0.1613784721168571 0.26027199968308667 0 0.16848596334080429 0.26620447635876338 0 0.16201174606238339 0.27140816125270473 0 0.1613784721168571 0.26027199968308667 0 0.15349736059092939 0.27434147438607648 0 0.16201174606238339 0.27140816125270473 0 0.16150355690129459 0.27711858808196832 0 0.15349736059092939 0.27434147438607648 0 0.1579866314691708 0.28164611127911388 0 0.16150355690129459 0.27711858808196832 0 0.1579866314691708 0.28164611127911388 0 0.16393984472808371 0.28334999046173442 0 0.16150355690129459 0.27711858808196832 0 0.16721291984588271 0.27884003648454148 0 0.16201174606238339 0.27140816125270473 0 0.16150355690129459 0.27711858808196832 0 0.15203491696431279 0.25768554944804589 0 0.15691297891071249 0.25204874182608528 0 0.1613784721168571 0.26027199968308667 0 0.15691297891071249 0.25204874182608528 0 0.1613784721168571 0.26027199968308667 0 0.1651050667405432 0.25249092321613159 0 0.16848596334080429 0.26620447635876338 0 0.1613784721168571 0.26027199968308667 0 0.17199769630782369 0.2589763491916845 0 0.1613784721168571 0.26027199968308667 0 0.1651050667405432 0.25249092321613159 0 0.17199769630782369 0.2589763491916845 0 0.1651050667405432 0.25249092321613159 0 0.17265565700519639 0.25152565263121213 0 0.17199769630782369 0.2589763491916845 0 0.18578460157279211 0.2482688543205844 0 0.17265565700519639 0.25152565263121213 0 0.17902574137345209 0.25758316955675059 0 0.18578460157279211 0.2482688543205844 0 0.17902574137345209 0.25758316955675059 0 0.1858625209849401 0.26403672424845231 0 0.17265565700519639 0.25152565263121213 0 0.17902574137345209 0.25758316955675059 0 0.17199769630782369 0.2589763491916845 0 0.16848596334080429 0.26620447635876338 0 0.17199769630782369 0.2589763491916845 0 0.1768877840647064 0.26495142838226399 0 0.17902574137345209 0.25758316955675059 0 0.17199769630782369 0.2589763491916845 0 0.1768877840647064 0.26495142838226399 0 0.17902574137345209 0.25758316955675059 0 0.1768877840647064 0.26495142838226399 0 0.1858625209849401 0.26403672424845231 0 0.18578460157279211 0.2482688543205844 0 0.20955480890895681 0.26481679165656569 0 0.18578460157279211 0.2482688543205844 0 0.20963359064467821 0.25604280018186582 0 0.18578460157279211 0.2482688543205844 0 0.1858625209849401 0.26403672424845231 0 0.20955480890895681 0.26481679165656569 0 0.18578460157279211 0.2482688543205844 0 0.20963359064467821 0.25604280018186582 0 0.20955480890895681 0.26481679165656569 0 0.19368053997613749 0.27188191159778952 0 0.1981746227657965 0.27755282021791378 0 0.20955480890895681 0.26481679165656569 0 0.1858625209849401 0.26403672424845231 0 0.19368053997613749 0.27188191159778952 0 0.20955480890895681 0.26481679165656569 0 0.19076520150475901 0.27884973694825371 0 0.19122366988832129 0.28318739383506991 0 0.1940474585065492 0.28145405427188219 0 0.19076520150475901 0.27884973694825371 0 0.1981746227657965 0.27755282021791378 0 0.1940474585065492 0.28145405427188219 0 0.18495112985105661 0.27991147031196451 0 0.19076520150475901 0.27884973694825371 0 0.187976074348262 0.28272679919325422 0 0.18598219134136501 0.27460873672179931 0 0.19076520150475901 0.27884973694825371 0 0.19368053997613749 0.27188191159778952 0 0.19076520150475901 0.27884973694825371 0 0.19368053997613749 0.27188191159778952 0 0.1981746227657965 0.27755282021791378 0 0.18598219134136501 0.27460873672179931 0 0.1858625209849401 0.26403672424845231 0 0.19368053997613749 0.27188191159778952 0 0.1981746227657965 0.27755282021791378 0 0.2065513959323669 0.28056875600653253 0 0.20053089231167129 0.28201488331199109 0 0.1981746227657965 0.27755282021791378 0 0.19662930992992761 0.28296557376458559 0 0.1940474585065492 0.28145405427188219 0 0.1981746227657965 0.27755282021791378 0 0.19662930992992761 0.28296557376458559 0 0.20053089231167129 0.28201488331199109 0 0.2065513959323669 0.28056875600653253 0 0.20955480890895681 0.26481679165656569 0 0.21711886360413701 0.28654672829365441 0 0.1981746227657965 0.27755282021791378 0 0.2065513959323669 0.28056875600653253 0 0.20955480890895681 0.26481679165656569 0 0.20963359064467821 0.25604280018186582 0 0.20955480890895681 0.26481679165656569 0 0.23348257971656511 0.26381674604314481 0 0.21948614212466469 0.24360632728838769 0 0.23348257971656511 0.26381674604314481 0 0.21948614212466469 0.24360632728838769 0 0.20963359064467821 0.25604280018186582 0 0.23348257971656511 0.26381674604314481 0 0.23618340067457189 0.2480357533165394 0 0.21948614212466469 0.24360632728838769 0 0.23348257971656511 0.26381674604314481 0 0.20963359064467821 0.25604280018186582 0 0.23348257971656511 0.26381674604314481 0 0.20955480890895681 0.26481679165656569 0 0.23332501624512131 0.28136472899254727 0 0.21711886360413701 0.28654672829365441 0 0.20955480890895681 0.26481679165656569 0 0.23332501624512131 0.28136472899254727 0 0.20955480890895681 0.26481679165656569 0 0.23348257971656511 0.26381674604314481 0 0.23332501624512131 0.28136472899254727 0 0.23348257971656511 0.26381674604314481 0 0.25578546138992581 0.27108671434900022 0 0.23348257971656511 0.26381674604314481 0 0.24528890164892619 0.28086470618583631 0 0.23332501624512131 0.28136472899254727 0 0.23348257971656511 0.26381674604314481 0 0.24528890164892619 0.28086470618583631 0 0.25578546138992581 0.27108671434900022 0 0.23348257971656511 0.26381674604314481 0 0.24528890164892619 0.28086470618583631 0 0.23618340067457189 0.2480357533165394 0 0.2480693896173545 0.25691267053065481 0 0.25916419269841368 0.24538229102785139 0 0.23348257971656511 0.26381674604314481 0 0.2480693896173545 0.25691267053065481 0 0.25578546138992581 0.27108671434900022 0 0.23618340067457189 0.2480357533165394 0 0.23348257971656511 0.26381674604314481 0 0.2480693896173545 0.25691267053065481 0 0.2406948679857599 0.30147011490061099 0 0.25709522358128561 0.29791266632852897 0 0.25204943857301709 0.30347311497133989 0 0.2406948679857599 0.30147011490061099 0 0.23855792589641861 0.3124197517724111 0 0.2309554053448791 0.30819137434805211 0 0.2406948679857599 0.30147011490061099 0 0.23855792589641861 0.3124197517724111 0 0.24591462716611359 0.31029372467315858 0 0.2406948679857599 0.30147011490061099 0 0.24591462716611359 0.31029372467315858 0 0.25204943857301709 0.30347311497133989 0 0.23332501624512131 0.28136472899254727 0 0.25709522358128561 0.29791266632852897 0 0.24528890164892619 0.28086470618583631 0 0.23332501624512131 0.28136472899254727 0 0.25709522358128561 0.29791266632852897 0 0.2406948679857599 0.30147011490061099 0 0.23332501624512131 0.28136472899254727 0 0.25709522358128561 0.29791266632852897 0 0.23332501624512131 0.28136472899254727 0 0.22755569434733011 0.29628632980663677 0 0.21711886360413701 0.28654672829365441 0 0.2406948679857599 0.30147011490061099 0 0.23332501624512131 0.28136472899254727 0 0.22755569434733011 0.29628632980663677 0 0.22755569434733011 0.29628632980663677 0 0.2208946576240543 0.29786852504569711 0 0.21711886360413701 0.28654672829365441 0 0.22416453279636511 0.30146292066549663 0 0.2309554053448791 0.30819137434805211 0 0.21725237386919699 0.30350545346160041 0 0.2146389750801104 0.30735479608954819 0 0.21725237386919699 0.30350545346160041 0 0.2366739555203583 0.32149660302207878 0 0.2309554053448791 0.30819137434805211 0 0.21725237386919699 0.30350545346160041 0 0.2366739555203583 0.32149660302207878 0 0.2208946576240543 0.29786852504569711 0 0.22416453279636511 0.30146292066549663 0 0.21725237386919699 0.30350545346160041 0 0.22755569434733011 0.29628632980663677 0 0.2208946576240543 0.29786852504569711 0 0.22416453279636511 0.30146292066549663 0 0.2406948679857599 0.30147011490061099 0 0.22755569434733011 0.29628632980663677 0 0.2309554053448791 0.30819137434805211 0 0.22755569434733011 0.29628632980663677 0 0.22416453279636511 0.30146292066549663 0 0.2309554053448791 0.30819137434805211 0 0.2146389750801104 0.30735479608954819 0 0.19669106984229201 0.28756644780580709 0 0.2146389750801104 0.30735479608954819 0 0.21355660294534151 0.31271870485715669 0 0.2153819195769355 0.31585082911000367 0 0.2146389750801104 0.30735479608954819 0 0.21725237386919699 0.30350545346160041 0 0.19669106984229201 0.28756644780580709 0 0.2146389750801104 0.30735479608954819 0 0.21026264893607141 0.31084478782109498 0 0.21355660294534151 0.31271870485715669 0 0.2146389750801104 0.30735479608954819 0 0.21026264893607141 0.31084478782109498 0 0.20931729486169531 0.30699281773909592 0 0.2208946576240543 0.29786852504569711 0 0.21725237386919699 0.30350545346160041 0 0.21601649500272271 0.29441239285813142 0 0.2146389750801104 0.30735479608954819 0 0.20570454427391041 0.30247756888084859 0 0.1991736253897651 0.29419413648988613 0 0.20570454427391041 0.30247756888084859 0 0.206663011156689 0.3072941181648921 0 0.20239431867948199 0.30537708540661268 0 0.2146389750801104 0.30735479608954819 0 0.20570454427391041 0.30247756888084859 0 0.20931729486169531 0.30699281773909592 0 0.206663011156689 0.3072941181648921 0 0.20369643598624401 0.31087653668608661 0 0.20239431867948199 0.30537708540661268 0 0.206663011156689 0.3072941181648921 0 0.20369643598624401 0.31087653668608661 0 0.21026264893607141 0.31084478782109498 0 0.20570454427391041 0.30247756888084859 0 0.206663011156689 0.3072941181648921 0 0.20931729486169531 0.30699281773909592 0 0.206663011156689 0.3072941181648921 0 0.21026264893607141 0.31084478782109498 0 0.20931729486169531 0.30699281773909592 0 0.2146389750801104 0.30735479608954819 0 0.19669106984229201 0.28756644780580709 0 0.1991736253897651 0.29419413648988613 0 0.21725237386919699 0.30350545346160041 0 0.20880008491350249 0.28972886463157371 0 0.19783079221803571 0.28551430390112192 0 0.21725237386919699 0.30350545346160041 0 0.19783079221803571 0.28551430390112192 0 0.21725237386919699 0.30350545346160041 0 0.19783079221803571 0.28551430390112192 0 0.19669106984229201 0.28756644780580709 0 0.21711886360413701 0.28654672829365441 0 0.21601649500272271 0.29441239285813142 0 0.20880008491350249 0.28972886463157371 0 0.2208946576240543 0.29786852504569711 0 0.21711886360413701 0.28654672829365441 0 0.21601649500272271 0.29441239285813142 0 0.21725237386919699 0.30350545346160041 0 0.21601649500272271 0.29441239285813142 0 0.20880008491350249 0.28972886463157371 0 0.20880008491350249 0.28972886463157371 0 0.2034889653503158 0.28429932210248787 0 0.19783079221803571 0.28551430390112192 0 0.2065513959323669 0.28056875600653253 0 0.21711886360413701 0.28654672829365441 0 0.20880008491350249 0.28972886463157371 0 0.2065513959323669 0.28056875600653253 0 0.20880008491350249 0.28972886463157371 0 0.2034889653503158 0.28429932210248787 0 0.2065513959323669 0.28056875600653253 0 0.2034889653503158 0.28429932210248787 0 0.20053089231167129 0.28201488331199109 0 0.19662930992992761 0.28296557376458559 0 0.19783079221803571 0.28551430390112192 0 0.19557397363798251 0.28571322782811148 0 0.19662930992992761 0.28296557376458559 0 0.20053089231167129 0.28201488331199109 0 0.19783079221803571 0.28551430390112192 0 0.2034889653503158 0.28429932210248787 0 0.20053089231167129 0.28201488331199109 0 0.19783079221803571 0.28551430390112192 0 0.19783079221803571 0.28551430390112192 0 0.19557397363798251 0.28571322782811148 0 0.19669106984229201 0.28756644780580709 0 0.19669106984229201 0.28756644780580709 0 0.1991736253897651 0.29419413648988613 0 0.1942634823227474 0.29225852108214873 0 0.1991736253897651 0.29419413648988613 0 0.19639329693948279 0.29611726134269789 0 0.1942634823227474 0.29225852108214873 0 0.1991736253897651 0.29419413648988613 0 0.19639329693948279 0.29611726134269789 0 0.19977970747788451 0.29860591135798092 0 0.18810898209814811 0.29489161717331103 0 0.1942634823227474 0.29225852108214873 0 0.19268895874331221 0.29736508146547069 0 0.19639329693948279 0.29611726134269789 0 0.1942634823227474 0.29225852108214873 0 0.19268895874331221 0.29736508146547069 0 0.18810898209814811 0.29489161717331103 0 0.18936437974896261 0.28985451458231509 0 0.1942634823227474 0.29225852108214873 0 0.18936437974896261 0.28985451458231509 0 0.1942634823227474 0.29225852108214873 0 0.19327420775571499 0.28780506707545511 0 0.19669106984229201 0.28756644780580709 0 0.1942634823227474 0.29225852108214873 0 0.19327420775571499 0.28780506707545511 0 0.19557397363798251 0.28571322782811148 0 0.19327420775571499 0.28780506707545511 0 0.1934444884439418 0.28471474659358809 0 0.19557397363798251 0.28571322782811148 0 0.19669106984229201 0.28756644780580709 0 0.19327420775571499 0.28780506707545511 0 0.19327420775571499 0.28780506707545511 0 0.1899700044305252 0.28597725271518992 0 0.1934444884439418 0.28471474659358809 0 0.18514041795407099 0.2861477555486881 0 0.18936437974896261 0.28985451458231509 0 0.1899700044305252 0.28597725271518992 0 0.18936437974896261 0.28985451458231509 0 0.19327420775571499 0.28780506707545511 0 0.1899700044305252 0.28597725271518992 0 0.1899700044305252 0.28597725271518992 0 0.187976074348262 0.28272679919325422 0 0.19122366988832129 0.28318739383506991 0 0.19076520150475901 0.27884973694825371 0 0.187976074348262 0.28272679919325422 0 0.19122366988832129 0.28318739383506991 0 0.18514041795407099 0.2861477555486881 0 0.1899700044305252 0.28597725271518992 0 0.187976074348262 0.28272679919325422 0 0.19122366988832129 0.28318739383506991 0 0.1934444884439418 0.28471474659358809 0 0.1940474585065492 0.28145405427188219 0 0.1899700044305252 0.28597725271518992 0 0.19122366988832129 0.28318739383506991 0 0.1934444884439418 0.28471474659358809 0 0.19662930992992761 0.28296557376458559 0 0.19557397363798251 0.28571322782811148 0 0.1934444884439418 0.28471474659358809 0 0.19662930992992761 0.28296557376458559 0 0.1934444884439418 0.28471474659358809 0 0.1940474585065492 0.28145405427188219 0 0.19851609984229729 0.30726639270646078 0 0.19198186731471351 0.31045371470481542 0 0.19814755853173499 0.3125356115492226 0 0.20369643598624401 0.31087653668608661 0 0.19851609984229729 0.30726639270646078 0 0.19814755853173499 0.3125356115492226 0 0.20369643598624401 0.31087653668608661 0 0.19851609984229729 0.30726639270646078 0 0.20239431867948199 0.30537708540661268 0 0.19851609984229729 0.30726639270646078 0 0.20239431867948199 0.30537708540661268 0 0.19866532835339951 0.30327624809586118 0 0.20570454427391041 0.30247756888084859 0 0.1991736253897651 0.29419413648988613 0 0.19977970747788451 0.29860591135798092 0 0.20570454427391041 0.30247756888084859 0 0.20239431867948199 0.30537708540661268 0 0.20103082260036739 0.30140001289677743 0 0.20570454427391041 0.30247756888084859 0 0.20103082260036739 0.30140001289677743 0 0.19977970747788451 0.29860591135798092 0 0.20239431867948199 0.30537708540661268 0 0.20103082260036739 0.30140001289677743 0 0.19866532835339951 0.30327624809586118 0 0.20103082260036739 0.30140001289677743 0 0.19977970747788451 0.29860591135798092 0 0.19713178560808831 0.29951849804138653 0 0.19639329693948279 0.29611726134269789 0 0.19713178560808831 0.29951849804138653 0 0.19268895874331221 0.29736508146547069 0 0.19639329693948279 0.29611726134269789 0 0.19977970747788451 0.29860591135798092 0 0.19713178560808831 0.29951849804138653 0 0.19851609984229729 0.30726639270646078 0 0.19866532835339951 0.30327624809586118 0 0.1940742753087927 0.30347598141056981 0 0.19713178560808831 0.29951849804138653 0 0.19866532835339951 0.30327624809586118 0 0.1940742753087927 0.30347598141056981 0 0.20103082260036739 0.30140001289677743 0 0.19713178560808831 0.29951849804138653 0 0.19866532835339951 0.30327624809586118 0 0.19713178560808831 0.29951849804138653 0 0.1940742753087927 0.30347598141056981 0 0.19268895874331221 0.29736508146547069 0 0.18713651330098091 0.30254182671464191 0 0.18810898209814811 0.29489161717331103 0 0.19268895874331221 0.29736508146547069 0 0.18713651330098091 0.30254182671464191 0 0.1940742753087927 0.30347598141056981 0 0.19268895874331221 0.29736508146547069 0 0.18713651330098091 0.30254182671464191 0 0.18421582350614399 0.30955660821181741 0 0.19198186731471351 0.31045371470481542 0 0.18713651330098091 0.30254182671464191 0 0.1940742753087927 0.30347598141056981 0 0.19198186731471351 0.31045371470481542 0 0.19851609984229729 0.30726639270646078 0 0.1940742753087927 0.30347598141056981 0 0.19198186731471351 0.31045371470481542 0 0.19198186731471351 0.31045371470481542 0 0.1948905389987616 0.31656061741172292 0 0.18673026978279039 0.31875417479765922 0 0.18421582350614399 0.30955660821181741 0 0.19198186731471351 0.31045371470481542 0 0.18673026978279039 0.31875417479765922 0 0.1948905389987616 0.31656061741172292 0 0.19564895892306319 0.32368966981659658 0 0.18673026978279039 0.31875417479765922 0 0.19198186731471351 0.31045371470481542 0 0.1948905389987616 0.31656061741172292 0 0.19814755853173499 0.3125356115492226 0 0.1881915042192546 0.32614326870281818 0 0.19564895892306319 0.32368966981659658 0 0.18673026978279039 0.31875417479765922 0 0.1881915042192546 0.32614326870281818 0 0.19564895892306319 0.32368966981659658 0 0.1927526585356254 0.33297130996138602 0 0.19564895892306319 0.32368966981659658 0 0.201781898661644 0.33030708852459117 0 0.20496245225086421 0.32330943200547918 0 0.19564895892306319 0.32368966981659658 0 0.20100625554653859 0.31736620601821808 0 0.20496245225086421 0.32330943200547918 0 0.20369643598624401 0.31087653668608661 0 0.20100625554653859 0.31736620601821808 0 0.19814755853173499 0.3125356115492226 0 0.1948905389987616 0.31656061741172292 0 0.20100625554653859 0.31736620601821808 0 0.19814755853173499 0.3125356115492226 0 0.1948905389987616 0.31656061741172292 0 0.19564895892306319 0.32368966981659658 0 0.20100625554653859 0.31736620601821808 0 0.1927526585356254 0.33297130996138602 0 0.1959068916044765 0.34814591638459041 0 0.17823444406450711 0.32874749431801198 0 0.19564895892306319 0.32368966981659658 0 0.1927526585356254 0.33297130996138602 0 0.201781898661644 0.33030708852459117 0 0.1927526585356254 0.33297130996138602 0 0.201781898661644 0.33030708852459117 0 0.20021006485166201 0.33843036873622179 0 0.1927526585356254 0.33297130996138602 0 0.20021006485166201 0.33843036873622179 0 0.1959068916044765 0.34814591638459041 0 0.207471814335772 0.33689000286742959 0 0.21316353710992919 0.34326406106883878 0 0.20810022628629271 0.34761380098265238 0 0.20021006485166201 0.33843036873622179 0 0.207471814335772 0.33689000286742959 0 0.20810022628629271 0.34761380098265238 0 0.201781898661644 0.33030708852459117 0 0.20021006485166201 0.33843036873622179 0 0.207471814335772 0.33689000286742959 0 0.201781898661644 0.33030708852459117 0 0.207471814335772 0.33689000286742959 0 0.21013158747714261 0.32910182627702922 0 0.207471814335772 0.33689000286742959 0 0.21013158747714261 0.32910182627702922 0 0.21561255532008961 0.33544837711898762 0 0.21013158747714261 0.32910182627702922 0 0.21561255532008961 0.33544837711898762 0 0.2176012745834853 0.3280137636365309 0 0.207471814335772 0.33689000286742959 0 0.21561255532008961 0.33544837711898762 0 0.21316353710992919 0.34326406106883878 0 0.21561255532008961 0.33544837711898762 0 0.21316353710992919 0.34326406106883878 0 0.22246055418020291 0.34271257524822929 0 0.20713976066027581 0.31685435211505808 0 0.21292375583822781 0.32126889881454412 0 0.2123167201917901 0.3160622691856213 0 0.21026264893607141 0.31084478782109498 0 0.20713976066027581 0.31685435211505808 0 0.2123167201917901 0.3160622691856213 0 0.20369643598624401 0.31087653668608661 0 0.21026264893607141 0.31084478782109498 0 0.20713976066027581 0.31685435211505808 0 0.20369643598624401 0.31087653668608661 0 0.20100625554653859 0.31736620601821808 0 0.20713976066027581 0.31685435211505808 0 0.20100625554653859 0.31736620601821808 0 0.20713976066027581 0.31685435211505808 0 0.20496245225086421 0.32330943200547918 0 0.20713976066027581 0.31685435211505808 0 0.20496245225086421 0.32330943200547918 0 0.21292375583822781 0.32126889881454412 0 0.201781898661644 0.33030708852459117 0 0.21013158747714261 0.32910182627702922 0 0.20496245225086421 0.32330943200547918 0 0.21013158747714261 0.32910182627702922 0 0.20496245225086421 0.32330943200547918 0 0.21292375583822781 0.32126889881454412 0 0.21013158747714261 0.32910182627702922 0 0.21292375583822781 0.32126889881454412 0 0.2176012745834853 0.3280137636365309 0 0.21292375583822781 0.32126889881454412 0 0.2176012745834853 0.3280137636365309 0 0.2202212478362908 0.32032520215843058 0 0.21292375583822781 0.32126889881454412 0 0.2153819195769355 0.31585082911000367 0 0.2202212478362908 0.32032520215843058 0 0.2146389750801104 0.30735479608954819 0 0.2153819195769355 0.31585082911000367 0 0.2202212478362908 0.32032520215843058 0 0.21292375583822781 0.32126889881454412 0 0.2123167201917901 0.3160622691856213 0 0.2153819195769355 0.31585082911000367 0 0.21026264893607141 0.31084478782109498 0 0.2123167201917901 0.3160622691856213 0 0.21355660294534151 0.31271870485715669 0 0.2123167201917901 0.3160622691856213 0 0.21355660294534151 0.31271870485715669 0 0.2153819195769355 0.31585082911000367 0 0.2146389750801104 0.30735479608954819 0 0.23258688031792879 0.32714314437328929 0 0.2146389750801104 0.30735479608954819 0 0.23258688031792879 0.32714314437328929 0 0.2366739555203583 0.32149660302207878 0 0.21725237386919699 0.30350545346160041 0 0.2366739555203583 0.32149660302207878 0 0.2146389750801104 0.30735479608954819 0 0.23258688031792879 0.32714314437328929 0 0.2202212478362908 0.32032520215843058 0 0.23258688031792879 0.32714314437328929 0 0.224645000464373 0.32750556811363007 0 0.2202212478362908 0.32032520215843058 0 0.2176012745834853 0.3280137636365309 0 0.224645000464373 0.32750556811363007 0 0.2202212478362908 0.32032520215843058 0 0.2176012745834853 0.3280137636365309 0 0.224645000464373 0.32750556811363007 0 0.2232604577563449 0.33292686551157202 0 0.21561255532008961 0.33544837711898762 0 0.2176012745834853 0.3280137636365309 0 0.2232604577563449 0.33292686551157202 0 0.224645000464373 0.32750556811363007 0 0.2232604577563449 0.33292686551157202 0 0.2278661805840155 0.33077374163336121 0 0.21561255532008961 0.33544837711898762 0 0.2232604577563449 0.33292686551157202 0 0.22246055418020291 0.34271257524822929 0 0.2232604577563449 0.33292686551157202 0 0.22246055418020291 0.34271257524822929 0 0.22974608504628691 0.33605134778209822 0 0.22974608504628691 0.33605134778209822 0 0.23695010236382269 0.34199516006879432 0 0.23032971625624041 0.34440646580811529 0 0.22246055418020291 0.34271257524822929 0 0.22974608504628691 0.33605134778209822 0 0.23032971625624041 0.34440646580811529 0 0.23258688031792879 0.32714314437328929 0 0.22974608504628691 0.33605134778209822 0 0.2278661805840155 0.33077374163336121 0 0.23258688031792879 0.32714314437328929 0 0.224645000464373 0.32750556811363007 0 0.2278661805840155 0.33077374163336121 0 0.23258688031792879 0.32714314437328929 0 0.22974608504628691 0.33605134778209822 0 0.23695010236382269 0.34199516006879432 0 0.2232604577563449 0.33292686551157202 0 0.22974608504628691 0.33605134778209822 0 0.2278661805840155 0.33077374163336121 0 0.2366739555203583 0.32149660302207878 0 0.25012038484626709 0.32780996745395108 0 0.25609553717151962 0.33948775258255742 0 0.23258688031792879 0.32714314437328929 0 0.23695010236382269 0.34199516006879432 0 0.25053478555574732 0.34693149265703049 0 0.23258688031792879 0.32714314437328929 0 0.25053478555574732 0.34693149265703049 0 0.2366739555203583 0.32149660302207878 0 0.25609553717151962 0.33948775258255742 0 0.23258688031792879 0.32714314437328929 0 0.2366739555203583 0.32149660302207878 0 0.25609553717151962 0.33948775258255742 0 0.23258688031792879 0.32714314437328929 0 0.25053478555574732 0.34693149265703049 0 0.25609553717151962 0.33948775258255742 0 0.246027491827217 0.31934260733412989 0 0.2519964294110788 0.32181255064985959 0 0.25012038484626709 0.32780996745395108 0 0.246027491827217 0.31934260733412989 0 0.2366739555203583 0.32149660302207878 0 0.25012038484626709 0.32780996745395108 0 0.24591462716611359 0.31029372467315858 0 0.246027491827217 0.31934260733412989 0 0.25181126385540392 0.3158872292956737 0 0.24591462716611359 0.31029372467315858 0 0.246027491827217 0.31934260733412989 0 0.24131344255971729 0.31683612838054731 0 0.246027491827217 0.31934260733412989 0 0.25181126385540392 0.3158872292956737 0 0.2519964294110788 0.32181255064985959 0 0.23855792589641861 0.3124197517724111 0 0.2309554053448791 0.30819137434805211 0 0.2366739555203583 0.32149660302207878 0 0.246027491827217 0.31934260733412989 0 0.24131344255971729 0.31683612838054731 0 0.2366739555203583 0.32149660302207878 0 0.23855792589641861 0.3124197517724111 0 0.24131344255971729 0.31683612838054731 0 0.2366739555203583 0.32149660302207878 0 0.23855792589641861 0.3124197517724111 0 0.24591462716611359 0.31029372467315858 0 0.24131344255971729 0.31683612838054731 0 0.23757042228430231 0.36519924807446391 0 0.24008780827055159 0.35639031600303062 0 0.22908249051920529 0.35974116868790618 0 0.23757042228430231 0.36519924807446391 0 0.24684450495698829 0.36135141315910069 0 0.24008780827055159 0.35639031600303062 0 0.23757042228430231 0.36519924807446391 0 0.22954824984347061 0.37074549334670309 0 0.2377537910601473 0.37770827801418999 0 0.23757042228430231 0.36519924807446391 0 0.24516707140924371 0.36938540914434159 0 0.2377537910601473 0.37770827801418999 0 0.24516707140924371 0.36938540914434159 0 0.2377537910601473 0.37770827801418999 0 0.25015794308343509 0.37639538023269642 0 0.24516707140924371 0.36938540914434159 0 0.25015794308343509 0.37639538023269642 0 0.25086148503025818 0.36791768504038341 0 0.24516707140924371 0.36938540914434159 0 0.24684450495698829 0.36135141315910069 0 0.25086148503025818 0.36791768504038341 0 0.23757042228430231 0.36519924807446391 0 0.24516707140924371 0.36938540914434159 0 0.24684450495698829 0.36135141315910069 0 0.24684450495698829 0.36135141315910069 0 0.2467928684213696 0.35504984426619662 0 0.25458279346296919 0.36065684054664832 0 0.2467928684213696 0.35504984426619662 0 0.24191444986059199 0.34991915896517312 0 0.24008780827055159 0.35639031600303062 0 0.24684450495698829 0.36135141315910069 0 0.2467928684213696 0.35504984426619662 0 0.24008780827055159 0.35639031600303062 0 0.2467928684213696 0.35504984426619662 0 0.24191444986059199 0.34991915896517312 0 0.25053478555574732 0.34693149265703049 0 0.23695010236382269 0.34199516006879432 0 0.24191444986059199 0.34991915896517312 0 0.25053478555574732 0.34693149265703049 0 0.23695010236382269 0.34199516006879432 0 0.24191444986059199 0.34991915896517312 0 0.23468438142865311 0.35067095189922692 0 0.23468438142865311 0.35067095189922692 0 0.24008780827055159 0.35639031600303062 0 0.22908249051920529 0.35974116868790618 0 0.24191444986059199 0.34991915896517312 0 0.23468438142865311 0.35067095189922692 0 0.24008780827055159 0.35639031600303062 0 0.23468438142865311 0.35067095189922692 0 0.22740110048087739 0.35039827139094343 0 0.22908249051920529 0.35974116868790618 0 0.23695010236382269 0.34199516006879432 0 0.23468438142865311 0.35067095189922692 0 0.23032971625624041 0.34440646580811529 0 0.22246055418020291 0.34271257524822929 0 0.22740110048087739 0.35039827139094343 0 0.23032971625624041 0.34440646580811529 0 0.23468438142865311 0.35067095189922692 0 0.22740110048087739 0.35039827139094343 0 0.23032971625624041 0.34440646580811529 0 0.22246055418020291 0.34271257524822929 0 0.22740110048087739 0.35039827139094343 0 0.21826971067147091 0.35140811838766578 0 0.22740110048087739 0.35039827139094343 0 0.22908249051920529 0.35974116868790618 0 0.21826971067147091 0.35140811838766578 0 0.22908249051920529 0.35974116868790618 0 0.2135793391444458 0.36754433845116857 0 0.21826971067147091 0.35140811838766578 0 0.22908249051920529 0.35974116868790618 0 0.22954824984347061 0.37074549334670309 0 0.2135793391444458 0.36754433845116857 0 0.23757042228430231 0.36519924807446391 0 0.22908249051920529 0.35974116868790618 0 0.22954824984347061 0.37074549334670309 0 0.2135793391444458 0.36754433845116857 0 0.19001983601158559 0.36072101793311367 0 0.2065746197375295 0.38147223860790802 0 0.2135793391444458 0.36754433845116857 0 0.20810022628629271 0.34761380098265238 0 0.1959068916044765 0.34814591638459041 0 0.2135793391444458 0.36754433845116857 0 0.21826971067147091 0.35140811838766578 0 0.20810022628629271 0.34761380098265238 0 0.2135793391444458 0.36754433845116857 0 0.1959068916044765 0.34814591638459041 0 0.21316353710992919 0.34326406106883878 0 0.22246055418020291 0.34271257524822929 0 0.21826971067147091 0.35140811838766578 0 0.21316353710992919 0.34326406106883878 0 0.21826971067147091 0.35140811838766578 0 0.20810022628629271 0.34761380098265238 0 0.2135793391444458 0.36754433845116857 0 0.1959068916044765 0.34814591638459041 0 0.19001983601158559 0.36072101793311367 0 0.20021006485166201 0.33843036873622179 0 0.20810022628629271 0.34761380098265238 0 0.1959068916044765 0.34814591638459041 0 0.19001983601158559 0.36072101793311367 0 0.2065746197375295 0.38147223860790802 0 0.19001983601158559 0.36072101793311367 0 0.1854413008759592 0.37528755408302028 0 0.19381288424484991 0.37709619719494342 0 0.19001983601158559 0.36072101793311367 0 0.19381288424484991 0.37709619719494342 0 0.2065746197375295 0.38147223860790802 0 0.1769423681445709 0.36333232049016623 0 0.17171745704783459 0.37976720384364138 0 0.1854413008759592 0.37528755408302028 0 0.19001983601158559 0.36072101793311367 0 0.1769423681445709 0.36333232049016623 0 0.1854413008759592 0.37528755408302028 0 0.1769423681445709 0.36333232049016623 0 0.16406819450183341 0.36091602933273631 0 0.17171745704783459 0.37976720384364138 0 0.16406819450183341 0.36091602933273631 0 0.15646383289604501 0.37369343637984531 0 0.17171745704783459 0.37976720384364138 0 0.16406819450183341 0.36091602933273631 0 0.1571904382071273 0.34625601499951381 0 0.1734650522856416 0.33996979725831938 0 0.1769423681445709 0.36333232049016623 0 0.16406819450183341 0.36091602933273631 0 0.1734650522856416 0.33996979725831938 0 0.19001983601158559 0.36072101793311367 0 0.1769423681445709 0.36333232049016623 0 0.1734650522856416 0.33996979725831938 0 0.19001983601158559 0.36072101793311367 0 0.1734650522856416 0.33996979725831938 0 0.1959068916044765 0.34814591638459041 0 0.19001983601158559 0.36072101793311367 0 0.1734650522856416 0.33996979725831938 0 0.1959068916044765 0.34814591638459041 0 0.17823444406450711 0.32874749431801198 0 0.1959068916044765 0.34814591638459041 0 0.1734650522856416 0.33996979725831938 0 0.17823444406450711 0.32874749431801198 0 0.1881915042192546 0.32614326870281818 0 0.1927526585356254 0.33297130996138602 0 0.17823444406450711 0.32874749431801198 0 0.17649440770189381 0.31228303738950502 0 0.17823444406450711 0.32874749431801198 0 0.18673026978279039 0.31875417479765922 0 0.17649440770189381 0.31228303738950502 0 0.18421582350614399 0.30955660821181741 0 0.18673026978279039 0.31875417479765922 0 0.1881915042192546 0.32614326870281818 0 0.17823444406450711 0.32874749431801198 0 0.18673026978279039 0.31875417479765922 0 0.16056199652453779 0.30934907225143382 0 0.17649440770189381 0.31228303738950502 0 0.17823444406450711 0.32874749431801198 0 0.16056199652453779 0.30934907225143382 0 0.17823444406450711 0.32874749431801198 0 0.1607383645248201 0.32835246661397921 0 0.16056199652453779 0.30934907225143382 0 0.17823444406450711 0.32874749431801198 0 0.1734650522856416 0.33996979725831938 0 0.17823444406450711 0.32874749431801198 0 0.1607383645248201 0.32835246661397921 0 0.1571904382071273 0.34625601499951381 0 0.1734650522856416 0.33996979725831938 0 0.1607383645248201 0.32835246661397921 0 0.1571904382071273 0.34625601499951381 0 0.1607383645248201 0.32835246661397921 0 0.1439785715542134 0.33451585906114079 0 0.14456623307545199 0.31093879536908942 0 0.1607383645248201 0.32835246661397921 0 0.1439785715542134 0.33451585906114079 0 0.14456623307545199 0.31093879536908942 0 0.16056199652453779 0.30934907225143382 0 0.1607383645248201 0.32835246661397921 0 0.14456623307545199 0.31093879536908942 0 0.1439785715542134 0.33451585906114079 0 0.1352063961540021 0.3227154504359272 0 0.11907224257712271 0.33064618458380363 0 0.1352063961540021 0.3227154504359272 0 0.12597518363583121 0.31900508238158909 0 0.13043956581236379 0.31033170467451499 0 0.14456623307545199 0.31093879536908942 0 0.1352063961540021 0.3227154504359272 0 0.13043956581236379 0.31033170467451499 0 0.1352063961540021 0.3227154504359272 0 0.12597518363583121 0.31900508238158909 0 0.11907224257712271 0.33064618458380363 0 0.1439785715542134 0.33451585906114079 0 0.12996102158567971 0.3542610660932104 0 0.11907224257712271 0.33064618458380363 0 0.1439785715542134 0.33451585906114079 0 0.1352063961540021 0.3227154504359272 0 0.1439785715542134 0.33451585906114079 0 0.12996102158567971 0.3542610660932104 0 0.14696009151148459 0.35937756932798381 0 0.12996102158567971 0.3542610660932104 0 0.14696009151148459 0.35937756932798381 0 0.1408498005942368 0.37787594760261728 0 0.1204359294245167 0.37540768903004512 0 0.12996102158567971 0.3542610660932104 0 0.1408498005942368 0.37787594760261728 0 0.12996102158567971 0.3542610660932104 0 0.1408498005942368 0.37787594760261728 0 0.15646383289604501 0.37369343637984531 0 0.14696009151148459 0.35937756932798381 0 0.1408498005942368 0.37787594760261728 0 0.16406819450183341 0.36091602933273631 0 0.15646383289604501 0.37369343637984531 0 0.14696009151148459 0.35937756932798381 0 0.1571904382071273 0.34625601499951381 0 0.1439785715542134 0.33451585906114079 0 0.14696009151148459 0.35937756932798381 0 0.16406819450183341 0.36091602933273631 0 0.1571904382071273 0.34625601499951381 0 0.14696009151148459 0.35937756932798381 0 0.15173857960279391 0.40149082911202427 0 0.1408498005942368 0.37787594760261728 0 0.15173857960279391 0.40149082911202427 0 0.1408498005942368 0.37787594760261728 0 0.1582194596477349 0.38641739189674418 0 0.15646383289604501 0.37369343637984531 0 0.1408498005942368 0.37787594760261728 0 0.1582194596477349 0.38641739189674418 0 0.1204359294245167 0.37540768903004512 0 0.1408498005942368 0.37787594760261728 0 0.12638213440864571 0.40016694692531168 0 0.15173857960279391 0.40149082911202427 0 0.12638213440864571 0.40016694692531168 0 0.14006362305950801 0.41349394965867908 0 0.15173857960279391 0.40149082911202427 0 0.1408498005942368 0.37787594760261728 0 0.12638213440864571 0.40016694692531168 0 0.12638213440864571 0.40016694692531168 0 0.14006362305950801 0.41349394965867908 0 0.12819467301334569 0.42295040886334478 0 0.1142280614004636 0.44188273683014229 0 0.14039264614926419 0.43409760548549847 0 0.12819467301334569 0.42295040886334478 0 0.14006362305950801 0.41349394965867908 0 0.14039264614926419 0.43409760548549847 0 0.12819467301334569 0.42295040886334478 0 0.14006362305950801 0.41349394965867908 0 0.14039264614926419 0.43409760548549847 0 0.15197496669944291 0.42320943189625931 0 0.14039264614926419 0.43409760548549847 0 0.15197496669944291 0.42320943189625931 0 0.1640431351853191 0.44764712002975637 0 0.15173857960279391 0.40149082911202427 0 0.15197496669944291 0.42320943189625931 0 0.16262735861135089 0.42510571062143121 0 0.15173857960279391 0.40149082911202427 0 0.14006362305950801 0.41349394965867908 0 0.15197496669944291 0.42320943189625931 0 0.15173857960279391 0.40149082911202427 0 0.16262735861135089 0.42510571062143121 0 0.17338018079879991 0.4143763530597272 0 0.15173857960279391 0.40149082911202427 0 0.16262735861135089 0.42510571062143121 0 0.16262735861135089 0.42510571062143121 0 0.17266418859170099 0.42573303942752461 0 0.17338018079879991 0.4143763530597272 0 0.15197496669944291 0.42320943189625931 0 0.16262735861135089 0.42510571062143121 0 0.1640431351853191 0.44764712002975637 0 0.16262735861135089 0.42510571062143121 0 0.17268080246038661 0.43578944144140569 0 0.1640431351853191 0.44764712002975637 0 0.15197496669944291 0.42320943189625931 0 0.1640431351853191 0.44764712002975637 0 0.16262735861135089 0.42510571062143121 0 0.17268080246038661 0.43578944144140569 0 0.17266418859170099 0.42573303942752461 0 0.17268080246038661 0.43578944144140569 0 0.18459643215696059 0.42751079687421051 0 0.1849182962379031 0.44359250620182011 0 0.17266418859170099 0.42573303942752461 0 0.18459643215696059 0.42751079687421051 0 0.17338018079879991 0.4143763530597272 0 0.17268080246038661 0.43578944144140569 0 0.17266418859170099 0.42573303942752461 0 0.18459643215696059 0.42751079687421051 0 0.18459643215696059 0.42751079687421051 0 0.17338018079879991 0.4143763530597272 0 0.18718095769667931 0.41562826598177077 0 0.17338018079879991 0.4143763530597272 0 0.18718095769667931 0.41562826598177077 0 0.18515631867079049 0.40464807832777622 0 0.18515631867079049 0.40464807832777622 0 0.1811716970093348 0.38997327139115251 0 0.19321578035432529 0.39090397815573152 0 0.18515631867079049 0.40464807832777622 0 0.17032762809776439 0.39925954254559282 0 0.1811716970093348 0.38997327139115251 0 0.17338018079879991 0.4143763530597272 0 0.18515631867079049 0.40464807832777622 0 0.17032762809776439 0.39925954254559282 0 0.15173857960279391 0.40149082911202427 0 0.17032762809776439 0.39925954254559282 0 0.1582194596477349 0.38641739189674418 0 0.15173857960279391 0.40149082911202427 0 0.17338018079879991 0.4143763530597272 0 0.17032762809776439 0.39925954254559282 0 0.17032762809776439 0.39925954254559282 0 0.1582194596477349 0.38641739189674418 0 0.17171745704783459 0.37976720384364138 0 0.15646383289604501 0.37369343637984531 0 0.1582194596477349 0.38641739189674418 0 0.17171745704783459 0.37976720384364138 0 0.17171745704783459 0.37976720384364138 0 0.1811716970093348 0.38997327139115251 0 0.1854413008759592 0.37528755408302028 0 0.17032762809776439 0.39925954254559282 0 0.17171745704783459 0.37976720384364138 0 0.1811716970093348 0.38997327139115251 0 0.1811716970093348 0.38997327139115251 0 0.1854413008759592 0.37528755408302028 0 0.19321578035432529 0.39090397815573152 0 0.19321578035432529 0.39090397815573152 0 0.2057795846349301 0.39836757600590822 0 0.2065746197375295 0.38147223860790802 0 0.1854413008759592 0.37528755408302028 0 0.19381288424484991 0.37709619719494342 0 0.19321578035432529 0.39090397815573152 0 0.19381288424484991 0.37709619719494342 0 0.19321578035432529 0.39090397815573152 0 0.2065746197375295 0.38147223860790802 0 0.18515631867079049 0.40464807832777622 0 0.19321578035432529 0.39090397815573152 0 0.1969752041003342 0.40716064567366572 0 0.19321578035432529 0.39090397815573152 0 0.2057795846349301 0.39836757600590822 0 0.1969752041003342 0.40716064567366572 0 0.2057795846349301 0.39836757600590822 0 0.22312940346347099 0.40222345928270431 0 0.20925478672808939 0.40901560430550182 0 0.2057795846349301 0.39836757600590822 0 0.2065746197375295 0.38147223860790802 0 0.22312940346347099 0.40222345928270431 0 0.2065746197375295 0.38147223860790802 0 0.22312940346347099 0.40222345928270431 0 0.2057795846349301 0.39836757600590822 0 0.20925478672808939 0.40901560430550182 0 0.1969752041003342 0.40716064567366572 0 0.2065746197375295 0.38147223860790802 0 0.2188480940776355 0.38450120260973952 0 0.22312940346347099 0.40222345928270431 0 0.2135793391444458 0.36754433845116857 0 0.2065746197375295 0.38147223860790802 0 0.2188480940776355 0.38450120260973952 0 0.22954824984347061 0.37074549334670309 0 0.2135793391444458 0.36754433845116857 0 0.23125178668441501 0.38694276051774668 0 0.2135793391444458 0.36754433845116857 0 0.23125178668441501 0.38694276051774668 0 0.2135793391444458 0.36754433845116857 0 0.23125178668441501 0.38694276051774668 0 0.2188480940776355 0.38450120260973952 0 0.22954824984347061 0.37074549334670309 0 0.23125178668441501 0.38694276051774668 0 0.2377537910601473 0.37770827801418999 0 0.23125178668441501 0.38694276051774668 0 0.22476937871282479 0.38886089196587081 0 0.2272942621067445 0.39390731981747718 0 0.23125178668441501 0.38694276051774668 0 0.2188480940776355 0.38450120260973952 0 0.22476937871282479 0.38886089196587081 0 0.2188480940776355 0.38450120260973952 0 0.22476937871282479 0.38886089196587081 0 0.22312940346347099 0.40222345928270431 0 0.22476937871282479 0.38886089196587081 0 0.22312940346347099 0.40222345928270431 0 0.2272942621067445 0.39390731981747718 0 0.22312940346347099 0.40222345928270431 0 0.2272942621067445 0.39390731981747718 0 0.22312940346347099 0.40222345928270431 0 0.23331750252295169 0.40155121167942159 0 0.2272942621067445 0.39390731981747718 0 0.23125178668441501 0.38694276051774668 0 0.23331750252295169 0.40155121167942159 0 0.2272942621067445 0.39390731981747718 0 0.23125178668441501 0.38694276051774668 0 0.23331750252295169 0.40155121167942159 0 0.24892423422438431 0.40634118258432489 0 0.23125178668441501 0.38694276051774668 0 0.24738735982592119 0.39100718209703472 0 0.24892423422438431 0.40634118258432489 0 0.23125178668441501 0.38694276051774668 0 0.24892423422438431 0.40634118258432489 0 0.23125178668441501 0.38694276051774668 0 0.24738735982592119 0.39100718209703472 0 0.24075450417149599 0.38489080073466192 0 0.24738735982592119 0.39100718209703472 0 0.24662507911550041 0.38390498230967618 0 0.24075450417149599 0.38489080073466192 0 0.24662507911550041 0.38390498230967618 0 0.2377537910601473 0.37770827801418999 0 0.25015794308343509 0.37639538023269642 0 0.24662507911550041 0.38390498230967618 0 0.2377537910601473 0.37770827801418999 0 0.24075450417149599 0.38489080073466192 0 0.23125178668441501 0.38694276051774668 0 0.2377537910601473 0.37770827801418999 0 0.24075450417149599 0.38489080073466192 0 0.24884624880801609 0.43445921310700869 0 0.23598782613574479 0.41834133619485547 0 0.2551889496141147 0.41809586073196209 0 0.24884624880801609 0.43445921310700869 0 0.23598782613574479 0.41834133619485547 0 0.24884624880801609 0.43445921310700869 0 0.23598782613574479 0.41834133619485547 0 0.22999618869546701 0.43419770726556989 0 0.23331750252295169 0.40155121167942159 0 0.23598782613574479 0.41834133619485547 0 0.24892423422438431 0.40634118258432489 0 0.23598782613574479 0.41834133619485547 0 0.24892423422438431 0.40634118258432489 0 0.2551889496141147 0.41809586073196209 0 0.22312940346347099 0.40222345928270431 0 0.23598782613574479 0.41834133619485547 0 0.21407190186304989 0.42018655946551481 0 0.22312940346347099 0.40222345928270431 0 0.23331750252295169 0.40155121167942159 0 0.23598782613574479 0.41834133619485547 0 0.22312940346347099 0.40222345928270431 0 0.23598782613574479 0.41834133619485547 0 0.22999618869546701 0.43419770726556989 0 0.21407190186304989 0.42018655946551481 0 0.21715720473947389 0.44679103964367711 0 0.23598782613574479 0.41834133619485547 0 0.22999618869546701 0.43419770726556989 0 0.21407190186304989 0.42018655946551481 0 0.21407190186304989 0.42018655946551481 0 0.21715720473947389 0.44679103964367711 0 0.21407190186304989 0.42018655946551481 0 0.20331795955727 0.44178175997017383 0 0.21407190186304989 0.42018655946551481 0 0.1971452384373221 0.43029553551038879 0 0.20331795955727 0.44178175997017383 0 0.21407190186304989 0.42018655946551481 0 0.20331795955727 0.44178175997017383 0 0.21715720473947389 0.44679103964367711 0 0.21407190186304989 0.42018655946551481 0 0.19882160237142679 0.41840605504022471 0 0.1971452384373221 0.43029553551038879 0 0.22312940346347099 0.40222345928270431 0 0.21407190186304989 0.42018655946551481 0 0.20925478672808939 0.40901560430550182 0 0.22312940346347099 0.40222345928270431 0 0.21407190186304989 0.42018655946551481 0 0.21407190186304989 0.42018655946551481 0 0.20925478672808939 0.40901560430550182 0 0.19882160237142679 0.41840605504022471 0 0.20925478672808939 0.40901560430550182 0 0.1969752041003342 0.40716064567366572 0 0.19882160237142679 0.41840605504022471 0 0.18459643215696059 0.42751079687421051 0 0.18718095769667931 0.41562826598177077 0 0.19882160237142679 0.41840605504022471 0 0.18718095769667931 0.41562826598177077 0 0.18515631867079049 0.40464807832777622 0 0.1969752041003342 0.40716064567366572 0 0.18718095769667931 0.41562826598177077 0 0.1969752041003342 0.40716064567366572 0 0.19882160237142679 0.41840605504022471 0 0.18459643215696059 0.42751079687421051 0 0.1971452384373221 0.43029553551038879 0 0.1849182962379031 0.44359250620182011 0 0.18459643215696059 0.42751079687421051 0 0.19882160237142679 0.41840605504022471 0 0.1971452384373221 0.43029553551038879 0 0.1971452384373221 0.43029553551038879 0 0.20331795955727 0.44178175997017383 0 0.1849182962379031 0.44359250620182011 0 0.19251501946368851 0.46335242158140988 0 0.20331795955727 0.44178175997017383 0 0.1849182962379031 0.44359250620182011 0 0.19251501946368851 0.46335242158140988 0 0.20331795955727 0.44178175997017383 0 0.19251501946368851 0.46335242158140988 0 0.20609721151463109 0.45826118526402132 0 0.20331795955727 0.44178175997017383 0 0.19251501946368851 0.46335242158140988 0 0.20609721151463109 0.45826118526402132 0 0.19976242831190069 0.48116808532403971 0 0.21715720473947389 0.44679103964367711 0 0.220242507615898 0.47339551982183942 0 0.20609721151463109 0.45826118526402132 0 0.21715720473947389 0.44679103964367711 0 0.220242507615898 0.47339551982183942 0 0.20609721151463109 0.45826118526402132 0 0.20331795955727 0.44178175997017383 0 0.21715720473947389 0.44679103964367711 0 0.22999618869546701 0.43419770726556989 0 0.21715720473947389 0.44679103964367711 0 0.22478959831681561 0.44628002250685889 0 0.22999618869546701 0.43419770726556989 0 0.22478959831681561 0.44628002250685889 0 0.24059402992970871 0.4446235974270612 0 0.21715720473947389 0.44679103964367711 0 0.22478959831681561 0.44628002250685889 0 0.22693147006098471 0.45811878121704658 0 0.21715720473947389 0.44679103964367711 0 0.22693147006098471 0.45811878121704658 0 0.220242507615898 0.47339551982183942 0 0.22693147006098471 0.45811878121704658 0 0.23113625608443411 0.46939103018801659 0 0.220242507615898 0.47339551982183942 0 0.22693147006098471 0.45811878121704658 0 0.23870540464721121 0.46059229829315013 0 0.23113625608443411 0.46939103018801659 0 0.22478959831681561 0.44628002250685889 0 0.22693147006098471 0.45811878121704658 0 0.23870540464721121 0.46059229829315013 0 0.23870540464721121 0.46059229829315013 0 0.2442269679619716 0.4566526866451362 0 0.25606037152951822 0.48029614914657481 0 0.22478959831681561 0.44628002250685889 0 0.23870540464721121 0.46059229829315013 0 0.2442269679619716 0.4566526866451362 0 0.2442269679619716 0.4566526866451362 0 0.2470590775252231 0.45099891191126978 0 0.25207553745229377 0.45364513947565083 0 0.2470590775252231 0.45099891191126978 0 0.24059402992970871 0.4446235974270612 0 0.25156716754184683 0.44789819024522082 0 0.22478959831681561 0.44628002250685889 0 0.2442269679619716 0.4566526866451362 0 0.24059402992970871 0.4446235974270612 0 0.22478959831681561 0.44628002250685889 0 0.2442269679619716 0.4566526866451362 0 0.24884624880801609 0.43445921310700869 0 0.22999618869546701 0.43419770726556989 0 0.24059402992970871 0.4446235974270612 0 0.2442269679619716 0.4566526866451362 0 0.2470590775252231 0.45099891191126978 0 0.24059402992970871 0.4446235974270612 0 0.24884624880801609 0.43445921310700869 0 0.24059402992970871 0.4446235974270612 0 0.25156716754184683 0.44789819024522082 0 0.24837157445207361 0.5 0 0.23775017031970519 0.47892863111338679 0 0.25606037152951822 0.48029614914657481 0 0.24837157445207361 0.5 0 0.23775017031970519 0.47892863111338679 0 0.2233278104923222 0.50000000000000155 0 0.23870540464721121 0.46059229829315013 0 0.25606037152951822 0.48029614914657481 0 0.23870540464721121 0.46059229829315013 0 0.23775017031970519 0.47892863111338679 0 0.25606037152951822 0.48029614914657481 0 0.23870540464721121 0.46059229829315013 0 0.23775017031970519 0.47892863111338679 0 0.23113625608443411 0.46939103018801659 0 0.23775017031970519 0.47892863111338679 0 0.23113625608443411 0.46939103018801659 0 0.220242507615898 0.47339551982183942 0 0.23775017031970519 0.47892863111338679 0 0.220242507615898 0.47339551982183942 0 0.2233278104923222 0.50000000000000155 0 0.220242507615898 0.47339551982183942 0 0.2233278104923222 0.50000000000000155 0 0.220242507615898 0.47339551982183942 0 0.2233278104923222 0.50000000000000155 0 0.19976242831190069 0.48116808532403971 0 0.2233278104923222 0.50000000000000155 0 0.19976242831190069 0.48116808532403971 0 0.1958532341185977 0.5 0 0.20609721151463109 0.45826118526402132 0 0.220242507615898 0.47339551982183942 0 0.19976242831190069 0.48116808532403971 0 0.19976242831190069 0.48116808532403971 0 0.18817947215707159 0.49652249629675083 0 0.1761113036711954 0.47208480816325349 0 0.19251501946368851 0.46335242158140988 0 0.19976242831190069 0.48116808532403971 0 0.1761113036711954 0.47208480816325349 0 0.19976242831190069 0.48116808532403971 0 0.18817947215707159 0.49652249629675083 0 0.1958532341185977 0.5 0 0.18817947215707159 0.49652249629675083 0 0.17322880939906779 0.48867131076825232 0 0.1761113036711954 0.47208480816325349 0 0.18817947215707159 0.49652249629675083 0 0.1958532341185977 0.5 0 0.16837865774487329 0.5 0 0.18817947215707159 0.49652249629675083 0 0.17322880939906779 0.48867131076825232 0 0.16837865774487329 0.5 0 0.16837865774487329 0.5 0 0.1602458040231311 0.48607793861300491 0 0.14090408137114879 0.5 0 0.17322880939906779 0.48867131076825232 0 0.16837865774487329 0.5 0 0.1602458040231311 0.48607793861300491 0 0.17322880939906779 0.48867131076825232 0 0.1602458040231311 0.48607793861300491 0 0.1761113036711954 0.47208480816325349 0 0.1602458040231311 0.48607793861300491 0 0.1761113036711954 0.47208480816325349 0 0.16188999336116161 0.4639090971076934 0 0.1602458040231311 0.48607793861300491 0 0.16188999336116161 0.4639090971076934 0 0.1492132088551161 0.47432000738420438 0 0.18817947215707159 0.49652249629675083 0 0.1761113036711954 0.47208480816325349 0 0.19251501946368851 0.46335242158140988 0 0.17939693863952649 0.45666921399406002 0 0.1849182962379031 0.44359250620182011 0 0.1761113036711954 0.47208480816325349 0 0.17939693863952649 0.45666921399406002 0 0.1640431351853191 0.44764712002975637 0 0.19251501946368851 0.46335242158140988 0 0.1761113036711954 0.47208480816325349 0 0.17939693863952649 0.45666921399406002 0 0.17939693863952649 0.45666921399406002 0 0.1849182962379031 0.44359250620182011 0 0.1640431351853191 0.44764712002975637 0 0.17268080246038661 0.43578944144140569 0 0.1849182962379031 0.44359250620182011 0 0.1640431351853191 0.44764712002975637 0 0.1761113036711954 0.47208480816325349 0 0.1640431351853191 0.44764712002975637 0 0.1761113036711954 0.47208480816325349 0 0.1640431351853191 0.44764712002975637 0 0.16188999336116161 0.4639090971076934 0 0.1640431351853191 0.44764712002975637 0 0.16188999336116161 0.4639090971076934 0 0.1379275053092226 0.44980192190090618 0 0.16188999336116161 0.4639090971076934 0 0.1379275053092226 0.44980192190090618 0 0.1492132088551161 0.47432000738420438 0 0.14039264614926419 0.43409760548549847 0 0.1640431351853191 0.44764712002975637 0 0.1379275053092226 0.44980192190090618 0 0.1142280614004636 0.44188273683014229 0 0.14039264614926419 0.43409760548549847 0 0.1379275053092226 0.44980192190090618 0 0.1180657170444107 0.46235144142567919 0 0.1379275053092226 0.44980192190090618 0 0.1325274624765877 0.46670780663835049 0 0.1180657170444107 0.46235144142567919 0 0.1379275053092226 0.44980192190090618 0 0.1379275053092226 0.44980192190090618 0 0.1325274624765877 0.46670780663835049 0 0.1492132088551161 0.47432000738420438 0 0.12198042715027541 0.48126814430390719 0 0.1325274624765877 0.46670780663835049 0 0.1492132088551161 0.47432000738420438 0 0.11342950499742439 0.5 0 0.12198042715027541 0.48126814430390719 0 0.14090408137114879 0.5 0 0.12198042715027541 0.48126814430390719 0 0.14090408137114879 0.5 0 0.1492132088551161 0.47432000738420438 0 0.1602458040231311 0.48607793861300491 0 0.14090408137114879 0.5 0 0.1492132088551161 0.47432000738420438 0 0.35583680672812479 0.48312900236458078 0 0.3579965501949201 0.46531213549317929 0 0.34219837712682333 0.47045712308609589 0 0.35583680672812479 0.48312900236458078 0 0.34219837712682333 0.47045712308609589 0 0.34194298176788068 0.49999999999999761 0 0.35583680672812479 0.48312900236458078 0 0.36238974973300309 0.49095811398892453 0 0.34194298176788068 0.49999999999999761 0 0.36238974973300309 0.49095811398892453 0 0.36554308048952572 0.5 0 0.34194298176788068 0.49999999999999761 0 0.35583680672812479 0.48312900236458078 0 0.36238974973300309 0.49095811398892453 0 0.37353932790407451 0.4897100248141647 0 0.36238974973300309 0.49095811398892453 0 0.36554308048952572 0.5 0 0.37353932790407451 0.4897100248141647 0 0.37353932790407451 0.4897100248141647 0 0.3579965501949201 0.46531213549317929 0 0.37615225476051178 0.47260000609078862 0 0.35583680672812479 0.48312900236458078 0 0.37353932790407451 0.4897100248141647 0 0.3579965501949201 0.46531213549317929 0 0.37353932790407451 0.4897100248141647 0 0.3579965501949201 0.46531213549317929 0 0.37234436633307222 0.45664581748427779 0 0.35993673284775868 0.44622476303668351 0 0.3579965501949201 0.46531213549317929 0 0.37234436633307222 0.45664581748427779 0 0.3579965501949201 0.46531213549317929 0 0.37615225476051178 0.47260000609078862 0 0.35993673284775868 0.44622476303668351 0 0.35435066047913238 0.43276507937342601 0 0.37253831474590338 0.43548653666034037 0 0.37234436633307222 0.45664581748427779 0 0.35993673284775868 0.44622476303668351 0 0.37253831474590338 0.43548653666034037 0 0.35993673284775868 0.44622476303668351 0 0.3579965501949201 0.46531213549317929 0 0.34245377248576581 0.44091424617219399 0 0.35993673284775868 0.44622476303668351 0 0.34245377248576581 0.44091424617219399 0 0.35435066047913238 0.43276507937342601 0 0.3579965501949201 0.46531213549317929 0 0.34245377248576581 0.44091424617219399 0 0.3579965501949201 0.46531213549317929 0 0.34245377248576581 0.44091424617219399 0 0.34219837712682333 0.47045712308609589 0 0.33095378344154353 0.45698653610792739 0 0.34245377248576581 0.44091424617219399 0 0.34219837712682333 0.47045712308609589 0 0.34245377248576581 0.44091424617219399 0 0.34219837712682333 0.47045712308609589 0 0.33095378344154353 0.45698653610792739 0 0.32692461346357832 0.47019464132377481 0 0.34219837712682333 0.47045712308609589 0 0.33095378344154353 0.45698653610792739 0 0.34245377248576581 0.44091424617219399 0 0.33109210949050688 0.44447028457905091 0 0.34245377248576581 0.44091424617219399 0 0.33109210949050688 0.44447028457905091 0 0.33000828360097118 0.43687562973578659 0 0.32095259843374713 0.44310472630029568 0 0.31410804400523717 0.45996196647526261 0 0.30375803890432818 0.44602069750819079 0 0.33109210949050688 0.44447028457905091 0 0.32095259843374713 0.44310472630029568 0 0.33000828360097118 0.43687562973578659 0 0.33095378344154353 0.45698653610792739 0 0.33109210949050688 0.44447028457905091 0 0.32095259843374713 0.44310472630029568 0 0.33095378344154353 0.45698653610792739 0 0.31410804400523717 0.45996196647526261 0 0.32692461346357832 0.47019464132377481 0 0.33095378344154353 0.45698653610792739 0 0.32095259843374713 0.44310472630029568 0 0.31410804400523717 0.45996196647526261 0 0.31410804400523717 0.45996196647526261 0 0.31723661174276091 0.47937706726328522 0 0.32692461346357832 0.47019464132377481 0 0.31723661174276091 0.47937706726328522 0 0.32692461346357832 0.47019464132377481 0 0.33012625100152659 0.48419051368630273 0 0.32692461346357832 0.47019464132377481 0 0.33012625100152659 0.48419051368630273 0 0.34219837712682333 0.47045712308609589 0 0.34219837712682333 0.47045712308609589 0 0.34194298176788068 0.49999999999999761 0 0.33012625100152659 0.48419051368630273 0 0.34219837712682333 0.47045712308609589 0 0.34194298176788068 0.49999999999999761 0 0.33012625100152659 0.48419051368630273 0 0.34194298176788068 0.49999999999999761 0 0.32153798220707358 0.5 0 0.31723661174276091 0.47937706726328522 0 0.32153798220707358 0.5 0 0.30729920600206723 0.48837753395616712 0 0.31723661174276091 0.47937706726328522 0 0.33012625100152659 0.48419051368630273 0 0.32153798220707358 0.5 0 0.30729920600206723 0.48837753395616712 0 0.30113298264626648 0.50000000000000355 0 0.29545692194689799 0.48399131919707061 0 0.32153798220707358 0.5 0 0.30729920600206723 0.48837753395616712 0 0.30113298264626648 0.50000000000000355 0 0.31723661174276091 0.47937706726328522 0 0.30729920600206723 0.48837753395616712 0 0.30253420512455442 0.47197552743450039 0 0.31410804400523717 0.45996196647526261 0 0.31723661174276091 0.47937706726328522 0 0.30253420512455442 0.47197552743450039 0 0.30729920600206723 0.48837753395616712 0 0.30253420512455442 0.47197552743450039 0 0.29545692194689799 0.48399131919707061 0 0.30253420512455442 0.47197552743450039 0 0.28310170725228351 0.47739801492169098 0 0.29262987076784958 0.45882396329937702 0 0.30253420512455442 0.47197552743450039 0 0.29545692194689799 0.48399131919707061 0 0.28310170725228351 0.47739801492169098 0 0.29545692194689799 0.48399131919707061 0 0.28310170725228351 0.47739801492169098 0 0.30113298264626648 0.50000000000000355 0 0.29545692194689799 0.48399131919707061 0 0.28310170725228351 0.47739801492169098 0 0.30113298264626648 0.50000000000000355 0 0.28310170725228351 0.47739801492169098 0 0.30113298264626648 0.50000000000000355 0 0.28310170725228351 0.47739801492169098 0 0.27341533841182508 0.49999999999999972 0 0.27341533841182508 0.49999999999999972 0 0.26962469588610882 0.47925442339647012 0 0.25606037152951822 0.48029614914657481 0 0.28310170725228351 0.47739801492169098 0 0.27341533841182508 0.49999999999999972 0 0.26962469588610882 0.47925442339647012 0 0.28310170725228351 0.47739801492169098 0 0.26962469588610882 0.47925442339647012 0 0.2636643376071276 0.46702535078341351 0 0.28310170725228351 0.47739801492169098 0 0.2636643376071276 0.46702535078341351 0 0.27240318936628538 0.4639875524704265 0 0.28310170725228351 0.47739801492169098 0 0.2636643376071276 0.46702535078341351 0 0.28310170725228351 0.47739801492169098 0 0.27240318936628538 0.4639875524704265 0 0.26962469588610882 0.47925442339647012 0 0.25606037152951822 0.48029614914657481 0 0.2636643376071276 0.46702535078341351 0 0.24837157445207361 0.5 0 0.27341533841182508 0.49999999999999972 0 0.25606037152951822 0.48029614914657481 0 0.27341533841182508 0.49999999999999972 0 0.25606037152951822 0.48029614914657481 0 0.24884624880801609 0.43445921310700869 0 0.26170467148028781 0.45057709001916157 0 0.24884624880801609 0.43445921310700869 0 0.26170467148028781 0.45057709001916157 0 0.26851235784897121 0.42800655497011919 0 0.24884624880801609 0.43445921310700869 0 0.26170467148028781 0.45057709001916157 0 0.25156716754184683 0.44789819024522082 0 0.25945063919974548 0.45167400968083993 0 0.26170467148028781 0.45057709001916157 0 0.25945063919974548 0.45167400968083993 0 0.26170467148028781 0.45057709001916157 0 0.25156716754184683 0.44789819024522082 0 0.25945063919974548 0.45167400968083993 0 0.25156716754184683 0.44789819024522082 0 0.25207553745229377 0.45364513947565083 0 0.2470590775252231 0.45099891191126978 0 0.25156716754184683 0.44789819024522082 0 0.25207553745229377 0.45364513947565083 0 0.2442269679619716 0.4566526866451362 0 0.2636643376071276 0.46702535078341351 0 0.2589208905112852 0.4572603048457714 0 0.2442269679619716 0.4566526866451362 0 0.2636643376071276 0.46702535078341351 0 0.2442269679619716 0.4566526866451362 0 0.25207553745229377 0.45364513947565083 0 0.2589208905112852 0.4572603048457714 0 0.2442269679619716 0.4566526866451362 0 0.25606037152951822 0.48029614914657481 0 0.2636643376071276 0.46702535078341351 0 0.25945063919974548 0.45167400968083993 0 0.25207553745229377 0.45364513947565083 0 0.2589208905112852 0.4572603048457714 0 0.2636643376071276 0.46702535078341351 0 0.2589208905112852 0.4572603048457714 0 0.27240318936628538 0.4639875524704265 0 0.26170467148028781 0.45057709001916157 0 0.2589208905112852 0.4572603048457714 0 0.27240318936628538 0.4639875524704265 0 0.25945063919974548 0.45167400968083993 0 0.26170467148028781 0.45057709001916157 0 0.2589208905112852 0.4572603048457714 0 0.26170467148028781 0.45057709001916157 0 0.27240318936628538 0.4639875524704265 0 0.26170467148028781 0.45057709001916157 0 0.27240318936628538 0.4639875524704265 0 0.28426811759836462 0.43959664049505959 0 0.26170467148028781 0.45057709001916157 0 0.28426811759836462 0.43959664049505959 0 0.26851235784897121 0.42800655497011919 0 0.26170467148028781 0.45057709001916157 0 0.28426811759836462 0.43959664049505959 0 0.28426811759836462 0.43959664049505959 0 0.29262987076784958 0.45882396329937702 0 0.30375803890432818 0.44602069750819079 0 0.27240318936628538 0.4639875524704265 0 0.28426811759836462 0.43959664049505959 0 0.29262987076784958 0.45882396329937702 0 0.28310170725228351 0.47739801492169098 0 0.27240318936628538 0.4639875524704265 0 0.29262987076784958 0.45882396329937702 0 0.31410804400523717 0.45996196647526261 0 0.30253420512455442 0.47197552743450039 0 0.29262987076784958 0.45882396329937702 0 0.31410804400523717 0.45996196647526261 0 0.29262987076784958 0.45882396329937702 0 0.30375803890432818 0.44602069750819079 0 0.28426811759836462 0.43959664049505959 0 0.30375803890432818 0.44602069750819079 0 0.30683156371644232 0.42861619097095932 0 0.32095259843374713 0.44310472630029568 0 0.30375803890432818 0.44602069750819079 0 0.30683156371644232 0.42861619097095932 0 0.30982962526437491 0.41762036957565962 0 0.29026424069423029 0.41760499770446241 0 0.30683156371644232 0.42861619097095932 0 0.30982962526437491 0.41762036957565962 0 0.29026424069423029 0.41760499770446241 0 0.30982962526437491 0.41762036957565962 0 0.30437850126920252 0.4062965375082539 0 0.29026424069423029 0.41760499770446241 0 0.30982962526437491 0.41762036957565962 0 0.30437850126920252 0.4062965375082539 0 0.31826127631298601 0.40695797879515588 0 0.30437850126920252 0.4062965375082539 0 0.29026424069423029 0.41760499770446241 0 0.28529905891015428 0.40256617253956012 0 0.29026424069423029 0.41760499770446241 0 0.27269391678514099 0.40940408842205978 0 0.28529905891015428 0.40256617253956012 0 0.28426811759836462 0.43959664049505959 0 0.30683156371644232 0.42861619097095932 0 0.29026424069423029 0.41760499770446241 0 0.28426811759836462 0.43959664049505959 0 0.30683156371644232 0.42861619097095932 0 0.28426811759836462 0.43959664049505959 0 0.29026424069423029 0.41760499770446241 0 0.26851235784897121 0.42800655497011919 0 0.29026424069423029 0.41760499770446241 0 0.26851235784897121 0.42800655497011919 0 0.27269391678514099 0.40940408842205978 0 0.26851235784897121 0.42800655497011919 0 0.27269391678514099 0.40940408842205978 0 0.2551889496141147 0.41809586073196209 0 0.24892423422438431 0.40634118258432489 0 0.2551889496141147 0.41809586073196209 0 0.26027935348245851 0.39958943436075761 0 0.27269391678514099 0.40940408842205978 0 0.2551889496141147 0.41809586073196209 0 0.26027935348245851 0.39958943436075761 0 0.24884624880801609 0.43445921310700869 0 0.26851235784897121 0.42800655497011919 0 0.2551889496141147 0.41809586073196209 0 0.25782190365108681 0.38500266191309951 0 0.2686063906315464 0.38029980437340921 0 0.25755511223865502 0.37179938211912988 0 0.25782190365108681 0.38500266191309951 0 0.25015794308343509 0.37639538023269642 0 0.25755511223865502 0.37179938211912988 0 0.24662507911550041 0.38390498230967618 0 0.25782190365108681 0.38500266191309951 0 0.25015794308343509 0.37639538023269642 0 0.24738735982592119 0.39100718209703472 0 0.24662507911550041 0.38390498230967618 0 0.25782190365108681 0.38500266191309951 0 0.24738735982592119 0.39100718209703472 0 0.25782190365108681 0.38500266191309951 0 0.26027935348245851 0.39958943436075761 0 0.24738735982592119 0.39100718209703472 0 0.24892423422438431 0.40634118258432489 0 0.26027935348245851 0.39958943436075761 0 0.25782190365108681 0.38500266191309951 0 0.26027935348245851 0.39958943436075761 0 0.27272803977081361 0.39301704983851188 0 0.27269391678514099 0.40940408842205978 0 0.27272803977081361 0.39301704983851188 0 0.28529905891015428 0.40256617253956012 0 0.27269391678514099 0.40940408842205978 0 0.26027935348245851 0.39958943436075761 0 0.27272803977081361 0.39301704983851188 0 0.27272803977081361 0.39301704983851188 0 0.2686063906315464 0.38029980437340921 0 0.28643059603138399 0.38650818922451269 0 0.2686063906315464 0.38029980437340921 0 0.28643059603138399 0.38650818922451269 0 0.26848269079356563 0.36671984094077159 0 0.28643059603138399 0.38650818922451269 0 0.26848269079356563 0.36671984094077159 0 0.25782190365108681 0.38500266191309951 0 0.27272803977081361 0.39301704983851188 0 0.2686063906315464 0.38029980437340921 0 0.28643059603138399 0.38650818922451269 0 0.30356649718312401 0.38440741026254638 0 0.28683749003618458 0.36977965039555699 0 0.30437850126920252 0.4062965375082539 0 0.28643059603138399 0.38650818922451269 0 0.28529905891015428 0.40256617253956012 0 0.30437850126920252 0.4062965375082539 0 0.28643059603138399 0.38650818922451269 0 0.27272803977081361 0.39301704983851188 0 0.28643059603138399 0.38650818922451269 0 0.28529905891015428 0.40256617253956012 0 0.30437850126920252 0.4062965375082539 0 0.30356649718312401 0.38440741026254638 0 0.31472733001881992 0.39471107276520462 0 0.30437850126920252 0.4062965375082539 0 0.28643059603138399 0.38650818922451269 0 0.30356649718312401 0.38440741026254638 0 0.30437850126920252 0.4062965375082539 0 0.31472733001881992 0.39471107276520462 0 0.31826127631298601 0.40695797879515588 0 0.30356649718312401 0.38440741026254638 0 0.32121645566082502 0.38058545846033898 0 0.30487425361449499 0.36268686223379359 0 0.30356649718312401 0.38440741026254638 0 0.32121645566082502 0.38058545846033898 0 0.31472733001881992 0.39471107276520462 0 0.32121645566082502 0.38058545846033898 0 0.33210229585353229 0.3842260822289339 0 0.32621391966796209 0.3953079787997279 0 0.32121645566082502 0.38058545846033898 0 0.32621391966796209 0.3953079787997279 0 0.31472733001881992 0.39471107276520462 0 0.32121645566082502 0.38058545846033898 0 0.33210229585353229 0.3842260822289339 0 0.33351993558275939 0.37262028277448378 0 0.33210229585353229 0.3842260822289339 0 0.33577959391482459 0.39263163147215718 0 0.34379682244895299 0.38848187671542261 0 0.33210229585353229 0.3842260822289339 0 0.34317742548078273 0.37875369722152602 0 0.34379682244895299 0.38848187671542261 0 0.33210229585353229 0.3842260822289339 0 0.34317742548078273 0.37875369722152602 0 0.33351993558275939 0.37262028277448378 0 0.33622850769911272 0.40171844933089101 0 0.34289202642355487 0.39685776983267063 0 0.34645362448043748 0.40517813665836422 0 0.34289202642355487 0.39685776983267063 0 0.33577959391482459 0.39263163147215718 0 0.34379682244895299 0.38848187671542261 0 0.33622850769911272 0.40171844933089101 0 0.34289202642355487 0.39685776983267063 0 0.33577959391482459 0.39263163147215718 0 0.33210229585353229 0.3842260822289339 0 0.33577959391482459 0.39263163147215718 0 0.32621391966796209 0.3953079787997279 0 0.33622850769911272 0.40171844933089101 0 0.33577959391482459 0.39263163147215718 0 0.32621391966796209 0.3953079787997279 0 0.33622850769911272 0.40171844933089101 0 0.32621391966796209 0.3953079787997279 0 0.32953020834232249 0.40717746652130182 0 0.32621391966796209 0.3953079787997279 0 0.31826127631298601 0.40695797879515588 0 0.32953020834232249 0.40717746652130182 0 0.32621391966796209 0.3953079787997279 0 0.31472733001881992 0.39471107276520462 0 0.31826127631298601 0.40695797879515588 0 0.30982962526437491 0.41762036957565962 0 0.31826127631298601 0.40695797879515588 0 0.32939500983451941 0.41763574144685789 0 0.30982962526437491 0.41762036957565962 0 0.32939500983451941 0.41763574144685789 0 0.30683156371644232 0.42861619097095932 0 0.30982962526437491 0.41762036957565962 0 0.32939500983451941 0.41763574144685789 0 0.31826127631298601 0.40695797879515588 0 0.32953020834232249 0.40717746652130182 0 0.32939500983451941 0.41763574144685789 0 0.30683156371644232 0.42861619097095932 0 0.32375509616154158 0.43001805953956868 0 0.32939500983451941 0.41763574144685789 0 0.32095259843374713 0.44310472630029568 0 0.30683156371644232 0.42861619097095932 0 0.32375509616154158 0.43001805953956868 0 0.30683156371644232 0.42861619097095932 0 0.32939500983451941 0.41763574144685789 0 0.32095259843374713 0.44310472630029568 0 0.32375509616154158 0.43001805953956868 0 0.33000828360097118 0.43687562973578659 0 0.34245377248576581 0.44091424617219399 0 0.33158802522202752 0.42385800924394251 0 0.34245377248576581 0.44091424617219399 0 0.33158802522202752 0.42385800924394251 0 0.34262651687976559 0.42093202570182547 0 0.34245377248576581 0.44091424617219399 0 0.33000828360097118 0.43687562973578659 0 0.33158802522202752 0.42385800924394251 0 0.34245377248576581 0.44091424617219399 0 0.34262651687976559 0.42093202570182547 0 0.32375509616154158 0.43001805953956868 0 0.33000828360097118 0.43687562973578659 0 0.33158802522202752 0.42385800924394251 0 0.32375509616154158 0.43001805953956868 0 0.33158802522202752 0.42385800924394251 0 0.32939500983451941 0.41763574144685789 0 0.32939500983451941 0.41763574144685789 0 0.35719396282022009 0.41765758215860938 0 0.32939500983451941 0.41763574144685789 0 0.34262651687976559 0.42093202570182547 0 0.35719396282022009 0.41765758215860938 0 0.32939500983451941 0.41763574144685789 0 0.34031529762505941 0.41232140833279651 0 0.35719396282022009 0.41765758215860938 0 0.33622850769911272 0.40171844933089101 0 0.32953020834232249 0.40717746652130182 0 0.34031529762505941 0.41232140833279651 0 0.32953020834232249 0.40717746652130182 0 0.32939500983451941 0.41763574144685789 0 0.34031529762505941 0.41232140833279651 0 0.33158802522202752 0.42385800924394251 0 0.32939500983451941 0.41763574144685789 0 0.34262651687976559 0.42093202570182547 0 0.32939500983451941 0.41763574144685789 0 0.34031529762505941 0.41232140833279651 0 0.33622850769911272 0.40171844933089101 0 0.34031529762505941 0.41232140833279651 0 0.34645362448043748 0.40517813665836422 0 0.34031529762505941 0.41232140833279651 0 0.35719396282022009 0.41765758215860938 0 0.34645362448043748 0.40517813665836422 0 0.35719396282022009 0.41765758215860938 0 0.35743329757792469 0.40759840142825282 0 0.34645362448043748 0.40517813665836422 0 0.35719396282022009 0.41765758215860938 0 0.34645362448043748 0.40517813665836422 0 0.34245377248576581 0.44091424617219399 0 0.34262651687976559 0.42093202570182547 0 0.35435066047913238 0.43276507937342601 0 0.34262651687976559 0.42093202570182547 0 0.35719396282022009 0.41765758215860938 0 0.35435066047913238 0.43276507937342601 0 0.35719396282022009 0.41765758215860938 0 0.37253831474590338 0.43548653666034037 0 0.35719396282022009 0.41765758215860938 0 0.35435066047913238 0.43276507937342601 0 0.37253831474590338 0.43548653666034037 0 0.35719396282022009 0.41765758215860938 0 0.37253831474590338 0.43548653666034037 0 0.37263512358100759 0.41766971376448148 0 0.37263512358100759 0.41766971376448148 0 0.36552146282708092 0.40055327418533559 0 0.38099658063248659 0.40323918451089708 0 0.35743329757792469 0.40759840142825282 0 0.37263512358100759 0.41766971376448148 0 0.36552146282708092 0.40055327418533559 0 0.35719396282022009 0.41765758215860938 0 0.37263512358100759 0.41766971376448148 0 0.35719396282022009 0.41765758215860938 0 0.35743329757792469 0.40759840142825282 0 0.37263512358100759 0.41766971376448148 0 0.36552146282708092 0.40055327418533559 0 0.36460528593267483 0.38449987087582432 0 0.35310066534665657 0.39511327574183042 0 0.36552146282708092 0.40055327418533559 0 0.37238120952571291 0.39348532896574417 0 0.36460528593267483 0.38449987087582432 0 0.36552146282708092 0.40055327418533559 0 0.37238120952571291 0.39348532896574417 0 0.38099658063248659 0.40323918451089708 0 0.36460528593267483 0.38449987087582432 0 0.37980872133630089 0.38482324852666477 0 0.37238120952571291 0.39348532896574417 0 0.36460528593267483 0.38449987087582432 0 0.37980872133630089 0.38482324852666477 0 0.36460528593267483 0.38449987087582432 0 0.36919400944770597 0.37267712336721581 0 0.37980872133630089 0.38482324852666477 0 0.3600242324362542 0.37851657592286719 0 0.36460528593267483 0.38449987087582432 0 0.36919400944770597 0.37267712336721581 0 0.36460528593267483 0.38449987087582432 0 0.35327722899375558 0.38368771630629811 0 0.35310066534665657 0.39511327574183042 0 0.3600242324362542 0.37851657592286719 0 0.35327722899375558 0.38368771630629811 0 0.35302040537088047 0.37320159314213108 0 0.3600242324362542 0.37851657592286719 0 0.36460528593267483 0.38449987087582432 0 0.35327722899375558 0.38368771630629811 0 0.34317742548078273 0.37875369722152602 0 0.35327722899375558 0.38368771630629811 0 0.35302040537088047 0.37320159314213108 0 0.35327722899375558 0.38368771630629811 0 0.34379682244895299 0.38848187671542261 0 0.35310066534665657 0.39511327574183042 0 0.34317742548078273 0.37875369722152602 0 0.35327722899375558 0.38368771630629811 0 0.34379682244895299 0.38848187671542261 0 0.34289202642355487 0.39685776983267063 0 0.34379682244895299 0.38848187671542261 0 0.35310066534665657 0.39511327574183042 0 0.34289202642355487 0.39685776983267063 0 0.34645362448043748 0.40517813665836422 0 0.35310066534665657 0.39511327574183042 0 0.35743329757792469 0.40759840142825282 0 0.36552146282708092 0.40055327418533559 0 0.35310066534665657 0.39511327574183042 0 0.35743329757792469 0.40759840142825282 0 0.34645362448043748 0.40517813665836422 0 0.35310066534665657 0.39511327574183042 0 0.34682963497508862 0.35586506809233742 0 0.36138990915836477 0.35805682184789461 0 0.34337586215548521 0.36020762055692468 0 0.35133735085033568 0.3486037172648741 0 0.36138990915836477 0.35805682184789461 0 0.35708457082267459 0.34195384488769381 0 0.35133735085033568 0.3486037172648741 0 0.3508874017229463 0.3311701865389331 0 0.34049523757260441 0.35597266495751162 0 0.35133735085033568 0.3486037172648741 0 0.34682963497508862 0.35586506809233742 0 0.36138990915836477 0.35805682184789461 0 0.35133735085033568 0.3486037172648741 0 0.34682963497508862 0.35586506809233742 0 0.34049523757260441 0.35597266495751162 0 0.36919400944770597 0.37267712336721581 0 0.36138990915836477 0.35805682184789461 0 0.34337586215548521 0.36020762055692468 0 0.36919400944770597 0.37267712336721581 0 0.34337586215548521 0.36020762055692468 0 0.35302040537088047 0.37320159314213108 0 0.36919400944770597 0.37267712336721581 0 0.34337586215548521 0.36020762055692468 0 0.35302040537088047 0.37320159314213108 0 0.34334786463481559 0.37030463216188669 0 0.34337586215548521 0.36020762055692468 0 0.34317742548078273 0.37875369722152602 0 0.35302040537088047 0.37320159314213108 0 0.34334786463481559 0.37030463216188669 0 0.3600242324362542 0.37851657592286719 0 0.35302040537088047 0.37320159314213108 0 0.36919400944770597 0.37267712336721581 0 0.36919400944770597 0.37267712336721581 0 0.37430332883695422 0.35867341269957492 0 0.36138990915836477 0.35805682184789461 0 0.36138990915836477 0.35805682184789461 0 0.36576233028553462 0.33304381217517481 0 0.35708457082267459 0.34195384488769381 0 0.36138990915836477 0.35805682184789461 0 0.36576233028553462 0.33304381217517481 0 0.36138990915836477 0.35805682184789461 0 0.37301667831521118 0.34711577528834381 0 0.36576233028553462 0.33304381217517481 0 0.37430332883695422 0.35867341269957492 0 0.36138990915836477 0.35805682184789461 0 0.37301667831521118 0.34711577528834381 0 0.37301667831521118 0.34711577528834381 0 0.36576233028553462 0.33304381217517481 0 0.37994430171133392 0.33544338875816959 0 0.36576233028553462 0.33304381217517481 0 0.37591983961542041 0.32242147603143712 0 0.37994430171133392 0.33544338875816959 0 0.36576233028553462 0.33304381217517481 0 0.37013475141270452 0.30803080250245513 0 0.37591983961542041 0.32242147603143712 0 0.36576233028553462 0.33304381217517481 0 0.37013475141270452 0.30803080250245513 0 0.36576233028553462 0.33304381217517481 0 0.36127956587328958 0.30636770812035502 0 0.37013475141270452 0.30803080250245513 0 0.36576233028553462 0.33304381217517481 0 0.3508874017229463 0.3311701865389331 0 0.36127956587328958 0.30636770812035502 0 0.34896918438839658 0.31729859274974809 0 0.3508874017229463 0.3311701865389331 0 0.36127956587328958 0.30636770812035502 0 0.3508874017229463 0.3311701865389331 0 0.36127956587328958 0.30636770812035502 0 0.34896918438839658 0.31729859274974809 0 0.3508874017229463 0.3311701865389331 0 0.33900528632107851 0.32670479229462668 0 0.34896918438839658 0.31729859274974809 0 0.33684701980875592 0.31488860198216628 0 0.35059857293052588 0.3077912477928767 0 0.3508874017229463 0.3311701865389331 0 0.34049523757260441 0.35597266495751162 0 0.35133735085033568 0.3486037172648741 0 0.35708457082267459 0.34195384488769381 0 0.3508874017229463 0.3311701865389331 0 0.36576233028553462 0.33304381217517481 0 0.35708457082267459 0.34195384488769381 0 0.3508874017229463 0.3311701865389331 0 0.3508874017229463 0.3311701865389331 0 0.3363700417931304 0.33966583825322999 0 0.34049523757260441 0.35597266495751162 0 0.3363700417931304 0.33966583825322999 0 0.33900528632107851 0.32670479229462668 0 0.32295472682008552 0.32512612632796961 0 0.3508874017229463 0.3311701865389331 0 0.3363700417931304 0.33966583825322999 0 0.33900528632107851 0.32670479229462668 0 0.33684701980875592 0.31488860198216628 0 0.33900528632107851 0.32670479229462668 0 0.32295472682008552 0.32512612632796961 0 0.34896918438839658 0.31729859274974809 0 0.33684701980875592 0.31488860198216628 0 0.33900528632107851 0.32670479229462668 0 0.33684701980875592 0.31488860198216628 0 0.32295472682008552 0.32512612632796961 0 0.31458304428353978 0.30618276432357011 0 0.32295472682008552 0.32512612632796961 0 0.3196452340747748 0.34145766530026572 0 0.29879523057694513 0.3269426656430201 0 0.3363700417931304 0.33966583825322999 0 0.32295472682008552 0.32512612632796961 0 0.3196452340747748 0.34145766530026572 0 0.3196452340747748 0.34145766530026572 0 0.32395022330109169 0.36266458674527868 0 0.30487425361449499 0.36268686223379359 0 0.3196452340747748 0.34145766530026572 0 0.34049523757260441 0.35597266495751162 0 0.32395022330109169 0.36266458674527868 0 0.3363700417931304 0.33966583825322999 0 0.3196452340747748 0.34145766530026572 0 0.34049523757260441 0.35597266495751162 0 0.3196452340747748 0.34145766530026572 0 0.34049523757260441 0.35597266495751162 0 0.34682963497508862 0.35586506809233742 0 0.34049523757260441 0.35597266495751162 0 0.34337586215548521 0.36020762055692468 0 0.34049523757260441 0.35597266495751162 0 0.33351993558275939 0.37262028277448378 0 0.34049523757260441 0.35597266495751162 0 0.34337586215548521 0.36020762055692468 0 0.33351993558275939 0.37262028277448378 0 0.34049523757260441 0.35597266495751162 0 0.33351993558275939 0.37262028277448378 0 0.32395022330109169 0.36266458674527868 0 0.34334786463481559 0.37030463216188669 0 0.34337586215548521 0.36020762055692468 0 0.33351993558275939 0.37262028277448378 0 0.34317742548078273 0.37875369722152602 0 0.34334786463481559 0.37030463216188669 0 0.33351993558275939 0.37262028277448378 0 0.32121645566082502 0.38058545846033898 0 0.32395022330109169 0.36266458674527868 0 0.30487425361449499 0.36268686223379359 0 0.32121645566082502 0.38058545846033898 0 0.33351993558275939 0.37262028277448378 0 0.32395022330109169 0.36266458674527868 0 0.30356649718312401 0.38440741026254638 0 0.30487425361449499 0.36268686223379359 0 0.28683749003618458 0.36977965039555699 0 0.3196452340747748 0.34145766530026572 0 0.30487425361449499 0.36268686223379359 0 0.29452988043128442 0.34484301358192521 0 0.30487425361449499 0.36268686223379359 0 0.29452988043128442 0.34484301358192521 0 0.28899943946757051 0.35724666072332262 0 0.28899943946757051 0.35724666072332262 0 0.27551711882268087 0.35747890214303579 0 0.27957778557798219 0.34785942156275229 0 0.29452988043128442 0.34484301358192521 0 0.28899943946757051 0.35724666072332262 0 0.27957778557798219 0.34785942156275229 0 0.30487425361449499 0.36268686223379359 0 0.28899943946757051 0.35724666072332262 0 0.28683749003618458 0.36977965039555699 0 0.28899943946757051 0.35724666072332262 0 0.28683749003618458 0.36977965039555699 0 0.27551711882268087 0.35747890214303579 0 0.28643059603138399 0.38650818922451269 0 0.28683749003618458 0.36977965039555699 0 0.26848269079356563 0.36671984094077159 0 0.28683749003618458 0.36977965039555699 0 0.26848269079356563 0.36671984094077159 0 0.27551711882268087 0.35747890214303579 0 0.27551711882268087 0.35747890214303579 0 0.25609553717151962 0.33948775258255742 0 0.27002890647204358 0.34288665359628479 0 0.27551711882268087 0.35747890214303579 0 0.25609553717151962 0.33948775258255742 0 0.27551711882268087 0.35747890214303579 0 0.27957778557798219 0.34785942156275229 0 0.27002890647204358 0.34288665359628479 0 0.26848269079356563 0.36671984094077159 0 0.27551711882268087 0.35747890214303579 0 0.25053478555574732 0.34693149265703049 0 0.27551711882268087 0.35747890214303579 0 0.25053478555574732 0.34693149265703049 0 0.25609553717151962 0.33948775258255742 0 0.26848269079356563 0.36671984094077159 0 0.25053478555574732 0.34693149265703049 0 0.26848269079356563 0.36671984094077159 0 0.25053478555574732 0.34693149265703049 0 0.25458279346296919 0.36065684054664832 0 0.2467928684213696 0.35504984426619662 0 0.25053478555574732 0.34693149265703049 0 0.25458279346296919 0.36065684054664832 0 0.25458279346296919 0.36065684054664832 0 0.25755511223865502 0.37179938211912988 0 0.25086148503025818 0.36791768504038341 0 0.24684450495698829 0.36135141315910069 0 0.25458279346296919 0.36065684054664832 0 0.25086148503025818 0.36791768504038341 0 0.25015794308343509 0.37639538023269642 0 0.25755511223865502 0.37179938211912988 0 0.25086148503025818 0.36791768504038341 0 0.2686063906315464 0.38029980437340921 0 0.26848269079356563 0.36671984094077159 0 0.25755511223865502 0.37179938211912988 0 0.26848269079356563 0.36671984094077159 0 0.25458279346296919 0.36065684054664832 0 0.25755511223865502 0.37179938211912988 0 0.26370847933705099 0.32087329204338988 0 0.25664323506587888 0.32560844525098981 0 0.26289963570094832 0.33011014482523909 0 0.26370847933705099 0.32087329204338988 0 0.25599836769244699 0.32008908978393158 0 0.25664323506587888 0.32560844525098981 0 0.26370847933705099 0.32087329204338988 0 0.25692435183014728 0.31469806639384051 0 0.26164243429153983 0.31073638142567478 0 0.26370847933705099 0.32087329204338988 0 0.25599836769244699 0.32008908978393158 0 0.25692435183014728 0.31469806639384051 0 0.25599836769244699 0.32008908978393158 0 0.25692435183014728 0.31469806639384051 0 0.25181126385540392 0.3158872292956737 0 0.25692435183014728 0.31469806639384051 0 0.25181126385540392 0.3158872292956737 0 0.25517372396781518 0.31007305485058118 0 0.25599836769244699 0.32008908978393158 0 0.25181126385540392 0.3158872292956737 0 0.2519964294110788 0.32181255064985959 0 0.25599836769244699 0.32008908978393158 0 0.2519964294110788 0.32181255064985959 0 0.25664323506587888 0.32560844525098981 0 0.2519964294110788 0.32181255064985959 0 0.25664323506587888 0.32560844525098981 0 0.25012038484626709 0.32780996745395108 0 0.25012038484626709 0.32780996745395108 0 0.25609553717151962 0.33948775258255742 0 0.25796698240991017 0.33189932159706431 0 0.25664323506587888 0.32560844525098981 0 0.25012038484626709 0.32780996745395108 0 0.25796698240991017 0.33189932159706431 0 0.25609553717151962 0.33948775258255742 0 0.26407611926493679 0.33648029787258432 0 0.25796698240991017 0.33189932159706431 0 0.25609553717151962 0.33948775258255742 0 0.26407611926493679 0.33648029787258432 0 0.27002890647204358 0.34288665359628479 0 0.25664323506587888 0.32560844525098981 0 0.25796698240991017 0.33189932159706431 0 0.26289963570094832 0.33011014482523909 0 0.26407611926493679 0.33648029787258432 0 0.25796698240991017 0.33189932159706431 0 0.26289963570094832 0.33011014482523909 0 0.26407611926493679 0.33648029787258432 0 0.26289963570094832 0.33011014482523909 0 0.27452469993110051 0.33211783650765803 0 0.27957778557798219 0.34785942156275229 0 0.27002890647204358 0.34288665359628479 0 0.27452469993110051 0.33211783650765803 0 0.26407611926493679 0.33648029787258432 0 0.27002890647204358 0.34288665359628479 0 0.27452469993110051 0.33211783650765803 0 0.26370847933705099 0.32087329204338988 0 0.27452469993110051 0.33211783650765803 0 0.27794522707911529 0.31242766598577448 0 0.26370847933705099 0.32087329204338988 0 0.27794522707911529 0.31242766598577448 0 0.26164243429153983 0.31073638142567478 0 0.26370847933705099 0.32087329204338988 0 0.26289963570094832 0.33011014482523909 0 0.27452469993110051 0.33211783650765803 0 0.29879523057694513 0.3269426656430201 0 0.29421298808387558 0.30209299440795973 0 0.27794522707911529 0.31242766598577448 0 0.27452469993110051 0.33211783650765803 0 0.29879523057694513 0.3269426656430201 0 0.27794522707911529 0.31242766598577448 0 0.29879523057694513 0.3269426656430201 0 0.27794522707911529 0.31242766598577448 0 0.29452988043128442 0.34484301358192521 0 0.27957778557798219 0.34785942156275229 0 0.27452469993110051 0.33211783650765803 0 0.29452988043128442 0.34484301358192521 0 0.27452469993110051 0.33211783650765803 0 0.29879523057694513 0.3269426656430201 0 0.3196452340747748 0.34145766530026572 0 0.29879523057694513 0.3269426656430201 0 0.3196452340747748 0.34145766530026572 0 0.29452988043128442 0.34484301358192521 0 0.29879523057694513 0.3269426656430201 0 0.32295472682008552 0.32512612632796961 0 0.29879523057694513 0.3269426656430201 0 0.31458304428353978 0.30618276432357011 0 0.30558102548451038 0.2931275120272645 0 0.29421298808387558 0.30209299440795973 0 0.31458304428353978 0.30618276432357011 0 0.29879523057694513 0.3269426656430201 0 0.29421298808387558 0.30209299440795973 0 0.31458304428353978 0.30618276432357011 0 0.30558102548451038 0.2931275120272645 0 0.31713543207111999 0.29138239705693342 0 0.31458304428353978 0.30618276432357011 0 0.30558102548451038 0.2931275120272645 0 0.29725780302012528 0.28283900438327148 0 0.29421298808387558 0.30209299440795973 0 0.31082798744896001 0.282322581171781 0 0.30558102548451038 0.2931275120272645 0 0.31713543207111999 0.29138239705693342 0 0.31082798744896001 0.282322581171781 0 0.30558102548451038 0.2931275120272645 0 0.29725780302012528 0.28283900438327148 0 0.29725780302012528 0.28283900438327148 0 0.28385279804008251 0.29189932985631911 0 0.29421298808387558 0.30209299440795973 0 0.29725780302012528 0.28283900438327148 0 0.28385279804008251 0.29189932985631911 0 0.28313111092062082 0.27643683156156451 0 0.28385279804008251 0.29189932985631911 0 0.29421298808387558 0.30209299440795973 0 0.27794522707911529 0.31242766598577448 0 0.28385279804008251 0.29189932985631911 0 0.27794522707911529 0.31242766598577448 0 0.27043640371253858 0.29409363892773399 0 0.27794522707911529 0.31242766598577448 0 0.26164243429153983 0.31073638142567478 0 0.25872905193911783 0.30027186345053758 0 0.27794522707911529 0.31242766598577448 0 0.27043640371253858 0.29409363892773399 0 0.25709522358128561 0.29791266632852897 0 0.27794522707911529 0.31242766598577448 0 0.25709522358128561 0.29791266632852897 0 0.28385279804008251 0.29189932985631911 0 0.27309811703767523 0.28397145974461802 0 0.27043640371253858 0.29409363892773399 0 0.28385279804008251 0.29189932985631911 0 0.27309811703767523 0.28397145974461802 0 0.28313111092062082 0.27643683156156451 0 0.27309811703767523 0.28397145974461802 0 0.27043640371253858 0.29409363892773399 0 0.26019065282453452 0.28425707272342943 0 0.27043640371253858 0.29409363892773399 0 0.26019065282453452 0.28425707272342943 0 0.25709522358128561 0.29791266632852897 0 0.24528890164892619 0.28086470618583631 0 0.26019065282453452 0.28425707272342943 0 0.25709522358128561 0.29791266632852897 0 0.24528890164892619 0.28086470618583631 0 0.25709522358128561 0.29791266632852897 0 0.27794522707911529 0.31242766598577448 0 0.25709522358128561 0.29791266632852897 0 0.25872905193911783 0.30027186345053758 0 0.25709522358128561 0.29791266632852897 0 0.25204943857301709 0.30347311497133989 0 0.25872905193911783 0.30027186345053758 0 0.25204943857301709 0.30347311497133989 0 0.2568986621928725 0.30613860367453338 0 0.25872905193911783 0.30027186345053758 0 0.24591462716611359 0.31029372467315858 0 0.25181126385540392 0.3158872292956737 0 0.25517372396781518 0.31007305485058118 0 0.24591462716611359 0.31029372467315858 0 0.25204943857301709 0.30347311497133989 0 0.25517372396781518 0.31007305485058118 0 0.25204943857301709 0.30347311497133989 0 0.25517372396781518 0.31007305485058118 0 0.2568986621928725 0.30613860367453338 0 0.2568986621928725 0.30613860367453338 0 0.26164243429153983 0.31073638142567478 0 0.25872905193911783 0.30027186345053758 0 0.25692435183014728 0.31469806639384051 0 0.25517372396781518 0.31007305485058118 0 0.26164243429153983 0.31073638142567478 0 0.25517372396781518 0.31007305485058118 0 0.2568986621928725 0.30613860367453338 0 0.26164243429153983 0.31073638142567478 0 0.25709522358128561 0.29791266632852897 0 0.25872905193911783 0.30027186345053758 0 0.2480693896173545 0.25691267053065481 0 0.26479858358752228 0.25933649802632169 0 0.25578546138992581 0.27108671434900022 0 0.2480693896173545 0.25691267053065481 0 0.26479858358752228 0.25933649802632169 0 0.25916419269841368 0.24538229102785139 0 0.24528890164892619 0.28086470618583631 0 0.26019065282453452 0.28425707272342943 0 0.25578546138992581 0.27108671434900022 0 0.26019065282453452 0.28425707272342943 0 0.25578546138992581 0.27108671434900022 0 0.26819038104424747 0.27221319894403412 0 0.26479858358752228 0.25933649802632169 0 0.25578546138992581 0.27108671434900022 0 0.26819038104424747 0.27221319894403412 0 0.27309811703767523 0.28397145974461802 0 0.26019065282453452 0.28425707272342943 0 0.26819038104424747 0.27221319894403412 0 0.27309811703767523 0.28397145974461802 0 0.26819038104424747 0.27221319894403412 0 0.28313111092062082 0.27643683156156451 0 0.26819038104424747 0.27221319894403412 0 0.27987694588243939 0.26210520192831849 0 0.28313111092062082 0.27643683156156451 0 0.26479858358752228 0.25933649802632169 0 0.27987694588243939 0.26210520192831849 0 0.27512345585407538 0.2463025367310307 0 0.26479858358752228 0.25933649802632169 0 0.27512345585407538 0.2463025367310307 0 0.25916419269841368 0.24538229102785139 0 0.26479858358752228 0.25933649802632169 0 0.26819038104424747 0.27221319894403412 0 0.27987694588243939 0.26210520192831849 0 0.27987694588243939 0.26210520192831849 0 0.29651062049915528 0.26559279451282641 0 0.29005194844804699 0.23849299082461689 0 0.29725780302012528 0.28283900438327148 0 0.29651062049915528 0.26559279451282641 0 0.28313111092062082 0.27643683156156451 0 0.27987694588243939 0.26210520192831849 0 0.29651062049915528 0.26559279451282641 0 0.28313111092062082 0.27643683156156451 0 0.29725780302012528 0.28283900438327148 0 0.29651062049915528 0.26559279451282641 0 0.30657316058200729 0.27032752800880189 0 0.30657316058200729 0.27032752800880189 0 0.31443772372117962 0.26395809857832991 0 0.31631984153786902 0.27305208209789988 0 0.31082798744896001 0.282322581171781 0 0.29725780302012528 0.28283900438327148 0 0.30657316058200729 0.27032752800880189 0 0.31082798744896001 0.282322581171781 0 0.30657316058200729 0.27032752800880189 0 0.31631984153786902 0.27305208209789988 0 0.29651062049915528 0.26559279451282641 0 0.3083100152658747 0.25294123855744932 0 0.29005194844804699 0.23849299082461689 0 0.30657316058200729 0.27032752800880189 0 0.3083100152658747 0.25294123855744932 0 0.31443772372117962 0.26395809857832991 0 0.29651062049915528 0.26559279451282641 0 0.30657316058200729 0.27032752800880189 0 0.3083100152658747 0.25294123855744932 0 0.32656808208370192 0.2673894862902822 0 0.3215627720717773 0.2390234467512414 0 0.3083100152658747 0.25294123855744932 0 0.31443772372117962 0.26395809857832991 0 0.32656808208370192 0.2673894862902822 0 0.3083100152658747 0.25294123855744932 0 0.32656808208370192 0.2673894862902822 0 0.3083100152658747 0.25294123855744932 0 0.32656808208370192 0.2673894862902822 0 0.3215627720717773 0.2390234467512414 0 0.32656808208370192 0.2673894862902822 0 0.33693281645895012 0.2434646213280616 0 0.33610201042620752 0.25663172002063311 0 0.32656808208370192 0.2673894862902822 0 0.33693281645895012 0.2434646213280616 0 0.33507439186364968 0.26354745331343388 0 0.33610201042620752 0.25663172002063311 0 0.32656808208370192 0.2673894862902822 0 0.33507439186364968 0.26354745331343388 0 0.34142609135805291 0.25803748200745902 0 0.33610201042620752 0.25663172002063311 0 0.33507439186364968 0.26354745331343388 0 0.34117070479473571 0.26548560031076412 0 0.34142609135805291 0.25803748200745902 0 0.34117070479473571 0.26548560031076412 0 0.34142609135805291 0.25803748200745902 0 0.34785909665485287 0.26320584096942168 0 0.34035687143163951 0.25120624042459933 0 0.33610201042620752 0.25663172002063311 0 0.33693281645895012 0.2434646213280616 0 0.34142609135805291 0.25803748200745902 0 0.34035687143163951 0.25120624042459933 0 0.34778673323924031 0.24958637436864911 0 0.34142609135805291 0.25803748200745902 0 0.34035687143163951 0.25120624042459933 0 0.33610201042620752 0.25663172002063311 0 0.32856474726350871 0.26896951737709951 0 0.32656808208370192 0.2673894862902822 0 0.33212957376472341 0.29147300557318112 0 0.32656808208370192 0.2673894862902822 0 0.33212957376472341 0.29147300557318112 0 0.34250919425360599 0.27927980967635407 0 0.33567151840016402 0.27111530184105709 0 0.33212957376472341 0.29147300557318112 0 0.33567151840016402 0.27111530184105709 0 0.32856474726350871 0.26896951737709951 0 0.33212957376472341 0.29147300557318112 0 0.34250919425360599 0.27927980967635407 0 0.33567151840016402 0.27111530184105709 0 0.3458224256969587 0.27152192342244852 0 0.34117070479473571 0.26548560031076412 0 0.33567151840016402 0.27111530184105709 0 0.3458224256969587 0.27152192342244852 0 0.33507439186364968 0.26354745331343388 0 0.34117070479473571 0.26548560031076412 0 0.33567151840016402 0.27111530184105709 0 0.33507439186364968 0.26354745331343388 0 0.32975786879454783 0.26693814251326747 0 0.32656808208370192 0.2673894862902822 0 0.33507439186364968 0.26354745331343388 0 0.33567151840016402 0.27111530184105709 0 0.32975786879454783 0.26693814251326747 0 0.33567151840016402 0.27111530184105709 0 0.32856474726350871 0.26896951737709951 0 0.32975786879454783 0.26693814251326747 0 0.32856474726350871 0.26896951737709951 0 0.32975786879454783 0.26693814251326747 0 0.32816232362026099 0.26730663043913411 0 0.32975786879454783 0.26693814251326747 0 0.32816232362026099 0.26730663043913411 0 0.32656808208370192 0.2673894862902822 0 0.32656808208370192 0.2673894862902822 0 0.32523762924458538 0.27046056398142071 0 0.32391027560887392 0.28253240470331442 0 0.32656808208370192 0.2673894862902822 0 0.32391027560887392 0.28253240470331442 0 0.33212957376472341 0.29147300557318112 0 0.32523762924458538 0.27046056398142071 0 0.31631984153786902 0.27305208209789988 0 0.32391027560887392 0.28253240470331442 0 0.31443772372117962 0.26395809857832991 0 0.32656808208370192 0.2673894862902822 0 0.3206408191468334 0.2687150577369829 0 0.32523762924458538 0.27046056398142071 0 0.3206408191468334 0.2687150577369829 0 0.31631984153786902 0.27305208209789988 0 0.32856474726350871 0.26896951737709951 0 0.32816232362026099 0.26730663043913411 0 0.32656808208370192 0.2673894862902822 0 0.32856474726350871 0.26896951737709951 0 0.32656808208370192 0.2673894862902822 0 0.32656808208370192 0.2673894862902822 0 0.32523762924458538 0.27046056398142071 0 0.32656808208370192 0.2673894862902822 0 0.32523762924458538 0.27046056398142071 0 0.3206408191468334 0.2687150577369829 0 0.31443772372117962 0.26395809857832991 0 0.3206408191468334 0.2687150577369829 0 0.31631984153786902 0.27305208209789988 0 0.31082798744896001 0.282322581171781 0 0.31631984153786902 0.27305208209789988 0 0.32391027560887392 0.28253240470331442 0 0.31713543207111999 0.29138239705693342 0 0.31458304428353978 0.30618276432357011 0 0.33212957376472341 0.29147300557318112 0 0.31082798744896001 0.282322581171781 0 0.31713543207111999 0.29138239705693342 0 0.32391027560887392 0.28253240470331442 0 0.31713543207111999 0.29138239705693342 0 0.32391027560887392 0.28253240470331442 0 0.33212957376472341 0.29147300557318112 0 0.33684701980875592 0.31488860198216628 0 0.31458304428353978 0.30618276432357011 0 0.33212957376472341 0.29147300557318112 0 0.33684701980875592 0.31488860198216628 0 0.33212957376472341 0.29147300557318112 0 0.33684701980875592 0.31488860198216628 0 0.33212957376472341 0.29147300557318112 0 0.34423728901825312 0.30074802859933558 0 0.33212957376472341 0.29147300557318112 0 0.34682633015113412 0.28956813685021032 0 0.34423728901825312 0.30074802859933558 0 0.34250919425360599 0.27927980967635407 0 0.33212957376472341 0.29147300557318112 0 0.34682633015113412 0.28956813685021032 0 0.34682633015113412 0.28956813685021032 0 0.3533306809857677 0.2844270025663036 0 0.3493738461133678 0.2796057157497458 0 0.34250919425360599 0.27927980967635407 0 0.34682633015113412 0.28956813685021032 0 0.3493738461133678 0.2796057157497458 0 0.34682633015113412 0.28956813685021032 0 0.34423728901825312 0.30074802859933558 0 0.35250348081400268 0.29909324394917419 0 0.34682633015113412 0.28956813685021032 0 0.3576680784405748 0.29087441847400952 0 0.35250348081400268 0.29909324394917419 0 0.34682633015113412 0.28956813685021032 0 0.3576680784405748 0.29087441847400952 0 0.3533306809857677 0.2844270025663036 0 0.3576680784405748 0.29087441847400952 0 0.35824495993453009 0.28439709835443372 0 0.3533306809857677 0.2844270025663036 0 0.35824495993453009 0.28439709835443372 0 0.3533306809857677 0.2844270025663036 0 0.35609317955534242 0.27924805320503893 0 0.35824495993453009 0.28439709835443372 0 0.36204496978594908 0.2801946263865831 0 0.35609317955534242 0.27924805320503893 0 0.33684701980875592 0.31488860198216628 0 0.35059857293052588 0.3077912477928767 0 0.34423728901825312 0.30074802859933558 0 0.35059857293052588 0.3077912477928767 0 0.34423728901825312 0.30074802859933558 0 0.35250348081400268 0.29909324394917419 0 0.35059857293052588 0.3077912477928767 0 0.35250348081400268 0.29909324394917419 0 0.36127956587328958 0.30636770812035502 0 0.3576680784405748 0.29087441847400952 0 0.35250348081400268 0.29909324394917419 0 0.36127956587328958 0.30636770812035502 0 0.34896918438839658 0.31729859274974809 0 0.35059857293052588 0.3077912477928767 0 0.36127956587328958 0.30636770812035502 0 0.36127956587328958 0.30636770812035502 0 0.37013475141270452 0.30803080250245513 0 0.37450717253987431 0.28301779282973522 0 0.36127956587328958 0.30636770812035502 0 0.37167173002363291 0.281565229701777 0 0.37013475141270452 0.30803080250245513 0 0.37450717253987431 0.28301779282973522 0 0.3576680784405748 0.29087441847400952 0 0.36127956587328958 0.30636770812035502 0 0.36402365406309672 0.28938657375141358 0 0.36127956587328958 0.30636770812035502 0 0.36402365406309672 0.28938657375141358 0 0.37167173002363291 0.281565229701777 0 0.37013475141270452 0.30803080250245513 0 0.37450717253987431 0.28301779282973522 0 0.37681412097063283 0.29298523013575312 0 0.36127956587328958 0.30636770812035502 0 0.37450717253987431 0.28301779282973522 0 0.37167173002363291 0.281565229701777 0 0.36588192375517198 0.28246157488029372 0 0.36242729604692192 0.28535012899656859 0 0.36402365406309672 0.28938657375141358 0 0.36588192375517198 0.28246157488029372 0 0.36242729604692192 0.28535012899656859 0 0.36204496978594908 0.2801946263865831 0 0.35824495993453009 0.28439709835443372 0 0.36242729604692192 0.28535012899656859 0 0.36204496978594908 0.2801946263865831 0 0.3576680784405748 0.29087441847400952 0 0.36242729604692192 0.28535012899656859 0 0.36402365406309672 0.28938657375141358 0 0.3576680784405748 0.29087441847400952 0 0.35824495993453009 0.28439709835443372 0 0.36242729604692192 0.28535012899656859 0 0.36588192375517198 0.28246157488029372 0 0.36402365406309672 0.28938657375141358 0 0.37167173002363291 0.281565229701777 0 0.37450717253987431 0.28301779282973522 0 0.37167173002363291 0.281565229701777 0 0.36735262731356738 0.27511905999517522 0 0.37450717253987431 0.28301779282973522 0 0.36735262731356738 0.27511905999517522 0 0.36734801484641261 0.26735969592126108 0 0.37450717253987431 0.28301779282973522 0 0.36734801484641261 0.26735969592126108 0 0.3788795936670441 0.25800478315701542 0 0.36588192375517198 0.28246157488029372 0 0.37167173002363291 0.281565229701777 0 0.36735262731356738 0.27511905999517522 0 0.36588192375517198 0.28246157488029372 0 0.36735262731356738 0.27511905999517522 0 0.36204496978594908 0.2801946263865831 0 0.36735262731356738 0.27511905999517522 0 0.36204496978594908 0.2801946263865831 0 0.35970116062877788 0.27271093209819208 0 0.35970116062877788 0.27271093209819208 0 0.36734801484641261 0.26735969592126108 0 0.35726819356649892 0.26014919129604158 0 0.36735262731356738 0.27511905999517522 0 0.35970116062877788 0.27271093209819208 0 0.36734801484641261 0.26735969592126108 0 0.36613357719467671 0.25453914141910888 0 0.3788795936670441 0.25800478315701542 0 0.37102660984626401 0.23925257198647151 0 0.36613357719467671 0.25453914141910888 0 0.35726819356649892 0.26014919129604158 0 0.35924901423308142 0.244261847178849 0 0.36734801484641261 0.26735969592126108 0 0.36613357719467671 0.25453914141910888 0 0.3788795936670441 0.25800478315701542 0 0.36734801484641261 0.26735969592126108 0 0.36613357719467671 0.25453914141910888 0 0.35726819356649892 0.26014919129604158 0 0.35726819356649892 0.26014919129604158 0 0.34785909665485287 0.26320584096942168 0 0.35241892573918371 0.26832240020067388 0 0.35726819356649892 0.26014919129604158 0 0.35924901423308142 0.244261847178849 0 0.34778673323924031 0.24958637436864911 0 0.34142609135805291 0.25803748200745902 0 0.34785909665485287 0.26320584096942168 0 0.34778673323924031 0.24958637436864911 0 0.35726819356649892 0.26014919129604158 0 0.34785909665485287 0.26320584096942168 0 0.34778673323924031 0.24958637436864911 0 0.34117070479473571 0.26548560031076412 0 0.34785909665485287 0.26320584096942168 0 0.3458224256969587 0.27152192342244852 0 0.34785909665485287 0.26320584096942168 0 0.3458224256969587 0.27152192342244852 0 0.35241892573918371 0.26832240020067388 0 0.3458224256969587 0.27152192342244852 0 0.35292775130915499 0.27435277415538328 0 0.35241892573918371 0.26832240020067388 0 0.3458224256969587 0.27152192342244852 0 0.3493738461133678 0.2796057157497458 0 0.35292775130915499 0.27435277415538328 0 0.34250919425360599 0.27927980967635407 0 0.3458224256969587 0.27152192342244852 0 0.3493738461133678 0.2796057157497458 0 0.3533306809857677 0.2844270025663036 0 0.3493738461133678 0.2796057157497458 0 0.35609317955534242 0.27924805320503893 0 0.3493738461133678 0.2796057157497458 0 0.35292775130915499 0.27435277415538328 0 0.35609317955534242 0.27924805320503893 0 0.36204496978594908 0.2801946263865831 0 0.35970116062877788 0.27271093209819208 0 0.35609317955534242 0.27924805320503893 0 0.35970116062877788 0.27271093209819208 0 0.35292775130915499 0.27435277415538328 0 0.35609317955534242 0.27924805320503893 0 0.35970116062877788 0.27271093209819208 0 0.35726819356649892 0.26014919129604158 0 0.35241892573918371 0.26832240020067388 0 0.35970116062877788 0.27271093209819208 0 0.35292775130915499 0.27435277415538328 0 0.35241892573918371 0.26832240020067388 0 0.39813048291819192 0.27019058895497322 0 0.40435978175028792 0.28843052108194439 0 0.41244736722265679 0.27636542968211408 0 0.39813048291819192 0.27019058895497322 0 0.38869435581080708 0.283865679095965 0 0.40435978175028792 0.28843052108194439 0 0.39813048291819192 0.27019058895497322 0 0.3788795936670441 0.25800478315701542 0 0.40271910907510888 0.2488673347769414 0 0.39813048291819192 0.27019058895497322 0 0.41764542718711029 0.26327596438309608 0 0.40271910907510888 0.2488673347769414 0 0.39813048291819192 0.27019058895497322 0 0.3788795936670441 0.25800478315701542 0 0.38306244164277198 0.27162463686589572 0 0.37450717253987431 0.28301779282973522 0 0.3788795936670441 0.25800478315701542 0 0.37450717253987431 0.28301779282973522 0 0.3788795936670441 0.25800478315701542 0 0.38306244164277198 0.27162463686589572 0 0.39813048291819192 0.27019058895497322 0 0.38306244164277198 0.27162463686589572 0 0.38869435581080708 0.283865679095965 0 0.38306244164277198 0.27162463686589572 0 0.38176956213283558 0.28110823010920932 0 0.38869435581080708 0.283865679095965 0 0.37450717253987431 0.28301779282973522 0 0.38306244164277198 0.27162463686589572 0 0.38176956213283558 0.28110823010920932 0 0.37450717253987431 0.28301779282973522 0 0.38081427853788902 0.28592481164524158 0 0.37681412097063283 0.29298523013575312 0 0.37450717253987431 0.28301779282973522 0 0.38176956213283558 0.28110823010920932 0 0.38081427853788902 0.28592481164524158 0 0.38081427853788902 0.28592481164524158 0 0.37681412097063283 0.29298523013575312 0 0.38180028139206368 0.29496751356558049 0 0.38180028139206368 0.29496751356558049 0 0.38869435581080708 0.283865679095965 0 0.39336269594347689 0.29799197475127409 0 0.38081427853788902 0.28592481164524158 0 0.38180028139206368 0.29496751356558049 0 0.38869435581080708 0.283865679095965 0 0.38176956213283558 0.28110823010920932 0 0.38081427853788902 0.28592481164524158 0 0.38869435581080708 0.283865679095965 0 0.37013475141270452 0.30803080250245513 0 0.38302822867031622 0.30515474839747619 0 0.38175000217283911 0.31419142360762131 0 0.37013475141270452 0.30803080250245513 0 0.37681412097063283 0.29298523013575312 0 0.38180028139206368 0.29496751356558049 0 0.37013475141270452 0.30803080250245513 0 0.38180028139206368 0.29496751356558049 0 0.38302822867031622 0.30515474839747619 0 0.38180028139206368 0.29496751356558049 0 0.38302822867031622 0.30515474839747619 0 0.39336269594347689 0.29799197475127409 0 0.38302822867031622 0.30515474839747619 0 0.3922718737546933 0.31167567000331609 0 0.38175000217283911 0.31419142360762131 0 0.38302822867031622 0.30515474839747619 0 0.3922718737546933 0.31167567000331609 0 0.39336269594347689 0.29799197475127409 0 0.3922718737546933 0.31167567000331609 0 0.39336269594347689 0.29799197475127409 0 0.41343658685629509 0.30395281747074171 0 0.39336269594347689 0.29799197475127409 0 0.40435978175028792 0.28843052108194439 0 0.41343658685629509 0.30395281747074171 0 0.38869435581080708 0.283865679095965 0 0.39336269594347689 0.29799197475127409 0 0.40435978175028792 0.28843052108194439 0 0.41343658685629509 0.30395281747074171 0 0.42596435773501762 0.28215894421758247 0 0.40435978175028792 0.28843052108194439 0 0.42596435773501762 0.28215894421758247 0 0.41244736722265679 0.27636542968211408 0 0.40435978175028792 0.28843052108194439 0 0.41343658685629509 0.30395281747074171 0 0.42596435773501762 0.28215894421758247 0 0.4305148699217195 0.29611593222970162 0 0.4446042659817418 0.30023826096423889 0 0.43624503196907471 0.32365621541639911 0 0.41343658685629509 0.30395281747074171 0 0.4305148699217195 0.29611593222970162 0 0.43624503196907471 0.32365621541639911 0 0.41343658685629509 0.30395281747074171 0 0.42596435773501762 0.28215894421758247 0 0.4305148699217195 0.29611593222970162 0 0.42596435773501762 0.28215894421758247 0 0.4305148699217195 0.29611593222970162 0 0.44086058262508598 0.28570099563886331 0 0.42596435773501762 0.28215894421758247 0 0.43849212861374032 0.26036507096442352 0 0.43816394371048373 0.27093361988081011 0 0.42596435773501762 0.28215894421758247 0 0.41764542718711029 0.26327596438309608 0 0.43849212861374032 0.26036507096442352 0 0.42596435773501762 0.28215894421758247 0 0.43849212861374032 0.26036507096442352 0 0.42596435773501762 0.28215894421758247 0 0.43816394371048373 0.27093361988081011 0 0.44086058262508598 0.28570099563886331 0 0.42596435773501762 0.28215894421758247 0 0.41244736722265679 0.27636542968211408 0 0.41764542718711029 0.26327596438309608 0 0.39813048291819192 0.27019058895497322 0 0.41244736722265679 0.27636542968211408 0 0.41764542718711029 0.26327596438309608 0 0.41764542718711029 0.26327596438309608 0 0.40271910907510888 0.2488673347769414 0 0.42357869181305041 0.24340716774122159 0 0.43849212861374032 0.26036507096442352 0 0.4371524055486643 0.24630088829334601 0 0.42357869181305041 0.24340716774122159 0 0.41764542718711029 0.26327596438309608 0 0.43849212861374032 0.26036507096442352 0 0.42357869181305041 0.24340716774122159 0 0.43849212861374032 0.26036507096442352 0 0.42357869181305041 0.24340716774122159 0 0.44273741397019861 0.26519233775689621 0 0.45705306047764871 0.24722126530684749 0 0.43849212861374032 0.26036507096442352 0 0.44273741397019861 0.26519233775689621 0 0.45705306047764871 0.24722126530684749 0 0.43849212861374032 0.26036507096442352 0 0.44951841264914738 0.2411832517048503 0 0.44273741397019861 0.26519233775689621 0 0.45951313538030952 0.25847184744120549 0 0.45705306047764871 0.24722126530684749 0 0.43849212861374032 0.26036507096442352 0 0.44273741397019861 0.26519233775689621 0 0.43816394371048373 0.27093361988081011 0 0.43849212861374032 0.26036507096442352 0 0.44273741397019861 0.26519233775689621 0 0.44273741397019861 0.26519233775689621 0 0.45296349999440988 0.27682030651207901 0 0.45951313538030952 0.25847184744120549 0 0.44413316153222882 0.27747349538896338 0 0.43816394371048373 0.27093361988081011 0 0.44086058262508598 0.28570099563886331 0 0.44273741397019861 0.26519233775689621 0 0.44413316153222882 0.27747349538896338 0 0.43816394371048373 0.27093361988081011 0 0.44273741397019861 0.26519233775689621 0 0.43816394371048373 0.27093361988081011 0 0.44273741397019861 0.26519233775689621 0 0.44413316153222882 0.27747349538896338 0 0.45296349999440988 0.27682030651207901 0 0.44273741397019861 0.26519233775689621 0 0.45296349999440988 0.27682030651207901 0 0.44413316153222882 0.27747349538896338 0 0.45296349999440988 0.27682030651207901 0 0.44086058262508598 0.28570099563886331 0 0.46510196950813448 0.27081003136591292 0 0.47978271243604548 0.28471299033089331 0 0.45759003224709799 0.28208108491269729 0 0.45296349999440988 0.27682030651207901 0 0.45951313538030952 0.25847184744120549 0 0.45296349999440988 0.27682030651207901 0 0.46510196950813448 0.27081003136591292 0 0.45951313538030952 0.25847184744120549 0 0.45296349999440988 0.27682030651207901 0 0.46510196950813448 0.27081003136591292 0 0.45759003224709799 0.28208108491269729 0 0.45296349999440988 0.27682030651207901 0 0.45759003224709799 0.28208108491269729 0 0.46510196950813448 0.27081003136591292 0 0.45951313538030952 0.25847184744120549 0 0.4712224033741923 0.25970797940624868 0 0.45951313538030952 0.25847184744120549 0 0.46695963389532219 0.25094932758018068 0 0.4712224033741923 0.25970797940624868 0 0.45951313538030952 0.25847184744120549 0 0.46695963389532219 0.25094932758018068 0 0.45705306047764871 0.24722126530684749 0 0.46695963389532219 0.25094932758018068 0 0.48001501526039331 0.250742014252193 0 0.4712224033741923 0.25970797940624868 0 0.48001501526039331 0.250742014252193 0 0.4712224033741923 0.25970797940624868 0 0.48282818953725642 0.26654445183280429 0 0.46510196950813448 0.27081003136591292 0 0.4712224033741923 0.25970797940624868 0 0.48282818953725642 0.26654445183280429 0 0.46510196950813448 0.27081003136591292 0 0.48282818953725642 0.26654445183280429 0 0.47978271243604548 0.28471299033089331 0 0.48282818953725642 0.26654445183280429 0 0.49999999999999889 0.28100794042592248 0 0.5 0.25177464293618179 0 0.48282818953725642 0.26654445183280429 0 0.49999999999999889 0.28100794042592248 0 0.47978271243604548 0.28471299033089331 0 0.48001501526039331 0.250742014252193 0 0.48282818953725642 0.26654445183280429 0 0.5 0.25177464293618179 0 0.4846489433822424 0.31018507429480441 0 0.5 0.30419995048187692 0 0.48733903750174662 0.29591644142894319 0 0.49999999999999889 0.28100794042592248 0 0.47978271243604548 0.28471299033089331 0 0.49999999999999889 0.28100794042592248 0 0.5 0.30419995048187692 0 0.48733903750174662 0.29591644142894319 0 0.49999999999999889 0.28100794042592248 0 0.48733903750174662 0.29591644142894319 0 0.47978271243604548 0.28471299033089331 0 0.47978271243604548 0.28471299033089331 0 0.47226353169044483 0.29947625161121871 0 0.45956542487209218 0.28841804023586443 0 0.48733903750174662 0.29591644142894319 0 0.47978271243604548 0.28471299033089331 0 0.47226353169044483 0.29947625161121871 0 0.47978271243604548 0.28471299033089331 0 0.45956542487209218 0.28841804023586443 0 0.4846489433822424 0.31018507429480441 0 0.48733903750174662 0.29591644142894319 0 0.47226353169044483 0.29947625161121871 0 0.4846489433822424 0.31018507429480441 0 0.47226353169044483 0.29947625161121871 0 0.4696644895695723 0.31289548743931311 0 0.47226353169044483 0.29947625161121871 0 0.45886943273462538 0.30259891474752182 0 0.4696644895695723 0.31289548743931311 0 0.45886943273462538 0.30259891474752182 0 0.4550701176037748 0.31610047366593003 0 0.4696644895695723 0.31289548743931311 0 0.45886943273462538 0.30259891474752182 0 0.45956542487209218 0.28841804023586443 0 0.4446042659817418 0.30023826096423889 0 0.47978271243604548 0.28471299033089331 0 0.45956542487209218 0.28841804023586443 0 0.45759003224709799 0.28208108491269729 0 0.45956542487209218 0.28841804023586443 0 0.45759003224709799 0.28208108491269729 0 0.4446042659817418 0.30023826096423889 0 0.47226353169044483 0.29947625161121871 0 0.45886943273462538 0.30259891474752182 0 0.45956542487209218 0.28841804023586443 0 0.45296349999440988 0.27682030651207901 0 0.45759003224709799 0.28208108491269729 0 0.4446042659817418 0.30023826096423889 0 0.45296349999440988 0.27682030651207901 0 0.44086058262508598 0.28570099563886331 0 0.4446042659817418 0.30023826096423889 0 0.45296349999440988 0.27682030651207901 0 0.4446042659817418 0.30023826096423889 0 0.4305148699217195 0.29611593222970162 0 0.44086058262508598 0.28570099563886331 0 0.4446042659817418 0.30023826096423889 0 0.45886943273462538 0.30259891474752182 0 0.4446042659817418 0.30023826096423889 0 0.4550701176037748 0.31610047366593003 0 0.4446042659817418 0.30023826096423889 0 0.43624503196907471 0.32365621541639911 0 0.4446042659817418 0.30023826096423889 0 0.4550701176037748 0.31610047366593003 0 0.43624503196907471 0.32365621541639911 0 0.45514926559881552 0.33028654933269991 0 0.4550701176037748 0.31610047366593003 0 0.43624503196907471 0.32365621541639911 0 0.44470663094253599 0.33738086625650371 0 0.45514926559881552 0.33028654933269991 0 0.43624503196907471 0.32365621541639911 0 0.44470663094253599 0.33738086625650371 0 0.45601932912594101 0.34258479370567341 0 0.45514926559881552 0.33028654933269991 0 0.44470663094253599 0.33738086625650371 0 0.45601932912594101 0.34258479370567341 0 0.44369674102144607 0.34903538837030229 0 0.45601932912594101 0.34258479370567341 0 0.46728847809157592 0.32886649618450642 0 0.46836427299285449 0.34534294188021808 0 0.45601932912594101 0.34258479370567341 0 0.45514926559881552 0.33028654933269991 0 0.46728847809157592 0.32886649618450642 0 0.46728847809157592 0.32886649618450642 0 0.4550701176037748 0.31610047366593003 0 0.4696644895695723 0.31289548743931311 0 0.45514926559881552 0.33028654933269991 0 0.46728847809157592 0.32886649618450642 0 0.4550701176037748 0.31610047366593003 0 0.46728847809157592 0.32886649618450642 0 0.4696644895695723 0.31289548743931311 0 0.48025051751494668 0.32178194989051462 0 0.4846489433822424 0.31018507429480441 0 0.4696644895695723 0.31289548743931311 0 0.48025051751494668 0.32178194989051462 0 0.46728847809157592 0.32886649618450642 0 0.48025051751494668 0.32178194989051462 0 0.48093109433849479 0.33296673460840409 0 0.46728847809157592 0.32886649618450642 0 0.48093109433849479 0.33296673460840409 0 0.46836427299285449 0.34534294188021808 0 0.48093109433849479 0.33296673460840409 0 0.48846823509187992 0.34287979293620408 0 0.46836427299285449 0.34534294188021808 0 0.48846823509187992 0.34287979293620408 0 0.5 0.32739196053783132 0 0.50000000000000389 0.35058397059378571 0 0.48093109433849479 0.33296673460840409 0 0.48846823509187992 0.34287979293620408 0 0.5 0.32739196053783132 0 0.48025051751494668 0.32178194989051462 0 0.48093109433849479 0.33296673460840409 0 0.5 0.32739196053783132 0 0.4846489433822424 0.31018507429480441 0 0.5 0.30419995048187692 0 0.5 0.32739196053783132 0 0.4846489433822424 0.31018507429480441 0 0.48025051751494668 0.32178194989051462 0 0.5 0.32739196053783132 0 0.48617070540070417 0.36565403402469621 0 0.49999999999999972 0.36493176322328108 0 0.49118579020880943 0.38733319335763589 0 0.48617070540070417 0.36565403402469621 0 0.49999999999999972 0.36493176322328108 0 0.50000000000000389 0.35058397059378571 0 0.50000000000000389 0.35058397059378571 0 0.47954314698923589 0.3534948180250006 0 0.48846823509187992 0.34287979293620408 0 0.50000000000000389 0.35058397059378571 0 0.47954314698923589 0.3534948180250006 0 0.48617070540070417 0.36565403402469621 0 0.50000000000000389 0.35058397059378571 0 0.47954314698923589 0.3534948180250006 0 0.47954314698923589 0.3534948180250006 0 0.45908629397846762 0.35640566545621372 0 0.47954314698923589 0.3534948180250006 0 0.46836427299285449 0.34534294188021808 0 0.45908629397846762 0.35640566545621372 0 0.48846823509187992 0.34287979293620408 0 0.47954314698923589 0.3534948180250006 0 0.46836427299285449 0.34534294188021808 0 0.48617070540070417 0.36565403402469621 0 0.46787958074356351 0.36951841739396291 0 0.48089354350068819 0.37845726121574852 0 0.48617070540070417 0.36565403402469621 0 0.47954314698923589 0.3534948180250006 0 0.46787958074356351 0.36951841739396291 0 0.47954314698923589 0.3534948180250006 0 0.46787958074356351 0.36951841739396291 0 0.45908629397846762 0.35640566545621372 0 0.46787958074356351 0.36951841739396291 0 0.45908629397846762 0.35640566545621372 0 0.45567023717480232 0.37626240090032848 0 0.45908629397846762 0.35640566545621372 0 0.44668394228152192 0.37119377699459621 0 0.45567023717480232 0.37626240090032848 0 0.45601932912594101 0.34258479370567341 0 0.46836427299285449 0.34534294188021808 0 0.45908629397846762 0.35640566545621372 0 0.46836427299285449 0.34534294188021808 0 0.45908629397846762 0.35640566545621372 0 0.45908629397846762 0.35640566545621372 0 0.43132382754395521 0.3603560435550624 0 0.44470663094253599 0.33738086625650371 0 0.44369674102144607 0.34903538837030229 0 0.42788579795640752 0.34707416986855932 0 0.45908629397846762 0.35640566545621372 0 0.44369674102144607 0.34903538837030229 0 0.43132382754395521 0.3603560435550624 0 0.45601932912594101 0.34258479370567341 0 0.45908629397846762 0.35640566545621372 0 0.44369674102144607 0.34903538837030229 0 0.45908629397846762 0.35640566545621372 0 0.44668394228152192 0.37119377699459621 0 0.44228794612701378 0.3646869586572517 0 0.45908629397846762 0.35640566545621372 0 0.44228794612701378 0.3646869586572517 0 0.43132382754395521 0.3603560435550624 0 0.45908629397846762 0.35640566545621372 0 0.44668394228152192 0.37119377699459621 0 0.44668394228152192 0.37119377699459621 0 0.44228794612701378 0.3646869586572517 0 0.4320577207041103 0.37079234862313332 0 0.44228794612701378 0.3646869586572517 0 0.4320577207041103 0.37079234862313332 0 0.43132382754395521 0.3603560435550624 0 0.4320577207041103 0.37079234862313332 0 0.43132382754395521 0.3603560435550624 0 0.41671646146311497 0.37235190373608101 0 0.43132382754395521 0.3603560435550624 0 0.40356136110944252 0.36430642165390981 0 0.43132382754395521 0.3603560435550624 0 0.41671646146311497 0.37235190373608101 0 0.40356136110944252 0.36430642165390981 0 0.43132382754395521 0.3603560435550624 0 0.41447002009174999 0.34894319081859498 0 0.40356136110944252 0.36430642165390981 0 0.43132382754395521 0.3603560435550624 0 0.41447002009174999 0.34894319081859498 0 0.42788579795640752 0.34707416986855932 0 0.44369674102144607 0.34903538837030229 0 0.43132382754395521 0.3603560435550624 0 0.42788579795640752 0.34707416986855932 0 0.42788579795640752 0.34707416986855932 0 0.43624503196907471 0.32365621541639911 0 0.42788579795640752 0.34707416986855932 0 0.43624503196907471 0.32365621541639911 0 0.42034731207775861 0.33118231815614491 0 0.44470663094253599 0.33738086625650371 0 0.42788579795640752 0.34707416986855932 0 0.43624503196907471 0.32365621541639911 0 0.41343658685629509 0.30395281747074171 0 0.43624503196907471 0.32365621541639911 0 0.42034731207775861 0.33118231815614491 0 0.41343658685629509 0.30395281747074171 0 0.42034731207775861 0.33118231815614491 0 0.40206183118001981 0.32478465378344862 0 0.41447002009174999 0.34894319081859498 0 0.42034731207775861 0.33118231815614491 0 0.40625070312444961 0.33923955648573217 0 0.42034731207775861 0.33118231815614491 0 0.40625070312444961 0.33923955648573217 0 0.40206183118001981 0.32478465378344862 0 0.41447002009174999 0.34894319081859498 0 0.42788579795640752 0.34707416986855932 0 0.42034731207775861 0.33118231815614491 0 0.40625070312444961 0.33923955648573217 0 0.39273480870399502 0.33822678398778311 0 0.39797651086013403 0.35110999881793259 0 0.40625070312444961 0.33923955648573217 0 0.39273480870399502 0.33822678398778311 0 0.40206183118001981 0.32478465378344862 0 0.39273480870399502 0.33822678398778311 0 0.40206183118001981 0.32478465378344862 0 0.38739531741106081 0.32367442110342198 0 0.3922718737546933 0.31167567000331609 0 0.41343658685629509 0.30395281747074171 0 0.40206183118001981 0.32478465378344862 0 0.3922718737546933 0.31167567000331609 0 0.40206183118001981 0.32478465378344862 0 0.38739531741106081 0.32367442110342198 0 0.3922718737546933 0.31167567000331609 0 0.38739531741106081 0.32367442110342198 0 0.38175000217283911 0.31419142360762131 0 0.38739531741106081 0.32367442110342198 0 0.37591983961542041 0.32242147603143712 0 0.37994430171133392 0.33544338875816959 0 0.37013475141270452 0.30803080250245513 0 0.37591983961542041 0.32242147603143712 0 0.38175000217283911 0.31419142360762131 0 0.38739531741106081 0.32367442110342198 0 0.37591983961542041 0.32242147603143712 0 0.38175000217283911 0.31419142360762131 0 0.39273480870399502 0.33822678398778311 0 0.37994430171133392 0.33544338875816959 0 0.38368352158386843 0.3503614409609051 0 0.39273480870399502 0.33822678398778311 0 0.38739531741106081 0.32367442110342198 0 0.37994430171133392 0.33544338875816959 0 0.37301667831521118 0.34711577528834381 0 0.37994430171133392 0.33544338875816959 0 0.38368352158386843 0.3503614409609051 0 0.38368352158386843 0.3503614409609051 0 0.3871586505472987 0.36558259900067069 0 0.39797651086013403 0.35110999881793259 0 0.37430332883695422 0.35867341269957492 0 0.37301667831521118 0.34711577528834381 0 0.38368352158386843 0.3503614409609051 0 0.37430332883695422 0.35867341269957492 0 0.38368352158386843 0.3503614409609051 0 0.3871586505472987 0.36558259900067069 0 0.36919400944770597 0.37267712336721581 0 0.37430332883695422 0.35867341269957492 0 0.3871586505472987 0.36558259900067069 0 0.36919400944770597 0.37267712336721581 0 0.3871586505472987 0.36558259900067069 0 0.39501215673992718 0.38514662617750611 0 0.3871586505472987 0.36558259900067069 0 0.40356136110944252 0.36430642165390981 0 0.39797651086013403 0.35110999881793259 0 0.41671646146311497 0.37235190373608101 0 0.40356136110944252 0.36430642165390981 0 0.39501215673992718 0.38514662617750611 0 0.3871586505472987 0.36558259900067069 0 0.40356136110944252 0.36430642165390981 0 0.39501215673992718 0.38514662617750611 0 0.41447002009174999 0.34894319081859498 0 0.40625070312444961 0.33923955648573217 0 0.39797651086013403 0.35110999881793259 0 0.41447002009174999 0.34894319081859498 0 0.40356136110944252 0.36430642165390981 0 0.39797651086013403 0.35110999881793259 0 0.39273480870399502 0.33822678398778311 0 0.38368352158386843 0.3503614409609051 0 0.39797651086013403 0.35110999881793259 0 0.40211449353097001 0.40149446437231079 0 0.39501215673992718 0.38514662617750611 0 0.41871887472061431 0.39659636279637223 0 0.39097774840662441 0.39636816585963702 0 0.40211449353097001 0.40149446437231079 0 0.39501215673992718 0.38514662617750611 0 0.39097774840662441 0.39636816585963702 0 0.40211449353097001 0.40149446437231079 0 0.39469059278368218 0.40993777231395168 0 0.39097774840662441 0.39636816585963702 0 0.39501215673992718 0.38514662617750611 0 0.37980872133630089 0.38482324852666477 0 0.36919400944770597 0.37267712336721581 0 0.39501215673992718 0.38514662617750611 0 0.39501215673992718 0.38514662617750611 0 0.37980872133630089 0.38482324852666477 0 0.36919400944770597 0.37267712336721581 0 0.39501215673992718 0.38514662617750611 0 0.37980872133630089 0.38482324852666477 0 0.39097774840662441 0.39636816585963702 0 0.37980872133630089 0.38482324852666477 0 0.38099658063248659 0.40323918451089708 0 0.37238120952571291 0.39348532896574417 0 0.37980872133630089 0.38482324852666477 0 0.38099658063248659 0.40323918451089708 0 0.39097774840662441 0.39636816585963702 0 0.38099658063248659 0.40323918451089708 0 0.39469059278368218 0.40993777231395168 0 0.37263512358100759 0.41766971376448148 0 0.38099658063248659 0.40323918451089708 0 0.38807628434179509 0.41768184537035402 0 0.37263512358100759 0.41766971376448148 0 0.38807628434179509 0.41768184537035402 0 0.38099658063248659 0.40323918451089708 0 0.38807628434179509 0.41768184537035402 0 0.39469059278368218 0.40993777231395168 0 0.37253831474590338 0.43548653666034037 0 0.37263512358100759 0.41766971376448148 0 0.38551206107465702 0.43112633247134868 0 0.37263512358100759 0.41766971376448148 0 0.38807628434179509 0.41768184537035402 0 0.38551206107465702 0.43112633247134868 0 0.38807628434179509 0.41768184537035402 0 0.38551206107465702 0.43112633247134868 0 0.39466503975041878 0.42292001027190801 0 0.40792171175752467 0.41748348800008572 0 0.39712454879443498 0.43837061320379939 0 0.40792171175752467 0.41748348800008572 0 0.41317232024523032 0.43259813126525548 0 0.39712454879443498 0.43837061320379939 0 0.39466503975041878 0.42292001027190801 0 0.40792171175752467 0.41748348800008572 0 0.39712454879443498 0.43837061320379939 0 0.38551206107465702 0.43112633247134868 0 0.39466503975041878 0.42292001027190801 0 0.39712454879443498 0.43837061320379939 0 0.40211449353097001 0.40149446437231079 0 0.39469059278368218 0.40993777231395168 0 0.40792171175752467 0.41748348800008572 0 0.38807628434179509 0.41768184537035402 0 0.39466503975041878 0.42292001027190801 0 0.39469059278368218 0.40993777231395168 0 0.39466503975041878 0.42292001027190801 0 0.39469059278368218 0.40993777231395168 0 0.40792171175752467 0.41748348800008572 0 0.41768392901168949 0.41749584181180788 0 0.41521435661690259 0.40871696245544481 0 0.42701968025614051 0.40060543892338141 0 0.40792171175752467 0.41748348800008572 0 0.41521435661690259 0.40871696245544481 0 0.41871887472061431 0.39659636279637223 0 0.40792171175752467 0.41748348800008572 0 0.41871887472061431 0.39659636279637223 0 0.40792171175752467 0.41748348800008572 0 0.41768392901168949 0.41749584181180788 0 0.41521435661690259 0.40871696245544481 0 0.41317232024523032 0.43259813126525548 0 0.42602393685411888 0.42281622857112949 0 0.42502819345209453 0.44502701821887758 0 0.40792171175752467 0.41748348800008572 0 0.41768392901168949 0.41749584181180788 0 0.41317232024523032 0.43259813126525548 0 0.41768392901168949 0.41749584181180788 0 0.41317232024523032 0.43259813126525548 0 0.42602393685411888 0.42281622857112949 0 0.42602393685411888 0.42281622857112949 0 0.4354966609457086 0.43873130380064512 0 0.42502819345209453 0.44502701821887758 0 0.42602393685411888 0.42281622857112949 0 0.42502819345209453 0.44502701821887758 0 0.42602393685411888 0.42281622857112949 0 0.4416387607097228 0.42956826812525811 0 0.4354966609457086 0.43873130380064512 0 0.42602393685411888 0.42281622857112949 0 0.43273628460821739 0.40709912416509031 0 0.42701968025614051 0.40060543892338141 0 0.42602393685411888 0.42281622857112949 0 0.44103951702849398 0.41283291669341182 0 0.4416387607097228 0.42956826812525811 0 0.42602393685411888 0.42281622857112949 0 0.42701968025614051 0.40060543892338141 0 0.41768392901168949 0.41749584181180788 0 0.42602393685411888 0.42281622857112949 0 0.42701968025614051 0.40060543892338141 0 0.42602393685411888 0.42281622857112949 0 0.43273628460821739 0.40709912416509031 0 0.44103951702849398 0.41283291669341182 0 0.43273628460821739 0.40709912416509031 0 0.43455007910801702 0.40063916352874318 0 0.44079688049911198 0.40202624638453588 0 0.43455007910801702 0.40063916352874318 0 0.43195969918554361 0.39700965414512718 0 0.42959250212714339 0.40184804588459228 0 0.43273628460821739 0.40709912416509031 0 0.43455007910801702 0.40063916352874318 0 0.42959250212714339 0.40184804588459228 0 0.43273628460821739 0.40709912416509031 0 0.42959250212714339 0.40184804588459228 0 0.42701968025614051 0.40060543892338141 0 0.43195969918554361 0.39700965414512718 0 0.43428159058457722 0.38598188853297949 0 0.43766502912006872 0.39521274706437021 0 0.43195969918554361 0.39700965414512718 0 0.42730218905401551 0.39430387220407193 0 0.43428159058457722 0.38598188853297949 0 0.43455007910801702 0.40063916352874318 0 0.43195969918554361 0.39700965414512718 0 0.43766502912006872 0.39521274706437021 0 0.42298863519969948 0.39405504425821908 0 0.41871887472061431 0.39659636279637223 0 0.42431538486112041 0.38576990695716518 0 0.42730218905401551 0.39430387220407193 0 0.42701968025614051 0.40060543892338141 0 0.42345937536912809 0.39888590299806631 0 0.43195969918554361 0.39700965414512718 0 0.42730218905401551 0.39430387220407193 0 0.42701968025614051 0.40060543892338141 0 0.42730218905401551 0.39430387220407193 0 0.42701968025614051 0.40060543892338141 0 0.42730218905401551 0.39430387220407193 0 0.42345937536912809 0.39888590299806631 0 0.42730218905401551 0.39430387220407193 0 0.42298863519969948 0.39405504425821908 0 0.42345937536912809 0.39888590299806631 0 0.42730218905401551 0.39430387220407193 0 0.42298863519969948 0.39405504425821908 0 0.42557153913486873 0.38999257368766482 0 0.41521435661690259 0.40871696245544481 0 0.42701968025614051 0.40060543892338141 0 0.42345937536912809 0.39888590299806631 0 0.43195969918554361 0.39700965414512718 0 0.42959250212714339 0.40184804588459228 0 0.42701968025614051 0.40060543892338141 0 0.42959250212714339 0.40184804588459228 0 0.42701968025614051 0.40060543892338141 0 0.42701968025614051 0.40060543892338141 0 0.42345937536912809 0.39888590299806631 0 0.40211449353097001 0.40149446437231079 0 0.40792171175752467 0.41748348800008572 0 0.41871887472061431 0.39659636279637223 0 0.39501215673992718 0.38514662617750611 0 0.41871887472061431 0.39659636279637223 0 0.41521435661690259 0.40871696245544481 0 0.42345937536912809 0.39888590299806631 0 0.41521435661690259 0.40871696245544481 0 0.42345937536912809 0.39888590299806631 0 0.41871887472061431 0.39659636279637223 0 0.41871887472061431 0.39659636279637223 0 0.42431538486112041 0.38576990695716518 0 0.42298863519969948 0.39405504425821908 0 0.42345937536912809 0.39888590299806631 0 0.41871887472061431 0.39659636279637223 0 0.42345937536912809 0.39888590299806631 0 0.41871887472061431 0.39659636279637223 0 0.41671646146311497 0.37235190373608101 0 0.39501215673992718 0.38514662617750611 0 0.42431538486112041 0.38576990695716518 0 0.39501215673992718 0.38514662617750611 0 0.41871887472061431 0.39659636279637223 0 0.42431538486112041 0.38576990695716518 0 0.39501215673992718 0.38514662617750611 0 0.42431538486112041 0.38576990695716518 0 0.4320577207041103 0.37079234862313332 0 0.42431538486112041 0.38576990695716518 0 0.4320577207041103 0.37079234862313332 0 0.41671646146311497 0.37235190373608101 0 0.42431538486112041 0.38576990695716518 0 0.4320577207041103 0.37079234862313332 0 0.42431538486112041 0.38576990695716518 0 0.42767848145389042 0.38591039319865122 0 0.42298863519969948 0.39405504425821908 0 0.42557153913486873 0.38999257368766482 0 0.42431538486112041 0.38576990695716518 0 0.42730218905401551 0.39430387220407193 0 0.42557153913486873 0.38999257368766482 0 0.42767848145389042 0.38591039319865122 0 0.42730218905401551 0.39430387220407193 0 0.42767848145389042 0.38591039319865122 0 0.42431538486112041 0.38576990695716518 0 0.42767848145389042 0.38591039319865122 0 0.42557153913486873 0.38999257368766482 0 0.42431538486112041 0.38576990695716518 0 0.42767848145389042 0.38591039319865122 0 0.42730218905401551 0.39430387220407193 0 0.42767848145389042 0.38591039319865122 0 0.43428159058457722 0.38598188853297949 0 0.42730218905401551 0.39430387220407193 0 0.43428159058457722 0.38598188853297949 0 0.42767848145389042 0.38591039319865122 0 0.43428159058457722 0.38598188853297949 0 0.4320577207041103 0.37079234862313332 0 0.42767848145389042 0.38591039319865122 0 0.43428159058457722 0.38598188853297949 0 0.44668394228152192 0.37119377699459621 0 0.4320577207041103 0.37079234862313332 0 0.43428159058457722 0.38598188853297949 0 0.44668394228152192 0.37119377699459621 0 0.43428159058457722 0.38598188853297949 0 0.44668394228152192 0.37119377699459621 0 0.43428159058457722 0.38598188853297949 0 0.44370272349378459 0.38618227638924618 0 0.43428159058457722 0.38598188853297949 0 0.44370272349378459 0.38618227638924618 0 0.43766502912006872 0.39521274706437021 0 0.43428159058457722 0.38598188853297949 0 0.44370272349378459 0.38618227638924618 0 0.44370272349378459 0.38618227638924618 0 0.45567023717480232 0.37626240090032848 0 0.45392898434214579 0.38982769653091048 0 0.44370272349378459 0.38618227638924618 0 0.44559029689643381 0.39440832800108933 0 0.45392898434214579 0.38982769653091048 0 0.44668394228152192 0.37119377699459621 0 0.44370272349378459 0.38618227638924618 0 0.45567023717480232 0.37626240090032848 0 0.44079688049911198 0.40202624638453588 0 0.45231742907486022 0.40058466278589477 0 0.44103951702849398 0.41283291669341182 0 0.43455007910801702 0.40063916352874318 0 0.44079688049911198 0.40202624638453588 0 0.43766502912006872 0.39521274706437021 0 0.44370272349378459 0.38618227638924618 0 0.43766502912006872 0.39521274706437021 0 0.44559029689643381 0.39440832800108933 0 0.44079688049911198 0.40202624638453588 0 0.43766502912006872 0.39521274706437021 0 0.44559029689643381 0.39440832800108933 0 0.44559029689643381 0.39440832800108933 0 0.45231742907486022 0.40058466278589477 0 0.45392898434214579 0.38982769653091048 0 0.44079688049911198 0.40202624638453588 0 0.44559029689643381 0.39440832800108933 0 0.45231742907486022 0.40058466278589477 0 0.45231742907486022 0.40058466278589477 0 0.46326273126768452 0.39479537708715501 0 0.46292185265158198 0.40630276310412572 0 0.45231742907486022 0.40058466278589477 0 0.46326273126768452 0.39479537708715501 0 0.45392898434214579 0.38982769653091048 0 0.46326273126768452 0.39479537708715501 0 0.47525252212556229 0.3988985943432441 0 0.46292185265158198 0.40630276310412572 0 0.45567023717480232 0.37626240090032848 0 0.45392898434214579 0.38982769653091048 0 0.46273989820933048 0.38444657263704007 0 0.46326273126768452 0.39479537708715501 0 0.45392898434214579 0.38982769653091048 0 0.46273989820933048 0.38444657263704007 0 0.46273989820933048 0.38444657263704007 0 0.47095200345692589 0.37892509576970002 0 0.47062013971203831 0.38710458021057748 0 0.46326273126768452 0.39479537708715501 0 0.46273989820933048 0.38444657263704007 0 0.47062013971203831 0.38710458021057748 0 0.46787958074356351 0.36951841739396291 0 0.45567023717480232 0.37626240090032848 0 0.46273989820933048 0.38444657263704007 0 0.46787958074356351 0.36951841739396291 0 0.46273989820933048 0.38444657263704007 0 0.47095200345692589 0.37892509576970002 0 0.46787958074356351 0.36951841739396291 0 0.47095200345692589 0.37892509576970002 0 0.48089354350068819 0.37845726121574852 0 0.48089354350068819 0.37845726121574852 0 0.47525252212556229 0.3988985943432441 0 0.49118579020880943 0.38733319335763589 0 0.48089354350068819 0.37845726121574852 0 0.47062013971203831 0.38710458021057748 0 0.47525252212556229 0.3988985943432441 0 0.48089354350068819 0.37845726121574852 0 0.47525252212556229 0.3988985943432441 0 0.47095200345692589 0.37892509576970002 0 0.48089354350068819 0.37845726121574852 0 0.47062013971203831 0.38710458021057748 0 0.47525252212556229 0.3988985943432441 0 0.49118579020880943 0.38733319335763589 0 0.48237158041761929 0.40973462349199091 0 0.46326273126768452 0.39479537708715501 0 0.47062013971203831 0.38710458021057748 0 0.47525252212556229 0.3988985943432441 0 0.49118579020880943 0.38733319335763589 0 0.48237158041761929 0.40973462349199091 0 0.49118579020880943 0.38733319335763589 0 0.49837936294812368 0.40856046164709708 0 0.48237158041761929 0.40973462349199091 0 0.5 0.39159846092082179 0 0.49837936294812368 0.40856046164709708 0 0.5 0.40892954707236251 0 0.5 0.39159846092082179 0 0.49837936294812368 0.40856046164709708 0 0.5 0.39159846092082179 0 0.49118579020880943 0.38733319335763589 0 0.49837936294812368 0.40856046164709708 0 0.49999999999999972 0.36493176322328108 0 0.5 0.39159846092082179 0 0.49118579020880943 0.38733319335763589 0 0.48617070540070417 0.36565403402469621 0 0.48089354350068819 0.37845726121574852 0 0.49118579020880943 0.38733319335763589 0 0.49999999999999972 0.36493176322328108 0 0.49118579020880943 0.38733319335763589 0 0.49999999999999861 0.42626063322390312 0 0.49675872589624742 0.42552246237337238 0 0.49468048152022809 0.44727389806626972 0 0.49675872589624742 0.42552246237337238 0 0.49468048152022809 0.44727389806626972 0 0.49999999999999861 0.42626063322390312 0 0.49675872589624742 0.42552246237337238 0 0.49999999999999861 0.42626063322390312 0 0.49675872589624742 0.42552246237337238 0 0.5 0.40892954707236251 0 0.49675872589624742 0.42552246237337238 0 0.49837936294812368 0.40856046164709708 0 0.49675872589624742 0.42552246237337238 0 0.49837936294812368 0.40856046164709708 0 0.5 0.40892954707236251 0 0.49675872589624742 0.42552246237337238 0 0.49837936294812368 0.40856046164709708 0 0.48237158041761929 0.40973462349199091 0 0.49675872589624742 0.42552246237337238 0 0.48237158041761929 0.40973462349199091 0 0.46961150075043989 0.41933992747074078 0 0.47525252212556229 0.3988985943432441 0 0.48237158041761929 0.40973462349199091 0 0.46961150075043989 0.41933992747074078 0 0.47525252212556229 0.3988985943432441 0 0.46961150075043989 0.41933992747074078 0 0.46292185265158198 0.40630276310412572 0 0.47525252212556229 0.3988985943432441 0 0.46961150075043989 0.41933992747074078 0 0.49675872589624742 0.42552246237337238 0 0.46961150075043989 0.41933992747074078 0 0.49675872589624742 0.42552246237337238 0 0.46961150075043989 0.41933992747074078 0 0.47848685020610171 0.43974624996439537 0 0.46961150075043989 0.41933992747074078 0 0.46388676654413119 0.44008461024990031 0 0.47848685020610171 0.43974624996439537 0 0.46961150075043989 0.41933992747074078 0 0.46388676654413119 0.44008461024990031 0 0.46961150075043989 0.41933992747074078 0 0.45427338123532618 0.42885450274909681 0 0.46388676654413119 0.44008461024990031 0 0.46961150075043989 0.41933992747074078 0 0.45427338123532618 0.42885450274909681 0 0.44103951702849398 0.41283291669341182 0 0.46961150075043989 0.41933992747074078 0 0.46292185265158198 0.40630276310412572 0 0.44103951702849398 0.41283291669341182 0 0.46961150075043989 0.41933992747074078 0 0.44103951702849398 0.41283291669341182 0 0.45231742907486022 0.40058466278589477 0 0.46292185265158198 0.40630276310412572 0 0.44103951702849398 0.41283291669341182 0 0.43273628460821739 0.40709912416509031 0 0.44079688049911198 0.40202624638453588 0 0.44103951702849398 0.41283291669341182 0 0.45427338123532618 0.42885450274909681 0 0.44103951702849398 0.41283291669341182 0 0.4416387607097228 0.42956826812525811 0 0.45427338123532618 0.42885450274909681 0 0.4416387607097228 0.42956826812525811 0 0.44979775965682212 0.44612876369192173 0 0.49999999999999861 0.42626063322390312 0 0.49468048152022809 0.44727389806626972 0 0.5 0.5 0 0.4416387607097228 0.42956826812525811 0 0.44979775965682212 0.44612876369192173 0 0.4354966609457086 0.43873130380064512 0 0.44979775965682212 0.44612876369192173 0 0.4354966609457086 0.43873130380064512 0 0.43499465405578469 0.45011624039603848 0 0.44979775965682212 0.44612876369192173 0 0.44578881192842063 0.45531904302471049 0 0.43499465405578469 0.45011624039603848 0 0.44020080166324932 0.46420187498182142 0 0.45816203233782682 0.46082929302906089 0 0.44020080166324932 0.46420187498182142 0 0.44578881192842063 0.45531904302471049 0 0.45816203233782682 0.46082929302906089 0 0.44020080166324932 0.46420187498182142 0 0.45816203233782682 0.46082929302906089 0 0.45585762635180432 0.46917975428222242 0 0.44020080166324932 0.46420187498182142 0 0.43499465405578469 0.45011624039603848 0 0.44020080166324932 0.46420187498182142 0 0.44578881192842063 0.45531904302471049 0 0.43499465405578469 0.45011624039603848 0 0.44979775965682212 0.44612876369192173 0 0.44578881192842063 0.45531904302471049 0 0.45816203233782682 0.46082929302906089 0 0.46768227999433959 0.4590416752419566 0 0.47481424454571669 0.45562863610140619 0 0.45585762635180432 0.46917975428222242 0 0.47481424454571669 0.45562863610140619 0 0.47066326949097792 0.46985658665370073 0 0.45585762635180432 0.46917975428222242 0 0.47481424454571669 0.45562863610140619 0 0.45585762635180432 0.46917975428222242 0 0.45816203233782682 0.46082929302906089 0 0.45585762635180432 0.46917975428222242 0 0.45816203233782682 0.46082929302906089 0 0.46768227999433959 0.4590416752419566 0 0.45585762635180432 0.46917975428222242 0 0.45816203233782682 0.46082929302906089 0 0.46768227999433959 0.4590416752419566 0 0.45816203233782682 0.46082929302906089 0 0.46768227999433959 0.4590416752419566 0 0.46825499613843818 0.45054561583797981 0 0.44979775965682212 0.44612876369192173 0 0.45816203233782682 0.46082929302906089 0 0.46388676654413119 0.44008461024990031 0 0.45816203233782682 0.46082929302906089 0 0.46825499613843818 0.45054561583797981 0 0.46388676654413119 0.44008461024990031 0 0.45427338123532618 0.42885450274909681 0 0.44979775965682212 0.44612876369192173 0 0.46388676654413119 0.44008461024990031 0 0.45816203233782682 0.46082929302906089 0 0.46388676654413119 0.44008461024990031 0 0.46825499613843818 0.45054561583797981 0 0.47848685020610171 0.43974624996439537 0 0.47481424454571669 0.45562863610140619 0 0.47848685020610171 0.43974624996439537 0 0.47481424454571669 0.45562863610140619 0 0.49468048152022809 0.44727389806626972 0 0.46825499613843818 0.45054561583797981 0 0.46388676654413119 0.44008461024990031 0 0.47848685020610171 0.43974624996439537 0 0.46768227999433959 0.4590416752419566 0 0.46825499613843818 0.45054561583797981 0 0.47481424454571669 0.45562863610140619 0 0.47481424454571669 0.45562863610140619 0 0.48147553485555261 0.46529154818526419 0 0.49468048152022809 0.44727389806626972 0 0.47481424454571669 0.45562863610140619 0 0.48147553485555261 0.46529154818526419 0 0.47066326949097792 0.46985658665370073 0 0.48147553485555261 0.46529154818526419 0 0.49468048152022809 0.44727389806626972 0 0.49260223714420898 0.46902533375916711 0 0.49468048152022809 0.44727389806626972 0 0.49260223714420898 0.46902533375916711 0 0.49675872589624742 0.42552246237337238 0 0.47848685020610171 0.43974624996439537 0 0.49468048152022809 0.44727389806626972 0 0.49468048152022809 0.44727389806626972 0 0.5 0.5 0 0.49260223714420898 0.46902533375916711 0 0.49052399276818981 0.49077676945206439 0 0.5 0.5 0 0.45343203535599541 0.50000000000000144 0 0.49052399276818981 0.49077676945206439 0 0.46995185526737238 0.48344947603810051 0 0.45343203535599541 0.50000000000000144 0 0.49052399276818981 0.49077676945206439 0 0.5 0.5 0 0.49260223714420898 0.46902533375916711 0 0.49052399276818981 0.49077676945206439 0 0.49260223714420898 0.46902533375916711 0 0.4814829457850956 0.47660661280335809 0 0.49052399276818981 0.49077676945206439 0 0.49260223714420898 0.46902533375916711 0 0.48147553485555261 0.46529154818526419 0 0.49260223714420898 0.46902533375916711 0 0.4814829457850956 0.47660661280335809 0 0.49052399276818981 0.49077676945206439 0 0.4814829457850956 0.47660661280335809 0 0.46995185526737238 0.48344947603810051 0 0.48147553485555261 0.46529154818526419 0 0.4814829457850956 0.47660661280335809 0 0.47066326949097792 0.46985658665370073 0 0.4814829457850956 0.47660661280335809 0 0.47066326949097792 0.46985658665370073 0 0.46995185526737238 0.48344947603810051 0 0.46995185526737238 0.48344947603810051 0 0.45343203535599541 0.50000000000000144 0 0.4582874082675808 0.4813666386469333 0 0.45343203535599541 0.50000000000000144 0 0.4582874082675808 0.4813666386469333 0 0.44995127942749003 0.49058254590766759 0 0.4582874082675808 0.4813666386469333 0 0.45585762635180432 0.46917975428222242 0 0.44995127942749003 0.49058254590766759 0 0.47066326949097792 0.46985658665370073 0 0.46369003984443408 0.47596311390523932 0 0.45585762635180432 0.46917975428222242 0 0.47066326949097792 0.46985658665370073 0 0.46995185526737238 0.48344947603810051 0 0.46369003984443408 0.47596311390523932 0 0.46995185526737238 0.48344947603810051 0 0.46369003984443408 0.47596311390523932 0 0.4582874082675808 0.4813666386469333 0 0.46369003984443408 0.47596311390523932 0 0.4582874082675808 0.4813666386469333 0 0.45585762635180432 0.46917975428222242 0 0.44020080166324932 0.46420187498182142 0 0.45585762635180432 0.46917975428222242 0 0.44492832470923271 0.47699255383735628 0 0.45585762635180432 0.46917975428222242 0 0.44492832470923271 0.47699255383735628 0 0.44995127942749003 0.49058254590766759 0 0.45585762635180432 0.46917975428222242 0 0.44995127942749003 0.49058254590766759 0 0.45585762635180432 0.46917975428222242 0 0.44492832470923271 0.47699255383735628 0 0.44492832470923271 0.47699255383735628 0 0.44995127942749003 0.49058254590766759 0 0.44020080166324932 0.46420187498182142 0 0.44492832470923271 0.47699255383735628 0 0.44020080166324932 0.46420187498182142 0 0.44492832470923271 0.47699255383735628 0 0.43365105788856262 0.473891707390862 0 0.44735242447498708 0.50000000000000222 0 0.4386364340071065 0.49206451498324938 0 0.42806132846677142 0.49999999999999561 0 0.44735242447498708 0.50000000000000222 0 0.44995127942749003 0.49058254590766759 0 0.45343203535599541 0.50000000000000144 0 0.44995127942749003 0.49058254590766759 0 0.44735242447498708 0.50000000000000222 0 0.44995127942749003 0.49058254590766759 0 0.4386364340071065 0.49206451498324938 0 0.45343203535599541 0.50000000000000144 0 0.44735242447498708 0.50000000000000222 0 0.44995127942749003 0.49058254590766759 0 0.44492832470923271 0.47699255383735628 0 0.44995127942749003 0.49058254590766759 0 0.4386364340071065 0.49206451498324938 0 0.4386364340071065 0.49206451498324938 0 0.42806132846677142 0.49999999999999561 0 0.42288881295704972 0.49274747517122808 0 0.44492832470923271 0.47699255383735628 0 0.4386364340071065 0.49206451498324938 0 0.42288881295704972 0.49274747517122808 0 0.44492832470923271 0.47699255383735628 0 0.42288881295704972 0.49274747517122808 0 0.42288881295704972 0.49274747517122808 0 0.42256367126417188 0.50000000000000022 0 0.42806132846677142 0.49999999999999561 0 0.42288881295704972 0.49274747517122808 0 0.42256367126417188 0.50000000000000022 0 0.42806132846677142 0.49999999999999561 0 0.42288881295704972 0.49274747517122808 0 0.42288881295704972 0.49274747517122808 0 0.42256367126417188 0.50000000000000022 0 0.41274327793281551 0.50000000000000178 0 0.42288881295704972 0.49274747517122808 0 0.41274327793281551 0.50000000000000178 0 0.42288881295704972 0.49274747517122808 0 0.41274327793281551 0.50000000000000178 0 0.40094322857199333 0.48789457412823578 0 0.42288881295704972 0.49274747517122808 0 0.40322701859727161 0.47114444566380093 0 0.42288881295704972 0.49274747517122808 0 0.42403245005007012 0.46723780786662561 0 0.40322701859727161 0.47114444566380093 0 0.42288881295704972 0.49274747517122808 0 0.40094322857199333 0.48789457412823578 0 0.40322701859727161 0.47114444566380093 0 0.42403245005007012 0.46723780786662561 0 0.40322701859727161 0.47114444566380093 0 0.44492832470923271 0.47699255383735628 0 0.42288881295704972 0.49274747517122808 0 0.43365105788856262 0.473891707390862 0 0.42288881295704972 0.49274747517122808 0 0.43365105788856262 0.473891707390862 0 0.42403245005007012 0.46723780786662561 0 0.42288881295704972 0.49274747517122808 0 0.42403245005007012 0.46723780786662561 0 0.44020080166324932 0.46420187498182142 0 0.42403245005007012 0.46723780786662561 0 0.43106402480529971 0.45664573536584069 0 0.44020080166324932 0.46420187498182142 0 0.42403245005007012 0.46723780786662561 0 0.42403245005007012 0.46723780786662561 0 0.42502819345209453 0.44502701821887758 0 0.44020080166324932 0.46420187498182142 0 0.43365105788856262 0.473891707390862 0 0.42403245005007012 0.46723780786662561 0 0.42403245005007012 0.46723780786662561 0 0.43106402480529971 0.45664573536584069 0 0.42502819345209453 0.44502701821887758 0 0.44020080166324932 0.46420187498182142 0 0.43106402480529971 0.45664573536584069 0 0.43499465405578469 0.45011624039603848 0 0.4354966609457086 0.43873130380064512 0 0.43499465405578469 0.45011624039603848 0 0.42502819345209453 0.44502701821887758 0 0.43106402480529971 0.45664573536584069 0 0.43499465405578469 0.45011624039603848 0 0.42502819345209453 0.44502701821887758 0 0.41317232024523032 0.43259813126525548 0 0.42502819345209453 0.44502701821887758 0 0.40691601142046457 0.4525117638001428 0 0.42403245005007012 0.46723780786662561 0 0.42502819345209453 0.44502701821887758 0 0.40691601142046457 0.4525117638001428 0 0.42403245005007012 0.46723780786662561 0 0.40691601142046457 0.4525117638001428 0 0.40322701859727161 0.47114444566380093 0 0.38788266667158727 0.45331549116207082 0 0.40322701859727161 0.47114444566380093 0 0.39063476319310708 0.47350889463113899 0 0.40691601142046457 0.4525117638001428 0 0.38788266667158727 0.45331549116207082 0 0.40322701859727161 0.47114444566380093 0 0.38788266667158727 0.45331549116207082 0 0.40322701859727161 0.47114444566380093 0 0.40691601142046457 0.4525117638001428 0 0.39712454879443498 0.43837061320379939 0 0.38788266667158727 0.45331549116207082 0 0.41317232024523032 0.43259813126525548 0 0.40691601142046457 0.4525117638001428 0 0.39712454879443498 0.43837061320379939 0 0.37253831474590338 0.43548653666034037 0 0.38788266667158727 0.45331549116207082 0 0.37253831474590338 0.43548653666034037 0 0.38551206107465702 0.43112633247134868 0 0.38788266667158727 0.45331549116207082 0 0.38551206107465702 0.43112633247134868 0 0.39712454879443498 0.43837061320379939 0 0.38788266667158727 0.45331549116207082 0 0.37234436633307222 0.45664581748427779 0 0.37253831474590338 0.43548653666034037 0 0.38788266667158727 0.45331549116207082 0 0.38788266667158727 0.45331549116207082 0 0.38175351273956959 0.46401755234206898 0 0.39063476319310708 0.47350889463113899 0 0.37234436633307222 0.45664581748427779 0 0.38175351273956959 0.46401755234206898 0 0.37615225476051178 0.47260000609078862 0 0.37234436633307222 0.45664581748427779 0 0.38788266667158727 0.45331549116207082 0 0.38175351273956959 0.46401755234206898 0 0.37353932790407451 0.4897100248141647 0 0.37615225476051178 0.47260000609078862 0 0.38661172585410242 0.48610203685418862 0 0.38175351273956959 0.46401755234206898 0 0.37615225476051178 0.47260000609078862 0 0.39063476319310708 0.47350889463113899 0 0.37615225476051178 0.47260000609078862 0 0.38661172585410242 0.48610203685418862 0 0.39063476319310708 0.47350889463113899 0 0.36554308048952572 0.5 0 0.37353932790407451 0.4897100248141647 0 0.38914317921117059 0.5 0 0.37353932790407451 0.4897100248141647 0 0.38914317921117059 0.5 0 0.38661172585410242 0.48610203685418862 0 0.41274327793281551 0.50000000000000178 0 0.38914317921117059 0.5 0 0.40094322857199333 0.48789457412823578 0 0.38914317921117059 0.5 0 0.38661172585410242 0.48610203685418862 0 0.40094322857199333 0.48789457412823578 0 0.40094322857199333 0.48789457412823578 0 0.40322701859727161 0.47114444566380093 0 0.39063476319310708 0.47350889463113899 0 0.40322701859727161 0.47114444566380093 0 0.39063476319310708 0.47350889463113899 0 0.38661172585410242 0.48610203685418862 0 0.40094322857199333 0.48789457412823578 0 0.39063476319310708 0.47350889463113899 0 0.33987479690296801 0.080648021064563452 0 0.32572662987313922 0.087750176869617863 0 0.33713471123999911 0.1002143075080984 0 0.33987479690296801 0.080648021064563452 0 0.32232831018639602 0.075711235737897759 0 0.32572662987313922 0.087750176869617863 0 0.33987479690296801 0.080648021064563452 0 0.32232831018639602 0.075711235737897759 0 0.33987479690296801 0.080648021064563452 0 0.32870928983325509 0.069403786173485915 0 0.34508537962074448 0.071557875950860425 0 0.33884188131580778 0.065882438704130158 0 0.32870928983325509 0.069403786173485915 0 0.34508537962074448 0.071557875950860425 0 0.32870928983325509 0.069403786173485915 0 0.34508537962074448 0.071557875950860425 0 0.33987479690296801 0.080648021064563452 0 0.32870928983325509 0.069403786173485915 0 0.32232831018639602 0.075711235737897759 0 0.33884188131580778 0.065882438704130158 0 0.3473695025654685 0.062476489051213148 0 0.33681624817641448 0.06085344331303269 0 0.33884188131580778 0.065882438704130158 0 0.33291791667343601 0.06524365669510393 0 0.33681624817641448 0.06085344331303269 0 0.33884188131580778 0.065882438704130158 0 0.33291791667343601 0.06524365669510393 0 0.32870928983325509 0.069403786173485915 0 0.33291791667343601 0.06524365669510393 0 0.32870928983325509 0.069403786173485915 0 0.33291791667343601 0.06524365669510393 0 0.32870928983325509 0.069403786173485915 0 0.32922097873140937 0.063209767214072843 0 0.33291791667343601 0.06524365669510393 0 0.32922097873140937 0.063209767214072843 0 0.33167440460465669 0.059423619740526408 0 0.31868904655471209 0.062898826844328654 0 0.31461423613864459 0.05638253533592489 0 0.31123448241187512 0.072589935898307076 0 0.32870928983325509 0.069403786173485915 0 0.32232831018639602 0.075711235737897759 0 0.32345468138834188 0.068712601740438028 0 0.32870928983325509 0.069403786173485915 0 0.32232831018639602 0.075711235737897759 0 0.32232831018639602 0.075711235737897759 0 0.32345468138834188 0.068712601740438028 0 0.31892663013533118 0.069978150055242994 0 0.32922097873140937 0.063209767214072843 0 0.32543784082578381 0.064864659540034952 0 0.32583127351907309 0.060553651392534581 0 0.32870928983325509 0.069403786173485915 0 0.32922097873140937 0.063209767214072843 0 0.32543784082578381 0.064864659540034952 0 0.32870928983325509 0.069403786173485915 0 0.32345468138834188 0.068712601740438028 0 0.32870928983325509 0.069403786173485915 0 0.32543784082578381 0.064864659540034952 0 0.32345468138834188 0.068712601740438028 0 0.32345468138834188 0.068712601740438028 0 0.31868904655471209 0.062898826844328654 0 0.31892663013533118 0.069978150055242994 0 0.32543784082578381 0.064864659540034952 0 0.32345468138834188 0.068712601740438028 0 0.31868904655471209 0.062898826844328654 0 0.32543784082578381 0.064864659540034952 0 0.31868904655471209 0.062898826844328654 0 0.32583127351907309 0.060553651392534581 0 0.31868904655471209 0.062898826844328654 0 0.31892663013533118 0.069978150055242994 0 0.31123448241187512 0.072589935898307076 0 0.32232831018639602 0.075711235737897759 0 0.31123448241187512 0.072589935898307076 0 0.32232831018639602 0.075711235737897759 0 0.31892663013533118 0.069978150055242994 0 0.31123448241187512 0.072589935898307076 0 0.32232831018639602 0.075711235737897759 0 0.3120468173300186 0.074869579366969308 0 0.31123448241187512 0.072589935898307076 0 0.32232831018639602 0.075711235737897759 0 0.30914314618924599 0.080756855671199196 0 0.3120468173300186 0.074869579366969308 0 0.32572662987313922 0.087750176869617863 0 0.3079929866167358 0.089881368759656743 0 0.30936001040582872 0.094571921240013776 0 0.32232831018639602 0.075711235737897759 0 0.3079929866167358 0.089881368759656743 0 0.30914314618924599 0.080756855671199196 0 0.32232831018639602 0.075711235737897759 0 0.32572662987313922 0.087750176869617863 0 0.3079929866167358 0.089881368759656743 0 0.32232831018639602 0.075711235737897759 0 0.3079929866167358 0.089881368759656743 0 0.32230700222733177 0.1023328888310594 0 0.31469512853409182 0.1168097818064744 0 0.30739383795764619 0.1009375849746442 0 0.32572662987313922 0.087750176869617863 0 0.30739383795764619 0.1009375849746442 0 0.32572662987313922 0.087750176869617863 0 0.32230700222733177 0.1023328888310594 0 0.30739383795764619 0.1009375849746442 0 0.32572662987313922 0.087750176869617863 0 0.30936001040582872 0.094571921240013776 0 0.30739383795764619 0.1009375849746442 0 0.31469512853409182 0.1168097818064744 0 0.33511330216137009 0.12192313498609279 0 0.31929741700318848 0.13349819412048011 0 0.32230700222733177 0.1023328888310594 0 0.31469512853409182 0.1168097818064744 0 0.33511330216137009 0.12192313498609279 0 0.33511330216137009 0.12192313498609279 0 0.33713471123999911 0.1002143075080984 0 0.34824470737693852 0.1133314532331882 0 0.32230700222733177 0.1023328888310594 0 0.33511330216137009 0.12192313498609279 0 0.33713471123999911 0.1002143075080984 0 0.32572662987313922 0.087750176869617863 0 0.32230700222733177 0.1023328888310594 0 0.33713471123999911 0.1002143075080984 0 0.33713471123999911 0.1002143075080984 0 0.35807014964970652 0.1013919704018363 0 0.35742128361954051 0.085584806391227328 0 0.33713471123999911 0.1002143075080984 0 0.35807014964970652 0.1013919704018363 0 0.34824470737693852 0.1133314532331882 0 0.33511330216137009 0.12192313498609279 0 0.34824470737693852 0.1133314532331882 0 0.35147701743370702 0.12998206918191499 0 0.34824470737693852 0.1133314532331882 0 0.36658012664697798 0.11607995366614191 0 0.35147701743370702 0.12998206918191499 0 0.35807014964970652 0.1013919704018363 0 0.34824470737693852 0.1133314532331882 0 0.36658012664697798 0.11607995366614191 0 0.35807014964970652 0.1013919704018363 0 0.36658012664697798 0.11607995366614191 0 0.38454580448861098 0.093216415999595487 0 0.36736180175733302 0.078416280408697803 0 0.37196867523372512 0.075094070061515111 0 0.38354659254428841 0.091320358415573483 0 0.35742128361954051 0.085584806391227328 0 0.38454580448861098 0.093216415999595487 0 0.35807014964970652 0.1013919704018363 0 0.35742128361954051 0.085584806391227328 0 0.38454580448861098 0.093216415999595487 0 0.36736180175733302 0.078416280408697803 0 0.35742128361954051 0.085584806391227328 0 0.38354659254428841 0.091320358415573483 0 0.36736180175733302 0.078416280408697803 0 0.35742128361954051 0.085584806391227328 0 0.36736180175733302 0.078416280408697803 0 0.35742128361954051 0.085584806391227328 0 0.3614614694082337 0.073711965728236156 0 0.33987479690296801 0.080648021064563452 0 0.35742128361954051 0.085584806391227328 0 0.33713471123999911 0.1002143075080984 0 0.35742128361954051 0.085584806391227328 0 0.33987479690296801 0.080648021064563452 0 0.35742128361954051 0.085584806391227328 0 0.35265466277202812 0.07733894847945226 0 0.33987479690296801 0.080648021064563452 0 0.33713471123999911 0.1002143075080984 0 0.35742128361954051 0.085584806391227328 0 0.35742128361954051 0.085584806391227328 0 0.35265466277202812 0.07733894847945226 0 0.3614614694082337 0.073711965728236156 0 0.34508537962074448 0.071557875950860425 0 0.3614614694082337 0.073711965728236156 0 0.3473695025654685 0.062476489051213148 0 0.3614614694082337 0.073711965728236156 0 0.3473695025654685 0.062476489051213148 0 0.3560447953676843 0.055094542235772259 0 0.34508537962074448 0.071557875950860425 0 0.35265466277202812 0.07733894847945226 0 0.3614614694082337 0.073711965728236156 0 0.34508537962074448 0.071557875950860425 0 0.3614614694082337 0.073711965728236156 0 0.33884188131580778 0.065882438704130158 0 0.34508537962074448 0.071557875950860425 0 0.3473695025654685 0.062476489051213148 0 0.33987479690296801 0.080648021064563452 0 0.34508537962074448 0.071557875950860425 0 0.35265466277202812 0.07733894847945226 0 0.3614614694082337 0.073711965728236156 0 0.3473695025654685 0.062476489051213148 0 0.3614614694082337 0.073711965728236156 0 0.36835081073895859 0.062850067842340679 0 0.3560447953676843 0.055094542235772259 0 0.37196867523372512 0.075094070061515111 0 0.36835081073895859 0.062850067842340679 0 0.37824264548110509 0.056886857138190507 0 0.36736180175733302 0.078416280408697803 0 0.3614614694082337 0.073711965728236156 0 0.37196867523372512 0.075094070061515111 0 0.3614614694082337 0.073711965728236156 0 0.37196867523372512 0.075094070061515111 0 0.36736180175733302 0.078416280408697803 0 0.3614614694082337 0.073711965728236156 0 0.3614614694082337 0.073711965728236156 0 0.37196867523372512 0.075094070061515111 0 0.36835081073895859 0.062850067842340679 0 0.36736180175733302 0.078416280408697803 0 0.37196867523372512 0.075094070061515111 0 0.36835081073895859 0.062850067842340679 0 0.37026461567553448 0.048757981701712423 0 0.37824264548110509 0.056886857138190507 0 0.36835081073895859 0.062850067842340679 0 0.37026461567553448 0.048757981701712423 0 0.3560447953676843 0.055094542235772259 0 0.37026461567553448 0.048757981701712423 0 0.35554483809520743 0.031529736716940933 0 0.38630734050745957 0.038757864402103409 0 0.37026461567553448 0.048757981701712423 0 0.35554483809520743 0.031529736716940933 0 0.3560447953676843 0.055094542235772259 0 0.35554483809520743 0.031529736716940933 0 0.3560447953676843 0.055094542235772259 0 0.33327753572270369 0.051241012374189827 0 0.35554483809520743 0.031529736716940933 0 0.33327753572270369 0.051241012374189827 0 0.3473695025654685 0.062476489051213148 0 0.3560447953676843 0.055094542235772259 0 0.33327753572270369 0.051241012374189827 0 0.35554483809520743 0.031529736716940933 0 0.33844269633881607 0.01148836042809109 0 0.35528893128914452 -0.0039215522358231076 0 0.35554483809520743 0.031529736716940933 0 0.37781214046771111 0.011818461059692 0 0.35528893128914452 -0.0039215522358231076 0 0.35554483809520743 0.031529736716940933 0 0.37781214046771111 0.011818461059692 0 0.35554483809520743 0.031529736716940933 0 0.37781214046771111 0.011818461059692 0 0.38630734050745957 0.038757864402103409 0 0.33844269633881607 0.01148836042809109 0 0.33200543966187918 0.027418611334966311 0 0.31762153628356848 0.0125801377078211 0 0.35554483809520743 0.031529736716940933 0 0.33844269633881607 0.01148836042809109 0 0.33200543966187918 0.027418611334966311 0 0.33200543966187918 0.027418611334966311 0 0.31762153628356848 0.0125801377078211 0 0.31280791462477092 0.031794574731929579 0 0.33844269633881607 0.01148836042809109 0 0.31762153628356848 0.0125801377078211 0 0.32810368720994448 -0.0079222365021426946 0 0.31762153628356848 0.0125801377078211 0 0.32810368720994448 -0.0079222365021426946 0 0.30501130485267042 -0.0014971883304511779 0 0.33327753572270369 0.051241012374189827 0 0.33065828124575319 0.053559606973031332 0 0.32215881774693589 0.042376096788663969 0 0.33327753572270369 0.051241012374189827 0 0.33065828124575319 0.053559606973031332 0 0.33327753572270369 0.051241012374189827 0 0.33167440460465669 0.059423619740526408 0 0.33681624817641448 0.06085344331303269 0 0.33065828124575319 0.053559606973031332 0 0.33167440460465669 0.059423619740526408 0 0.32690953306982212 0.057012103143924082 0 0.33327753572270369 0.051241012374189827 0 0.33065828124575319 0.053559606973031332 0 0.33167440460465669 0.059423619740526408 0 0.33167440460465669 0.059423619740526408 0 0.32583127351907309 0.060553651392534581 0 0.32690953306982212 0.057012103143924082 0 0.32922097873140937 0.063209767214072843 0 0.33167440460465669 0.059423619740526408 0 0.32583127351907309 0.060553651392534581 0 0.33291791667343601 0.06524365669510393 0 0.33167440460465669 0.059423619740526408 0 0.33681624817641448 0.06085344331303269 0 0.3473695025654685 0.062476489051213148 0 0.33327753572270369 0.051241012374189827 0 0.3473695025654685 0.062476489051213148 0 0.33327753572270369 0.051241012374189827 0 0.33681624817641448 0.06085344331303269 0 0.35554483809520743 0.031529736716940933 0 0.33327753572270369 0.051241012374189827 0 0.33574665780668161 0.038141364303690251 0 0.35554483809520743 0.031529736716940933 0 0.33200543966187918 0.027418611334966311 0 0.33574665780668161 0.038141364303690251 0 0.33200543966187918 0.027418611334966311 0 0.33574665780668161 0.038141364303690251 0 0.32215881774693589 0.042376096788663969 0 0.33327753572270369 0.051241012374189827 0 0.33574665780668161 0.038141364303690251 0 0.32215881774693589 0.042376096788663969 0 0.33200543966187918 0.027418611334966311 0 0.32215881774693589 0.042376096788663969 0 0.31280791462477092 0.031794574731929579 0 0.33327753572270369 0.051241012374189827 0 0.32215881774693589 0.042376096788663969 0 0.32215881774693589 0.042376096788663969 0 0.31280791462477092 0.031794574731929579 0 0.31343102363621822 0.045840435360357167 0 0.32215881774693589 0.042376096788663969 0 0.31343102363621822 0.045840435360357167 0 0.32270595932733143 0.053203461574964327 0 0.31343102363621822 0.045840435360357167 0 0.32270595932733143 0.053203461574964327 0 0.31461423613864459 0.05638253533592489 0 0.33065828124575319 0.053559606973031332 0 0.32270595932733143 0.053203461574964327 0 0.32690953306982212 0.057012103143924082 0 0.33065828124575319 0.053559606973031332 0 0.32215881774693589 0.042376096788663969 0 0.32270595932733143 0.053203461574964327 0 0.32583127351907309 0.060553651392534581 0 0.32690953306982212 0.057012103143924082 0 0.32114337236890378 0.058325064596638762 0 0.32270595932733143 0.053203461574964327 0 0.32690953306982212 0.057012103143924082 0 0.32114337236890378 0.058325064596638762 0 0.31868904655471209 0.062898826844328654 0 0.32583127351907309 0.060553651392534581 0 0.32114337236890378 0.058325064596638762 0 0.31868904655471209 0.062898826844328654 0 0.32114337236890378 0.058325064596638762 0 0.31461423613864459 0.05638253533592489 0 0.32270595932733143 0.053203461574964327 0 0.32114337236890378 0.058325064596638762 0 0.31461423613864459 0.05638253533592489 0 0.30140929427236629 0.045017655708989662 0 0.31123448241187512 0.072589935898307076 0 0.29739535658567728 0.060287397024973391 0 0.30140929427236629 0.045017655708989662 0 0.31123448241187512 0.072589935898307076 0 0.31461423613864459 0.05638253533592489 0 0.30140929427236629 0.045017655708989662 0 0.31123448241187512 0.072589935898307076 0 0.31343102363621822 0.045840435360357167 0 0.31461423613864459 0.05638253533592489 0 0.30140929427236629 0.045017655708989662 0 0.31280791462477092 0.031794574731929579 0 0.31343102363621822 0.045840435360357167 0 0.30140929427236629 0.045017655708989662 0 0.31280791462477092 0.031794574731929579 0 0.30140929427236629 0.045017655708989662 0 0.29158410613285712 0.017445375519672311 0 0.30140929427236629 0.045017655708989662 0 0.2849102750846928 0.039526230414216323 0 0.29158410613285712 0.017445375519672311 0 0.2849102750846928 0.039526230414216323 0 0.28807646062305459 0.056323905407780643 0 0.27832001910397908 0.050275665539532881 0 0.30140929427236629 0.045017655708989662 0 0.2849102750846928 0.039526230414216323 0 0.28807646062305459 0.056323905407780643 0 0.28807646062305459 0.056323905407780643 0 0.27022369114932349 0.061051359782745118 0 0.28851027881433072 0.066196375939965052 0 0.29739535658567728 0.060287397024973391 0 0.28807646062305459 0.056323905407780643 0 0.29183166641530761 0.061414168125171233 0 0.28807646062305459 0.056323905407780643 0 0.29183166641530761 0.061414168125171233 0 0.28851027881433072 0.066196375939965052 0 0.29739535658567728 0.060287397024973391 0 0.30140929427236629 0.045017655708989662 0 0.28807646062305459 0.056323905407780643 0 0.31762153628356848 0.0125801377078211 0 0.29158410613285712 0.017445375519672311 0 0.30501130485267042 -0.0014971883304511779 0 0.31762153628356848 0.0125801377078211 0 0.31280791462477092 0.031794574731929579 0 0.29158410613285712 0.017445375519672311 0 0.2849102750846928 0.039526230414216323 0 0.29158410613285712 0.017445375519672311 0 0.27726085075735363 0.02804887018614444 0 0.30140929427236629 0.045017655708989662 0 0.29158410613285712 0.017445375519672311 0 0.29158410613285712 0.017445375519672311 0 0.28175891799334779 -0.01012690466964521 0 0.29158410613285712 0.017445375519672311 0 0.28175891799334779 -0.01012690466964521 0 0.30501130485267042 -0.0014971883304511779 0 0.26875773324523938 0.014666892188701101 0 0.25507115673211361 -0.0045350410014435294 0 0.28175891799334779 -0.01012690466964521 0 0.29158410613285712 0.017445375519672311 0 0.26875773324523938 0.014666892188701101 0 0.28175891799334779 -0.01012690466964521 0 0.26875773324523938 0.014666892188701101 0 0.27726085075735363 0.02804887018614444 0 0.26198574359321491 0.033908258332737959 0 0.29158410613285712 0.017445375519672311 0 0.26875773324523938 0.014666892188701101 0 0.27726085075735363 0.02804887018614444 0 0.24488562426254959 0.023260794764740599 0 0.26875773324523938 0.014666892188701101 0 0.26198574359321491 0.033908258332737959 0 0.24488562426254959 0.023260794764740599 0 0.26875773324523938 0.014666892188701101 0 0.25507115673211361 -0.0045350410014435294 0 0.28807646062305459 0.056323905407780643 0 0.27022369114932349 0.061051359782745118 0 0.27832001910397908 0.050275665539532881 0 0.27022369114932349 0.061051359782745118 0 0.27832001910397908 0.050275665539532881 0 0.26484266889691022 0.048343386933524621 0 0.27022369114932349 0.061051359782745118 0 0.27832001910397908 0.050275665539532881 0 0.2849102750846928 0.039526230414216323 0 0.27832001910397908 0.050275665539532881 0 0.27314407873522167 0.040032936734429668 0 0.2849102750846928 0.039526230414216323 0 0.27726085075735363 0.02804887018614444 0 0.27314407873522167 0.040032936734429668 0 0.27726085075735363 0.02804887018614444 0 0.27314407873522167 0.040032936734429668 0 0.26198574359321491 0.033908258332737959 0 0.27314407873522167 0.040032936734429668 0 0.26198574359321491 0.033908258332737959 0 0.26484266889691022 0.048343386933524621 0 0.27832001910397908 0.050275665539532881 0 0.27314407873522167 0.040032936734429668 0 0.26484266889691022 0.048343386933524621 0 0.24488562426254959 0.023260794764740599 0 0.26198574359321491 0.033908258332737959 0 0.25177520400336678 0.042524613143754143 0 0.26198574359321491 0.033908258332737959 0 0.25177520400336678 0.042524613143754143 0 0.26484266889691022 0.048343386933524621 0 0.25177520400336678 0.042524613143754143 0 0.26484266889691022 0.048343386933524621 0 0.25246189147116121 0.056053995156836831 0 0.27022369114932349 0.061051359782745118 0 0.25246189147116121 0.056053995156836831 0 0.27022369114932349 0.061051359782745118 0 0.26484266889691022 0.048343386933524621 0 0.25246189147116121 0.056053995156836831 0 0.27022369114932349 0.061051359782745118 0 0.25246189147116121 0.056053995156836831 0 0.25224945453329622 0.068441285752912751 0 0.27022369114932349 0.061051359782745118 0 0.2557397221572818 0.080328595359260457 0 0.27022369114932349 0.061051359782745118 0 0.25224945453329622 0.068441285752912751 0 0.2557397221572818 0.080328595359260457 0 0.27284772979096761 0.081553478889662995 0 0.2547156849319907 0.099331918348845943 0 0.27284772979096761 0.081553478889662995 0 0.2547156849319907 0.099331918348845943 0 0.25389036789066038 0.096150293627130429 0 0.2485246850727259 0.098667562616148161 0 0.2557397221572818 0.080328595359260457 0 0.25389036789066038 0.096150293627130429 0 0.2557397221572818 0.080328595359260457 0 0.27284772979096761 0.081553478889662995 0 0.25389036789066038 0.096150293627130429 0 0.2557397221572818 0.080328595359260457 0 0.27284772979096761 0.081553478889662995 0 0.27284772979096761 0.081553478889662995 0 0.26963844554521482 0.095372485750224667 0 0.2547156849319907 0.099331918348845943 0 0.27284772979096761 0.081553478889662995 0 0.2851675847297992 0.082435544629550758 0 0.27284772979096761 0.081553478889662995 0 0.2851675847297992 0.082435544629550758 0 0.28290113282945661 0.086478041770240682 0 0.27284772979096761 0.081553478889662995 0 0.28290113282945661 0.086478041770240682 0 0.26963844554521482 0.095372485750224667 0 0.27022369114932349 0.061051359782745118 0 0.2557397221572818 0.080328595359260457 0 0.27284772979096761 0.081553478889662995 0 0.27022369114932349 0.061051359782745118 0 0.28851027881433072 0.066196375939965052 0 0.27022369114932349 0.061051359782745118 0 0.27284772979096761 0.081553478889662995 0 0.28851027881433072 0.066196375939965052 0 0.27284772979096761 0.081553478889662995 0 0.28851027881433072 0.066196375939965052 0 0.28851027881433072 0.066196375939965052 0 0.29498381955551162 0.068017736617974153 0 0.2851675847297992 0.082435544629550758 0 0.27284772979096761 0.081553478889662995 0 0.28851027881433072 0.066196375939965052 0 0.2851675847297992 0.082435544629550758 0 0.29183166641530761 0.061414168125171233 0 0.28851027881433072 0.066196375939965052 0 0.29498381955551162 0.068017736617974153 0 0.28851027881433072 0.066196375939965052 0 0.29498381955551162 0.068017736617974153 0 0.29739535658567728 0.060287397024973391 0 0.29498381955551162 0.068017736617974153 0 0.29739535658567728 0.060287397024973391 0 0.29183166641530761 0.061414168125171233 0 0.29498381955551162 0.068017736617974153 0 0.29498381955551162 0.068017736617974153 0 0.2871530795164603 0.093119685710573441 0 0.29498381955551162 0.068017736617974153 0 0.2851675847297992 0.082435544629550758 0 0.2871530795164603 0.093119685710573441 0 0.29498381955551162 0.068017736617974153 0 0.2871530795164603 0.093119685710573441 0 0.29870994567604259 0.086288934276612189 0 0.2851675847297992 0.082435544629550758 0 0.28290113282945661 0.086478041770240682 0 0.2871530795164603 0.093119685710573441 0 0.29870994567604259 0.086288934276612189 0 0.30914314618924599 0.080756855671199196 0 0.30463767113703721 0.077033160214859897 0 0.29870994567604259 0.086288934276612189 0 0.3079929866167358 0.089881368759656743 0 0.29365766304707569 0.1040515017814158 0 0.29870994567604259 0.086288934276612189 0 0.3079929866167358 0.089881368759656743 0 0.30914314618924599 0.080756855671199196 0 0.3120468173300186 0.074869579366969308 0 0.31123448241187512 0.072589935898307076 0 0.30463767113703721 0.077033160214859897 0 0.29498381955551162 0.068017736617974153 0 0.31123448241187512 0.072589935898307076 0 0.30463767113703721 0.077033160214859897 0 0.30914314618924599 0.080756855671199196 0 0.3120468173300186 0.074869579366969308 0 0.30463767113703721 0.077033160214859897 0 0.29498381955551162 0.068017736617974153 0 0.29870994567604259 0.086288934276612189 0 0.30463767113703721 0.077033160214859897 0 0.29739535658567728 0.060287397024973391 0 0.29498381955551162 0.068017736617974153 0 0.31123448241187512 0.072589935898307076 0 0.29498381955551162 0.068017736617974153 0 0.31123448241187512 0.072589935898307076 0 0.3120468173300186 0.074869579366969308 0 0.31123448241187512 0.072589935898307076 0 0.30158018000248532 0.119759836117923 0 0.30739383795764619 0.1009375849746442 0 0.29277311791373628 0.1114547720401598 0 0.30158018000248532 0.119759836117923 0 0.30739383795764619 0.1009375849746442 0 0.31469512853409182 0.1168097818064744 0 0.30158018000248532 0.119759836117923 0 0.30739383795764619 0.1009375849746442 0 0.31469512853409182 0.1168097818064744 0 0.30158018000248532 0.119759836117923 0 0.3076955572030502 0.1303266906902672 0 0.3079929866167358 0.089881368759656743 0 0.30936001040582872 0.094571921240013776 0 0.30739383795764619 0.1009375849746442 0 0.30936001040582872 0.094571921240013776 0 0.30739383795764619 0.1009375849746442 0 0.3079929866167358 0.089881368759656743 0 0.29365766304707569 0.1040515017814158 0 0.3079929866167358 0.089881368759656743 0 0.30739383795764619 0.1009375849746442 0 0.29365766304707569 0.1040515017814158 0 0.30739383795764619 0.1009375849746442 0 0.29277311791373628 0.1114547720401598 0 0.30739383795764619 0.1009375849746442 0 0.29365766304707569 0.1040515017814158 0 0.29277311791373628 0.1114547720401598 0 0.2871530795164603 0.093119685710573441 0 0.29870994567604259 0.086288934276612189 0 0.29365766304707569 0.1040515017814158 0 0.28290113282945661 0.086478041770240682 0 0.2871530795164603 0.093119685710573441 0 0.27421499175265468 0.1037563450018507 0 0.2871530795164603 0.093119685710573441 0 0.29365766304707569 0.1040515017814158 0 0.27932233947741558 0.1182216348031747 0 0.2871530795164603 0.093119685710573441 0 0.27932233947741558 0.1182216348031747 0 0.29277311791373628 0.1114547720401598 0 0.27815239786982637 0.12197195910567531 0 0.29365766304707569 0.1040515017814158 0 0.29277311791373628 0.1114547720401598 0 0.27932233947741558 0.1182216348031747 0 0.29365766304707569 0.1040515017814158 0 0.27932233947741558 0.1182216348031747 0 0.29288121869312372 0.12048331642204139 0 0.28349283669018632 0.12309038905671769 0 0.29367874016608692 0.12762826847336539 0 0.29277311791373628 0.1114547720401598 0 0.29288121869312372 0.12048331642204139 0 0.28349283669018632 0.12309038905671769 0 0.30158018000248532 0.119759836117923 0 0.29288121869312372 0.12048331642204139 0 0.29367874016608692 0.12762826847336539 0 0.30158018000248532 0.119759836117923 0 0.29277311791373628 0.1114547720401598 0 0.29288121869312372 0.12048331642204139 0 0.29277311791373628 0.1114547720401598 0 0.28349283669018632 0.12309038905671769 0 0.27815239786982637 0.12197195910567531 0 0.29277311791373628 0.1114547720401598 0 0.27815239786982637 0.12197195910567531 0 0.27932233947741558 0.1182216348031747 0 0.27421499175265468 0.1037563450018507 0 0.26552885067584842 0.12103464823345859 0 0.28349283669018632 0.12309038905671769 0 0.27815239786982637 0.12197195910567531 0 0.27580937248122123 0.1294826801530122 0 0.27932233947741558 0.1182216348031747 0 0.27202937355224538 0.12637646120689061 0 0.27421499175265468 0.1037563450018507 0 0.26379776082843392 0.1060760142848414 0 0.26552885067584842 0.12103464823345859 0 0.27264325619064422 0.1172399247447799 0 0.27421499175265468 0.1037563450018507 0 0.26552885067584842 0.12103464823345859 0 0.27815239786982637 0.12197195910567531 0 0.27932233947741558 0.1182216348031747 0 0.27202937355224538 0.12637646120689061 0 0.27932233947741558 0.1182216348031747 0 0.27264325619064422 0.1172399247447799 0 0.27202937355224538 0.12637646120689061 0 0.27815239786982637 0.12197195910567531 0 0.27202937355224538 0.12637646120689061 0 0.27815239786982637 0.12197195910567531 0 0.27932233947741558 0.1182216348031747 0 0.27932233947741558 0.1182216348031747 0 0.27264325619064422 0.1172399247447799 0 0.27421499175265468 0.1037563450018507 0 0.27264325619064422 0.1172399247447799 0 0.26552885067584842 0.12103464823345859 0 0.27202937355224538 0.12637646120689061 0 0.26552885067584842 0.12103464823345859 0 0.27202937355224538 0.12637646120689061 0 0.28290113282945661 0.086478041770240682 0 0.27421499175265468 0.1037563450018507 0 0.26963844554521482 0.095372485750224667 0 0.2871530795164603 0.093119685710573441 0 0.27932233947741558 0.1182216348031747 0 0.27421499175265468 0.1037563450018507 0 0.28290113282945661 0.086478041770240682 0 0.27421499175265468 0.1037563450018507 0 0.27421499175265468 0.1037563450018507 0 0.26963844554521482 0.095372485750224667 0 0.26379776082843392 0.1060760142848414 0 0.26379776082843392 0.1060760142848414 0 0.2547156849319907 0.099331918348845943 0 0.25894114000125662 0.1156211885755439 0 0.2547156849319907 0.099331918348845943 0 0.25894114000125662 0.1156211885755439 0 0.24760401894731479 0.10630489487443209 0 0.2547156849319907 0.099331918348845943 0 0.25894114000125662 0.1156211885755439 0 0.26963844554521482 0.095372485750224667 0 0.26379776082843392 0.1060760142848414 0 0.2547156849319907 0.099331918348845943 0 0.24760401894731479 0.10630489487443209 0 0.2547156849319907 0.099331918348845943 0 0.2547156849319907 0.099331918348845943 0 0.25389036789066038 0.096150293627130429 0 0.2485246850727259 0.098667562616148161 0 0.2547156849319907 0.099331918348845943 0 0.25389036789066038 0.096150293627130429 0 0.2485246850727259 0.098667562616148161 0 0.24760401894731479 0.10630489487443209 0 0.2547156849319907 0.099331918348845943 0 0.25894114000125662 0.1156211885755439 0 0.26210967661584911 0.1278360029073102 0 0.26552885067584842 0.12103464823345859 0 0.25894114000125662 0.1156211885755439 0 0.26210967661584911 0.1278360029073102 0 0.26552885067584842 0.12103464823345859 0 0.26210967661584911 0.1278360029073102 0 0.26552885067584842 0.12103464823345859 0 0.25894114000125662 0.1156211885755439 0 0.26379776082843392 0.1060760142848414 0 0.26552885067584842 0.12103464823345859 0 0.25894114000125662 0.1156211885755439 0 0.24728074087785509 0.1165698880688527 0 0.24760401894731479 0.10630489487443209 0 0.25894114000125662 0.1156211885755439 0 0.24760401894731479 0.10630489487443209 0 0.25894114000125662 0.1156211885755439 0 0.24841421863416779 0.12487025200301539 0 0.24728074087785509 0.1165698880688527 0 0.25894114000125662 0.1156211885755439 0 0.24841421863416779 0.12487025200301539 0 0.25894114000125662 0.1156211885755439 0 0.26210967661584911 0.1278360029073102 0 0.24841421863416779 0.12487025200301539 0 0.25063503352337868 0.13313637413336671 0 0.26210967661584911 0.1278360029073102 0 0.25063503352337868 0.13313637413336671 0 0.26210967661584911 0.1278360029073102 0 0.25471493415999991 0.1425454810682216 0 0.25951021007630798 0.13538192631290191 0 0.26210967661584911 0.1278360029073102 0 0.25471493415999991 0.1425454810682216 0 0.25951021007630798 0.13538192631290191 0 0.26335051206218901 0.1326194649394353 0 0.25471493415999991 0.1425454810682216 0 0.26210967661584911 0.1278360029073102 0 0.25471493415999991 0.1425454810682216 0 0.26335051206218901 0.1326194649394353 0 0.25471493415999991 0.1425454810682216 0 0.25951021007630798 0.13538192631290191 0 0.26335051206218901 0.1326194649394353 0 0.26552885067584842 0.12103464823345859 0 0.26210967661584911 0.1278360029073102 0 0.26851487659698392 0.12890455981001361 0 0.25951021007630798 0.13538192631290191 0 0.26335051206218901 0.1326194649394353 0 0.26210967661584911 0.1278360029073102 0 0.26335051206218901 0.1326194649394353 0 0.26210967661584911 0.1278360029073102 0 0.26851487659698392 0.12890455981001361 0 0.26335051206218901 0.1326194649394353 0 0.26210967661584911 0.1278360029073102 0 0.26552885067584842 0.12103464823345859 0 0.26851487659698392 0.12890455981001361 0 0.27202937355224538 0.12637646120689061 0 0.27580937248122123 0.1294826801530122 0 0.26922812615305552 0.15057929547567139 0 0.27580937248122123 0.1294826801530122 0 0.27789808871016608 0.14661550954161631 0 0.28414293081202779 0.1444016076806334 0 0.26335051206218901 0.1326194649394353 0 0.27580937248122123 0.1294826801530122 0 0.26922812615305552 0.15057929547567139 0 0.26335051206218901 0.1326194649394353 0 0.26851487659698392 0.12890455981001361 0 0.27580937248122123 0.1294826801530122 0 0.26851487659698392 0.12890455981001361 0 0.27202937355224538 0.12637646120689061 0 0.27580937248122123 0.1294826801530122 0 0.26851487659698392 0.12890455981001361 0 0.27202937355224538 0.12637646120689061 0 0.26335051206218901 0.1326194649394353 0 0.26851487659698392 0.12890455981001361 0 0.27815239786982637 0.12197195910567531 0 0.27202937355224538 0.12637646120689061 0 0.27580937248122123 0.1294826801530122 0 0.27815239786982637 0.12197195910567531 0 0.27580937248122123 0.1294826801530122 0 0.27202937355224538 0.12637646120689061 0 0.27580937248122123 0.1294826801530122 0 0.26335051206218901 0.1326194649394353 0 0.2701703057472491 0.158909997060868 0 0.27580937248122123 0.1294826801530122 0 0.27789808871016608 0.14661550954161631 0 0.26922812615305552 0.15057929547567139 0 0.26335051206218901 0.1326194649394353 0 0.26922812615305552 0.15057929547567139 0 0.2701703057472491 0.158909997060868 0 0.2760516541884499 0.1546529033177845 0 0.27789808871016608 0.14661550954161631 0 0.26922812615305552 0.15057929547567139 0 0.2760516541884499 0.1546529033177845 0 0.27789808871016608 0.14661550954161631 0 0.2830806591398905 0.1536504058693032 0 0.2760516541884499 0.1546529033177845 0 0.26922812615305552 0.15057929547567139 0 0.2701703057472491 0.158909997060868 0 0.26335051206218901 0.1326194649394353 0 0.26151721314907422 0.1507101567682145 0 0.25471493415999991 0.1425454810682216 0 0.26151721314907422 0.1507101567682145 0 0.2628394769672685 0.15903569168219189 0 0.2701703057472491 0.158909997060868 0 0.26335051206218901 0.1326194649394353 0 0.26151721314907422 0.1507101567682145 0 0.2701703057472491 0.158909997060868 0 0.26151721314907422 0.1507101567682145 0 0.25471493415999991 0.1425454810682216 0 0.25622386542606368 0.15933386483886339 0 0.24247576601688781 0.16689139677573009 0 0.25471493415999991 0.1425454810682216 0 0.25622386542606368 0.15933386483886339 0 0.25622386542606368 0.15933386483886339 0 0.25316802083769918 0.17045115467188021 0 0.26347836758201099 0.16892336961757151 0 0.24247576601688781 0.16689139677573009 0 0.25622386542606368 0.15933386483886339 0 0.25316802083769918 0.17045115467188021 0 0.25316802083769918 0.17045115467188021 0 0.26347836758201099 0.16892336961757151 0 0.25947612679119691 0.17486636671029321 0 0.26151721314907422 0.1507101567682145 0 0.25622386542606368 0.15933386483886339 0 0.2628394769672685 0.15903569168219189 0 0.25622386542606368 0.15933386483886339 0 0.26347836758201099 0.16892336961757151 0 0.2628394769672685 0.15903569168219189 0 0.26347836758201099 0.16892336961757151 0 0.2628394769672685 0.15903569168219189 0 0.2701703057472491 0.158909997060868 0 0.24631191293372251 0.18708186623926701 0 0.25397011602997399 0.1810567586058261 0 0.25583476687377482 0.1922858934871631 0 0.25316802083769918 0.17045115467188021 0 0.25397011602997399 0.1810567586058261 0 0.25947612679119691 0.17486636671029321 0 0.2449165897512576 0.1786649505904794 0 0.25316802083769918 0.17045115467188021 0 0.25397011602997399 0.1810567586058261 0 0.25397011602997399 0.1810567586058261 0 0.25947612679119691 0.17486636671029321 0 0.26411327899219328 0.18299031993587381 0 0.26347836758201099 0.16892336961757151 0 0.25947612679119691 0.17486636671029321 0 0.26411327899219328 0.18299031993587381 0 0.25397011602997399 0.1810567586058261 0 0.26411327899219328 0.18299031993587381 0 0.25583476687377482 0.1922858934871631 0 0.27670312804970659 0.18409424493080781 0 0.27988109119188848 0.1635093086414634 0 0.28518006658824741 0.17285670831816491 0 0.26347836758201099 0.16892336961757151 0 0.26411327899219328 0.18299031993587381 0 0.27670312804970659 0.18409424493080781 0 0.26347836758201099 0.16892336961757151 0 0.27670312804970659 0.18409424493080781 0 0.2701703057472491 0.158909997060868 0 0.27670312804970659 0.18409424493080781 0 0.2701703057472491 0.158909997060868 0 0.27988109119188848 0.1635093086414634 0 0.27670312804970659 0.18409424493080781 0 0.2701703057472491 0.158909997060868 0 0.2760516541884499 0.1546529033177845 0 0.2701703057472491 0.158909997060868 0 0.27988109119188848 0.1635093086414634 0 0.2760516541884499 0.1546529033177845 0 0.27988109119188848 0.1635093086414634 0 0.2830806591398905 0.1536504058693032 0 0.28518006658824741 0.17285670831816491 0 0.2830806591398905 0.1536504058693032 0 0.2939681014786788 0.14440463889141411 0 0.28518006658824741 0.17285670831816491 0 0.2939681014786788 0.14440463889141411 0 0.27988109119188848 0.1635093086414634 0 0.28518006658824741 0.17285670831816491 0 0.2830806591398905 0.1536504058693032 0 0.28518006658824741 0.17285670831816491 0 0.2982038727296551 0.16306742479698899 0 0.2939681014786788 0.14440463889141411 0 0.28518006658824741 0.17285670831816491 0 0.30125219497826611 0.18007120725749731 0 0.28927716538145498 0.19231782135735059 0 0.27670312804970659 0.18409424493080781 0 0.28518006658824741 0.17285670831816491 0 0.28927716538145498 0.19231782135735059 0 0.28518006658824741 0.17285670831816491 0 0.30125219497826611 0.18007120725749731 0 0.2982038727296551 0.16306742479698899 0 0.30125219497826611 0.18007120725749731 0 0.3076460848860787 0.17161157995025769 0 0.31514200906475709 0.18087910351632441 0 0.30125219497826611 0.18007120725749731 0 0.31200171362477108 0.19067661612064099 0 0.31514200906475709 0.18087910351632441 0 0.3076460848860787 0.17161157995025769 0 0.31447302605915478 0.16219321188919161 0 0.31514200906475709 0.18087910351632441 0 0.2982038727296551 0.16306742479698899 0 0.29691456071865979 0.14682589553385489 0 0.31447302605915478 0.16219321188919161 0 0.2982038727296551 0.16306742479698899 0 0.3076460848860787 0.17161157995025769 0 0.31447302605915478 0.16219321188919161 0 0.30125219497826611 0.18007120725749731 0 0.2982038727296551 0.16306742479698899 0 0.3076460848860787 0.17161157995025769 0 0.29576652204732701 0.1385820872612025 0 0.31447302605915478 0.16219321188919161 0 0.29691456071865979 0.14682589553385489 0 0.29576652204732701 0.1385820872612025 0 0.31447302605915478 0.16219321188919161 0 0.31156458426765837 0.142643261882134 0 0.29576652204732701 0.1385820872612025 0 0.31447302605915478 0.16219321188919161 0 0.30158018000248532 0.119759836117923 0 0.3076955572030502 0.1303266906902672 0 0.29576652204732701 0.1385820872612025 0 0.31156458426765837 0.142643261882134 0 0.3076955572030502 0.1303266906902672 0 0.29576652204732701 0.1385820872612025 0 0.30158018000248532 0.119759836117923 0 0.29576652204732701 0.1385820872612025 0 0.29367874016608692 0.12762826847336539 0 0.30158018000248532 0.119759836117923 0 0.29576652204732701 0.1385820872612025 0 0.27580937248122123 0.1294826801530122 0 0.28414293081202779 0.1444016076806334 0 0.2939681014786788 0.14440463889141411 0 0.27580937248122123 0.1294826801530122 0 0.2939681014786788 0.14440463889141411 0 0.28349283669018632 0.12309038905671769 0 0.27580937248122123 0.1294826801530122 0 0.29576652204732701 0.1385820872612025 0 0.27580937248122123 0.1294826801530122 0 0.29576652204732701 0.1385820872612025 0 0.2939681014786788 0.14440463889141411 0 0.28349283669018632 0.12309038905671769 0 0.29576652204732701 0.1385820872612025 0 0.28349283669018632 0.12309038905671769 0 0.29576652204732701 0.1385820872612025 0 0.29367874016608692 0.12762826847336539 0 0.28414293081202779 0.1444016076806334 0 0.2830806591398905 0.1536504058693032 0 0.2939681014786788 0.14440463889141411 0 0.2982038727296551 0.16306742479698899 0 0.29691456071865979 0.14682589553385489 0 0.2939681014786788 0.14440463889141411 0 0.27789808871016608 0.14661550954161631 0 0.28414293081202779 0.1444016076806334 0 0.2830806591398905 0.1536504058693032 0 0.29691456071865979 0.14682589553385489 0 0.29576652204732701 0.1385820872612025 0 0.2939681014786788 0.14440463889141411 0 0.29691456071865979 0.14682589553385489 0 0.2939681014786788 0.14440463889141411 0 0.29576652204732701 0.1385820872612025 0 0.2939681014786788 0.14440463889141411 0 0.27512345585407538 0.2463025367310307 0 0.27179388163021928 0.22404474309178429 0 0.29005194844804699 0.23849299082461689 0 0.27512345585407538 0.2463025367310307 0 0.25916419269841368 0.24538229102785139 0 0.27179388163021928 0.22404474309178429 0 0.23928668947315221 0.2323916017396139 0 0.25916419269841368 0.24538229102785139 0 0.25594514465354418 0.2278537828045504 0 0.25916419269841368 0.24538229102785139 0 0.25594514465354418 0.2278537828045504 0 0.27179388163021928 0.22404474309178429 0 0.25594514465354418 0.2278537828045504 0 0.27179388163021928 0.22404474309178429 0 0.25353581481239162 0.20959649535895189 0 0.27179388163021928 0.22404474309178429 0 0.29005194844804699 0.23849299082461689 0 0.27179388163021928 0.22404474309178429 0 0.27228666192763201 0.19818322042489189 0 0.28571582841304949 0.20830072825331969 0 0.27179388163021928 0.22404474309178429 0 0.25353581481239162 0.20959649535895189 0 0.27228666192763201 0.19818322042489189 0 0.27179388163021928 0.22404474309178429 0 0.25353581481239162 0.20959649535895189 0 0.25353581481239162 0.20959649535895189 0 0.25583476687377482 0.1922858934871631 0 0.27228666192763201 0.19818322042489189 0 0.26411327899219328 0.18299031993587381 0 0.25583476687377482 0.1922858934871631 0 0.27228666192763201 0.19818322042489189 0 0.24278683002938581 0.19728741683585771 0 0.25353581481239162 0.20959649535895189 0 0.25583476687377482 0.1922858934871631 0 0.27670312804970659 0.18409424493080781 0 0.27228666192763201 0.19818322042489189 0 0.28927716538145498 0.19231782135735059 0 0.26411327899219328 0.18299031993587381 0 0.27670312804970659 0.18409424493080781 0 0.27228666192763201 0.19818322042489189 0 0.28927716538145498 0.19231782135735059 0 0.29916091251332161 0.20740007214684569 0 0.28571582841304949 0.20830072825331969 0 0.27228666192763201 0.19818322042489189 0 0.28927716538145498 0.19231782135735059 0 0.28571582841304949 0.20830072825331969 0 0.30125219497826611 0.18007120725749731 0 0.28927716538145498 0.19231782135735059 0 0.30304077102267979 0.19490224891827981 0 0.30125219497826611 0.18007120725749731 0 0.30304077102267979 0.19490224891827981 0 0.31200171362477108 0.19067661612064099 0 0.30304077102267979 0.19490224891827981 0 0.29916091251332161 0.20740007214684569 0 0.31226952161276139 0.20516518544601081 0 0.30304077102267979 0.19490224891827981 0 0.31200171362477108 0.19067661612064099 0 0.31226952161276139 0.20516518544601081 0 0.28927716538145498 0.19231782135735059 0 0.30304077102267979 0.19490224891827981 0 0.29916091251332161 0.20740007214684569 0 0.29916091251332161 0.20740007214684569 0 0.31226952161276139 0.20516518544601081 0 0.30942506135684023 0.2183250120619816 0 0.29916091251332161 0.20740007214684569 0 0.30942506135684023 0.2183250120619816 0 0.29395056358654692 0.22183665606865191 0 0.29916091251332161 0.20740007214684569 0 0.28571582841304949 0.20830072825331969 0 0.29395056358654692 0.22183665606865191 0 0.27179388163021928 0.22404474309178429 0 0.28571582841304949 0.20830072825331969 0 0.29395056358654692 0.22183665606865191 0 0.27179388163021928 0.22404474309178429 0 0.29395056358654692 0.22183665606865191 0 0.29005194844804699 0.23849299082461689 0 0.30942506135684023 0.2183250120619816 0 0.29395056358654692 0.22183665606865191 0 0.30701968094672177 0.23297606471024659 0 0.29395056358654692 0.22183665606865191 0 0.30701968094672177 0.23297606471024659 0 0.29005194844804699 0.23849299082461689 0 0.30942506135684023 0.2183250120619816 0 0.30701968094672177 0.23297606471024659 0 0.31847206462404781 0.22772280286741811 0 0.3083100152658747 0.25294123855744932 0 0.29005194844804699 0.23849299082461689 0 0.3083100152658747 0.25294123855744932 0 0.30701968094672177 0.23297606471024659 0 0.29005194844804699 0.23849299082461689 0 0.3083100152658747 0.25294123855744932 0 0.30701968094672177 0.23297606471024659 0 0.3215627720717773 0.2390234467512414 0 0.27987694588243939 0.26210520192831849 0 0.27512345585407538 0.2463025367310307 0 0.29005194844804699 0.23849299082461689 0 0.32656808208370192 0.2673894862902822 0 0.33693281645895012 0.2434646213280616 0 0.3215627720717773 0.2390234467512414 0 0.34035687143163951 0.25120624042459933 0 0.33693281645895012 0.2434646213280616 0 0.34778673323924031 0.24958637436864911 0 0.33693281645895012 0.2434646213280616 0 0.3215627720717773 0.2390234467512414 0 0.33174481215405011 0.23319953104268679 0 0.31847206462404781 0.22772280286741811 0 0.33174481215405011 0.23319953104268679 0 0.32084637353151718 0.2149855941751766 0 0.3215627720717773 0.2390234467512414 0 0.31847206462404781 0.22772280286741811 0 0.33174481215405011 0.23319953104268679 0 0.30701968094672177 0.23297606471024659 0 0.3215627720717773 0.2390234467512414 0 0.31847206462404781 0.22772280286741811 0 0.30942506135684023 0.2183250120619816 0 0.31847206462404781 0.22772280286741811 0 0.32084637353151718 0.2149855941751766 0 0.33174481215405011 0.23319953104268679 0 0.33246217111251669 0.20950193377993381 0 0.34681327703425768 0.22065760317685429 0 0.33174481215405011 0.23319953104268679 0 0.33246217111251669 0.20950193377993381 0 0.33693281645895012 0.2434646213280616 0 0.34681327703425768 0.22065760317685429 0 0.33693281645895012 0.2434646213280616 0 0.33174481215405011 0.23319953104268679 0 0.34681327703425768 0.22065760317685429 0 0.33174481215405011 0.23319953104268679 0 0.33246217111251669 0.20950193377993381 0 0.32084637353151718 0.2149855941751766 0 0.31226952161276139 0.20516518544601081 0 0.32084637353151718 0.2149855941751766 0 0.3207046103288877 0.19599909985302849 0 0.33246217111251669 0.20950193377993381 0 0.32084637353151718 0.2149855941751766 0 0.3207046103288877 0.19599909985302849 0 0.31226952161276139 0.20516518544601081 0 0.30942506135684023 0.2183250120619816 0 0.32084637353151718 0.2149855941751766 0 0.3207046103288877 0.19599909985302849 0 0.31514200906475709 0.18087910351632441 0 0.33317953007098272 0.1858043365171807 0 0.31200171362477108 0.19067661612064099 0 0.31226952161276139 0.20516518544601081 0 0.3207046103288877 0.19599909985302849 0 0.31200171362477108 0.19067661612064099 0 0.3207046103288877 0.19599909985302849 0 0.31514200906475709 0.18087910351632441 0 0.33246217111251669 0.20950193377993381 0 0.3207046103288877 0.19599909985302849 0 0.33317953007098272 0.1858043365171807 0 0.33246217111251669 0.20950193377993381 0 0.33317953007098272 0.1858043365171807 0 0.33246217111251669 0.20950193377993381 0 0.34402318926013081 0.1923596391392085 0 0.33317953007098272 0.1858043365171807 0 0.34402318926013081 0.1923596391392085 0 0.33317953007098272 0.1858043365171807 0 0.34053083586754901 0.1859225704408905 0 0.33246217111251669 0.20950193377993381 0 0.35669373760956541 0.19785058502564709 0 0.34402318926013081 0.1923596391392085 0 0.35669373760956541 0.19785058502564709 0 0.34402318926013081 0.1923596391392085 0 0.34752827109097278 0.17732461590345891 0 0.35669373760956541 0.19785058502564709 0 0.36657419818487302 0.17504356687443989 0 0.37577674387175791 0.20160076393901941 0 0.35669373760956541 0.19785058502564709 0 0.37406470815103332 0.21914285419121951 0 0.35963609027291521 0.22635747443073739 0 0.35669373760956541 0.19785058502564709 0 0.37406470815103332 0.21914285419121951 0 0.37577674387175791 0.20160076393901941 0 0.35669373760956541 0.19785058502564709 0 0.34681327703425768 0.22065760317685429 0 0.33246217111251669 0.20950193377993381 0 0.35669373760956541 0.19785058502564709 0 0.34681327703425768 0.22065760317685429 0 0.35669373760956541 0.19785058502564709 0 0.34681327703425768 0.22065760317685429 0 0.35963609027291521 0.22635747443073739 0 0.33693281645895012 0.2434646213280616 0 0.34681327703425768 0.22065760317685429 0 0.34996919476328942 0.2369793850253829 0 0.34681327703425768 0.22065760317685429 0 0.35963609027291521 0.22635747443073739 0 0.34996919476328942 0.2369793850253829 0 0.37406470815103332 0.21914285419121951 0 0.35963609027291521 0.22635747443073739 0 0.37102660984626401 0.23925257198647151 0 0.35963609027291521 0.22635747443073739 0 0.37102660984626401 0.23925257198647151 0 0.35924901423308142 0.244261847178849 0 0.36613357719467671 0.25453914141910888 0 0.37102660984626401 0.23925257198647151 0 0.35924901423308142 0.244261847178849 0 0.35963609027291521 0.22635747443073739 0 0.35924901423308142 0.244261847178849 0 0.34996919476328942 0.2369793850253829 0 0.35924901423308142 0.244261847178849 0 0.34996919476328942 0.2369793850253829 0 0.34778673323924031 0.24958637436864911 0 0.33693281645895012 0.2434646213280616 0 0.34996919476328942 0.2369793850253829 0 0.34778673323924031 0.24958637436864911 0 0.33446871146457452 0.14321686882978871 0 0.32059039902557313 0.1486161254495289 0 0.3338241207677789 0.16451060267348469 0 0.33446871146457452 0.14321686882978871 0 0.3338241207677789 0.16451060267348469 0 0.35501684166218028 0.15403364789730381 0 0.33446871146457452 0.14321686882978871 0 0.3338241207677789 0.16451060267348469 0 0.33511330216137009 0.12192313498609279 0 0.33446871146457452 0.14321686882978871 0 0.31929741700318848 0.13349819412048011 0 0.33511330216137009 0.12192313498609279 0 0.33446871146457452 0.14321686882978871 0 0.33511330216137009 0.12192313498609279 0 0.33446871146457452 0.14321686882978871 0 0.35147701743370702 0.12998206918191499 0 0.31469512853409182 0.1168097818064744 0 0.3076955572030502 0.1303266906902672 0 0.31929741700318848 0.13349819412048011 0 0.31156458426765837 0.142643261882134 0 0.3076955572030502 0.1303266906902672 0 0.31929741700318848 0.13349819412048011 0 0.31156458426765837 0.142643261882134 0 0.32059039902557313 0.1486161254495289 0 0.31447302605915478 0.16219321188919161 0 0.31156458426765837 0.142643261882134 0 0.31929741700318848 0.13349819412048011 0 0.32059039902557313 0.1486161254495289 0 0.33446871146457452 0.14321686882978871 0 0.31929741700318848 0.13349819412048011 0 0.32059039902557313 0.1486161254495289 0 0.31447302605915478 0.16219321188919161 0 0.33317953007098272 0.1858043365171807 0 0.3338241207677789 0.16451060267348469 0 0.32059039902557313 0.1486161254495289 0 0.31447302605915478 0.16219321188919161 0 0.3338241207677789 0.16451060267348469 0 0.31447302605915478 0.16219321188919161 0 0.31514200906475709 0.18087910351632441 0 0.33317953007098272 0.1858043365171807 0 0.31447302605915478 0.16219321188919161 0 0.33317953007098272 0.1858043365171807 0 0.33961693810857108 0.1805511484600934 0 0.3338241207677789 0.16451060267348469 0 0.34752827109097278 0.17732461590345891 0 0.33317953007098272 0.1858043365171807 0 0.3338241207677789 0.16451060267348469 0 0.33317953007098272 0.1858043365171807 0 0.33961693810857108 0.1805511484600934 0 0.3338241207677789 0.16451060267348469 0 0.33961693810857108 0.1805511484600934 0 0.34053083586754901 0.1859225704408905 0 0.34752827109097278 0.17732461590345891 0 0.33961693810857108 0.1805511484600934 0 0.34053083586754901 0.1859225704408905 0 0.33679439205664607 0.1847322461172613 0 0.33317953007098272 0.1858043365171807 0 0.33961693810857108 0.1805511484600934 0 0.33679439205664607 0.1847322461172613 0 0.33317953007098272 0.1858043365171807 0 0.34053083586754901 0.1859225704408905 0 0.33679439205664607 0.1847322461172613 0 0.34752827109097278 0.17732461590345891 0 0.36657419818487302 0.17504356687443989 0 0.35501684166218028 0.15403364789730381 0 0.3338241207677789 0.16451060267348469 0 0.34752827109097278 0.17732461590345891 0 0.35501684166218028 0.15403364789730381 0 0.35669373760956541 0.19785058502564709 0 0.34752827109097278 0.17732461590345891 0 0.36657419818487302 0.17504356687443989 0 0.34402318926013081 0.1923596391392085 0 0.34053083586754901 0.1859225704408905 0 0.34752827109097278 0.17732461590345891 0 0.35669373760956541 0.19785058502564709 0 0.36657419818487302 0.17504356687443989 0 0.36657419818487302 0.17504356687443989 0 0.37645465876018058 0.15223654872323281 0 0.36657419818487302 0.17504356687443989 0 0.35501684166218028 0.15403364789730381 0 0.37645465876018058 0.15223654872323281 0 0.35501684166218028 0.15403364789730381 0 0.37281114709885399 0.13394027336086481 0 0.37645465876018058 0.15223654872323281 0 0.33446871146457452 0.14321686882978871 0 0.35501684166218028 0.15403364789730381 0 0.35147701743370702 0.12998206918191499 0 0.35501684166218028 0.15403364789730381 0 0.35147701743370702 0.12998206918191499 0 0.37281114709885399 0.13394027336086481 0 0.36658012664697798 0.11607995366614191 0 0.35147701743370702 0.12998206918191499 0 0.37281114709885399 0.13394027336086481 0 0.37281114709885399 0.13394027336086481 0 0.39239884956066962 0.14388751221757429 0 0.39281359224249762 0.1196211754982715 0 0.39239884956066962 0.14388751221757429 0 0.40739952475875441 0.13375103352703699 0 0.39281359224249762 0.1196211754982715 0 0.39239884956066962 0.14388751221757429 0 0.40739952475875441 0.13375103352703699 0 0.40682659655341141 0.15155457519991111 0 0.39239884956066962 0.14388751221757429 0 0.39407595153629438 0.1572390407789078 0 0.40682659655341141 0.15155457519991111 0 0.37281114709885399 0.13394027336086481 0 0.39239884956066962 0.14388751221757429 0 0.37645465876018058 0.15223654872323281 0 0.39239884956066962 0.14388751221757429 0 0.37645465876018058 0.15223654872323281 0 0.39407595153629438 0.1572390407789078 0 0.36657419818487302 0.17504356687443989 0 0.37645465876018058 0.15223654872323281 0 0.3859896074605782 0.16829888436049631 0 0.37645465876018058 0.15223654872323281 0 0.3859896074605782 0.16829888436049631 0 0.39407595153629438 0.1572390407789078 0 0.36657419818487302 0.17504356687443989 0 0.3859896074605782 0.16829888436049631 0 0.38689727540868629 0.1876125190097272 0 0.3859896074605782 0.16829888436049631 0 0.40318186147908108 0.16850780943902269 0 0.38689727540868629 0.1876125190097272 0 0.40620327573452952 0.18516371566501011 0 0.40318186147908108 0.16850780943902269 0 0.38689727540868629 0.1876125190097272 0 0.40318186147908108 0.16850780943902269 0 0.39407595153629438 0.1572390407789078 0 0.40682659655341141 0.15155457519991111 0 0.3859896074605782 0.16829888436049631 0 0.40318186147908108 0.16850780943902269 0 0.39407595153629438 0.1572390407789078 0 0.40318186147908108 0.16850780943902269 0 0.41935903639285071 0.1593431487626446 0 0.40682659655341141 0.15155457519991111 0 0.40318186147908108 0.16850780943902269 0 0.41935903639285071 0.1593431487626446 0 0.41708120383457781 0.1727439998848381 0 0.41935903639285071 0.1593431487626446 0 0.41708120383457781 0.1727439998848381 0 0.42807768347476161 0.17090464922380291 0 0.40620327573452952 0.18516371566501011 0 0.40318186147908108 0.16850780943902269 0 0.41708120383457781 0.1727439998848381 0 0.40620327573452952 0.18516371566501011 0 0.41708120383457781 0.1727439998848381 0 0.42187164625477142 0.18392008133696011 0 0.42187164625477142 0.18392008133696011 0 0.43349505158986551 0.18186004684820811 0 0.42956911490546479 0.19645616357397749 0 0.42187164625477142 0.18392008133696011 0 0.43349505158986551 0.18186004684820811 0 0.42807768347476161 0.17090464922380291 0 0.41708120383457781 0.1727439998848381 0 0.42187164625477142 0.18392008133696011 0 0.42807768347476161 0.17090464922380291 0 0.43349505158986551 0.18186004684820811 0 0.42807768347476161 0.17090464922380291 0 0.43981800936350091 0.16858943342317431 0 0.41935903639285071 0.1593431487626446 0 0.42807768347476161 0.17090464922380291 0 0.43127656117988422 0.1566256280665812 0 0.42807768347476161 0.17090464922380291 0 0.43127656117988422 0.1566256280665812 0 0.43981800936350091 0.16858943342317431 0 0.43127656117988422 0.1566256280665812 0 0.43308402633216431 0.14025021003661131 0 0.4212401523388693 0.14641692606836859 0 0.43127656117988422 0.1566256280665812 0 0.43308402633216431 0.14025021003661131 0 0.43939799891901149 0.14870669478579379 0 0.41935903639285071 0.1593431487626446 0 0.43127656117988422 0.1566256280665812 0 0.4212401523388693 0.14641692606836859 0 0.43308402633216431 0.14025021003661131 0 0.42398648764572971 0.13236552875078439 0 0.44422534230605037 0.13408935207882691 0 0.42398648764572971 0.13236552875078439 0 0.44422534230605037 0.13408935207882691 0 0.42398648764572971 0.13236552875078439 0 0.44422534230605037 0.13408935207882691 0 0.43500566660301532 0.1226637462614863 0 0.43308402633216431 0.14025021003661131 0 0.42398648764572971 0.13236552875078439 0 0.4212401523388693 0.14641692606836859 0 0.42398648764572971 0.13236552875078439 0 0.40739952475875441 0.13375103352703699 0 0.4212401523388693 0.14641692606836859 0 0.42398648764572971 0.13236552875078439 0 0.40739952475875441 0.13375103352703699 0 0.41827840713907188 0.11962152414364489 0 0.40739952475875441 0.13375103352703699 0 0.40682659655341141 0.15155457519991111 0 0.4212401523388693 0.14641692606836859 0 0.41935903639285071 0.1593431487626446 0 0.40682659655341141 0.15155457519991111 0 0.4212401523388693 0.14641692606836859 0 0.40271910907510888 0.2488673347769414 0 0.38941520385289707 0.2318762399073217 0 0.40866525501236001 0.22644926451802019 0 0.3788795936670441 0.25800478315701542 0 0.40271910907510888 0.2488673347769414 0 0.38941520385289707 0.2318762399073217 0 0.3788795936670441 0.25800478315701542 0 0.37102660984626401 0.23925257198647151 0 0.38941520385289707 0.2318762399073217 0 0.37406470815103332 0.21914285419121951 0 0.37102660984626401 0.23925257198647151 0 0.38941520385289707 0.2318762399073217 0 0.37406470815103332 0.21914285419121951 0 0.38941520385289707 0.2318762399073217 0 0.39375181821166949 0.20949136129481871 0 0.38941520385289707 0.2318762399073217 0 0.39375181821166949 0.20949136129481871 0 0.40866525501236001 0.22644926451802019 0 0.39375181821166949 0.20949136129481871 0 0.40202298535580511 0.19742961811930071 0 0.41573633860437847 0.20885970344072119 0 0.39375181821166949 0.20949136129481871 0 0.40866525501236001 0.22644926451802019 0 0.39375181821166949 0.20949136129481871 0 0.41573633860437847 0.20885970344072119 0 0.40866525501236001 0.22644926451802019 0 0.37406470815103332 0.21914285419121951 0 0.39375181821166949 0.20949136129481871 0 0.37577674387175791 0.20160076393901941 0 0.36657419818487302 0.17504356687443989 0 0.38689727540868629 0.1876125190097272 0 0.37577674387175791 0.20160076393901941 0 0.39375181821166949 0.20949136129481871 0 0.38689727540868629 0.1876125190097272 0 0.37577674387175791 0.20160076393901941 0 0.40620327573452952 0.18516371566501011 0 0.38689727540868629 0.1876125190097272 0 0.40202298535580511 0.19742961811930071 0 0.39375181821166949 0.20949136129481871 0 0.38689727540868629 0.1876125190097272 0 0.40202298535580511 0.19742961811930071 0 0.40620327573452952 0.18516371566501011 0 0.42187164625477142 0.18392008133696011 0 0.41469196589363111 0.19515323507879581 0 0.40620327573452952 0.18516371566501011 0 0.40202298535580511 0.19742961811930071 0 0.41469196589363111 0.19515323507879581 0 0.40202298535580511 0.19742961811930071 0 0.41469196589363111 0.19515323507879581 0 0.41573633860437847 0.20885970344072119 0 0.41469196589363111 0.19515323507879581 0 0.42956911490546479 0.19645616357397749 0 0.41573633860437847 0.20885970344072119 0 0.42187164625477142 0.18392008133696011 0 0.41469196589363111 0.19515323507879581 0 0.42956911490546479 0.19645616357397749 0 0.42956911490546479 0.19645616357397749 0 0.44468399186136243 0.19646600889235069 0 0.43816566512173571 0.18987075094452671 0 0.43349505158986551 0.18186004684820811 0 0.42956911490546479 0.19645616357397749 0 0.43816566512173571 0.18987075094452671 0 0.42956911490546479 0.19645616357397749 0 0.43524949109538241 0.21134159223491919 0 0.44468399186136243 0.19646600889235069 0 0.43524949109538241 0.21134159223491919 0 0.41573633860437847 0.20885970344072119 0 0.4276966037300608 0.22551594840950201 0 0.42956911490546479 0.19645616357397749 0 0.43524949109538241 0.21134159223491919 0 0.41573633860437847 0.20885970344072119 0 0.41573633860437847 0.20885970344072119 0 0.40866525501236001 0.22644926451802019 0 0.4276966037300608 0.22551594840950201 0 0.40866525501236001 0.22644926451802019 0 0.4276966037300608 0.22551594840950201 0 0.42357869181305041 0.24340716774122159 0 0.43524949109538241 0.21134159223491919 0 0.4276966037300608 0.22551594840950201 0 0.44190419451232998 0.22373794212948669 0 0.4276966037300608 0.22551594840950201 0 0.4379356452822552 0.23546608768170749 0 0.44190419451232998 0.22373794212948669 0 0.4276966037300608 0.22551594840950201 0 0.42357869181305041 0.24340716774122159 0 0.4379356452822552 0.23546608768170749 0 0.4371524055486643 0.24630088829334601 0 0.42357869181305041 0.24340716774122159 0 0.4379356452822552 0.23546608768170749 0 0.40271910907510888 0.2488673347769414 0 0.40866525501236001 0.22644926451802019 0 0.42357869181305041 0.24340716774122159 0 0.40866525501236001 0.22644926451802019 0 0.42357869181305041 0.24340716774122159 0 0.45705306047764871 0.24722126530684749 0 0.47136870698509842 0.2292501928567984 0 0.45962121919911231 0.23491403557844329 0 0.45705306047764871 0.24722126530684749 0 0.47136870698509842 0.2292501928567984 0 0.45705306047764871 0.24722126530684749 0 0.47136870698509842 0.2292501928567984 0 0.47230293033111131 0.2425474245934979 0 0.46695963389532219 0.25094932758018068 0 0.45705306047764871 0.24722126530684749 0 0.47230293033111131 0.2425474245934979 0 0.45962121919911231 0.23491403557844329 0 0.45705306047764871 0.24722126530684749 0 0.44951841264914738 0.2411832517048503 0 0.43849212861374032 0.26036507096442352 0 0.4371524055486643 0.24630088829334601 0 0.44951841264914738 0.2411832517048503 0 0.43849212861374032 0.26036507096442352 0 0.45705306047764871 0.24722126530684749 0 0.44951841264914738 0.2411832517048503 0 0.4371524055486643 0.24630088829334601 0 0.4379356452822552 0.23546608768170749 0 0.44951841264914738 0.2411832517048503 0 0.4379356452822552 0.23546608768170749 0 0.44951841264914738 0.2411832517048503 0 0.44542918324668013 0.23138966749443621 0 0.44542918324668013 0.23138966749443621 0 0.44190419451232998 0.22373794212948669 0 0.45040387926019909 0.22586036695832329 0 0.44951841264914738 0.2411832517048503 0 0.44542918324668013 0.23138966749443621 0 0.45040387926019909 0.22586036695832329 0 0.4379356452822552 0.23546608768170749 0 0.44542918324668013 0.23138966749443621 0 0.44190419451232998 0.22373794212948669 0 0.44190419451232998 0.22373794212948669 0 0.45040387926019909 0.22586036695832329 0 0.4507137066427056 0.21236749801081231 0 0.45040387926019909 0.22586036695832329 0 0.46054469668455472 0.2220014324452772 0 0.4507137066427056 0.21236749801081231 0 0.45962121919911231 0.23491403557844329 0 0.44951841264914738 0.2411832517048503 0 0.46054469668455472 0.2220014324452772 0 0.44951841264914738 0.2411832517048503 0 0.45040387926019909 0.22586036695832329 0 0.46054469668455472 0.2220014324452772 0 0.44951841264914738 0.2411832517048503 0 0.46054469668455472 0.2220014324452772 0 0.45962121919911231 0.23491403557844329 0 0.46054469668455472 0.2220014324452772 0 0.47136870698509842 0.2292501928567984 0 0.46054469668455472 0.2220014324452772 0 0.47175987615899501 0.21437771328236471 0 0.47136870698509842 0.2292501928567984 0 0.46054469668455472 0.2220014324452772 0 0.46443357364776378 0.20717275509752761 0 0.47175987615899501 0.21437771328236471 0 0.46443357364776378 0.20717275509752761 0 0.4507137066427056 0.21236749801081231 0 0.45556177883111321 0.20189057126935819 0 0.46054469668455472 0.2220014324452772 0 0.46443357364776378 0.20717275509752761 0 0.4507137066427056 0.21236749801081231 0 0.4507137066427056 0.21236749801081231 0 0.44468399186136243 0.19646600889235069 0 0.45556177883111321 0.20189057126935819 0 0.43524949109538241 0.21134159223491919 0 0.4507137066427056 0.21236749801081231 0 0.44468399186136243 0.19646600889235069 0 0.43524949109538241 0.21134159223491919 0 0.44190419451232998 0.22373794212948669 0 0.4507137066427056 0.21236749801081231 0 0.44468399186136243 0.19646600889235069 0 0.46241584317262102 0.1915560230767423 0 0.44889019094977572 0.18165519632598051 0 0.44468399186136243 0.19646600889235069 0 0.43816566512173571 0.18987075094452671 0 0.44889019094977572 0.18165519632598051 0 0.44468399186136243 0.19646600889235069 0 0.45556177883111321 0.20189057126935819 0 0.46241584317262102 0.1915560230767423 0 0.46443357364776378 0.20717275509752761 0 0.45556177883111321 0.20189057126935819 0 0.46241584317262102 0.1915560230767423 0 0.46443357364776378 0.20717275509752761 0 0.46241584317262102 0.1915560230767423 0 0.47442070651596141 0.20253309095880909 0 0.46241584317262102 0.1915560230767423 0 0.48311519916978207 0.1889758936373386 0 0.47442070651596141 0.20253309095880909 0 0.48311519916978207 0.1889758936373386 0 0.47442070651596141 0.20253309095880909 0 0.48568435349254818 0.2112791204067492 0 0.48311519916978207 0.1889758936373386 0 0.49999999999999878 0.1933080479567007 0 0.50000000000000056 0.18726364288906269 0 0.48311519916978207 0.1889758936373386 0 0.49999999999999878 0.1933080479567007 0 0.48568435349254818 0.2112791204067492 0 0.49999999999999878 0.1933080479567007 0 0.48568435349254818 0.2112791204067492 0 0.49999999999999878 0.1933080479567007 0 0.48568435349254818 0.2112791204067492 0 0.5 0.22254134544644119 0 0.48568435349254818 0.2112791204067492 0 0.47175987615899501 0.21437771328236471 0 0.47136870698509842 0.2292501928567984 0 0.47442070651596141 0.20253309095880909 0 0.48568435349254818 0.2112791204067492 0 0.47175987615899501 0.21437771328236471 0 0.46443357364776378 0.20717275509752761 0 0.47442070651596141 0.20253309095880909 0 0.47175987615899501 0.21437771328236471 0 0.48568435349254818 0.2112791204067492 0 0.47136870698509842 0.2292501928567984 0 0.48568435349254818 0.2112791204067492 0 0.47136870698509842 0.2292501928567984 0 0.48611823503709389 0.23457432297146991 0 0.48568435349254818 0.2112791204067492 0 0.5 0.22254134544644119 0 0.48611823503709389 0.23457432297146991 0 0.5 0.25177464293618179 0 0.5 0.22254134544644119 0 0.48611823503709389 0.23457432297146991 0 0.48001501526039331 0.250742014252193 0 0.5 0.25177464293618179 0 0.48611823503709389 0.23457432297146991 0 0.48001501526039331 0.250742014252193 0 0.48611823503709389 0.23457432297146991 0 0.47230293033111131 0.2425474245934979 0 0.47136870698509842 0.2292501928567984 0 0.48611823503709389 0.23457432297146991 0 0.47230293033111131 0.2425474245934979 0 0.46695963389532219 0.25094932758018068 0 0.48001501526039331 0.250742014252193 0 0.47230293033111131 0.2425474245934979 0 0.4508750227602345 0.1471404659516701 0 0.46649729197548689 0.15716405606396311 0 0.47224360869642701 0.13647577868376601 0 0.46724505665877852 0.12732956874117329 0 0.44422534230605037 0.13408935207882691 0 0.46591936709582471 0.1161112448246919 0 0.46724505665877852 0.12732956874117329 0 0.44422534230605037 0.13408935207882691 0 0.47224360869642701 0.13647577868376601 0 0.44422534230605037 0.13408935207882691 0 0.4508750227602345 0.1471404659516701 0 0.47224360869642701 0.13647577868376601 0 0.44422534230605037 0.13408935207882691 0 0.47224360869642701 0.13647577868376601 0 0.44422534230605037 0.13408935207882691 0 0.46591936709582471 0.1161112448246919 0 0.43308402633216431 0.14025021003661131 0 0.44422534230605037 0.13408935207882691 0 0.44175980766234618 0.14265921150065969 0 0.44175980766234618 0.14265921150065969 0 0.4508750227602345 0.1471404659516701 0 0.43939799891901149 0.14870669478579379 0 0.43308402633216431 0.14025021003661131 0 0.44175980766234618 0.14265921150065969 0 0.43939799891901149 0.14870669478579379 0 0.44422534230605037 0.13408935207882691 0 0.44175980766234618 0.14265921150065969 0 0.4508750227602345 0.1471404659516701 0 0.4508750227602345 0.1471404659516701 0 0.43939799891901149 0.14870669478579379 0 0.44262699422702018 0.15760458222082011 0 0.43127656117988422 0.1566256280665812 0 0.43939799891901149 0.14870669478579379 0 0.44262699422702018 0.15760458222082011 0 0.43981800936350091 0.16858943342317431 0 0.44889019094977572 0.18165519632598051 0 0.45424855004714831 0.16529236810482251 0 0.4508750227602345 0.1471404659516701 0 0.44262699422702018 0.15760458222082011 0 0.45424855004714831 0.16529236810482251 0 0.43127656117988422 0.1566256280665812 0 0.44262699422702018 0.15760458222082011 0 0.43981800936350091 0.16858943342317431 0 0.44262699422702018 0.15760458222082011 0 0.43981800936350091 0.16858943342317431 0 0.45424855004714831 0.16529236810482251 0 0.43349505158986551 0.18186004684820811 0 0.43816566512173571 0.18987075094452671 0 0.44889019094977572 0.18165519632598051 0 0.43349505158986551 0.18186004684820811 0 0.43981800936350091 0.16858943342317431 0 0.44889019094977572 0.18165519632598051 0 0.46241584317262102 0.1915560230767423 0 0.44889019094977572 0.18165519632598051 0 0.46899747402541042 0.17504195679314319 0 0.44889019094977572 0.18165519632598051 0 0.45424855004714831 0.16529236810482251 0 0.46899747402541042 0.17504195679314319 0 0.4508750227602345 0.1471404659516701 0 0.46649729197548689 0.15716405606396311 0 0.45424855004714831 0.16529236810482251 0 0.46649729197548689 0.15716405606396311 0 0.45424855004714831 0.16529236810482251 0 0.46899747402541042 0.17504195679314319 0 0.46649729197548689 0.15716405606396311 0 0.46899747402541042 0.17504195679314319 0 0.48612180434821423 0.16186971078641399 0 0.46241584317262102 0.1915560230767423 0 0.48311519916978207 0.1889758936373386 0 0.46899747402541042 0.17504195679314319 0 0.48311519916978207 0.1889758936373386 0 0.46899747402541042 0.17504195679314319 0 0.48612180434821423 0.16186971078641399 0 0.50000000000000056 0.18726364288906269 0 0.48612180434821423 0.16186971078641399 0 0.48311519916978207 0.1889758936373386 0 0.50000000000000056 0.18726364288906269 0 0.48612180434821423 0.16186971078641399 0 0.50000000000000056 0.18726364288906269 0 0.49999999999999978 0.1610334874621743 0 0.48612180434821423 0.16186971078641399 0 0.49999999999999978 0.1610334874621743 0 0.48477993437222172 0.13754354714252989 0 0.49999999999999928 0.1388399003514372 0 0.49999999999999978 0.1610334874621743 0 0.48477993437222172 0.13754354714252989 0 0.49999999999999978 0.1610334874621743 0 0.48612180434821423 0.16186971078641399 0 0.48477993437222172 0.13754354714252989 0 0.46649729197548689 0.15716405606396311 0 0.48612180434821423 0.16186971078641399 0 0.47224360869642701 0.13647577868376601 0 0.48612180434821423 0.16186971078641399 0 0.47224360869642701 0.13647577868376601 0 0.48477993437222172 0.13754354714252989 0 0.48612180434821423 0.16186971078641399 0 0.47224360869642701 0.13647577868376601 0 0.48477993437222172 0.13754354714252989 0 0.47200195509240811 0.1178226091368044 0 0.46724505665877852 0.12732956874117329 0 0.47224360869642701 0.13647577868376601 0 0.47200195509240811 0.1178226091368044 0 0.47224360869642701 0.13647577868376601 0 0.48477993437222172 0.13754354714252989 0 0.47200195509240811 0.1178226091368044 0 0.46724505665877852 0.12732956874117329 0 0.47224360869642701 0.13647577868376601 0 0.47224360869642701 0.13647577868376601 0 0.48477993437222172 0.13754354714252989 0 0.48477993437222172 0.13754354714252989 0 0.49999999999999528 0.12569998878025049 0 0.47200195509240811 0.1178226091368044 0 0.48477993437222172 0.13754354714252989 0 0.49999999999999928 0.1388399003514372 0 0.48477993437222172 0.13754354714252989 0 0.49999999999999928 0.1388399003514372 0 0.49999999999999528 0.12569998878025049 0 0.49999999999999528 0.12569998878025049 0 0.48183483219300471 0.1029219016166238 0 0.47200195509240811 0.1178226091368044 0 0.49999999999999528 0.12569998878025049 0 0.500000000000003 0.1077755847980667 0 0.48183483219300471 0.1029219016166238 0 0.49999999999999528 0.12569998878025049 0 0.47200195509240811 0.1178226091368044 0 0.500000000000003 0.1077755847980667 0 0.48183483219300471 0.1029219016166238 0 0.49451420720336398 0.092414346376843926 0 0.500000000000003 0.1077755847980667 0 0.49999999999999889 0.087868201886479369 0 0.49451420720336398 0.092414346376843926 0 0.500000000000003 0.1077755847980667 0 0.49451420720336398 0.092414346376843926 0 0.48183483219300471 0.1029219016166238 0 0.49451420720336398 0.092414346376843926 0 0.48183483219300471 0.1029219016166238 0 0.46997803031396862 0.099490176465959049 0 0.47543946144635069 0.086006007181312544 0 0.48183483219300471 0.1029219016166238 0 0.49451420720336398 0.092414346376843926 0 0.47543946144635069 0.086006007181312544 0 0.48183483219300471 0.1029219016166238 0 0.46915545718264501 0.1134294568564031 0 0.48183483219300471 0.1029219016166238 0 0.46997803031396862 0.099490176465959049 0 0.46915545718264501 0.1134294568564031 0 0.48183483219300471 0.1029219016166238 0 0.46915545718264501 0.1134294568564031 0 0.47200195509240811 0.1178226091368044 0 0.46915545718264501 0.1134294568564031 0 0.47200195509240811 0.1178226091368044 0 0.47200195509240811 0.1178226091368044 0 0.46591936709582471 0.1161112448246919 0 0.46915545718264501 0.1134294568564031 0 0.47200195509240811 0.1178226091368044 0 0.46591936709582471 0.1161112448246919 0 0.49999999999999928 0.073124734442808328 0 0.49298188450495001 0.056930390355196148 0 0.49999999999999939 0.058096095542249038 0 0.48671747214026978 0.066422134672053934 0 0.49999999999999928 0.073124734442808328 0 0.49298188450495001 0.056930390355196148 0 0.48575049910613372 0.067874336477467892 0 0.49999999999999928 0.073124734442808328 0 0.49451420720336398 0.092414346376843926 0 0.49999999999999928 0.073124734442808328 0 0.49298188450495001 0.056930390355196148 0 0.48671747214026978 0.066422134672053934 0 0.48575049910613372 0.067874336477467892 0 0.49999999999999928 0.073124734442808328 0 0.49999999999999928 0.073124734442808328 0 0.49999999999999889 0.087868201886479369 0 0.49451420720336398 0.092414346376843926 0 0.48575049910613372 0.067874336477467892 0 0.49451420720336398 0.092414346376843926 0 0.47543946144635069 0.086006007181312544 0 0.48575049910613372 0.067874336477467892 0 0.49451420720336398 0.092414346376843926 0 0.49999999999999889 0.087868201886479369 0 0.49451420720336398 0.092414346376843926 0 0.48575049910613372 0.067874336477467892 0 0.47543946144635069 0.086006007181312544 0 0.46055518110906057 0.063618646906805326 0 0.46055518110906057 0.063618646906805326 0 0.4606694919317465 0.087131522661964708 0 0.44655906215011271 0.084905593571223736 0 0.47543946144635069 0.086006007181312544 0 0.46055518110906057 0.063618646906805326 0 0.4606694919317465 0.087131522661964708 0 0.4606694919317465 0.087131522661964708 0 0.44655906215011271 0.084905593571223736 0 0.46094007302076578 0.1007502156241438 0 0.46997803031396862 0.099490176465959049 0 0.47543946144635069 0.086006007181312544 0 0.4606694919317465 0.087131522661964708 0 0.46055518110906057 0.063618646906805326 0 0.44655906215011271 0.084905593571223736 0 0.4331431795094538 0.063693625542713073 0 0.46724505665877852 0.12732956874117329 0 0.47200195509240811 0.1178226091368044 0 0.46591936709582471 0.1161112448246919 0 0.46915545718264501 0.1134294568564031 0 0.46591936709582471 0.1161112448246919 0 0.46094007302076578 0.1007502156241438 0 0.46915545718264501 0.1134294568564031 0 0.46591936709582471 0.1161112448246919 0 0.46997803031396862 0.099490176465959049 0 0.46915545718264501 0.1134294568564031 0 0.46094007302076578 0.1007502156241438 0 0.46591936709582471 0.1161112448246919 0 0.46094007302076578 0.1007502156241438 0 0.43879484622675291 0.10847963521632829 0 0.46915545718264501 0.1134294568564031 0 0.46094007302076578 0.1007502156241438 0 0.46997803031396862 0.099490176465959049 0 0.4606694919317465 0.087131522661964708 0 0.46094007302076578 0.1007502156241438 0 0.44655906215011271 0.084905593571223736 0 0.43879484622675291 0.10847963521632829 0 0.43056857276787402 0.093815442928056353 0 0.44655906215011271 0.084905593571223736 0 0.46094007302076578 0.1007502156241438 0 0.43879484622675291 0.10847963521632829 0 0.46591936709582471 0.1161112448246919 0 0.43879484622675291 0.10847963521632829 0 0.43500566660301532 0.1226637462614863 0 0.46591936709582471 0.1161112448246919 0 0.43879484622675291 0.10847963521632829 0 0.44422534230605037 0.13408935207882691 0 0.46591936709582471 0.1161112448246919 0 0.43500566660301532 0.1226637462614863 0 0.43879484622675291 0.10847963521632829 0 0.41827840713907188 0.11962152414364489 0 0.41167032535768189 0.1008480256079619 0 0.43879484622675291 0.10847963521632829 0 0.43500566660301532 0.1226637462614863 0 0.41827840713907188 0.11962152414364489 0 0.42398648764572971 0.13236552875078439 0 0.43500566660301532 0.1226637462614863 0 0.41827840713907188 0.11962152414364489 0 0.41827840713907188 0.11962152414364489 0 0.41167032535768189 0.1008480256079619 0 0.39281359224249762 0.1196211754982715 0 0.43879484622675291 0.10847963521632829 0 0.41167032535768189 0.1008480256079619 0 0.43879484622675291 0.10847963521632829 0 0.41167032535768189 0.1008480256079619 0 0.43056857276787402 0.093815442928056353 0 0.44655906215011271 0.084905593571223736 0 0.43056857276787402 0.093815442928056353 0 0.42169559984465022 0.081635085734654264 0 0.44655906215011271 0.084905593571223736 0 0.42169559984465022 0.081635085734654264 0 0.44655906215011271 0.084905593571223736 0 0.4331431795094538 0.063693625542713073 0 0.42169559984465022 0.081635085734654264 0 0.4331431795094538 0.063693625542713073 0 0.41253351948182199 0.065104424832755858 0 0.42169559984465022 0.081635085734654264 0 0.41253351948182199 0.065104424832755858 0 0.42169559984465022 0.081635085734654264 0 0.39683213753918772 0.078364577898084792 0 0.41167032535768189 0.1008480256079619 0 0.42169559984465022 0.081635085734654264 0 0.40665487842817849 0.088019989644888386 0 0.41167032535768189 0.1008480256079619 0 0.43056857276787402 0.093815442928056353 0 0.42169559984465022 0.081635085734654264 0 0.42169559984465022 0.081635085734654264 0 0.39683213753918772 0.078364577898084792 0 0.42169559984465022 0.081635085734654264 0 0.40665487842817849 0.088019989644888386 0 0.39683213753918772 0.078364577898084792 0 0.41167032535768189 0.1008480256079619 0 0.40665487842817849 0.088019989644888386 0 0.39253640226527869 0.087810572937936551 0 0.40665487842817849 0.088019989644888386 0 0.39683213753918772 0.078364577898084792 0 0.39253640226527869 0.087810572937936551 0 0.41253351948182199 0.065104424832755858 0 0.39683213753918772 0.078364577898084792 0 0.39432178524984768 0.058974301683280682 0 0.37196867523372512 0.075094070061515111 0 0.39432178524984768 0.058974301683280682 0 0.37196867523372512 0.075094070061515111 0 0.37824264548110509 0.056886857138190507 0 0.39432178524984768 0.058974301683280682 0 0.37196867523372512 0.075094070061515111 0 0.39683213753918772 0.078364577898084792 0 0.39432178524984768 0.058974301683280682 0 0.37196867523372512 0.075094070061515111 0 0.39683213753918772 0.078364577898084792 0 0.35742128361954051 0.085584806391227328 0 0.38454580448861098 0.093216415999595487 0 0.38354659254428841 0.091320358415573483 0 0.36736180175733302 0.078416280408697803 0 0.38354659254428841 0.091320358415573483 0 0.37196867523372512 0.075094070061515111 0 0.39253640226527869 0.087810572937936551 0 0.38354659254428841 0.091320358415573483 0 0.37196867523372512 0.075094070061515111 0 0.39683213753918772 0.078364577898084792 0 0.39253640226527869 0.087810572937936551 0 0.39253640226527869 0.087810572937936551 0 0.38454580448861098 0.093216415999595487 0 0.38354659254428841 0.091320358415573483 0 0.36658012664697798 0.11607995366614191 0 0.37281114709885399 0.13394027336086481 0 0.39281359224249762 0.1196211754982715 0 0.36658012664697798 0.11607995366614191 0 0.38454580448861098 0.093216415999595487 0 0.39281359224249762 0.1196211754982715 0 0.40739952475875441 0.13375103352703699 0 0.41827840713907188 0.11962152414364489 0 0.39281359224249762 0.1196211754982715 0 0.41167032535768189 0.1008480256079619 0 0.39253640226527869 0.087810572937936551 0 0.38454580448861098 0.093216415999595487 0 0.41167032535768189 0.1008480256079619 0 0.38454580448861098 0.093216415999595487 0 0.41167032535768189 0.1008480256079619 0 0.38454580448861098 0.093216415999595487 0 0.39281359224249762 0.1196211754982715 0 0.37781214046771111 0.011818461059692 0 0.4096873822535903 0.019286292193721931 0 0.40007944284021463 -0.0078928145975569082 0 0.37781214046771111 0.011818461059692 0 0.38630734050745957 0.038757864402103409 0 0.4096873822535903 0.019286292193721931 0 0.37781214046771111 0.011818461059692 0 0.40007944284021463 -0.0078928145975569082 0 0.38630734050745957 0.038757864402103409 0 0.37824264548110509 0.056886857138190507 0 0.39432178524984768 0.058974301683280682 0 0.37026461567553448 0.048757981701712423 0 0.38630734050745957 0.038757864402103409 0 0.37824264548110509 0.056886857138190507 0 0.39432178524984768 0.058974301683280682 0 0.41667489526597051 0.042854533305046502 0 0.38630734050745957 0.038757864402103409 0 0.41667489526597051 0.042854533305046502 0 0.4096873822535903 0.019286292193721931 0 0.38630734050745957 0.038757864402103409 0 0.39432178524984768 0.058974301683280682 0 0.41667489526597051 0.042854533305046502 0 0.4331431795094538 0.063693625542713073 0 0.41253351948182199 0.065104424832755858 0 0.41667489526597051 0.042854533305046502 0 0.41253351948182199 0.065104424832755858 0 0.39432178524984768 0.058974301683280682 0 0.41667489526597051 0.042854533305046502 0 0.4331431795094538 0.063693625542713073 0 0.41667489526597051 0.042854533305046502 0 0.44235714391997771 0.042477415941240437 0 0.41667489526597051 0.042854533305046502 0 0.4305882248864874 0.03008879364033603 0 0.44235714391997771 0.042477415941240437 0 0.4305882248864874 0.03008879364033603 0 0.4096873822535903 0.019286292193721931 0 0.43387725403012412 0.013409190412866029 0 0.41667489526597051 0.042854533305046502 0 0.4305882248864874 0.03008879364033603 0 0.4096873822535903 0.019286292193721931 0 0.4096873822535903 0.019286292193721931 0 0.42228321284538262 0.0049718784443159502 0 0.40007944284021463 -0.0078928145975569082 0 0.4096873822535903 0.019286292193721931 0 0.42228321284538262 0.0049718784443159502 0 0.43387725403012412 0.013409190412866029 0 0.42228321284538262 0.0049718784443159502 0 0.43387725403012412 0.013409190412866029 0 0.43708721348028812 -0.002075694141195723 0 0.43387725403012412 0.013409190412866029 0 0.45615177105817473 0.0038644848218230142 0 0.43708721348028812 -0.002075694141195723 0 0.43387725403012412 0.013409190412866029 0 0.44869493075763001 0.023730206978540742 0 0.45615177105817473 0.0038644848218230142 0 0.4305882248864874 0.03008879364033603 0 0.43387725403012412 0.013409190412866029 0 0.44869493075763001 0.023730206978540742 0 0.44869493075763001 0.023730206978540742 0 0.46822308291167503 0.018794316678714909 0 0.46005869950852363 0.035628493998067043 0 0.46822308291167503 0.018794316678714909 0 0.46219605854088031 0.001917529355113481 0 0.45615177105817473 0.0038644848218230142 0 0.46822308291167503 0.018794316678714909 0 0.46219605854088031 0.001917529355113481 0 0.46822308291167503 0.018794316678714909 0 0.46219605854088031 0.001917529355113481 0 0.47155608800135551 0.0074902349209964442 0 0.46822308291167503 0.018794316678714909 0 0.45615177105817473 0.0038644848218230142 0 0.44869493075763001 0.023730206978540742 0 0.46822308291167503 0.018794316678714909 0 0.45615177105817473 0.0038644848218230142 0 0.46055518110906057 0.063618646906805326 0 0.4331431795094538 0.063693625542713073 0 0.44235714391997771 0.042477415941240437 0 0.4305882248864874 0.03008879364033603 0 0.44869493075763001 0.023730206978540742 0 0.44235714391997771 0.042477415941240437 0 0.44869493075763001 0.023730206978540742 0 0.44235714391997771 0.042477415941240437 0 0.46005869950852363 0.035628493998067043 0 0.46822308291167503 0.018794316678714909 0 0.46005869950852363 0.035628493998067043 0 0.47698679100890412 0.043334326578091553 0 0.46055518110906057 0.063618646906805326 0 0.44235714391997771 0.042477415941240437 0 0.46005869950852363 0.035628493998067043 0 0.46055518110906057 0.063618646906805326 0 0.46005869950852363 0.035628493998067043 0 0.47698679100890412 0.043334326578091553 0 0.48671747214026978 0.066422134672053934 0 0.47698679100890412 0.043334326578091553 0 0.48267499133532821 0.036668476951838933 0 0.48575049910613372 0.067874336477467892 0 0.46055518110906057 0.063618646906805326 0 0.47698679100890412 0.043334326578091553 0 0.48575049910613372 0.067874336477467892 0 0.47698679100890412 0.043334326578091553 0 0.48671747214026978 0.066422134672053934 0 0.48575049910613372 0.067874336477467892 0 0.47698679100890412 0.043334326578091553 0 0.46822308291167503 0.018794316678714909 0 0.47698679100890412 0.043334326578091553 0 0.48267499133532821 0.036668476951838933 0 0.48267499133532821 0.036668476951838933 0 0.48197808146333498 0.031539048070510167 0 0.48596376900990179 0.040736046267583502 0 0.48197808146333498 0.031539048070510167 0 0.48596376900990179 0.040736046267583502 0 0.48267499133532821 0.036668476951838933 0 0.48596376900990179 0.040736046267583502 0 0.48267499133532821 0.036668476951838933 0 0.48197808146333498 0.031539048070510167 0 0.48596376900990179 0.040736046267583502 0 0.49999999999999939 0.058096095542249038 0 0.5 0.02903810765914927 0 0.48197808146333498 0.031539048070510167 0 0.48596376900990179 0.040736046267583502 0 0.5 0.02903810765914927 0 0.48671747214026978 0.066422134672053934 0 0.48596376900990179 0.040736046267583502 0 0.49298188450495001 0.056930390355196148 0 0.48596376900990179 0.040736046267583502 0 0.49999999999999939 0.058096095542249038 0 0.48671747214026978 0.066422134672053934 0 0.48267499133532821 0.036668476951838933 0 0.48671747214026978 0.066422134672053934 0 0.48267499133532821 0.036668476951838933 0 0.48596376900990179 0.040736046267583502 0 0.48596376900990179 0.040736046267583502 0 0.49298188450495001 0.056930390355196148 0 0.48596376900990179 0.040736046267583502 0 0.49298188450495001 0.056930390355196148 0 0.49999999999999939 0.058096095542249038 0 0.46822308291167503 0.018794316678714909 0 0.48267499133532821 0.036668476951838933 0 0.46822308291167503 0.018794316678714909 0 0.47698679100890412 0.043334326578091553 0 0.46822308291167503 0.018794316678714909 0 0.48197808146333498 0.031539048070510167 0 0.47155608800135551 0.0074902349209964442 0 0.46822308291167503 0.018794316678714909 0 0.48267499133532821 0.036668476951838933 0 0.48197808146333498 0.031539048070510167 0 0.48197808146333498 0.031539048070510167 0 0.47155608800135551 0.0074902349209964442 0 0.47877244834931387 0.0079447961609958144 0 0.48197808146333498 0.031539048070510167 0 0.47155608800135551 0.0074902349209964442 0 0.48197808146333498 0.031539048070510167 0 0.47877244834931387 0.0079447961609958144 0 0.48935613087005331 0.01852173673177375 0 0.48197808146333498 0.031539048070510167 0 0.47877244834931387 0.0079447961609958144 0 0.48197808146333498 0.031539048070510167 0 0.48935613087005331 0.01852173673177375 0 0.5 0.02903810765914927 0 0.48935613087005331 0.01852173673177375 0 0.5 0.02903810765914927 0 0.5 -1.9880223950441419e-05 0 0.48935613087005331 0.01852173673177375 0 0.48851913909648981 0.0058449262981274362 0 0.5 -1.9880223950441419e-05 0 0.47877244834931387 0.0079447961609958144 0 0.48935613087005331 0.01852173673177375 0 0.48851913909648981 0.0058449262981274362 0 0.48851913909648981 0.0058449262981274362 0 0.5 -1.9880223950441419e-05 0 0.48594797716659188 -0.003066947476309376 0 0.47877244834931387 0.0079447961609958144 0 0.48851913909648981 0.0058449262981274362 0 0.48594797716659188 -0.003066947476309376 0 0.5 -1.9880223950441419e-05 0 0.48841636793431442 -0.014126474944722439 0 0.49999999999999989 -0.02907786810705015 0 0.5 -1.9880223950441419e-05 0 0.48841636793431442 -0.014126474944722439 0 0.48594797716659188 -0.003066947476309376 0 0.47155608800135551 0.0074902349209964442 0 0.47556681523529232 -0.015649455748518511 0 0.46113409453937559 -0.016558578228517241 0 0.47155608800135551 0.0074902349209964442 0 0.47877244834931387 0.0079447961609958144 0 0.47556681523529232 -0.015649455748518511 0 0.47877244834931387 0.0079447961609958144 0 0.47556681523529232 -0.015649455748518511 0 0.47877244834931387 0.0079447961609958144 0 0.48594797716659188 -0.003066947476309376 0 0.47556681523529232 -0.015649455748518511 0 0.48841636793431442 -0.014126474944722439 0 0.48594797716659188 -0.003066947476309376 0 0.47556681523529232 -0.015649455748518511 0 0.47556681523529232 -0.015649455748518511 0 0.4805670472696878 -0.022818223167783709 0 0.46113409453937559 -0.016558578228517241 0 0.4805670472696878 -0.022818223167783709 0 0.46113409453937559 -0.016558578228517241 0 0.4805670472696878 -0.022818223167783709 0 0.47007751833266331 -0.033481777748847003 0 0.46113409453937559 -0.016558578228517241 0 0.48841636793431442 -0.014126474944722439 0 0.47556681523529232 -0.015649455748518511 0 0.4805670472696878 -0.022818223167783709 0 0.4805670472696878 -0.022818223167783709 0 0.49999999999999989 -0.02907786810705015 0 0.48267155981439358 -0.040714349727179848 0 0.4805670472696878 -0.022818223167783709 0 0.49999999999999989 -0.02907786810705015 0 0.48841636793431442 -0.014126474944722439 0 0.4805670472696878 -0.022818223167783709 0 0.49999999999999989 -0.02907786810705015 0 0.49999999999999989 -0.02907786810705015 0 0.5 -0.0501372179362915 0 0.48267155981439358 -0.040714349727179848 0 0.5 -0.0501372179362915 0 0.48243519269847912 -0.055589144870051538 0 0.48267155981439358 -0.040714349727179848 0 0.5 -0.0501372179362915 0 0.48243519269847912 -0.055589144870051538 0 0.49999999999999972 -0.071196567765532792 0 0.48243519269847912 -0.055589144870051538 0 0.46543178729887452 -0.057009600894151059 0 0.47885917041884618 -0.070737431790264232 0 0.48243519269847912 -0.055589144870051538 0 0.46818507597775177 -0.044343279841273231 0 0.46543178729887452 -0.057009600894151059 0 0.48243519269847912 -0.055589144870051538 0 0.48267155981439358 -0.040714349727179848 0 0.46818507597775177 -0.044343279841273231 0 0.4805670472696878 -0.022818223167783709 0 0.48267155981439358 -0.040714349727179848 0 0.47007751833266331 -0.033481777748847003 0 0.48267155981439358 -0.040714349727179848 0 0.47007751833266331 -0.033481777748847003 0 0.46818507597775177 -0.044343279841273231 0 0.47007751833266331 -0.033481777748847003 0 0.46818507597775177 -0.044343279841273231 0 0.45973828709406089 -0.03911706327840575 0 0.45973828709406089 -0.03911706327840575 0 0.44972408244724632 -0.042887250361960699 0 0.46113409453937559 -0.016558578228517241 0 0.46818507597775177 -0.044343279841273231 0 0.45973828709406089 -0.03911706327840575 0 0.45790215234190379 -0.050438518518747318 0 0.45973828709406089 -0.03911706327840575 0 0.45322130347132122 -0.047165642832237953 0 0.44972408244724632 -0.042887250361960699 0 0.45973828709406089 -0.03911706327840575 0 0.45790215234190379 -0.050438518518747318 0 0.45322130347132122 -0.047165642832237953 0 0.46818507597775177 -0.044343279841273231 0 0.46543178729887452 -0.057009600894151059 0 0.45790215234190379 -0.050438518518747318 0 0.45790215234190379 -0.050438518518747318 0 0.45196133646207581 -0.060130411747981193 0 0.45254774636166378 -0.051814003834461823 0 0.45790215234190379 -0.050438518518747318 0 0.45322130347132122 -0.047165642832237953 0 0.45254774636166378 -0.051814003834461823 0 0.46543178729887452 -0.057009600894151059 0 0.45790215234190379 -0.050438518518747318 0 0.45196133646207581 -0.060130411747981193 0 0.46543178729887452 -0.057009600894151059 0 0.45196133646207581 -0.060130411747981193 0 0.45771834083769292 -0.070278295814995673 0 0.44461404758522072 -0.047315365912055998 0 0.43657751125653932 -0.069819159839733178 0 0.44710619317135453 -0.049521442238880803 0 0.44461404758522072 -0.047315365912055998 0 0.43657751125653932 -0.069819159839733178 0 0.45196133646207581 -0.060130411747981193 0 0.44710619317135453 -0.049521442238880803 0 0.43657751125653932 -0.069819159839733178 0 0.45196133646207581 -0.060130411747981193 0 0.45254774636166378 -0.051814003834461823 0 0.44710619317135453 -0.049521442238880803 0 0.45322130347132122 -0.047165642832237953 0 0.45254774636166378 -0.051814003834461823 0 0.44710619317135453 -0.049521442238880803 0 0.44710619317135453 -0.049521442238880803 0 0.44461404758522072 -0.047315365912055998 0 0.44461404758522072 -0.047315365912055998 0 0.43971914779880028 -0.027058364978177499 0 0.45039154087765132 -0.03113731194027133 0 0.44461404758522072 -0.047315365912055998 0 0.45039154087765132 -0.03113731194027133 0 0.44461404758522072 -0.047315365912055998 0 0.44972408244724632 -0.042887250361960699 0 0.45039154087765132 -0.03113731194027133 0 0.45322130347132122 -0.047165642832237953 0 0.44710619317135453 -0.049521442238880803 0 0.44972408244724632 -0.042887250361960699 0 0.44710619317135453 -0.049521442238880803 0 0.44461404758522072 -0.047315365912055998 0 0.44972408244724632 -0.042887250361960699 0 0.45039154087765132 -0.03113731194027133 0 0.4463689308804899 -0.020006213651663059 0 0.45616903417008542 -0.01495925796848788 0 0.43971914779880028 -0.027058364978177499 0 0.45039154087765132 -0.03113731194027133 0 0.4463689308804899 -0.020006213651663059 0 0.43971914779880028 -0.027058364978177499 0 0.4463689308804899 -0.020006213651663059 0 0.4397069446241112 -0.016474521953578201 0 0.4463689308804899 -0.020006213651663059 0 0.4397069446241112 -0.016474521953578201 0 0.44408045920467409 -0.0110653470350686 0 0.45615177105817473 0.0038644848218230142 0 0.44408045920467409 -0.0110653470350686 0 0.45616903417008542 -0.01495925796848788 0 0.4397069446241112 -0.016474521953578201 0 0.44129170459163608 -0.01016704743322122 0 0.43672097882620248 -0.012371471125990369 0 0.45615177105817473 0.0038644848218230142 0 0.44408045920467409 -0.0110653470350686 0 0.43708721348028812 -0.002075694141195723 0 0.44129170459163608 -0.01016704743322122 0 0.4350280004827094 -0.0081566294497829803 0 0.43672097882620248 -0.012371471125990369 0 0.44129170459163608 -0.01016704743322122 0 0.44408045920467409 -0.0110653470350686 0 0.4397069446241112 -0.016474521953578201 0 0.44129170459163608 -0.01016704743322122 0 0.44408045920467409 -0.0110653470350686 0 0.4397069446241112 -0.016474521953578201 0 0.44408045920467409 -0.0110653470350686 0 0.44129170459163608 -0.01016704743322122 0 0.44408045920467409 -0.0110653470350686 0 0.43708721348028812 -0.002075694141195723 0 0.44129170459163608 -0.01016704743322122 0 0.43708721348028812 -0.002075694141195723 0 0.4350280004827094 -0.0081566294497829803 0 0.45615177105817473 0.0038644848218230142 0 0.44408045920467409 -0.0110653470350686 0 0.4463689308804899 -0.020006213651663059 0 0.44408045920467409 -0.0110653470350686 0 0.45616903417008542 -0.01495925796848788 0 0.44408045920467409 -0.0110653470350686 0 0.45616903417008542 -0.01495925796848788 0 0.46219605854088031 0.001917529355113481 0 0.45616903417008542 -0.01495925796848788 0 0.47155608800135551 0.0074902349209964442 0 0.46113409453937559 -0.016558578228517241 0 0.46219605854088031 0.001917529355113481 0 0.47155608800135551 0.0074902349209964442 0 0.46113409453937559 -0.016558578228517241 0 0.46219605854088031 0.001917529355113481 0 0.45616903417008542 -0.01495925796848788 0 0.46113409453937559 -0.016558578228517241 0 0.46219605854088031 0.001917529355113481 0 0.45615177105817473 0.0038644848218230142 0 0.45616903417008542 -0.01495925796848788 0 0.44972408244724632 -0.042887250361960699 0 0.46113409453937559 -0.016558578228517241 0 0.45039154087765132 -0.03113731194027133 0 0.45616903417008542 -0.01495925796848788 0 0.46113409453937559 -0.016558578228517241 0 0.47007751833266331 -0.033481777748847003 0 0.45973828709406089 -0.03911706327840575 0 0.46113409453937559 -0.016558578228517241 0 0.44972408244724632 -0.042887250361960699 0 0.45039154087765132 -0.03113731194027133 0 0.46113409453937559 -0.016558578228517241 0 0.45039154087765132 -0.03113731194027133 0 0.45616903417008542 -0.01495925796848788 0 0.45616903417008542 -0.01495925796848788 0 0.46113409453937559 -0.016558578228517241 0 0.47504955140379312 -0.12213913943755771 0 0.47614234067241079 -0.10751370462274409 0 0.46070877659708748 -0.1141990848355476 0 0.47504955140379312 -0.12213913943755771 0 0.48301851012390928 -0.11689169084179681 0 0.47614234067241079 -0.10751370462274409 0 0.47504955140379312 -0.12213913943755771 0 0.48301851012390928 -0.11689169084179681 0 0.48350878601982578 -0.12670694884668229 0 0.48301851012390928 -0.11689169084179681 0 0.49277468475978359 -0.12616402914135411 0 0.48350878601982578 -0.12670694884668229 0 0.5 -0.1213848863617026 0 0.48916202713967538 -0.1034594412330949 0 0.49277468475978359 -0.12616402914135411 0 0.48301851012390928 -0.11689169084179681 0 0.48916202713967538 -0.1034594412330949 0 0.49277468475978359 -0.12616402914135411 0 0.48916202713967538 -0.1034594412330949 0 0.49277468475978359 -0.12616402914135411 0 0.5 -0.096290727063617687 0 0.48916202713967538 -0.1034594412330949 0 0.48576466762193482 -0.086546150137087871 0 0.5 -0.1213848863617026 0 0.5 -0.096290727063617687 0 0.48916202713967538 -0.1034594412330949 0 0.48916202713967538 -0.1034594412330949 0 0.48018740094541801 -0.096774006350890229 0 0.48576466762193482 -0.086546150137087871 0 0.48301851012390928 -0.11689169084179681 0 0.48916202713967538 -0.1034594412330949 0 0.47614234067241079 -0.10751370462274409 0 0.48916202713967538 -0.1034594412330949 0 0.48018740094541801 -0.096774006350890229 0 0.47614234067241079 -0.10751370462274409 0 0.48018740094541801 -0.096774006350890229 0 0.47614234067241079 -0.10751370462274409 0 0.4685683416594098 -0.091960587866717736 0 0.48576466762193482 -0.086546150137087871 0 0.47885917041884618 -0.070737431790264232 0 0.4685683416594098 -0.091960587866717736 0 0.48018740094541801 -0.096774006350890229 0 0.48576466762193482 -0.086546150137087871 0 0.4685683416594098 -0.091960587866717736 0 0.5 -0.096290727063617687 0 0.48576466762193482 -0.086546150137087871 0 0.49999999999999972 -0.071196567765532792 0 0.49999999999999972 -0.071196567765532792 0 0.47885917041884618 -0.070737431790264232 0 0.48243519269847912 -0.055589144870051538 0 0.49999999999999972 -0.071196567765532792 0 0.47885917041884618 -0.070737431790264232 0 0.48576466762193482 -0.086546150137087871 0 0.49999999999999972 -0.071196567765532792 0 0.47885917041884618 -0.070737431790264232 0 0.47885917041884618 -0.070737431790264232 0 0.45771834083769292 -0.070278295814995673 0 0.46543178729887452 -0.057009600894151059 0 0.47885917041884618 -0.070737431790264232 0 0.45771834083769292 -0.070278295814995673 0 0.47885917041884618 -0.070737431790264232 0 0.45771834083769292 -0.070278295814995673 0 0.4685683416594098 -0.091960587866717736 0 0.45196133646207581 -0.060130411747981193 0 0.45771834083769292 -0.070278295814995673 0 0.43657751125653932 -0.069819159839733178 0 0.45771834083769292 -0.070278295814995673 0 0.43657751125653932 -0.069819159839733178 0 0.45771834083769292 -0.070278295814995673 0 0.44717288961614921 -0.082892737679819486 0 0.43657751125653932 -0.069819159839733178 0 0.44717288961614921 -0.082892737679819486 0 0.44820948343024147 -0.097273446218594184 0 0.42720334545339439 -0.096068564664198081 0 0.45771834083769292 -0.070278295814995673 0 0.44717288961614921 -0.082892737679819486 0 0.4685683416594098 -0.091960587866717736 0 0.44717288961614921 -0.082892737679819486 0 0.4685683416594098 -0.091960587866717736 0 0.44820948343024147 -0.097273446218594184 0 0.47614234067241079 -0.10751370462274409 0 0.4685683416594098 -0.091960587866717736 0 0.46070877659708748 -0.1141990848355476 0 0.4685683416594098 -0.091960587866717736 0 0.44820948343024147 -0.097273446218594184 0 0.46070877659708748 -0.1141990848355476 0 0.44820948343024147 -0.097273446218594184 0 0.44600983030273228 -0.1155910358292109 0 0.46070877659708748 -0.1141990848355476 0 0.44820948343024147 -0.097273446218594184 0 0.44600983030273228 -0.1155910358292109 0 0.43257953552050199 -0.11414317645790049 0 0.44600983030273228 -0.1155910358292109 0 0.43257953552050199 -0.11414317645790049 0 0.43926187276642198 -0.12549397117413871 0 0.44600983030273228 -0.1155910358292109 0 0.46070877659708748 -0.1141990848355476 0 0.45121471096082139 -0.12760653268975669 0 0.44600983030273228 -0.1155910358292109 0 0.45121471096082139 -0.12760653268975669 0 0.43926187276642198 -0.12549397117413871 0 0.47504955140379312 -0.12213913943755771 0 0.46070877659708748 -0.1141990848355476 0 0.46603305814036872 -0.13249713390087281 0 0.46070877659708748 -0.1141990848355476 0 0.46603305814036872 -0.13249713390087281 0 0.45121471096082139 -0.12760653268975669 0 0.41782917965024757 -0.1223179694886625 0 0.40731946218852388 -0.1063841989377044 0 0.40001871730450089 -0.1186308914517533 0 0.41782917965024757 -0.1223179694886625 0 0.43257953552050199 -0.11414317645790049 0 0.42720334545339439 -0.096068564664198081 0 0.41782917965024757 -0.1223179694886625 0 0.43257953552050199 -0.11414317645790049 0 0.42805281342571361 -0.13249761701672449 0 0.43257953552050199 -0.11414317645790049 0 0.42805281342571361 -0.13249761701672449 0 0.43926187276642198 -0.12549397117413871 0 0.41782917965024757 -0.1223179694886625 0 0.42720334545339439 -0.096068564664198081 0 0.44820948343024147 -0.097273446218594184 0 0.43257953552050199 -0.11414317645790049 0 0.42720334545339439 -0.096068564664198081 0 0.42720334545339439 -0.096068564664198081 0 0.40731946218852388 -0.1063841989377044 0 0.40006831118814379 -0.088443946862951706 0 0.41782917965024757 -0.1223179694886625 0 0.42720334545339439 -0.096068564664198081 0 0.40731946218852388 -0.1063841989377044 0 0.42720334545339439 -0.096068564664198081 0 0.40991588672565482 -0.069240123386392044 0 0.40006831118814379 -0.088443946862951706 0 0.42720334545339439 -0.096068564664198081 0 0.43657751125653932 -0.069819159839733178 0 0.40991588672565482 -0.069240123386392044 0 0.44717288961614921 -0.082892737679819486 0 0.42720334545339439 -0.096068564664198081 0 0.43657751125653932 -0.069819159839733178 0 0.42720334545339439 -0.096068564664198081 0 0.43657751125653932 -0.069819159839733178 0 0.43657751125653932 -0.069819159839733178 0 0.40991588672565482 -0.069240123386392044 0 0.43657751125653932 -0.069819159839733178 0 0.40991588672565482 -0.069240123386392044 0 0.42361646955160293 -0.05250362573813866 0 0.40991588672565482 -0.069240123386392044 0 0.38325426219477032 -0.068661086933056989 0 0.40006831118814379 -0.088443946862951706 0 0.40991588672565482 -0.069240123386392044 0 0.38325426219477032 -0.068661086933056989 0 0.4052781320547445 -0.050815157276477431 0 0.40991588672565482 -0.069240123386392044 0 0.38325426219477032 -0.068661086933056989 0 0.37673432309447757 -0.08630600736399327 0 0.40006831118814379 -0.088443946862951706 0 0.38974331050524341 -0.1041136009560253 0 0.38325426219477032 -0.068661086933056989 0 0.37673432309447757 -0.08630600736399327 0 0.40006831118814379 -0.088443946862951706 0 0.40731946218852388 -0.1063841989377044 0 0.40006831118814379 -0.088443946862951706 0 0.38974331050524341 -0.1041136009560253 0 0.38974331050524341 -0.1041136009560253 0 0.37980056132956119 -0.1177274467991231 0 0.37035581550763719 -0.10155866328479141 0 0.37673432309447757 -0.08630600736399327 0 0.38974331050524341 -0.1041136009560253 0 0.37035581550763719 -0.10155866328479141 0 0.38974331050524341 -0.1041136009560253 0 0.37980056132956119 -0.1177274467991231 0 0.40001871730450089 -0.1186308914517533 0 0.40731946218852388 -0.1063841989377044 0 0.38974331050524341 -0.1041136009560253 0 0.40001871730450089 -0.1186308914517533 0 0.42234674521271831 -0.027604090254805851 0 0.40007944284021463 -0.0078928145975569082 0 0.42228321284538262 0.0049718784443159502 0 0.42555547701451091 -0.0097387614941341228 0 0.40007944284021463 -0.0078928145975569082 0 0.42555547701451091 -0.0097387614941341228 0 0.42234674521271831 -0.027604090254805851 0 0.40007944284021463 -0.0078928145975569082 0 0.42228321284538262 0.0049718784443159502 0 0.42555547701451091 -0.0097387614941341228 0 0.43708721348028812 -0.002075694141195723 0 0.42555547701451091 -0.0097387614941341228 0 0.43708721348028812 -0.002075694141195723 0 0.4350280004827094 -0.0081566294497829803 0 0.42555547701451091 -0.0097387614941341228 0 0.43179939823129898 -0.01113491854403735 0 0.4350280004827094 -0.0081566294497829803 0 0.42555547701451091 -0.0097387614941341228 0 0.43179939823129898 -0.01113491854403735 0 0.43264144861794041 -0.01739702139178723 0 0.43179939823129898 -0.01113491854403735 0 0.4350280004827094 -0.0081566294497829803 0 0.43672097882620248 -0.012371471125990369 0 0.43179939823129898 -0.01113491854403735 0 0.43672097882620248 -0.012371471125990369 0 0.43264144861794041 -0.01739702139178723 0 0.4397069446241112 -0.016474521953578201 0 0.43672097882620248 -0.012371471125990369 0 0.43264144861794041 -0.01739702139178723 0 0.43971914779880028 -0.027058364978177499 0 0.4397069446241112 -0.016474521953578201 0 0.43264144861794041 -0.01739702139178723 0 0.43971914779880028 -0.027058364978177499 0 0.42234674521271831 -0.027604090254805851 0 0.43264144861794041 -0.01739702139178723 0 0.42555547701451091 -0.0097387614941341228 0 0.42234674521271831 -0.027604090254805851 0 0.43264144861794041 -0.01739702139178723 0 0.44461404758522072 -0.047315365912055998 0 0.43971914779880028 -0.027058364978177499 0 0.42234674521271831 -0.027604090254805851 0 0.44461404758522072 -0.047315365912055998 0 0.42234674521271831 -0.027604090254805851 0 0.44461404758522072 -0.047315365912055998 0 0.42234674521271831 -0.027604090254805851 0 0.42361646955160293 -0.05250362573813866 0 0.44461404758522072 -0.047315365912055998 0 0.43657751125653932 -0.069819159839733178 0 0.42361646955160293 -0.05250362573813866 0 0.40991588672565482 -0.069240123386392044 0 0.42361646955160293 -0.05250362573813866 0 0.4052781320547445 -0.050815157276477431 0 0.42234674521271831 -0.027604090254805851 0 0.42361646955160293 -0.05250362573813866 0 0.4052781320547445 -0.050815157276477431 0 0.38325426219477032 -0.068661086933056989 0 0.4052781320547445 -0.050815157276477431 0 0.38725729658897617 -0.036066860069993642 0 0.42234674521271831 -0.027604090254805851 0 0.4052781320547445 -0.050815157276477431 0 0.38725729658897617 -0.036066860069993642 0 0.38325426219477032 -0.068661086933056989 0 0.38725729658897617 -0.036066860069993642 0 0.36847426861524918 -0.050222069632299082 0 0.42234674521271831 -0.027604090254805851 0 0.38725729658897617 -0.036066860069993642 0 0.40007944284021463 -0.0078928145975569082 0 0.38725729658897617 -0.036066860069993642 0 0.40007944284021463 -0.0078928145975569082 0 0.37545301924206809 -0.01452749892903348 0 0.37781214046771111 0.011818461059692 0 0.40007944284021463 -0.0078928145975569082 0 0.37545301924206809 -0.01452749892903348 0 0.37781214046771111 0.011818461059692 0 0.37545301924206809 -0.01452749892903348 0 0.35528893128914452 -0.0039215522358231076 0 0.37545301924206809 -0.01452749892903348 0 0.35528893128914452 -0.0039215522358231076 0 0.35738316017139882 -0.031800389658686118 0 0.38725729658897617 -0.036066860069993642 0 0.37545301924206809 -0.01452749892903348 0 0.35738316017139882 -0.031800389658686118 0 0.35528893128914452 -0.0039215522358231076 0 0.3386548304797587 -0.023939078235752489 0 0.35738316017139882 -0.031800389658686118 0 0.33844269633881607 0.01148836042809109 0 0.35528893128914452 -0.0039215522358231076 0 0.32810368720994448 -0.0079222365021426946 0 0.35528893128914452 -0.0039215522358231076 0 0.3386548304797587 -0.023939078235752489 0 0.32810368720994448 -0.0079222365021426946 0 0.3386548304797587 -0.023939078235752489 0 0.31982558767400021 -0.027589483525777642 0 0.32810368720994448 -0.0079222365021426946 0 0.3386548304797587 -0.023939078235752489 0 0.31982558767400021 -0.027589483525777642 0 0.33491284359760909 -0.04160908828788619 0 0.31982558767400021 -0.027589483525777642 0 0.32810368720994448 -0.0079222365021426946 0 0.31982558767400021 -0.027589483525777642 0 0.32810368720994448 -0.0079222365021426946 0 0.3051749993910548 -0.019013229719404379 0 0.32810368720994448 -0.0079222365021426946 0 0.30501130485267042 -0.0014971883304511779 0 0.3051749993910548 -0.019013229719404379 0 0.33491284359760909 -0.04160908828788619 0 0.32993101313300122 -0.067503014026386879 0 0.31154748813805577 -0.047256730549412602 0 0.32993101313300122 -0.067503014026386879 0 0.3032693886021165 -0.06692397757304977 0 0.31154748813805577 -0.047256730549412602 0 0.31982558767400021 -0.027589483525777642 0 0.33491284359760909 -0.04160908828788619 0 0.31154748813805577 -0.047256730549412602 0 0.31982558767400021 -0.027589483525777642 0 0.31154748813805577 -0.047256730549412602 0 0.3386548304797587 -0.023939078235752489 0 0.33491284359760909 -0.04160908828788619 0 0.35738316017139882 -0.031800389658686118 0 0.33491284359760909 -0.04160908828788619 0 0.34945878463622893 -0.051843322416996053 0 0.32993101313300122 -0.067503014026386879 0 0.34945878463622893 -0.051843322416996053 0 0.36847426861524918 -0.050222069632299082 0 0.35659263766388571 -0.068082050479721934 0 0.34945878463622893 -0.051843322416996053 0 0.35659263766388571 -0.068082050479721934 0 0.32993101313300122 -0.067503014026386879 0 0.34945878463622893 -0.051843322416996053 0 0.35738316017139882 -0.031800389658686118 0 0.36847426861524918 -0.050222069632299082 0 0.33491284359760909 -0.04160908828788619 0 0.34945878463622893 -0.051843322416996053 0 0.35738316017139882 -0.031800389658686118 0 0.38725729658897617 -0.036066860069993642 0 0.35738316017139882 -0.031800389658686118 0 0.36847426861524918 -0.050222069632299082 0 0.38325426219477032 -0.068661086933056989 0 0.36847426861524918 -0.050222069632299082 0 0.35659263766388571 -0.068082050479721934 0 0.38325426219477032 -0.068661086933056989 0 0.35659263766388571 -0.068082050479721934 0 0.38325426219477032 -0.068661086933056989 0 0.37673432309447757 -0.08630600736399327 0 0.35659263766388571 -0.068082050479721934 0 0.37673432309447757 -0.08630600736399327 0 0.35916112374153242 -0.088282690319933452 0 0.37035581550763719 -0.10155866328479141 0 0.37673432309447757 -0.08630600736399327 0 0.35916112374153242 -0.088282690319933452 0 0.35659263766388571 -0.068082050479721934 0 0.35916112374153242 -0.088282690319933452 0 0.35659263766388571 -0.068082050479721934 0 0.34036429454390649 -0.085575169200234058 0 0.35916112374153242 -0.088282690319933452 0 0.35196853501252018 -0.1014132345698649 0 0.34036429454390649 -0.085575169200234058 0 0.37980056132956119 -0.1177274467991231 0 0.36186886052071793 -0.1142108895562309 0 0.37035581550763719 -0.10155866328479141 0 0.37980056132956119 -0.1177274467991231 0 0.36186886052071793 -0.1142108895562309 0 0.36402046198743698 -0.13030513340288319 0 0.36186886052071793 -0.1142108895562309 0 0.37035581550763719 -0.10155866328479141 0 0.35196853501252018 -0.1014132345698649 0 0.35916112374153242 -0.088282690319933452 0 0.37035581550763719 -0.10155866328479141 0 0.35196853501252018 -0.1014132345698649 0 0.35196853501252018 -0.1014132345698649 0 0.34374399370123548 -0.1221956302410425 0 0.33623721189088662 -0.1013918038104968 0 0.36186886052071793 -0.1142108895562309 0 0.34374399370123548 -0.1221956302410425 0 0.36402046198743698 -0.13030513340288319 0 0.36186886052071793 -0.1142108895562309 0 0.35196853501252018 -0.1014132345698649 0 0.34374399370123548 -0.1221956302410425 0 0.34374399370123548 -0.1221956302410425 0 0.33623721189088662 -0.1013918038104968 0 0.32596524613546729 -0.11171666058755721 0 0.34374399370123548 -0.1221956302410425 0 0.32596524613546729 -0.11171666058755721 0 0.32752317523884722 -0.12749172654840291 0 0.35196853501252018 -0.1014132345698649 0 0.33623721189088662 -0.1013918038104968 0 0.34036429454390649 -0.085575169200234058 0 0.33623721189088662 -0.1013918038104968 0 0.31737056880705211 -0.095404381129993165 0 0.34036429454390649 -0.085575169200234058 0 0.31737056880705211 -0.095404381129993165 0 0.32596524613546729 -0.11171666058755721 0 0.31041461911367929 -0.1109337466652367 0 0.33623721189088662 -0.1013918038104968 0 0.31737056880705211 -0.095404381129993165 0 0.32596524613546729 -0.11171666058755721 0 0.32596524613546729 -0.11171666058755721 0 0.31283622843512099 -0.12194794521520951 0 0.32752317523884722 -0.12749172654840291 0 0.32596524613546729 -0.11171666058755721 0 0.31283622843512099 -0.12194794521520951 0 0.31041461911367929 -0.1109337466652367 0 0.35659263766388571 -0.068082050479721934 0 0.32993101313300122 -0.067503014026386879 0 0.34036429454390649 -0.085575169200234058 0 0.35659263766388571 -0.068082050479721934 0 0.32993101313300122 -0.067503014026386879 0 0.31737056880705211 -0.095404381129993165 0 0.34036429454390649 -0.085575169200234058 0 0.32993101313300122 -0.067503014026386879 0 0.34036429454390649 -0.085575169200234058 0 0.31478558268600187 -0.082785799990529652 0 0.31737056880705211 -0.095404381129993165 0 0.34036429454390649 -0.085575169200234058 0 0.31478558268600187 -0.082785799990529652 0 0.32993101313300122 -0.067503014026386879 0 0.3032693886021165 -0.06692397757304977 0 0.32993101313300122 -0.067503014026386879 0 0.31478558268600187 -0.082785799990529652 0 0.3032693886021165 -0.06692397757304977 0 0.3032693886021165 -0.06692397757304977 0 0.29441358499399473 -0.08796374357215983 0 0.31478558268600187 -0.082785799990529652 0 0.3032693886021165 -0.06692397757304977 0 0.29441358499399473 -0.08796374357215983 0 0.31478558268600187 -0.082785799990529652 0 0.30336464603594088 -0.093344514441354332 0 0.29441358499399473 -0.08796374357215983 0 0.31737056880705211 -0.095404381129993165 0 0.31478558268600187 -0.082785799990529652 0 0.30336464603594088 -0.093344514441354332 0 0.30336464603594088 -0.093344514441354332 0 0.29441358499399473 -0.08796374357215983 0 0.29554433896061988 -0.099332212819075699 0 0.29441358499399473 -0.08796374357215983 0 0.28562775414080571 -0.087922548299996239 0 0.2900777871152056 -0.075761526847068814 0 0.29441358499399473 -0.08796374357215983 0 0.28562775414080571 -0.087922548299996239 0 0.28562934834179993 -0.096550389119396951 0 0.28562775414080571 -0.087922548299996239 0 0.2900777871152056 -0.075761526847068814 0 0.28108648209287768 -0.066442209798740326 0 0.3032693886021165 -0.06692397757304977 0 0.29441358499399473 -0.08796374357215983 0 0.2900777871152056 -0.075761526847068814 0 0.3032693886021165 -0.06692397757304977 0 0.28108648209287768 -0.066442209798740326 0 0.3032693886021165 -0.06692397757304977 0 0.28108648209287768 -0.066442209798740326 0 0.28834549716246149 -0.057236990974061958 0 0.3032693886021165 -0.06692397757304977 0 0.2900777871152056 -0.075761526847068814 0 0.28108648209287768 -0.066442209798740326 0 0.30152420912055677 -0.1203661533336694 0 0.31041461911367929 -0.1109337466652367 0 0.29437684307019829 -0.1052335930597539 0 0.31283622843512099 -0.12194794521520951 0 0.30152420912055677 -0.1203661533336694 0 0.31041461911367929 -0.1109337466652367 0 0.31737056880705211 -0.095404381129993165 0 0.29437684307019829 -0.1052335930597539 0 0.31737056880705211 -0.095404381129993165 0 0.31041461911367929 -0.1109337466652367 0 0.29437684307019829 -0.1052335930597539 0 0.31737056880705211 -0.095404381129993165 0 0.30336464603594088 -0.093344514441354332 0 0.29437684307019829 -0.1052335930597539 0 0.30336464603594088 -0.093344514441354332 0 0.29554433896061988 -0.099332212819075699 0 0.29437684307019829 -0.1052335930597539 0 0.29441358499399473 -0.08796374357215983 0 0.29554433896061988 -0.099332212819075699 0 0.28555778138587973 -0.1090035095712729 0 0.29441358499399473 -0.08796374357215983 0 0.28555778138587973 -0.1090035095712729 0 0.29441358499399473 -0.08796374357215983 0 0.28562934834179993 -0.096550389119396951 0 0.28555778138587973 -0.1090035095712729 0 0.28562775414080571 -0.087922548299996239 0 0.28562934834179993 -0.096550389119396951 0 0.27706201234548822 -0.098251814162459539 0 0.28562934834179993 -0.096550389119396951 0 0.28555778138587973 -0.1090035095712729 0 0.27706201234548822 -0.098251814162459539 0 0.28555778138587973 -0.1090035095712729 0 0.29437684307019829 -0.1052335930597539 0 0.29554433896061988 -0.099332212819075699 0 0.28555778138587973 -0.1090035095712729 0 0.29437684307019829 -0.1052335930597539 0 0.29554433896061988 -0.099332212819075699 0 0.29437684307019829 -0.1052335930597539 0 0.29437684307019829 -0.1052335930597539 0 0.28121703508653401 -0.1193163270682641 0 0.28902175292606469 -0.13230214501180579 0 0.30152420912055677 -0.1203661533336694 0 0.29437684307019829 -0.1052335930597539 0 0.28902175292606469 -0.13230214501180579 0 0.28121703508653401 -0.1193163270682641 0 0.27534740855717732 -0.1133681749397191 0 0.28902175292606469 -0.13230214501180579 0 0.29437684307019829 -0.1052335930597539 0 0.28902175292606469 -0.13230214501180579 0 0.27534740855717732 -0.1133681749397191 0 0.28902175292606469 -0.13230214501180579 0 0.28555778138587973 -0.1090035095712729 0 0.29437684307019829 -0.1052335930597539 0 0.28121703508653401 -0.1193163270682641 0 0.28555778138587973 -0.1090035095712729 0 0.28121703508653401 -0.1193163270682641 0 0.28555778138587973 -0.1090035095712729 0 0.28121703508653401 -0.1193163270682641 0 0.27534740855717732 -0.1133681749397191 0 0.28555778138587973 -0.1090035095712729 0 0.27534740855717732 -0.1133681749397191 0 0.27534740855717732 -0.1133681749397191 0 0.2604296512077291 -0.092712532257516259 0 0.27534740855717732 -0.1133681749397191 0 0.27706201234548822 -0.098251814162459539 0 0.2604296512077291 -0.092712532257516259 0 0.28555778138587973 -0.1090035095712729 0 0.27534740855717732 -0.1133681749397191 0 0.27706201234548822 -0.098251814162459539 0 0.27534740855717732 -0.1133681749397191 0 0.25731793437991413 -0.10838186084421191 0 0.2604296512077291 -0.092712532257516259 0 0.25731793437991413 -0.10838186084421191 0 0.2604296512077291 -0.092712532257516259 0 0.24287672884378531 -0.093222622253899892 0 0.27534740855717732 -0.1133681749397191 0 0.25731793437991413 -0.10838186084421191 0 0.25108234299010679 -0.1237408511505155 0 0.27534740855717732 -0.1133681749397191 0 0.25108234299010679 -0.1237408511505155 0 0.28562775414080571 -0.087922548299996239 0 0.27062204822889652 -0.077657137451394617 0 0.27544222167124172 -0.060126712533812007 0 0.28562775414080571 -0.087922548299996239 0 0.28108648209287768 -0.066442209798740326 0 0.27544222167124172 -0.060126712533812007 0 0.27062204822889652 -0.077657137451394617 0 0.26596052396163428 -0.066707811628633415 0 0.27544222167124172 -0.060126712533812007 0 0.28562775414080571 -0.087922548299996239 0 0.27544222167124172 -0.060126712533812007 0 0.27706201234548822 -0.098251814162459539 0 0.27411426301605579 -0.088392858755995979 0 0.2604296512077291 -0.092712532257516259 0 0.28562775414080571 -0.087922548299996239 0 0.27062204822889652 -0.077657137451394617 0 0.27411426301605579 -0.088392858755995979 0 0.28562775414080571 -0.087922548299996239 0 0.27706201234548822 -0.098251814162459539 0 0.27411426301605579 -0.088392858755995979 0 0.27062204822889652 -0.077657137451394617 0 0.27411426301605579 -0.088392858755995979 0 0.2604296512077291 -0.092712532257516259 0 0.2604296512077291 -0.092712532257516259 0 0.24551189385827979 -0.07205688957531417 0 0.27062204822889652 -0.077657137451394617 0 0.2604296512077291 -0.092712532257516259 0 0.26009989309373072 -0.074432672411206574 0 0.2604296512077291 -0.092712532257516259 0 0.26009989309373072 -0.074432672411206574 0 0.24551189385827979 -0.07205688957531417 0 0.27062204822889652 -0.077657137451394617 0 0.26596052396163428 -0.066707811628633415 0 0.26009989309373072 -0.074432672411206574 0 0.26596052396163428 -0.066707811628633415 0 0.25921001374024888 -0.062913051663404065 0 0.26504577583812128 -0.058351514343464618 0 0.26596052396163428 -0.066707811628633415 0 0.26009989309373072 -0.074432672411206574 0 0.25921001374024888 -0.062913051663404065 0 0.25921001374024888 -0.062913051663404065 0 0.25074953979106701 -0.057391721610124569 0 0.24551189385827979 -0.07205688957531417 0 0.26009989309373072 -0.074432672411206574 0 0.25921001374024888 -0.062913051663404065 0 0.24551189385827979 -0.07205688957531417 0 0.25921001374024888 -0.062913051663404065 0 0.25074953979106701 -0.057391721610124569 0 0.25732315931500188 -0.052887592535396689 0 0.25074953979106701 -0.057391721610124569 0 0.25732315931500188 -0.052887592535396689 0 0.24997138218959711 -0.046602097251877819 0 0.25732315931500188 -0.052887592535396689 0 0.25634474429285359 -0.041170028594647579 0 0.24997138218959711 -0.046602097251877819 0 0.25732315931500188 -0.052887592535396689 0 0.26473273621259669 -0.048632670816821572 0 0.26504577583812128 -0.058351514343464618 0 0.25732315931500188 -0.052887592535396689 0 0.26473273621259669 -0.048632670816821572 0 0.25634474429285359 -0.041170028594647579 0 0.25921001374024888 -0.062913051663404065 0 0.25732315931500188 -0.052887592535396689 0 0.26504577583812128 -0.058351514343464618 0 0.27544222167124172 -0.060126712533812007 0 0.27193372985383868 -0.037699184858962682 0 0.28143778645819528 -0.047691886173511493 0 0.26596052396163428 -0.066707811628633415 0 0.26504577583812128 -0.058351514343464618 0 0.27544222167124172 -0.060126712533812007 0 0.26473273621259669 -0.048632670816821572 0 0.26504577583812128 -0.058351514343464618 0 0.27544222167124172 -0.060126712533812007 0 0.26473273621259669 -0.048632670816821572 0 0.27544222167124172 -0.060126712533812007 0 0.26525668920167761 -0.032330876767627727 0 0.27544222167124172 -0.060126712533812007 0 0.27193372985383868 -0.037699184858962682 0 0.26525668920167761 -0.032330876767627727 0 0.27544222167124172 -0.060126712533812007 0 0.26525668920167761 -0.032330876767627727 0 0.27193372985383868 -0.037699184858962682 0 0.28143778645819528 -0.047691886173511493 0 0.28442349330463151 -0.038276311311383697 0 0.26473273621259669 -0.048632670816821572 0 0.26525668920167761 -0.032330876767627727 0 0.25634474429285359 -0.041170028594647579 0 0.26525668920167761 -0.032330876767627727 0 0.25634474429285359 -0.041170028594647579 0 0.25254148323653008 -0.028052360621987089 0 0.25634474429285359 -0.041170028594647579 0 0.24997138218959711 -0.046602097251877819 0 0.24741741088909919 -0.03711588908773511 0 0.25634474429285359 -0.041170028594647579 0 0.25254148323653008 -0.028052360621987089 0 0.24741741088909919 -0.03711588908773511 0 0.26525668920167761 -0.032330876767627727 0 0.25507115673211361 -0.0045350410014435294 0 0.26525668920167761 -0.032330876767627727 0 0.25254148323653008 -0.028052360621987089 0 0.25507115673211361 -0.0045350410014435294 0 0.27193372985383868 -0.037699184858962682 0 0.28777458624948338 -0.027807254189587051 0 0.28175891799334779 -0.01012690466964521 0 0.27193372985383868 -0.037699184858962682 0 0.26525668920167761 -0.032330876767627727 0 0.28175891799334779 -0.01012690466964521 0 0.26525668920167761 -0.032330876767627727 0 0.25507115673211361 -0.0045350410014435294 0 0.28175891799334779 -0.01012690466964521 0 0.27193372985383868 -0.037699184858962682 0 0.28175891799334779 -0.01012690466964521 0 0.28777458624948338 -0.027807254189587051 0 0.28175891799334779 -0.01012690466964521 0 0.3051749993910548 -0.019013229719404379 0 0.28175891799334779 -0.01012690466964521 0 0.30501130485267042 -0.0014971883304511779 0 0.3051749993910548 -0.019013229719404379 0 0.28777458624948338 -0.027807254189587051 0 0.3051749993910548 -0.019013229719404379 0 0.30006577919589478 -0.034437096242561957 0 0.31982558767400021 -0.027589483525777642 0 0.3051749993910548 -0.019013229719404379 0 0.30006577919589478 -0.034437096242561957 0 0.31982558767400021 -0.027589483525777642 0 0.30006577919589478 -0.034437096242561957 0 0.31154748813805577 -0.047256730549412602 0 0.30006577919589478 -0.034437096242561957 0 0.31154748813805577 -0.047256730549412602 0 0.29083524316556458 -0.046230484171249371 0 0.3032693886021165 -0.06692397757304977 0 0.31154748813805577 -0.047256730549412602 0 0.31154748813805577 -0.047256730549412602 0 0.2982557095981796 -0.055193088973057108 0 0.29083524316556458 -0.046230484171249371 0 0.3032693886021165 -0.06692397757304977 0 0.31154748813805577 -0.047256730549412602 0 0.2982557095981796 -0.055193088973057108 0 0.2982557095981796 -0.055193088973057108 0 0.28834549716246149 -0.057236990974061958 0 0.29083524316556458 -0.046230484171249371 0 0.3032693886021165 -0.06692397757304977 0 0.2982557095981796 -0.055193088973057108 0 0.28834549716246149 -0.057236990974061958 0 0.27544222167124172 -0.060126712533812007 0 0.28834549716246149 -0.057236990974061958 0 0.28143778645819528 -0.047691886173511493 0 0.28108648209287768 -0.066442209798740326 0 0.27544222167124172 -0.060126712533812007 0 0.28834549716246149 -0.057236990974061958 0 0.28834549716246149 -0.057236990974061958 0 0.28143778645819528 -0.047691886173511493 0 0.29083524316556458 -0.046230484171249371 0 0.28143778645819528 -0.047691886173511493 0 0.28442349330463151 -0.038276311311383697 0 0.29083524316556458 -0.046230484171249371 0 0.27193372985383868 -0.037699184858962682 0 0.28777458624948338 -0.027807254189587051 0 0.28442349330463151 -0.038276311311383697 0 0.28777458624948338 -0.027807254189587051 0 0.30006577919589478 -0.034437096242561957 0 0.28442349330463151 -0.038276311311383697 0 0.30006577919589478 -0.034437096242561957 0 0.28442349330463151 -0.038276311311383697 0 0.29083524316556458 -0.046230484171249371 0 0.28462317075681193 -0.20830753118165249 0 0.29810967900034629 -0.20991686090799419 0 0.28982489952983509 -0.2249563111968127 0 0.28462317075681193 -0.20830753118165249 0 0.28982489952983509 -0.2249563111968127 0 0.27124119669775598 -0.22217811293167189 0 0.28462317075681193 -0.20830753118165249 0 0.29019029373139937 -0.20067378808019681 0 0.29810967900034629 -0.20991686090799419 0 0.28263969471887479 -0.19470150367210959 0 0.29143324159829148 -0.19067753894240819 0 0.29019029373139937 -0.20067378808019681 0 0.28462317075681193 -0.20830753118165249 0 0.28263969471887479 -0.19470150367210959 0 0.29019029373139937 -0.20067378808019681 0 0.28263969471887479 -0.19470150367210959 0 0.27623385227385799 -0.1969415710242737 0 0.28694240427551021 -0.18271465995906139 0 0.28263969471887479 -0.19470150367210959 0 0.29143324159829148 -0.19067753894240819 0 0.28694240427551021 -0.18271465995906139 0 0.29143324159829148 -0.19067753894240819 0 0.29019029373139937 -0.20067378808019681 0 0.29851083968830661 -0.19560572320263159 0 0.29019029373139937 -0.20067378808019681 0 0.29851083968830661 -0.19560572320263159 0 0.29810967900034629 -0.20991686090799419 0 0.29851083968830661 -0.19560572320263159 0 0.29810967900034629 -0.20991686090799419 0 0.31519249136078681 -0.19653758471895641 0 0.29851083968830661 -0.19560572320263159 0 0.30189930452634872 -0.18144324154777991 0 0.31519249136078681 -0.19653758471895641 0 0.30189930452634872 -0.18144324154777991 0 0.31792606865404271 -0.18554123567718131 0 0.31519249136078681 -0.19653758471895641 0 0.29143324159829148 -0.19067753894240819 0 0.29851083968830661 -0.19560572320263159 0 0.30189930452634872 -0.18144324154777991 0 0.30189930452634872 -0.18144324154777991 0 0.31519249136078681 -0.19653758471895641 0 0.29810967900034629 -0.20991686090799419 0 0.31298338845902302 -0.2113123798269696 0 0.31519249136078681 -0.19653758471895641 0 0.29810967900034629 -0.20991686090799419 0 0.31240565370387419 -0.22624023729771989 0 0.31298338845902302 -0.2113123798269696 0 0.31240565370387419 -0.22624023729771989 0 0.29632562921252242 -0.24084854670530759 0 0.28982489952983509 -0.2249563111968127 0 0.31240565370387419 -0.22624023729771989 0 0.29632562921252242 -0.24084854670530759 0 0.31240565370387419 -0.22624023729771989 0 0.29632562921252242 -0.24084854670530759 0 0.32060321440149209 -0.2355485240071086 0 0.29810967900034629 -0.20991686090799419 0 0.31240565370387419 -0.22624023729771989 0 0.28982489952983509 -0.2249563111968127 0 0.29632562921252242 -0.24084854670530759 0 0.32060321440149209 -0.2355485240071086 0 0.30679468666361731 -0.249384579544184 0 0.29632562921252242 -0.24084854670530759 0 0.32060321440149209 -0.2355485240071086 0 0.30679468666361731 -0.249384579544184 0 0.29632562921252242 -0.24084854670530759 0 0.2960622489784801 -0.25367981408193813 0 0.29632562921252242 -0.24084854670530759 0 0.28004875328311768 -0.25563569083518961 0 0.29632562921252242 -0.24084854670530759 0 0.28128708516708778 -0.24413160077218679 0 0.28026885945067043 -0.24769775683955519 0 0.29632562921252242 -0.24084854670530759 0 0.28026885945067043 -0.24769775683955519 0 0.28004875328311768 -0.25563569083518961 0 0.29632562921252242 -0.24084854670530759 0 0.28128708516708778 -0.24413160077218679 0 0.28982489952983509 -0.2249563111968127 0 0.29632562921252242 -0.24084854670530759 0 0.28128708516708778 -0.24413160077218679 0 0.28128708516708778 -0.24413160077218679 0 0.28982489952983509 -0.2249563111968127 0 0.27124119669775598 -0.22217811293167189 0 0.28128708516708778 -0.24413160077218679 0 0.27124119669775598 -0.22217811293167189 0 0.26624854112165408 -0.2474146548390701 0 0.27124119669775598 -0.22217811293167189 0 0.26624854112165408 -0.2474146548390701 0 0.28128708516708778 -0.24413160077218679 0 0.28026885945067043 -0.24769775683955519 0 0.27317960725986401 -0.25147320184929878 0 0.28128708516708778 -0.24413160077218679 0 0.26624854112165408 -0.2474146548390701 0 0.28128708516708778 -0.24413160077218679 0 0.26624854112165408 -0.2474146548390701 0 0.27317960725986401 -0.25147320184929878 0 0.27124119669775598 -0.22217811293167189 0 0.26624854112165408 -0.2474146548390701 0 0.25802317583318252 -0.2354702694931903 0 0.26624854112165408 -0.2474146548390701 0 0.25241460081779321 -0.25043473270287703 0 0.26624854112165408 -0.2474146548390701 0 0.25802317583318252 -0.2354702694931903 0 0.25241460081779321 -0.25043473270287703 0 0.25802317583318252 -0.2354702694931903 0 0.25241460081779321 -0.25043473270287703 0 0.24829625608795741 -0.2383585599429115 0 0.25802317583318252 -0.2354702694931903 0 0.25238674146233819 -0.23044019217813061 0 0.24829625608795741 -0.2383585599429115 0 0.27124119669775598 -0.22217811293167189 0 0.2574147011384027 -0.2239411829581342 0 0.26082032885120721 -0.2126441761163439 0 0.27124119669775598 -0.22217811293167189 0 0.25802317583318252 -0.2354702694931903 0 0.2574147011384027 -0.2239411829581342 0 0.25802317583318252 -0.2354702694931903 0 0.25238674146233819 -0.23044019217813061 0 0.2574147011384027 -0.2239411829581342 0 0.25238674146233819 -0.23044019217813061 0 0.25011186226830828 -0.22413328924172579 0 0.2574147011384027 -0.2239411829581342 0 0.25011186226830828 -0.22413328924172579 0 0.25390929796352041 -0.21791652376992279 0 0.2476196529828556 -0.21837733181959809 0 0.25011186226830828 -0.22413328924172579 0 0.2574147011384027 -0.2239411829581342 0 0.25390929796352041 -0.21791652376992279 0 0.2574147011384027 -0.2239411829581342 0 0.25390929796352041 -0.21791652376992279 0 0.26082032885120721 -0.2126441761163439 0 0.25390929796352041 -0.21791652376992279 0 0.25396624877084079 -0.20952651608544151 0 0.26082032885120721 -0.2126441761163439 0 0.25390929796352041 -0.21791652376992279 0 0.25396624877084079 -0.20952651608544151 0 0.2476196529828556 -0.21837733181959809 0 0.25215667626286681 -0.2053611499286197 0 0.26082032885120721 -0.2126441761163439 0 0.27623385227385799 -0.1969415710242737 0 0.25396624877084079 -0.20952651608544151 0 0.25215667626286681 -0.2053611499286197 0 0.26082032885120721 -0.2126441761163439 0 0.27124119669775598 -0.22217811293167189 0 0.26082032885120721 -0.2126441761163439 0 0.27623385227385799 -0.1969415710242737 0 0.27124119669775598 -0.22217811293167189 0 0.27623385227385799 -0.1969415710242737 0 0.28462317075681193 -0.20830753118165249 0 0.27124119669775598 -0.22217811293167189 0 0.27623385227385799 -0.1969415710242737 0 0.28462317075681193 -0.20830753118165249 0 0.28263969471887479 -0.19470150367210959 0 0.27623385227385799 -0.1969415710242737 0 0.28263969471887479 -0.19470150367210959 0 0.27623385227385799 -0.1969415710242737 0 0.25215667626286681 -0.2053611499286197 0 0.27623385227385799 -0.1969415710242737 0 0.2644909838146226 -0.1891747574223924 0 0.25215667626286681 -0.2053611499286197 0 0.27623385227385799 -0.1969415710242737 0 0.25215667626286681 -0.2053611499286197 0 0.2644909838146226 -0.1891747574223924 0 0.2520260174112951 -0.19611349652224269 0 0.25215667626286681 -0.2053611499286197 0 0.2520260174112951 -0.19611349652224269 0 0.24806112304804151 -0.20079628444228459 0 0.2644909838146226 -0.1891747574223924 0 0.2520260174112951 -0.19611349652224269 0 0.25042149449415368 -0.18865724081545401 0 0.2644909838146226 -0.1891747574223924 0 0.25509373551380121 -0.17893097573479161 0 0.26386653859994641 -0.16992497069817139 0 0.25509373551380121 -0.17893097573479161 0 0.26386653859994641 -0.16992497069817139 0 0.24563299358722171 -0.17256060469185061 0 0.2644909838146226 -0.1891747574223924 0 0.25042149449415368 -0.18865724081545401 0 0.25509373551380121 -0.17893097573479161 0 0.26386653859994641 -0.16992497069817139 0 0.25269095186966017 -0.156165935810328 0 0.24563299358722171 -0.17256060469185061 0 0.26386653859994641 -0.16992497069817139 0 0.24563299358722171 -0.17256060469185061 0 0.26386653859994641 -0.16992497069817139 0 0.26987337834751479 -0.15919682348032849 0 0.25269095186966017 -0.156165935810328 0 0.26386653859994641 -0.16992497069817139 0 0.26987337834751479 -0.15919682348032849 0 0.28210008361267103 -0.16728933670449281 0 0.26386653859994641 -0.16992497069817139 0 0.28210008361267103 -0.16728933670449281 0 0.26987337834751479 -0.15919682348032849 0 0.28210008361267103 -0.16728933670449281 0 0.28344543077349588 -0.16048896574226179 0 0.27623385227385799 -0.1969415710242737 0 0.28210008361267103 -0.16728933670449281 0 0.2644909838146226 -0.1891747574223924 0 0.26386653859994641 -0.16992497069817139 0 0.28210008361267103 -0.16728933670449281 0 0.27623385227385799 -0.1969415710242737 0 0.2644909838146226 -0.1891747574223924 0 0.28210008361267103 -0.16728933670449281 0 0.25108234299010679 -0.1237408511505155 0 0.26726388688180169 -0.14211490844638841 0 0.2478804031781367 -0.1395639772109625 0 0.25108234299010679 -0.1237408511505155 0 0.26726388688180169 -0.14211490844638841 0 0.27534740855717732 -0.1133681749397191 0 0.25108234299010679 -0.1237408511505155 0 0.26726388688180169 -0.14211490844638841 0 0.25269095186966017 -0.156165935810328 0 0.26726388688180169 -0.14211490844638841 0 0.2478804031781367 -0.1395639772109625 0 0.26987337834751479 -0.15919682348032849 0 0.25269095186966017 -0.156165935810328 0 0.26726388688180169 -0.14211490844638841 0 0.26987337834751479 -0.15919682348032849 0 0.26726388688180169 -0.14211490844638841 0 0.28344543077349588 -0.16048896574226179 0 0.26726388688180169 -0.14211490844638841 0 0.28344543077349588 -0.16048896574226179 0 0.26726388688180169 -0.14211490844638841 0 0.28902175292606469 -0.13230214501180579 0 0.28344543077349588 -0.16048896574226179 0 0.27534740855717732 -0.1133681749397191 0 0.26726388688180169 -0.14211490844638841 0 0.28902175292606469 -0.13230214501180579 0 0.28902175292606469 -0.13230214501180579 0 0.30013444157792268 -0.14768915799601789 0 0.28902175292606469 -0.13230214501180579 0 0.29412170835228107 -0.15527743182023579 0 0.30013444157792268 -0.14768915799601789 0 0.28902175292606469 -0.13230214501180579 0 0.29412170835228107 -0.15527743182023579 0 0.28344543077349588 -0.16048896574226179 0 0.28902175292606469 -0.13230214501180579 0 0.28344543077349588 -0.16048896574226179 0 0.30668804087788493 -0.14487132844675699 0 0.30013444157792268 -0.14768915799601789 0 0.31124713022978012 -0.1630761709802305 0 0.29412170835228107 -0.15527743182023579 0 0.30013444157792268 -0.14768915799601789 0 0.31124713022978012 -0.1630761709802305 0 0.30013444157792268 -0.14768915799601789 0 0.31124713022978012 -0.1630761709802305 0 0.30668804087788493 -0.14487132844675699 0 0.30013444157792268 -0.14768915799601789 0 0.30387120819859792 -0.13366888296643301 0 0.28902175292606469 -0.13230214501180579 0 0.30013444157792268 -0.14768915799601789 0 0.30387120819859792 -0.13366888296643301 0 0.30668804087788493 -0.14487132844675699 0 0.30387120819859792 -0.13366888296643301 0 0.31617771381049831 -0.13648317698033019 0 0.31283622843512099 -0.12194794521520951 0 0.30387120819859792 -0.13366888296643301 0 0.31617771381049831 -0.13648317698033019 0 0.31283622843512099 -0.12194794521520951 0 0.30152420912055677 -0.1203661533336694 0 0.30387120819859792 -0.13366888296643301 0 0.30152420912055677 -0.1203661533336694 0 0.28902175292606469 -0.13230214501180579 0 0.30387120819859792 -0.13366888296643301 0 0.27623385227385799 -0.1969415710242737 0 0.28694240427551021 -0.18271465995906139 0 0.28210008361267103 -0.16728933670449281 0 0.28694240427551021 -0.18271465995906139 0 0.28210008361267103 -0.16728933670449281 0 0.28860611769191158 -0.16634889837660261 0 0.28694240427551021 -0.18271465995906139 0 0.28860611769191158 -0.16634889837660261 0 0.30189930452634872 -0.18144324154777991 0 0.28860611769191158 -0.16634889837660261 0 0.30189930452634872 -0.18144324154777991 0 0.29143324159829148 -0.19067753894240819 0 0.28694240427551021 -0.18271465995906139 0 0.30189930452634872 -0.18144324154777991 0 0.28210008361267103 -0.16728933670449281 0 0.28860611769191158 -0.16634889837660261 0 0.28344543077349588 -0.16048896574226179 0 0.28210008361267103 -0.16728933670449281 0 0.28860611769191158 -0.16634889837660261 0 0.29412170835228107 -0.15527743182023579 0 0.28860611769191158 -0.16634889837660261 0 0.28344543077349588 -0.16048896574226179 0 0.28210008361267103 -0.16728933670449281 0 0.28344543077349588 -0.16048896574226179 0 0.28860611769191158 -0.16634889837660261 0 0.28344543077349588 -0.16048896574226179 0 0.28860611769191158 -0.16634889837660261 0 0.31124713022978012 -0.1630761709802305 0 0.29412170835228107 -0.15527743182023579 0 0.28860611769191158 -0.16634889837660261 0 0.31124713022978012 -0.1630761709802305 0 0.28860611769191158 -0.16634889837660261 0 0.31124713022978012 -0.1630761709802305 0 0.30189930452634872 -0.18144324154777991 0 0.31124713022978012 -0.1630761709802305 0 0.30189930452634872 -0.18144324154777991 0 0.31935345994396591 -0.17430047541943219 0 0.30189930452634872 -0.18144324154777991 0 0.31792606865404271 -0.18554123567718131 0 0.31935345994396591 -0.17430047541943219 0 0.31792606865404271 -0.18554123567718131 0 0.31935345994396591 -0.17430047541943219 0 0.32924246012010022 -0.18645421832060971 0 0.31935345994396591 -0.17430047541943219 0 0.32924246012010022 -0.18645421832060971 0 0.33045976103500158 -0.17649158788493011 0 0.30668804087788493 -0.14487132844675699 0 0.31124713022978012 -0.1630761709802305 0 0.32401586908832308 -0.16123046724195461 0 0.31124713022978012 -0.1630761709802305 0 0.31935345994396591 -0.17430047541943219 0 0.31124713022978012 -0.1630761709802305 0 0.31935345994396591 -0.17430047541943219 0 0.32401586908832308 -0.16123046724195461 0 0.31124713022978012 -0.1630761709802305 0 0.32401586908832308 -0.16123046724195461 0 0.31935345994396591 -0.17430047541943219 0 0.32401586908832308 -0.16123046724195461 0 0.33045976103500158 -0.17649158788493011 0 0.32401586908832308 -0.16123046724195461 0 0.34341843353887419 -0.17954835688020121 0 0.32401586908832308 -0.16123046724195461 0 0.3405834064831999 -0.1588356523708476 0 0.32401586908832308 -0.16123046724195461 0 0.34178662529602483 -0.1687849783206504 0 0.34341843353887419 -0.17954835688020121 0 0.32401586908832308 -0.16123046724195461 0 0.3405834064831999 -0.1588356523708476 0 0.33107434246856732 -0.1515563603202299 0 0.32401586908832308 -0.16123046724195461 0 0.3405834064831999 -0.1588356523708476 0 0.34178662529602483 -0.1687849783206504 0 0.32401586908832308 -0.16123046724195461 0 0.34341843353887419 -0.17954835688020121 0 0.33045976103500158 -0.17649158788493011 0 0.34341843353887419 -0.17954835688020121 0 0.33536908843640789 -0.1824694126981338 0 0.33045976103500158 -0.17649158788493011 0 0.34341843353887419 -0.17954835688020121 0 0.33835569905165552 -0.18738348770679439 0 0.34509028993992508 -0.1938589785597776 0 0.34341843353887419 -0.17954835688020121 0 0.33835569905165552 -0.18738348770679439 0 0.33536908843640789 -0.1824694126981338 0 0.32924246012010022 -0.18645421832060971 0 0.33536908843640789 -0.1824694126981338 0 0.33045976103500158 -0.17649158788493011 0 0.33835569905165552 -0.18738348770679439 0 0.32924246012010022 -0.18645421832060971 0 0.33536908843640789 -0.1824694126981338 0 0.31283622843512099 -0.12194794521520951 0 0.32752317523884722 -0.12749172654840291 0 0.31617771381049831 -0.13648317698033019 0 0.32752317523884722 -0.12749172654840291 0 0.31617771381049831 -0.13648317698033019 0 0.32792282585221039 -0.13989399968867919 0 0.30668804087788493 -0.14487132844675699 0 0.32401586908832308 -0.16123046724195461 0 0.30668804087788493 -0.14487132844675699 0 0.32401586908832308 -0.16123046724195461 0 0.32117575841949692 -0.1468070665355902 0 0.31617771381049831 -0.13648317698033019 0 0.32792282585221039 -0.13989399968867919 0 0.32117575841949692 -0.1468070665355902 0 0.32792282585221039 -0.13989399968867919 0 0.32117575841949692 -0.1468070665355902 0 0.33107434246856732 -0.1515563603202299 0 0.30668804087788493 -0.14487132844675699 0 0.31617771381049831 -0.13648317698033019 0 0.32117575841949692 -0.1468070665355902 0 0.32401586908832308 -0.16123046724195461 0 0.32117575841949692 -0.1468070665355902 0 0.33107434246856732 -0.1515563603202299 0 0.3405834064831999 -0.1588356523708476 0 0.33107434246856732 -0.1515563603202299 0 0.33832996361829021 -0.14427938896996351 0 0.3405834064831999 -0.1588356523708476 0 0.33832996361829021 -0.14427938896996351 0 0.34820549937631368 -0.1482201705051378 0 0.32792282585221039 -0.13989399968867919 0 0.33107434246856732 -0.1515563603202299 0 0.33832996361829021 -0.14427938896996351 0 0.34374399370123548 -0.1221956302410425 0 0.32752317523884722 -0.12749172654840291 0 0.33811324951302862 -0.1330719121519699 0 0.32792282585221039 -0.13989399968867919 0 0.33832996361829021 -0.14427938896996351 0 0.33811324951302862 -0.1330719121519699 0 0.32752317523884722 -0.12749172654840291 0 0.32792282585221039 -0.13989399968867919 0 0.33811324951302862 -0.1330719121519699 0 0.33832996361829021 -0.14427938896996351 0 0.33811324951302862 -0.1330719121519699 0 0.34840011700486723 -0.13712436781627471 0 0.34374399370123548 -0.1221956302410425 0 0.33811324951302862 -0.1330719121519699 0 0.34840011700486723 -0.13712436781627471 0 0.34374399370123548 -0.1221956302410425 0 0.34840011700486723 -0.13712436781627471 0 0.36402046198743698 -0.13030513340288319 0 0.34840011700486723 -0.13712436781627471 0 0.35731300669373989 -0.1449459754927104 0 0.36402046198743698 -0.13030513340288319 0 0.3405834064831999 -0.1588356523708476 0 0.34820549937631368 -0.1482201705051378 0 0.35715094387807661 -0.1564408374997398 0 0.33832996361829021 -0.14427938896996351 0 0.34840011700486723 -0.13712436781627471 0 0.34820549937631368 -0.1482201705051378 0 0.34840011700486723 -0.13712436781627471 0 0.35731300669373989 -0.1449459754927104 0 0.34820549937631368 -0.1482201705051378 0 0.35731300669373989 -0.1449459754927104 0 0.34820549937631368 -0.1482201705051378 0 0.35715094387807661 -0.1564408374997398 0 0.36850787303602778 -0.14492616517463219 0 0.35715094387807661 -0.1564408374997398 0 0.36771206830121428 -0.1610796234259588 0 0.36850787303602778 -0.14492616517463219 0 0.36771206830121428 -0.1610796234259588 0 0.38386539280285759 -0.13985525743885599 0 0.35731300669373989 -0.1449459754927104 0 0.36850787303602778 -0.14492616517463219 0 0.35715094387807661 -0.1564408374997398 0 0.36850787303602778 -0.14492616517463219 0 0.36402046198743698 -0.13030513340288319 0 0.38386539280285759 -0.13985525743885599 0 0.35731300669373989 -0.1449459754927104 0 0.36850787303602778 -0.14492616517463219 0 0.36402046198743698 -0.13030513340288319 0 0.34341843353887419 -0.17954835688020121 0 0.35155874379957108 -0.18230398941306139 0 0.36282099798942502 -0.19786624651844831 0 0.34341843353887419 -0.17954835688020121 0 0.35155874379957108 -0.18230398941306139 0 0.34709127035217852 -0.17485358871156531 0 0.34178662529602483 -0.1687849783206504 0 0.34341843353887419 -0.17954835688020121 0 0.34709127035217852 -0.17485358871156531 0 0.35155874379957108 -0.18230398941306139 0 0.34709127035217852 -0.17485358871156531 0 0.35160127877424402 -0.1687770302323483 0 0.3405834064831999 -0.1588356523708476 0 0.35715094387807661 -0.1564408374997398 0 0.35715094387807661 -0.1564408374997398 0 0.35160127877424402 -0.1687770302323483 0 0.36771206830121428 -0.1610796234259588 0 0.34178662529602483 -0.1687849783206504 0 0.34709127035217852 -0.17485358871156531 0 0.35160127877424402 -0.1687770302323483 0 0.3405834064831999 -0.1588356523708476 0 0.35715094387807661 -0.1564408374997398 0 0.35160127877424402 -0.1687770302323483 0 0.35155874379957108 -0.18230398941306139 0 0.35160127877424402 -0.1687770302323483 0 0.36771206830121428 -0.1610796234259588 0 0.3405834064831999 -0.1588356523708476 0 0.34178662529602483 -0.1687849783206504 0 0.35160127877424402 -0.1687770302323483 0 0.36771206830121428 -0.1610796234259588 0 0.3685569238766232 -0.17873836144299921 0 0.37866159239880898 -0.1693656497289652 0 0.35155874379957108 -0.18230398941306139 0 0.36771206830121428 -0.1610796234259588 0 0.35155874379957108 -0.18230398941306139 0 0.3685569238766232 -0.17873836144299921 0 0.36282099798942502 -0.19786624651844831 0 0.35155874379957108 -0.18230398941306139 0 0.36771206830121428 -0.1610796234259588 0 0.3685569238766232 -0.17873836144299921 0 0.37420468499055343 -0.1902830336527844 0 0.36282099798942502 -0.19786624651844831 0 0.38168159881004549 -0.2025469463892256 0 0.3685569238766232 -0.17873836144299921 0 0.37420468499055343 -0.1902830336527844 0 0.36282099798942502 -0.19786624651844831 0 0.36249409782960162 -0.2109405298875747 0 0.3695981637227817 -0.22620293489667359 0 0.38168159881004549 -0.2025469463892256 0 0.36282099798942502 -0.19786624651844831 0 0.36249409782960162 -0.2109405298875747 0 0.38168159881004549 -0.2025469463892256 0 0.36249409782960162 -0.2109405298875747 0 0.35044196528261923 -0.21237003909368221 0 0.35574153325102748 -0.2203569760548397 0 0.36249409782960162 -0.2109405298875747 0 0.35044196528261923 -0.21237003909368221 0 0.34975157246643229 -0.20297532234813551 0 0.36282099798942502 -0.19786624651844831 0 0.36249409782960162 -0.2109405298875747 0 0.34975157246643229 -0.20297532234813551 0 0.35044196528261923 -0.21237003909368221 0 0.34975157246643229 -0.20297532234813551 0 0.34118885628590861 -0.20658348559542761 0 0.35044196528261923 -0.21237003909368221 0 0.34443163002745242 -0.21396978433152861 0 0.34118885628590861 -0.20658348559542761 0 0.35044196528261923 -0.21237003909368221 0 0.34827109174085269 -0.21809548577662291 0 0.35574153325102748 -0.2203569760548397 0 0.35044196528261923 -0.21237003909368221 0 0.34443163002745242 -0.21396978433152861 0 0.34827109174085269 -0.21809548577662291 0 0.34443163002745242 -0.21396978433152861 0 0.34827109174085269 -0.21809548577662291 0 0.34294102588521541 -0.2197507013394906 0 0.36282099798942502 -0.19786624651844831 0 0.34975157246643229 -0.20297532234813551 0 0.34509028993992508 -0.1938589785597776 0 0.34341843353887419 -0.17954835688020121 0 0.36282099798942502 -0.19786624651844831 0 0.34509028993992508 -0.1938589785597776 0 0.34341843353887419 -0.17954835688020121 0 0.36282099798942502 -0.19786624651844831 0 0.34975157246643229 -0.20297532234813551 0 0.34509028993992508 -0.1938589785597776 0 0.34023856256824742 -0.20056946212685181 0 0.33835569905165552 -0.18738348770679439 0 0.34509028993992508 -0.1938589785597776 0 0.33548069781311057 -0.19427117793526361 0 0.33835569905165552 -0.18738348770679439 0 0.32924246012010022 -0.18645421832060971 0 0.33548069781311057 -0.19427117793526361 0 0.32924246012010022 -0.18645421832060971 0 0.33548069781311057 -0.19427117793526361 0 0.32597661007332929 -0.19623184450821951 0 0.33548069781311057 -0.19427117793526361 0 0.33437995191874148 -0.20046138773411709 0 0.32597661007332929 -0.19623184450821951 0 0.33437995191874148 -0.20046138773411709 0 0.33113500470152668 -0.20453466570596049 0 0.32597661007332929 -0.19623184450821951 0 0.34509028993992508 -0.1938589785597776 0 0.33548069781311057 -0.19427117793526361 0 0.34023856256824742 -0.20056946212685181 0 0.33437995191874148 -0.20046138773411709 0 0.34023856256824742 -0.20056946212685181 0 0.33554000698536612 -0.20526642058838951 0 0.33548069781311057 -0.19427117793526361 0 0.33437995191874148 -0.20046138773411709 0 0.34023856256824742 -0.20056946212685181 0 0.34975157246643229 -0.20297532234813551 0 0.34023856256824742 -0.20056946212685181 0 0.34118885628590861 -0.20658348559542761 0 0.34118885628590861 -0.20658348559542761 0 0.33796641582467513 -0.21313084298539031 0 0.33517492589815318 -0.20960712189582209 0 0.34118885628590861 -0.20658348559542761 0 0.33554000698536612 -0.20526642058838951 0 0.33517492589815318 -0.20960712189582209 0 0.34023856256824742 -0.20056946212685181 0 0.34118885628590861 -0.20658348559542761 0 0.33554000698536612 -0.20526642058838951 0 0.33796641582467513 -0.21313084298539031 0 0.32848567819522589 -0.21163192789013191 0 0.34294102588521541 -0.2197507013394906 0 0.34443163002745242 -0.21396978433152861 0 0.33796641582467513 -0.21313084298539031 0 0.34294102588521541 -0.2197507013394906 0 0.34443163002745242 -0.21396978433152861 0 0.34118885628590861 -0.20658348559542761 0 0.33796641582467513 -0.21313084298539031 0 0.33796641582467513 -0.21313084298539031 0 0.32848567819522589 -0.21163192789013191 0 0.33517492589815318 -0.20960712189582209 0 0.32848567819522589 -0.21163192789013191 0 0.33113500470152668 -0.20453466570596049 0 0.32597661007332929 -0.19623184450821951 0 0.33437995191874148 -0.20046138773411709 0 0.33554000698536612 -0.20526642058838951 0 0.33113500470152668 -0.20453466570596049 0 0.33554000698536612 -0.20526642058838951 0 0.33129277633497162 -0.2090817478089434 0 0.33113500470152668 -0.20453466570596049 0 0.33554000698536612 -0.20526642058838951 0 0.33517492589815318 -0.20960712189582209 0 0.33129277633497162 -0.2090817478089434 0 0.32848567819522589 -0.21163192789013191 0 0.33129277633497162 -0.2090817478089434 0 0.33113500470152668 -0.20453466570596049 0 0.32848567819522589 -0.21163192789013191 0 0.33517492589815318 -0.20960712189582209 0 0.33129277633497162 -0.2090817478089434 0 0.32848567819522589 -0.21163192789013191 0 0.33129277633497162 -0.2090817478089434 0 0.32848567819522589 -0.21163192789013191 0 0.31519249136078681 -0.19653758471895641 0 0.31240565370387419 -0.22624023729771989 0 0.32848567819522589 -0.21163192789013191 0 0.31298338845902302 -0.2113123798269696 0 0.32848567819522589 -0.21163192789013191 0 0.31298338845902302 -0.2113123798269696 0 0.31519249136078681 -0.19653758471895641 0 0.31792606865404271 -0.18554123567718131 0 0.31519249136078681 -0.19653758471895641 0 0.32597661007332929 -0.19623184450821951 0 0.31792606865404271 -0.18554123567718131 0 0.32924246012010022 -0.18645421832060971 0 0.32597661007332929 -0.19623184450821951 0 0.32848567819522589 -0.21163192789013191 0 0.31519249136078681 -0.19653758471895641 0 0.32597661007332929 -0.19623184450821951 0 0.30679468666361731 -0.249384579544184 0 0.32060321440149209 -0.2355485240071086 0 0.31612366293074279 -0.25382610042543741 0 0.32060321440149209 -0.2355485240071086 0 0.33095493140582899 -0.24942881102254519 0 0.31612366293074279 -0.25382610042543741 0 0.31240565370387419 -0.22624023729771989 0 0.32848567819522589 -0.21163192789013191 0 0.31240565370387419 -0.22624023729771989 0 0.32848567819522589 -0.21163192789013191 0 0.32060321440149209 -0.2355485240071086 0 0.32848567819522589 -0.21163192789013191 0 0.34294102588521541 -0.2197507013394906 0 0.34488079959046158 -0.23024850130890931 0 0.32848567819522589 -0.21163192789013191 0 0.32060321440149209 -0.2355485240071086 0 0.34488079959046158 -0.23024850130890931 0 0.32848567819522589 -0.21163192789013191 0 0.34488079959046158 -0.23024850130890931 0 0.32060321440149209 -0.2355485240071086 0 0.34488079959046158 -0.23024850130890931 0 0.33095493140582899 -0.24942881102254519 0 0.34783106546937281 -0.24843756050561569 0 0.34488079959046158 -0.23024850130890931 0 0.32060321440149209 -0.2355485240071086 0 0.33095493140582899 -0.24942881102254519 0 0.34488079959046158 -0.23024850130890931 0 0.34488079959046158 -0.23024850130890931 0 0.36157309947191812 -0.2492025193231692 0 0.34488079959046158 -0.23024850130890931 0 0.35605297252967388 -0.2299788328028104 0 0.36157309947191812 -0.2492025193231692 0 0.34783106546937281 -0.24843756050561569 0 0.34488079959046158 -0.23024850130890931 0 0.36157309947191812 -0.2492025193231692 0 0.34783106546937281 -0.24843756050561569 0 0.36157309947191812 -0.2492025193231692 0 0.36122881587163819 -0.25176525652885728 0 0.34827109174085269 -0.21809548577662291 0 0.34779930425794908 -0.22402992806357311 0 0.35574153325102748 -0.2203569760548397 0 0.34294102588521541 -0.2197507013394906 0 0.34779930425794908 -0.22402992806357311 0 0.34488079959046158 -0.23024850130890931 0 0.34827109174085269 -0.21809548577662291 0 0.34294102588521541 -0.2197507013394906 0 0.34779930425794908 -0.22402992806357311 0 0.34779930425794908 -0.22402992806357311 0 0.34488079959046158 -0.23024850130890931 0 0.35605297252967388 -0.2299788328028104 0 0.34779930425794908 -0.22402992806357311 0 0.35605297252967388 -0.2299788328028104 0 0.35574153325102748 -0.2203569760548397 0 0.35605297252967388 -0.2299788328028104 0 0.35574153325102748 -0.2203569760548397 0 0.3695981637227817 -0.22620293489667359 0 0.36249409782960162 -0.2109405298875747 0 0.35574153325102748 -0.2203569760548397 0 0.3695981637227817 -0.22620293489667359 0 0.35605297252967388 -0.2299788328028104 0 0.3695981637227817 -0.22620293489667359 0 0.36157309947191812 -0.2492025193231692 0 0.3695981637227817 -0.22620293489667359 0 0.36157309947191812 -0.2492025193231692 0 0.38338999904444448 -0.23946047744273499 0 0.38338999904444448 -0.23946047744273499 0 0.39418586787487842 -0.223667239266333 0 0.41130646495824041 -0.24149615127211599 0 0.41130646495824041 -0.24149615127211599 0 0.39478593215580748 -0.25482634430477252 0 0.38338999904444448 -0.23946047744273499 0 0.41130646495824041 -0.24149615127211599 0 0.39478593215580748 -0.25482634430477252 0 0.39418586787487842 -0.223667239266333 0 0.40921677587414529 -0.2166621758580132 0 0.41130646495824041 -0.24149615127211599 0 0.3695981637227817 -0.22620293489667359 0 0.38338999904444448 -0.23946047744273499 0 0.39418586787487842 -0.223667239266333 0 0.3695981637227817 -0.22620293489667359 0 0.39418586787487842 -0.223667239266333 0 0.38168159881004549 -0.2025469463892256 0 0.38168159881004549 -0.2025469463892256 0 0.38467216062135429 -0.1820530654775514 0 0.39959945652765178 -0.18658584064483211 0 0.37420468499055343 -0.1902830336527844 0 0.38168159881004549 -0.2025469463892256 0 0.38467216062135429 -0.1820530654775514 0 0.38168159881004549 -0.2025469463892256 0 0.40410037980863711 -0.20185859959043531 0 0.39959945652765178 -0.18658584064483211 0 0.39418586787487842 -0.223667239266333 0 0.38168159881004549 -0.2025469463892256 0 0.40410037980863711 -0.20185859959043531 0 0.39418586787487842 -0.223667239266333 0 0.40410037980863711 -0.20185859959043531 0 0.40921677587414529 -0.2166621758580132 0 0.40921677587414529 -0.2166621758580132 0 0.41801633415683431 -0.2068767332136385 0 0.42568151491355921 -0.2190634197419763 0 0.40410037980863711 -0.20185859959043531 0 0.40921677587414529 -0.2166621758580132 0 0.41801633415683431 -0.2068767332136385 0 0.40410037980863711 -0.20185859959043531 0 0.41923981585166209 -0.19267081108226061 0 0.39959945652765178 -0.18658584064483211 0 0.40410037980863711 -0.20185859959043531 0 0.41801633415683431 -0.2068767332136385 0 0.41923981585166209 -0.19267081108226061 0 0.41923981585166209 -0.19267081108226061 0 0.43184318433616792 -0.20412865979550721 0 0.43440214263584909 -0.18333107006153371 0 0.43184318433616792 -0.20412865979550721 0 0.43440214263584909 -0.18333107006153371 0 0.44623747155662208 -0.19805441275942229 0 0.41801633415683431 -0.2068767332136385 0 0.41923981585166209 -0.19267081108226061 0 0.43184318433616792 -0.20412865979550721 0 0.43184318433616792 -0.20412865979550721 0 0.42568151491355921 -0.2190634197419763 0 0.44720047239836191 -0.21864936445877001 0 0.41801633415683431 -0.2068767332136385 0 0.43184318433616792 -0.20412865979550721 0 0.42568151491355921 -0.2190634197419763 0 0.42568151491355921 -0.2190634197419763 0 0.43414118461746948 -0.23455888656827209 0 0.41130646495824041 -0.24149615127211599 0 0.42568151491355921 -0.2190634197419763 0 0.43414118461746948 -0.23455888656827209 0 0.44720047239836191 -0.21864936445877001 0 0.43414118461746948 -0.23455888656827209 0 0.41130646495824041 -0.24149615127211599 0 0.43120337734240588 -0.2521169601958978 0 0.40921677587414529 -0.2166621758580132 0 0.42568151491355921 -0.2190634197419763 0 0.41130646495824041 -0.24149615127211599 0 0.40001871730450089 -0.1186308914517533 0 0.38386539280285759 -0.13985525743885599 0 0.40001871730450089 -0.1186308914517533 0 0.38386539280285759 -0.13985525743885599 0 0.40845501384710092 -0.14856737431312689 0 0.37980056132956119 -0.1177274467991231 0 0.40001871730450089 -0.1186308914517533 0 0.38386539280285759 -0.13985525743885599 0 0.37980056132956119 -0.1177274467991231 0 0.36402046198743698 -0.13030513340288319 0 0.38386539280285759 -0.13985525743885599 0 0.36771206830121428 -0.1610796234259588 0 0.38386539280285759 -0.13985525743885599 0 0.36771206830121428 -0.1610796234259588 0 0.38386539280285759 -0.13985525743885599 0 0.3867565694027138 -0.15842564619719049 0 0.38386539280285759 -0.13985525743885599 0 0.3867565694027138 -0.15842564619719049 0 0.40845501384710092 -0.14856737431312689 0 0.39508877966358719 -0.17326032607904571 0 0.41347760640998149 -0.17476931244383631 0 0.40845501384710092 -0.14856737431312689 0 0.3867565694027138 -0.15842564619719049 0 0.39508877966358719 -0.17326032607904571 0 0.40845501384710092 -0.14856737431312689 0 0.36771206830121428 -0.1610796234259588 0 0.3867565694027138 -0.15842564619719049 0 0.37866159239880898 -0.1693656497289652 0 0.3867565694027138 -0.15842564619719049 0 0.37866159239880898 -0.1693656497289652 0 0.39508877966358719 -0.17326032607904571 0 0.3685569238766232 -0.17873836144299921 0 0.37420468499055343 -0.1902830336527844 0 0.38467216062135429 -0.1820530654775514 0 0.3685569238766232 -0.17873836144299921 0 0.37866159239880898 -0.1693656497289652 0 0.38467216062135429 -0.1820530654775514 0 0.37866159239880898 -0.1693656497289652 0 0.38467216062135429 -0.1820530654775514 0 0.39508877966358719 -0.17326032607904571 0 0.39508877966358719 -0.17326032607904571 0 0.39959945652765178 -0.18658584064483211 0 0.41347760640998149 -0.17476931244383631 0 0.38467216062135429 -0.1820530654775514 0 0.39508877966358719 -0.17326032607904571 0 0.39959945652765178 -0.18658584064483211 0 0.41923981585166209 -0.19267081108226061 0 0.39959945652765178 -0.18658584064483211 0 0.41347760640998149 -0.17476931244383631 0 0.41923981585166209 -0.19267081108226061 0 0.41347760640998149 -0.17476931244383631 0 0.43440214263584909 -0.18333107006153371 0 0.41347760640998149 -0.17476931244383631 0 0.43440214263584909 -0.18333107006153371 0 0.42657730031076091 -0.16258372677576269 0 0.43440214263584909 -0.18333107006153371 0 0.42657730031076091 -0.16258372677576269 0 0.4419698557000391 -0.1680824515037404 0 0.42657730031076091 -0.16258372677576269 0 0.44142024043006522 -0.15318716480246991 0 0.4419698557000391 -0.1680824515037404 0 0.41347760640998149 -0.17476931244383631 0 0.42657730031076091 -0.16258372677576269 0 0.40845501384710092 -0.14856737431312689 0 0.42657730031076091 -0.16258372677576269 0 0.43072509143284882 -0.1465300548284417 0 0.44142024043006522 -0.15318716480246991 0 0.40845501384710092 -0.14856737431312689 0 0.43072509143284882 -0.1465300548284417 0 0.42805281342571361 -0.13249761701672449 0 0.42657730031076091 -0.16258372677576269 0 0.40845501384710092 -0.14856737431312689 0 0.43072509143284882 -0.1465300548284417 0 0.43072509143284882 -0.1465300548284417 0 0.42805281342571361 -0.13249761701672449 0 0.44072382245935898 -0.1380812744377054 0 0.42805281342571361 -0.13249761701672449 0 0.43926187276642198 -0.12549397117413871 0 0.44072382245935898 -0.1380812744377054 0 0.41782917965024757 -0.1223179694886625 0 0.40845501384710092 -0.14856737431312689 0 0.41782917965024757 -0.1223179694886625 0 0.40001871730450089 -0.1186308914517533 0 0.40845501384710092 -0.14856737431312689 0 0.41782917965024757 -0.1223179694886625 0 0.40845501384710092 -0.14856737431312689 0 0.42805281342571361 -0.13249761701672449 0 0.46603305814036872 -0.13249713390087281 0 0.45121471096082139 -0.12760653268975669 0 0.454841424291967 -0.14379965778814641 0 0.46603305814036872 -0.13249713390087281 0 0.454841424291967 -0.14379965778814641 0 0.46712385728266642 -0.14323647633249359 0 0.45121471096082139 -0.12760653268975669 0 0.44072382245935898 -0.1380812744377054 0 0.454841424291967 -0.14379965778814641 0 0.45121471096082139 -0.12760653268975669 0 0.43926187276642198 -0.12549397117413871 0 0.44072382245935898 -0.1380812744377054 0 0.44072382245935898 -0.1380812744377054 0 0.44142024043006522 -0.15318716480246991 0 0.454841424291967 -0.14379965778814641 0 0.44142024043006522 -0.15318716480246991 0 0.454841424291967 -0.14379965778814641 0 0.45417278944861889 -0.16030722001162501 0 0.43072509143284882 -0.1465300548284417 0 0.44072382245935898 -0.1380812744377054 0 0.44142024043006522 -0.15318716480246991 0 0.454841424291967 -0.14379965778814641 0 0.46680346001803202 -0.15359978440735689 0 0.45417278944861889 -0.16030722001162501 0 0.454841424291967 -0.14379965778814641 0 0.46712385728266642 -0.14323647633249359 0 0.46680346001803202 -0.15359978440735689 0 0.45417278944861889 -0.16030722001162501 0 0.4529024431533844 -0.17896291268937631 0 0.47075835388236598 -0.17020019187767041 0 0.46680346001803202 -0.15359978440735689 0 0.45417278944861889 -0.16030722001162501 0 0.47075835388236598 -0.17020019187767041 0 0.45417278944861889 -0.16030722001162501 0 0.4419698557000391 -0.1680824515037404 0 0.4529024431533844 -0.17896291268937631 0 0.44142024043006522 -0.15318716480246991 0 0.45417278944861889 -0.16030722001162501 0 0.4419698557000391 -0.1680824515037404 0 0.43440214263584909 -0.18333107006153371 0 0.4419698557000391 -0.1680824515037404 0 0.4529024431533844 -0.17896291268937631 0 0.43440214263584909 -0.18333107006153371 0 0.4529024431533844 -0.17896291268937631 0 0.44623747155662208 -0.19805441275942229 0 0.4529024431533844 -0.17896291268937631 0 0.47075835388236598 -0.17020019187767041 0 0.46682888860557881 -0.19251607453394251 0 0.48477125504473811 -0.18341770877143229 0 0.47075835388236598 -0.17020019187767041 0 0.46682888860557881 -0.19251607453394251 0 0.48477125504473811 -0.18341770877143229 0 0.48502420562912912 -0.16766236343047439 0 0.47075835388236598 -0.17020019187767041 0 0.48477125504473811 -0.18341770877143229 0 0.48502420562912912 -0.16766236343047439 0 0.49999999999999989 -0.1715732049578724 0 0.48477125504473811 -0.18341770877143229 0 0.49999999999999989 -0.1715732049578724 0 0.5 -0.19842577851869489 0 0.49999999999999989 -0.1715732049578724 0 0.48992783800287271 -0.1564641190108062 0 0.49638734237989168 -0.14886861704961321 0 0.49999999999999989 -0.1715732049578724 0 0.49638734237989168 -0.14886861704961321 0 0.48502420562912912 -0.16766236343047439 0 0.49999999999999989 -0.1715732049578724 0 0.48992783800287271 -0.1564641190108062 0 0.48502420562912912 -0.16766236343047439 0 0.48992783800287271 -0.1564641190108062 0 0.47966358121566882 -0.15665659253459069 0 0.46680346001803202 -0.15359978440735689 0 0.47966358121566882 -0.15665659253459069 0 0.47075835388236598 -0.17020019187767041 0 0.48502420562912912 -0.16766236343047439 0 0.47966358121566882 -0.15665659253459069 0 0.47075835388236598 -0.17020019187767041 0 0.46680346001803202 -0.15359978440735689 0 0.47966358121566882 -0.15665659253459069 0 0.47444318017135417 -0.1481174431690111 0 0.46712385728266642 -0.14323647633249359 0 0.47444318017135417 -0.1481174431690111 0 0.47603571291654689 -0.14046717258867911 0 0.46712385728266642 -0.14323647633249359 0 0.46680346001803202 -0.15359978440735689 0 0.47444318017135417 -0.1481174431690111 0 0.48385806398632558 -0.14777659507773441 0 0.48576159720357548 -0.14154708639396271 0 0.47603571291654689 -0.14046717258867911 0 0.47444318017135417 -0.1481174431690111 0 0.48385806398632558 -0.14777659507773441 0 0.47603571291654689 -0.14046717258867911 0 0.47966358121566882 -0.15665659253459069 0 0.47444318017135417 -0.1481174431690111 0 0.48385806398632558 -0.14777659507773441 0 0.48992783800287271 -0.1564641190108062 0 0.49638734237989168 -0.14886861704961321 0 0.49018336754295933 -0.14693077980066649 0 0.49999999999999989 -0.1715732049578724 0 0.5 -0.1464790456597875 0 0.49638734237989168 -0.14886861704961321 0 0.48992783800287271 -0.1564641190108062 0 0.47966358121566882 -0.15665659253459069 0 0.48385806398632558 -0.14777659507773441 0 0.48992783800287271 -0.1564641190108062 0 0.48385806398632558 -0.14777659507773441 0 0.49018336754295933 -0.14693077980066649 0 0.49638734237989168 -0.14886861704961321 0 0.49018336754295933 -0.14693077980066649 0 0.49037531410474411 -0.1396456395315217 0 0.49018336754295933 -0.14693077980066649 0 0.48576159720357548 -0.14154708639396271 0 0.49037531410474411 -0.1396456395315217 0 0.48385806398632558 -0.14777659507773441 0 0.49018336754295933 -0.14693077980066649 0 0.48576159720357548 -0.14154708639396271 0 0.5 -0.1464790456597875 0 0.49638734237989168 -0.14886861704961321 0 0.49277468475978359 -0.12616402914135411 0 0.49638734237989168 -0.14886861704961321 0 0.49037531410474411 -0.1396456395315217 0 0.49277468475978359 -0.12616402914135411 0 0.49638734237989168 -0.14886861704961321 0 0.49277468475978359 -0.12616402914135411 0 0.5 -0.1213848863617026 0 0.5 -0.1464790456597875 0 0.49277468475978359 -0.12616402914135411 0 0.48530706931668549 -0.13498589898472019 0 0.49037531410474411 -0.1396456395315217 0 0.49277468475978359 -0.12616402914135411 0 0.48576159720357548 -0.14154708639396271 0 0.48530706931668549 -0.13498589898472019 0 0.49037531410474411 -0.1396456395315217 0 0.48530706931668549 -0.13498589898472019 0 0.49277468475978359 -0.12616402914135411 0 0.48350878601982578 -0.12670694884668229 0 0.47504955140379312 -0.12213913943755771 0 0.47718683555944408 -0.13135925875170251 0 0.48350878601982578 -0.12670694884668229 0 0.48530706931668549 -0.13498589898472019 0 0.47718683555944408 -0.13135925875170251 0 0.48350878601982578 -0.12670694884668229 0 0.48576159720357548 -0.14154708639396271 0 0.48530706931668549 -0.13498589898472019 0 0.47603571291654689 -0.14046717258867911 0 0.48530706931668549 -0.13498589898472019 0 0.47718683555944408 -0.13135925875170251 0 0.47603571291654689 -0.14046717258867911 0 0.46603305814036872 -0.13249713390087281 0 0.46712385728266642 -0.14323647633249359 0 0.47603571291654689 -0.14046717258867911 0 0.46603305814036872 -0.13249713390087281 0 0.47718683555944408 -0.13135925875170251 0 0.47603571291654689 -0.14046717258867911 0 0.47504955140379312 -0.12213913943755771 0 0.46603305814036872 -0.13249713390087281 0 0.47718683555944408 -0.13135925875170251 0 0.45531409347478041 -0.2414685371726005 0 0.44720047239836191 -0.21864936445877001 0 0.47037738343509511 -0.21672492634011939 0 0.45531409347478041 -0.2414685371726005 0 0.47037738343509511 -0.21672492634011939 0 0.47933194349078262 -0.23780742376808089 0 0.45531409347478041 -0.2414685371726005 0 0.47933194349078262 -0.23780742376808089 0 0.47068472795882121 -0.2690410685087038 0 0.43414118461746948 -0.23455888656827209 0 0.45531409347478041 -0.2414685371726005 0 0.43120337734240588 -0.2521169601958978 0 0.43414118461746948 -0.23455888656827209 0 0.45531409347478041 -0.2414685371726005 0 0.44720047239836191 -0.21864936445877001 0 0.43184318433616792 -0.20412865979550721 0 0.44720047239836191 -0.21864936445877001 0 0.44623747155662208 -0.19805441275942229 0 0.44720047239836191 -0.21864936445877001 0 0.44623747155662208 -0.19805441275942229 0 0.45766105399891438 -0.20648619452306349 0 0.4529024431533844 -0.17896291268937631 0 0.44623747155662208 -0.19805441275942229 0 0.46682888860557881 -0.19251607453394251 0 0.44623747155662208 -0.19805441275942229 0 0.46682888860557881 -0.19251607453394251 0 0.45766105399891438 -0.20648619452306349 0 0.46682888860557881 -0.19251607453394251 0 0.45766105399891438 -0.20648619452306349 0 0.47037738343509511 -0.21672492634011939 0 0.44720047239836191 -0.21864936445877001 0 0.45766105399891438 -0.20648619452306349 0 0.47037738343509511 -0.21672492634011939 0 0.47037738343509511 -0.21672492634011939 0 0.48239302876087281 -0.20097525063616001 0 0.5 -0.22527835207951741 0 0.46682888860557881 -0.19251607453394251 0 0.47037738343509511 -0.21672492634011939 0 0.48239302876087281 -0.20097525063616001 0 0.48477125504473811 -0.18341770877143229 0 0.46682888860557881 -0.19251607453394251 0 0.48239302876087281 -0.20097525063616001 0 0.48477125504473811 -0.18341770877143229 0 0.48239302876087281 -0.20097525063616001 0 0.5 -0.19842577851869489 0 0.48239302876087281 -0.20097525063616001 0 0.5 -0.19842577851869489 0 0.5 -0.22527835207951741 0 0.47037738343509511 -0.21672492634011939 0 0.5 -0.22527835207951741 0 0.47933194349078262 -0.23780742376808089 0 0.5 -0.22527835207951741 0 0.47933194349078262 -0.23780742376808089 0 0.5 -0.2521309256403399 0 0.5 -0.2521309256403399 0 0.5 -0.27898349920116239 0 0.47068472795882121 -0.2690410685087038 0 0.5 -0.27898349920116239 0 0.47068472795882121 -0.2690410685087038 0 0.47867914136981993 -0.29278468906198651 0 0.47933194349078262 -0.23780742376808089 0 0.5 -0.2521309256403399 0 0.47068472795882121 -0.2690410685087038 0 0.45531409347478041 -0.2414685371726005 0 0.47068472795882121 -0.2690410685087038 0 0.4471387477793014 -0.26570866752112349 0 0.47068472795882121 -0.2690410685087038 0 0.4471387477793014 -0.26570866752112349 0 0.44677187983569072 -0.28869845382727399 0 0.4471387477793014 -0.26570866752112349 0 0.44677187983569072 -0.28869845382727399 0 0.42447378002309932 -0.27290330230145771 0 0.45531409347478041 -0.2414685371726005 0 0.4471387477793014 -0.26570866752112349 0 0.43120337734240588 -0.2521169601958978 0 0.47068472795882121 -0.2690410685087038 0 0.44677187983569072 -0.28869845382727399 0 0.47867914136981993 -0.29278468906198651 0 0.44677187983569072 -0.28869845382727399 0 0.46336646095250023 -0.31099941062157122 0 0.47867914136981993 -0.29278468906198651 0 0.44529497620684588 -0.30935321934237647 0 0.44677187983569072 -0.28869845382727399 0 0.43233668826842447 -0.30341120226768142 0 0.44529497620684588 -0.30935321934237647 0 0.44677187983569072 -0.28869845382727399 0 0.46336646095250023 -0.31099941062157122 0 0.44677187983569072 -0.28869845382727399 0 0.46336646095250023 -0.31099941062157122 0 0.46336646095250023 -0.31099941062157122 0 0.47867914136981993 -0.29278468906198651 0 0.48248389549510301 -0.31409840680216922 0 0.5 -0.27898349920116239 0 0.47867914136981993 -0.29278468906198651 0 0.5 -0.30583607276198488 0 0.47867914136981993 -0.29278468906198651 0 0.5 -0.30583607276198488 0 0.48248389549510301 -0.31409840680216922 0 0.5 -0.30583607276198488 0 0.5 -0.33268864632280742 0 0.48248389549510301 -0.31409840680216922 0 0.5 -0.33268864632280742 0 0.47996104206930962 -0.33330036741586833 0 0.48248389549510301 -0.31409840680216922 0 0.5 -0.33268864632280742 0 0.47996104206930962 -0.33330036741586833 0 0.49655562318611912 -0.35560132421016549 0 0.47996104206930962 -0.33330036741586833 0 0.47243242050725448 -0.35461336052016867 0 0.46077897502666931 -0.33749544428160477 0 0.46336646095250023 -0.31099941062157122 0 0.47996104206930962 -0.33330036741586833 0 0.46336646095250023 -0.31099941062157122 0 0.47996104206930962 -0.33330036741586833 0 0.48248389549510301 -0.31409840680216922 0 0.50000000000000067 -0.35954121988362991 0 0.47935973618787581 -0.37439579939549439 0 0.5 -0.38761270593065711 0 0.50000000000000067 -0.35954121988362991 0 0.47935973618787581 -0.37439579939549439 0 0.50000000000000067 -0.35954121988362991 0 0.49655562318611912 -0.35560132421016549 0 0.47935973618787581 -0.37439579939549439 0 0.5 -0.33268864632280742 0 0.50000000000000067 -0.35954121988362991 0 0.49655562318611912 -0.35560132421016549 0 0.47996104206930962 -0.33330036741586833 0 0.49655562318611912 -0.35560132421016549 0 0.47996104206930962 -0.33330036741586833 0 0.49655562318611912 -0.35560132421016549 0 0.47243242050725448 -0.35461336052016867 0 0.47243242050725448 -0.35461336052016867 0 0.47935973618787581 -0.37439579939549439 0 0.45860641197244301 -0.37187482402558342 0 0.49655562318611912 -0.35560132421016549 0 0.47243242050725448 -0.35461336052016867 0 0.47935973618787581 -0.37439579939549439 0 0.47243242050725448 -0.35461336052016867 0 0.45860641197244301 -0.37187482402558342 0 0.45305497467800931 -0.35618908365617369 0 0.47243242050725448 -0.35461336052016867 0 0.45305497467800931 -0.35618908365617369 0 0.46077897502666931 -0.33749544428160477 0 0.45305497467800931 -0.35618908365617369 0 0.4452201162740369 -0.34381565356629562 0 0.46077897502666931 -0.33749544428160477 0 0.45305497467800931 -0.35618908365617369 0 0.4452201162740369 -0.34381565356629562 0 0.4366654950034709 -0.3585190098671342 0 0.4452201162740369 -0.34381565356629562 0 0.4366654950034709 -0.3585190098671342 0 0.43227833040643771 -0.34556955406644541 0 0.45860641197244301 -0.37187482402558342 0 0.45305497467800931 -0.35618908365617369 0 0.44414489759694348 -0.37036699331155198 0 0.45305497467800931 -0.35618908365617369 0 0.44414489759694348 -0.37036699331155198 0 0.4366654950034709 -0.3585190098671342 0 0.44414489759694348 -0.37036699331155198 0 0.43411103693773873 -0.37092250397252041 0 0.4366654950034709 -0.3585190098671342 0 0.44414489759694348 -0.37036699331155198 0 0.43411103693773873 -0.37092250397252041 0 0.4368988214418047 -0.37849012458599318 0 0.46336646095250023 -0.31099941062157122 0 0.46077897502666931 -0.33749544428160477 0 0.44845271969336609 -0.32527466552968948 0 0.46336646095250023 -0.31099941062157122 0 0.47996104206930962 -0.33330036741586833 0 0.46077897502666931 -0.33749544428160477 0 0.4452201162740369 -0.34381565356629562 0 0.46077897502666931 -0.33749544428160477 0 0.44845271969336609 -0.32527466552968948 0 0.4452201162740369 -0.34381565356629562 0 0.43789176670069141 -0.33200151016254709 0 0.44845271969336609 -0.32527466552968948 0 0.4452201162740369 -0.34381565356629562 0 0.43789176670069141 -0.33200151016254709 0 0.43227833040643771 -0.34556955406644541 0 0.43789176670069141 -0.33200151016254709 0 0.44845271969336609 -0.32527466552968948 0 0.43254883021824408 -0.31923279248549302 0 0.44529497620684588 -0.30935321934237647 0 0.44845271969336609 -0.32527466552968948 0 0.43254883021824408 -0.31923279248549302 0 0.44529497620684588 -0.30935321934237647 0 0.46336646095250023 -0.31099941062157122 0 0.44845271969336609 -0.32527466552968948 0 0.43789176670069141 -0.33200151016254709 0 0.43254883021824408 -0.31923279248549302 0 0.42184659352003828 -0.32724135646244451 0 0.43254883021824408 -0.31923279248549302 0 0.41975568048271772 -0.31905304679062318 0 0.42253407270533322 -0.31143751472203912 0 0.43254883021824408 -0.31923279248549302 0 0.41975568048271772 -0.31905304679062318 0 0.42184659352003828 -0.32724135646244451 0 0.43789176670069141 -0.33200151016254709 0 0.4257106647415243 -0.3371971098622108 0 0.42184659352003828 -0.32724135646244451 0 0.43789176670069141 -0.33200151016254709 0 0.4257106647415243 -0.3371971098622108 0 0.43227833040643771 -0.34556955406644541 0 0.4257106647415243 -0.3371971098622108 0 0.4205863927478703 -0.34373589225736179 0 0.43227833040643771 -0.34556955406644541 0 0.4257106647415243 -0.3371971098622108 0 0.4125284729318866 -0.33593088702530738 0 0.42184659352003828 -0.32724135646244451 0 0.4257106647415243 -0.3371971098622108 0 0.4205863927478703 -0.34373589225736179 0 0.4125284729318866 -0.33593088702530738 0 0.4205863927478703 -0.34373589225736179 0 0.4125284729318866 -0.33593088702530738 0 0.40835661436514431 -0.34598399040517691 0 0.4125284729318866 -0.33593088702530738 0 0.40835661436514431 -0.34598399040517691 0 0.3993626358780068 -0.34168963075492842 0 0.4125284729318866 -0.33593088702530738 0 0.40835661436514431 -0.34598399040517691 0 0.4125284729318866 -0.33593088702530738 0 0.40707051394932697 -0.3263477336793561 0 0.3993626358780068 -0.34168963075492842 0 0.4125284729318866 -0.33593088702530738 0 0.40707051394932697 -0.3263477336793561 0 0.42184659352003828 -0.32724135646244451 0 0.40707051394932697 -0.3263477336793561 0 0.40350641813129812 -0.31494991173736392 0 0.41477839202064581 -0.311005836603783 0 0.40707051394932697 -0.3263477336793561 0 0.41975568048271772 -0.31905304679062318 0 0.41477839202064581 -0.311005836603783 0 0.40707051394932697 -0.3263477336793561 0 0.41477839202064581 -0.311005836603783 0 0.41975568048271772 -0.31905304679062318 0 0.42253407270533322 -0.31143751472203912 0 0.41477839202064581 -0.311005836603783 0 0.40707051394932697 -0.3263477336793561 0 0.41975568048271772 -0.31905304679062318 0 0.42184659352003828 -0.32724135646244451 0 0.42445476644138141 -0.36802342435757729 0 0.43411103693773873 -0.37092250397252041 0 0.42839120420509302 -0.37921296774034507 0 0.42445476644138141 -0.36802342435757729 0 0.43411103693773873 -0.37092250397252041 0 0.4366654950034709 -0.3585190098671342 0 0.42445476644138141 -0.36802342435757729 0 0.42331467421942692 -0.35312602313030439 0 0.4366654950034709 -0.3585190098671342 0 0.42331467421942692 -0.35312602313030439 0 0.4366654950034709 -0.3585190098671342 0 0.43227833040643771 -0.34556955406644541 0 0.4205863927478703 -0.34373589225736179 0 0.42331467421942692 -0.35312602313030439 0 0.43227833040643771 -0.34556955406644541 0 0.40835661436514431 -0.34598399040517691 0 0.41138196649821429 -0.35917609135897272 0 0.40023553439847259 -0.36555369900265772 0 0.42331467421942692 -0.35312602313030439 0 0.40835661436514431 -0.34598399040517691 0 0.4205863927478703 -0.34373589225736179 0 0.42331467421942692 -0.35312602313030439 0 0.40835661436514431 -0.34598399040517691 0 0.42331467421942692 -0.35312602313030439 0 0.41138196649821429 -0.35917609135897272 0 0.41552111697059552 -0.36521945478387968 0 0.42331467421942692 -0.35312602313030439 0 0.40835661436514431 -0.34598399040517691 0 0.41138196649821429 -0.35917609135897272 0 0.42445476644138141 -0.36802342435757729 0 0.42331467421942692 -0.35312602313030439 0 0.41552111697059552 -0.36521945478387968 0 0.41138196649821429 -0.35917609135897272 0 0.40867868029407789 -0.36606012091925361 0 0.40023553439847259 -0.36555369900265772 0 0.41138196649821429 -0.35917609135897272 0 0.41552111697059552 -0.36521945478387968 0 0.40867868029407789 -0.36606012091925361 0 0.40829401237915658 -0.37040808280654119 0 0.41368050551153013 -0.37186308396378281 0 0.4095682668783947 -0.37830497804368818 0 0.41552111697059552 -0.36521945478387968 0 0.40867868029407789 -0.36606012091925361 0 0.41368050551153013 -0.37186308396378281 0 0.40829401237915658 -0.37040808280654119 0 0.40479298879909548 -0.37243334149499718 0 0.4095682668783947 -0.37830497804368818 0 0.40867868029407789 -0.36606012091925361 0 0.40829401237915658 -0.37040808280654119 0 0.41368050551153013 -0.37186308396378281 0 0.40867868029407789 -0.36606012091925361 0 0.40829401237915658 -0.37040808280654119 0 0.40460799250252588 -0.36798922235593973 0 0.42445476644138141 -0.36802342435757729 0 0.41552111697059552 -0.36521945478387968 0 0.41368050551153013 -0.37186308396378281 0 0.42445476644138141 -0.36802342435757729 0 0.41368050551153013 -0.37186308396378281 0 0.41918050134732188 -0.37852246208793611 0 0.40023553439847259 -0.36555369900265772 0 0.38684697606499452 -0.36660102178985599 0 0.38845109995970079 -0.37830947830900941 0 0.40479298879909548 -0.37243334149499718 0 0.40023553439847259 -0.36555369900265772 0 0.40172642143194781 -0.37944721760464523 0 0.40479298879909548 -0.37243334149499718 0 0.40460799250252588 -0.36798922235593973 0 0.40023553439847259 -0.36555369900265772 0 0.40829401237915658 -0.37040808280654119 0 0.40479298879909548 -0.37243334149499718 0 0.40460799250252588 -0.36798922235593973 0 0.40867868029407789 -0.36606012091925361 0 0.40460799250252588 -0.36798922235593973 0 0.40023553439847259 -0.36555369900265772 0 0.40023553439847259 -0.36555369900265772 0 0.38684697606499452 -0.36660102178985599 0 0.40835661436514431 -0.34598399040517691 0 0.40023553439847259 -0.36555369900265772 0 0.40835661436514431 -0.34598399040517691 0 0.40023553439847259 -0.36555369900265772 0 0.3993626358780068 -0.34168963075492842 0 0.38684697606499452 -0.36660102178985599 0 0.3993626358780068 -0.34168963075492842 0 0.40023553439847259 -0.36555369900265772 0 0.38684697606499452 -0.36660102178985599 0 0.3993626358780068 -0.34168963075492842 0 0.40835661436514431 -0.34598399040517691 0 0.3993626358780068 -0.34168963075492842 0 0.38238154859213408 -0.34994939341446818 0 0.38684697606499452 -0.36660102178985599 0 0.3993626358780068 -0.34168963075492842 0 0.38684697606499452 -0.36660102178985599 0 0.37628804874910649 -0.38761769779457628 0 0.36914771870704671 -0.36798554991348331 0 0.38238154859213408 -0.34994939341446818 0 0.38684697606499452 -0.36660102178985599 0 0.36914771870704671 -0.36798554991348331 0 0.38684697606499452 -0.36660102178985599 0 0.36914771870704671 -0.36798554991348331 0 0.39132151908851642 -0.31903656580036988 0 0.39938993315929677 -0.32245359640506249 0 0.39563259288176728 -0.329336712948056 0 0.39132151908851642 -0.31903656580036988 0 0.40350641813129812 -0.31494991173736392 0 0.39947744745311542 -0.30370800267814352 0 0.39132151908851642 -0.31903656580036988 0 0.40350641813129812 -0.31494991173736392 0 0.39938993315929677 -0.32245359640506249 0 0.40707051394932697 -0.3263477336793561 0 0.39938993315929677 -0.32245359640506249 0 0.39563259288176728 -0.329336712948056 0 0.40707051394932697 -0.3263477336793561 0 0.40350641813129812 -0.31494991173736392 0 0.39938993315929677 -0.32245359640506249 0 0.40707051394932697 -0.3263477336793561 0 0.3993626358780068 -0.34168963075492842 0 0.39563259288176728 -0.329336712948056 0 0.40707051394932697 -0.3263477336793561 0 0.3993626358780068 -0.34168963075492842 0 0.3993626358780068 -0.34168963075492842 0 0.39563259288176728 -0.329336712948056 0 0.38072235236213958 -0.33278944475668432 0 0.38238154859213408 -0.34994939341446818 0 0.3993626358780068 -0.34168963075492842 0 0.38072235236213958 -0.33278944475668432 0 0.38238154859213408 -0.34994939341446818 0 0.38072235236213958 -0.33278944475668432 0 0.36561489377665718 -0.34593740433596271 0 0.3993626358780068 -0.34168963075492842 0 0.38072235236213958 -0.33278944475668432 0 0.39132151908851642 -0.31903656580036988 0 0.38072235236213958 -0.33278944475668432 0 0.37336889936850559 -0.31947899961008203 0 0.39132151908851642 -0.31903656580036988 0 0.38215160193259651 -0.30953338997286778 0 0.37336889936850559 -0.31947899961008203 0 0.39132151908851642 -0.31903656580036988 0 0.39563259288176728 -0.329336712948056 0 0.38072235236213958 -0.33278944475668432 0 0.38215160193259651 -0.30953338997286778 0 0.37016932155194721 -0.30946489114149578 0 0.37336889936850559 -0.31947899961008203 0 0.39947744745311542 -0.30370800267814352 0 0.37642082220089768 -0.2959784906342478 0 0.38215160193259651 -0.30953338997286778 0 0.39947744745311542 -0.30370800267814352 0 0.37642082220089768 -0.2959784906342478 0 0.38215160193259651 -0.30953338997286778 0 0.37642082220089768 -0.2959784906342478 0 0.37016932155194721 -0.30946489114149578 0 0.39947744745311542 -0.30370800267814352 0 0.3951942215517249 -0.28737912518850572 0 0.41212304375007652 -0.30660171303958128 0 0.3951942215517249 -0.28737912518850572 0 0.41212304375007652 -0.30660171303958128 0 0.39132151908851642 -0.31903656580036988 0 0.38215160193259651 -0.30953338997286778 0 0.39947744745311542 -0.30370800267814352 0 0.40350641813129812 -0.31494991173736392 0 0.39947744745311542 -0.30370800267814352 0 0.41477839202064581 -0.311005836603783 0 0.3951942215517249 -0.28737912518850572 0 0.40310433301186399 -0.27100096265051821 0 0.41195249867961331 -0.28971721647423238 0 0.39947744745311542 -0.30370800267814352 0 0.3951942215517249 -0.28737912518850572 0 0.37642082220089768 -0.2959784906342478 0 0.3951942215517249 -0.28737912518850572 0 0.37642082220089768 -0.2959784906342478 0 0.3782298036702354 -0.28298921229491808 0 0.3951942215517249 -0.28737912518850572 0 0.37826539935337461 -0.26815653733742911 0 0.3951942215517249 -0.28737912518850572 0 0.3782298036702354 -0.28298921229491808 0 0.37826539935337461 -0.26815653733742911 0 0.38338999904444448 -0.23946047744273499 0 0.37826539935337461 -0.26815653733742911 0 0.39478593215580748 -0.25482634430477252 0 0.37826539935337461 -0.26815653733742911 0 0.39478593215580748 -0.25482634430477252 0 0.39478593215580748 -0.25482634430477252 0 0.40310433301186399 -0.27100096265051821 0 0.41297477749828337 -0.25846874414495241 0 0.37826539935337461 -0.26815653733742911 0 0.39478593215580748 -0.25482634430477252 0 0.40310433301186399 -0.27100096265051821 0 0.3951942215517249 -0.28737912518850572 0 0.37826539935337461 -0.26815653733742911 0 0.40310433301186399 -0.27100096265051821 0 0.40310433301186399 -0.27100096265051821 0 0.41297477749828337 -0.25846874414495241 0 0.42447378002309932 -0.27290330230145771 0 0.40310433301186399 -0.27100096265051821 0 0.42447378002309932 -0.27290330230145771 0 0.41195249867961331 -0.28971721647423238 0 0.41130646495824041 -0.24149615127211599 0 0.41297477749828337 -0.25846874414495241 0 0.43120337734240588 -0.2521169601958978 0 0.41130646495824041 -0.24149615127211599 0 0.39478593215580748 -0.25482634430477252 0 0.41297477749828337 -0.25846874414495241 0 0.4471387477793014 -0.26570866752112349 0 0.43120337734240588 -0.2521169601958978 0 0.42447378002309932 -0.27290330230145771 0 0.41297477749828337 -0.25846874414495241 0 0.43120337734240588 -0.2521169601958978 0 0.42447378002309932 -0.27290330230145771 0 0.44677187983569072 -0.28869845382727399 0 0.42570341793239003 -0.29098932384679538 0 0.43233668826842447 -0.30341120226768142 0 0.44677187983569072 -0.28869845382727399 0 0.42447378002309932 -0.27290330230145771 0 0.42570341793239003 -0.29098932384679538 0 0.44529497620684588 -0.30935321934237647 0 0.43254883021824408 -0.31923279248549302 0 0.43233668826842447 -0.30341120226768142 0 0.43254883021824408 -0.31923279248549302 0 0.43233668826842447 -0.30341120226768142 0 0.42253407270533322 -0.31143751472203912 0 0.43233668826842447 -0.30341120226768142 0 0.42253407270533322 -0.31143751472203912 0 0.42092994426716751 -0.30043139407006603 0 0.42570341793239003 -0.29098932384679538 0 0.43233668826842447 -0.30341120226768142 0 0.42092994426716751 -0.30043139407006603 0 0.39947744745311542 -0.30370800267814352 0 0.42253407270533322 -0.31143751472203912 0 0.41477839202064581 -0.311005836603783 0 0.42092994426716751 -0.30043139407006603 0 0.41212304375007652 -0.30660171303958128 0 0.41195249867961331 -0.28971721647423238 0 0.39947744745311542 -0.30370800267814352 0 0.42253407270533322 -0.31143751472203912 0 0.41212304375007652 -0.30660171303958128 0 0.39947744745311542 -0.30370800267814352 0 0.42253407270533322 -0.31143751472203912 0 0.42253407270533322 -0.31143751472203912 0 0.42092994426716751 -0.30043139407006603 0 0.41212304375007652 -0.30660171303958128 0 0.42447378002309932 -0.27290330230145771 0 0.42570341793239003 -0.29098932384679538 0 0.41195249867961331 -0.28971721647423238 0 0.3951942215517249 -0.28737912518850572 0 0.41212304375007652 -0.30660171303958128 0 0.41195249867961331 -0.28971721647423238 0 0.42570341793239003 -0.29098932384679538 0 0.42092994426716751 -0.30043139407006603 0 0.41195249867961331 -0.28971721647423238 0 0.44187129846782419 -0.5 0 0.48973119861021358 -0.49607759935986251 0 0.47261987389191829 -0.48159380583791922 0 0.44187129846782419 -0.5 0 0.44106023269328931 -0.47672651962107199 0 0.43267815495306988 -0.48506983855403379 0 0.44187129846782419 -0.5 0 0.44106023269328931 -0.47672651962107199 0 0.45574605150893499 -0.4761345737510852 0 0.44106023269328931 -0.47672651962107199 0 0.45574605150893499 -0.4761345737510852 0 0.45094395739650178 -0.4574642662590534 0 0.45574605150893499 -0.4761345737510852 0 0.47261987389191829 -0.48159380583791922 0 0.47187449375710322 -0.46359242374908732 0 0.44187129846782419 -0.5 0 0.45574605150893499 -0.4761345737510852 0 0.47261987389191829 -0.48159380583791922 0 0.44187129846782419 -0.5 0 0.5 -0.5 0 0.48973119861021358 -0.49607759935986251 0 0.5 -0.5 0 0.48973119861021358 -0.49607759935986251 0 0.49999999999999661 -0.47182716407173858 0 0.48973119861021358 -0.49607759935986251 0 0.49280503011770471 -0.46972058123912103 0 0.47261987389191829 -0.48159380583791922 0 0.48973119861021358 -0.49607759935986251 0 0.49280503011770471 -0.46972058123912103 0 0.48973119861021358 -0.49607759935986251 0 0.49280503011770471 -0.46972058123912103 0 0.49999999999999661 -0.47182716407173858 0 0.49280503011770471 -0.46972058123912103 0 0.49999999999999661 -0.47182716407173858 0 0.49280503011770471 -0.46972058123912103 0 0.47261987389191829 -0.48159380583791922 0 0.47187449375710322 -0.46359242374908732 0 0.49280503011770471 -0.46972058123912103 0 0.47187449375710322 -0.46359242374908732 0 0.48725851691698879 -0.45463116055928943 0 0.47187449375710322 -0.46359242374908732 0 0.47974048580737932 -0.44927775004055259 0 0.46302725979221132 -0.44990694669799858 0 0.49280503011770471 -0.46972058123912103 0 0.47187449375710322 -0.46359242374908732 0 0.47187449375710322 -0.46359242374908732 0 0.48725851691698879 -0.45463116055928943 0 0.47974048580737932 -0.44927775004055259 0 0.49280503011770471 -0.46972058123912103 0 0.49612849644047669 -0.44122303286033238 0 0.49280503011770471 -0.46972058123912103 0 0.49999999999999661 -0.47182716407173858 0 0.5 -0.4437556780247115 0 0.49280503011770471 -0.46972058123912103 0 0.48725851691698879 -0.45463116055928943 0 0.49612849644047669 -0.44122303286033238 0 0.49280503011770471 -0.46972058123912103 0 0.5 -0.4437556780247115 0 0.49612849644047669 -0.44122303286033238 0 0.49612849644047669 -0.44122303286033238 0 0.49003869161848868 -0.44068977900617151 0 0.49106997033050093 -0.43680623077694952 0 0.48725851691698879 -0.45463116055928943 0 0.49612849644047669 -0.44122303286033238 0 0.48822728736494092 -0.44553870633058162 0 0.48725851691698879 -0.45463116055928943 0 0.48822728736494092 -0.44553870633058162 0 0.47974048580737932 -0.44927775004055259 0 0.49612849644047669 -0.44122303286033238 0 0.48822728736494092 -0.44553870633058162 0 0.49003869161848868 -0.44068977900617151 0 0.48822728736494092 -0.44553870633058162 0 0.49003869161848868 -0.44068977900617151 0 0.48472901233803622 -0.43919114605682241 0 0.49003869161848868 -0.44068977900617151 0 0.48472901233803622 -0.43919114605682241 0 0.49106997033050093 -0.43680623077694952 0 0.48822728736494092 -0.44553870633058162 0 0.48472901233803622 -0.43919114605682241 0 0.47974048580737932 -0.44927775004055259 0 0.47974048580737932 -0.44927775004055259 0 0.47524597052465078 -0.44215828783762012 0 0.46302725979221132 -0.44990694669799858 0 0.48472901233803622 -0.43919114605682241 0 0.47524597052465078 -0.44215828783762012 0 0.47950008663641108 -0.43591493993930502 0 0.48472901233803622 -0.43919114605682241 0 0.47974048580737932 -0.44927775004055259 0 0.47524597052465078 -0.44215828783762012 0 0.47524597052465078 -0.44215828783762012 0 0.46302725979221132 -0.44990694669799858 0 0.46321374146398347 -0.43647343312422482 0 0.46302725979221132 -0.44990694669799858 0 0.45254684431627329 -0.43508494155804639 0 0.46321374146398347 -0.43647343312422482 0 0.47187449375710322 -0.46359242374908732 0 0.45094395739650178 -0.4574642662590534 0 0.47187449375710322 -0.46359242374908732 0 0.46302725979221132 -0.44990694669799858 0 0.45094395739650178 -0.4574642662590534 0 0.45574605150893499 -0.4761345737510852 0 0.47187449375710322 -0.46359242374908732 0 0.45094395739650178 -0.4574642662590534 0 0.45094395739650178 -0.4574642662590534 0 0.43001342103590079 -0.45133610876901831 0 0.44106023269328931 -0.47672651962107199 0 0.45094395739650178 -0.4574642662590534 0 0.43769598202098842 -0.46390443968526801 0 0.45094395739650178 -0.4574642662590534 0 0.43769598202098842 -0.46390443968526801 0 0.43001342103590079 -0.45133610876901831 0 0.45094395739650178 -0.4574642662590534 0 0.44132952392917768 -0.44365736946918582 0 0.43001342103590079 -0.45133610876901831 0 0.46302725979221132 -0.44990694669799858 0 0.45094395739650178 -0.4574642662590534 0 0.44132952392917768 -0.44365736946918582 0 0.46302725979221132 -0.44990694669799858 0 0.44132952392917768 -0.44365736946918582 0 0.45254684431627329 -0.43508494155804639 0 0.44132952392917768 -0.44365736946918582 0 0.45254684431627329 -0.43508494155804639 0 0.44420329604864622 -0.42505426368286059 0 0.44132952392917768 -0.44365736946918582 0 0.44420329604864622 -0.42505426368286059 0 0.4321171012464583 -0.43355051584202192 0 0.45254684431627329 -0.43508494155804639 0 0.44420329604864622 -0.42505426368286059 0 0.45714967956605612 -0.42506521161440031 0 0.44420329604864622 -0.42505426368286059 0 0.44237945495506031 -0.41356883902963681 0 0.43422078145701642 -0.41576492291502559 0 0.44237945495506031 -0.41356883902963681 0 0.45221745716943001 -0.41160343684072132 0 0.43807920856362431 -0.40410495841922112 0 0.44237945495506031 -0.41356883902963681 0 0.43807920856362431 -0.40410495841922112 0 0.43422078145701642 -0.41576492291502559 0 0.44420329604864622 -0.42505426368286059 0 0.45221745716943001 -0.41160343684072132 0 0.45714967956605612 -0.42506521161440031 0 0.44420329604864622 -0.42505426368286059 0 0.44237945495506031 -0.41356883902963681 0 0.45221745716943001 -0.41160343684072132 0 0.45221745716943001 -0.41160343684072132 0 0.46196102813989509 -0.41666334273252709 0 0.45714967956605612 -0.42506521161440031 0 0.45221745716943001 -0.41160343684072132 0 0.46496962182176738 -0.40820504542075081 0 0.46196102813989509 -0.41666334273252709 0 0.46496962182176738 -0.40820504542075081 0 0.46196102813989509 -0.41666334273252709 0 0.47161440459133053 -0.41506227515128991 0 0.46196102813989509 -0.41666334273252709 0 0.46583809977748009 -0.42223548109557862 0 0.45714967956605612 -0.42506521161440031 0 0.46196102813989509 -0.41666334273252709 0 0.46583809977748009 -0.42223548109557862 0 0.47161440459133053 -0.41506227515128991 0 0.46583809977748009 -0.42223548109557862 0 0.45714967956605612 -0.42506521161440031 0 0.46839739978224371 -0.43006328748763289 0 0.45254684431627329 -0.43508494155804639 0 0.45714967956605612 -0.42506521161440031 0 0.46321374146398347 -0.43647343312422482 0 0.45714967956605612 -0.42506521161440031 0 0.46321374146398347 -0.43647343312422482 0 0.46839739978224371 -0.43006328748763289 0 0.47524597052465078 -0.44215828783762012 0 0.46839739978224371 -0.43006328748763289 0 0.47580537430658371 -0.43095128639652358 0 0.47524597052465078 -0.44215828783762012 0 0.46321374146398347 -0.43647343312422482 0 0.46839739978224371 -0.43006328748763289 0 0.46583809977748009 -0.42223548109557862 0 0.46839739978224371 -0.43006328748763289 0 0.47313153305470829 -0.4234960248574498 0 0.46839739978224371 -0.43006328748763289 0 0.47580537430658371 -0.43095128639652358 0 0.47313153305470829 -0.4234960248574498 0 0.47580537430658371 -0.43095128639652358 0 0.47313153305470829 -0.4234960248574498 0 0.47907768908477988 -0.42498987993373583 0 0.47313153305470829 -0.4234960248574498 0 0.47907768908477988 -0.42498987993373583 0 0.47726500766545099 -0.41843544654142789 0 0.47580537430658371 -0.43095128639652358 0 0.47907768908477988 -0.42498987993373583 0 0.4822199893763735 -0.43135903946625381 0 0.47907768908477988 -0.42498987993373583 0 0.4822199893763735 -0.43135903946625381 0 0.48605933178714178 -0.42521348018868232 0 0.47907768908477988 -0.42498987993373583 0 0.48605933178714178 -0.42521348018868232 0 0.48295092090773201 -0.41907077564603501 0 0.47524597052465078 -0.44215828783762012 0 0.47580537430658371 -0.43095128639652358 0 0.47950008663641108 -0.43591493993930502 0 0.48472901233803622 -0.43919114605682241 0 0.47950008663641108 -0.43591493993930502 0 0.4822199893763735 -0.43135903946625381 0 0.47580537430658371 -0.43095128639652358 0 0.47950008663641108 -0.43591493993930502 0 0.4822199893763735 -0.43135903946625381 0 0.49612849644047669 -0.44122303286033238 0 0.49921991668232718 -0.41552310632800088 0 0.48472901233803622 -0.43919114605682241 0 0.4822199893763735 -0.43135903946625381 0 0.48852800798397178 -0.4314993708499707 0 0.49612849644047669 -0.44122303286033238 0 0.4949620447012904 -0.43079316197936862 0 0.49921991668232718 -0.41552310632800088 0 0.48472901233803622 -0.43919114605682241 0 0.49106997033050093 -0.43680623077694952 0 0.48852800798397178 -0.4314993708499707 0 0.5 -0.4437556780247115 0 0.49612849644047669 -0.44122303286033238 0 0.49921991668232718 -0.41552310632800088 0 0.49106997033050093 -0.43680623077694952 0 0.48852800798397178 -0.4314993708499707 0 0.4949620447012904 -0.43079316197936862 0 0.4822199893763735 -0.43135903946625381 0 0.48852800798397178 -0.4314993708499707 0 0.48605933178714178 -0.42521348018868232 0 0.48605933178714178 -0.42521348018868232 0 0.49008941518315341 -0.42224676400075151 0 0.48763778327674129 -0.41964514956428378 0 0.48605933178714178 -0.42521348018868232 0 0.49008941518315341 -0.42224676400075151 0 0.49065500256542011 -0.42630626543395439 0 0.49008941518315341 -0.42224676400075151 0 0.49065500256542011 -0.42630626543395439 0 0.49327128498213307 -0.42177158039390711 0 0.48852800798397178 -0.4314993708499707 0 0.48605933178714178 -0.42521348018868232 0 0.49065500256542011 -0.42630626543395439 0 0.48852800798397178 -0.4314993708499707 0 0.49065500256542011 -0.42630626543395439 0 0.4949620447012904 -0.43079316197936862 0 0.4949620447012904 -0.43079316197936862 0 0.49569635853046651 -0.41870196084588451 0 0.49327128498213307 -0.42177158039390711 0 0.49065500256542011 -0.42630626543395439 0 0.4949620447012904 -0.43079316197936862 0 0.49327128498213307 -0.42177158039390711 0 0.49612849644047669 -0.44122303286033238 0 0.49106997033050093 -0.43680623077694952 0 0.4949620447012904 -0.43079316197936862 0 0.5 -0.41272548448154378 0 0.49021468928604589 -0.40809379950311081 0 0.49257586943117498 -0.40003793026540968 0 0.5 -0.41272548448154378 0 0.49342276598461532 -0.41429252486766488 0 0.49021468928604589 -0.40809379950311081 0 0.5 -0.41272548448154378 0 0.49569635853046651 -0.41870196084588451 0 0.49342276598461532 -0.41429252486766488 0 0.5 -0.41272548448154378 0 0.49921991668232718 -0.41552310632800088 0 0.49569635853046651 -0.41870196084588451 0 0.4949620447012904 -0.43079316197936862 0 0.49921991668232718 -0.41552310632800088 0 0.49569635853046651 -0.41870196084588451 0 0.49569635853046651 -0.41870196084588451 0 0.49336560687309461 -0.41825748892408599 0 0.49327128498213307 -0.42177158039390711 0 0.49336560687309461 -0.41825748892408599 0 0.49327128498213307 -0.42177158039390711 0 0.49107201799516342 -0.41826388958888772 0 0.49569635853046651 -0.41870196084588451 0 0.49336560687309461 -0.41825748892408599 0 0.49342276598461532 -0.41429252486766488 0 0.49336560687309461 -0.41825748892408599 0 0.49342276598461532 -0.41429252486766488 0 0.49107201799516342 -0.41826388958888772 0 0.49107201799516342 -0.41826388958888772 0 0.48763778327674129 -0.41964514956428378 0 0.48748563027767672 -0.41438429238537933 0 0.49342276598461532 -0.41429252486766488 0 0.49107201799516342 -0.41826388958888772 0 0.48748563027767672 -0.41438429238537933 0 0.49008941518315341 -0.42224676400075151 0 0.49327128498213307 -0.42177158039390711 0 0.49107201799516342 -0.41826388958888772 0 0.49008941518315341 -0.42224676400075151 0 0.49107201799516342 -0.41826388958888772 0 0.48763778327674129 -0.41964514956428378 0 0.48605933178714178 -0.42521348018868232 0 0.48763778327674129 -0.41964514956428378 0 0.48295092090773201 -0.41907077564603501 0 0.48763778327674129 -0.41964514956428378 0 0.48748563027767672 -0.41438429238537933 0 0.48295092090773201 -0.41907077564603501 0 0.48748563027767672 -0.41438429238537933 0 0.49021468928604589 -0.40809379950311081 0 0.48079278284326699 -0.4125236208575303 0 0.49342276598461532 -0.41429252486766488 0 0.48748563027767672 -0.41438429238537933 0 0.49021468928604589 -0.40809379950311081 0 0.49021468928604589 -0.40809379950311081 0 0.48079278284326699 -0.4125236208575303 0 0.47875519338607941 -0.40451429774415631 0 0.48079278284326699 -0.4125236208575303 0 0.47161440459133053 -0.41506227515128991 0 0.47875519338607941 -0.40451429774415631 0 0.48748563027767672 -0.41438429238537933 0 0.48079278284326699 -0.4125236208575303 0 0.48295092090773201 -0.41907077564603501 0 0.48079278284326699 -0.4125236208575303 0 0.48295092090773201 -0.41907077564603501 0 0.47726500766545099 -0.41843544654142789 0 0.47907768908477988 -0.42498987993373583 0 0.48295092090773201 -0.41907077564603501 0 0.47726500766545099 -0.41843544654142789 0 0.46583809977748009 -0.42223548109557862 0 0.47313153305470829 -0.4234960248574498 0 0.47161440459133053 -0.41506227515128991 0 0.48079278284326699 -0.4125236208575303 0 0.47726500766545099 -0.41843544654142789 0 0.47161440459133053 -0.41506227515128991 0 0.47313153305470829 -0.4234960248574498 0 0.47726500766545099 -0.41843544654142789 0 0.47161440459133053 -0.41506227515128991 0 0.46496962182176738 -0.40820504542075081 0 0.47161440459133053 -0.41506227515128991 0 0.47875519338607941 -0.40451429774415631 0 0.46927418358495709 -0.39730184481060188 0 0.48020892016262229 -0.3913828896646781 0 0.45871947237575073 -0.38925037890735859 0 0.46496962182176738 -0.40820504542075081 0 0.46927418358495709 -0.39730184481060188 0 0.47875519338607941 -0.40451429774415631 0 0.46927418358495709 -0.39730184481060188 0 0.48020892016262229 -0.3913828896646781 0 0.47875519338607941 -0.40451429774415631 0 0.48020892016262229 -0.3913828896646781 0 0.47875519338607941 -0.40451429774415631 0 0.49257586943117498 -0.40003793026540968 0 0.5 -0.41272548448154378 0 0.49257586943117498 -0.40003793026540968 0 0.5 -0.38761270593065711 0 0.48020892016262229 -0.3913828896646781 0 0.49257586943117498 -0.40003793026540968 0 0.5 -0.38761270593065711 0 0.49021468928604589 -0.40809379950311081 0 0.47875519338607941 -0.40451429774415631 0 0.49257586943117498 -0.40003793026540968 0 0.47935973618787581 -0.37439579939549439 0 0.48020892016262229 -0.3913828896646781 0 0.5 -0.38761270593065711 0 0.47935973618787581 -0.37439579939549439 0 0.48020892016262229 -0.3913828896646781 0 0.45871947237575073 -0.38925037890735859 0 0.47935973618787581 -0.37439579939549439 0 0.45871947237575073 -0.38925037890735859 0 0.47935973618787581 -0.37439579939549439 0 0.45860641197244301 -0.37187482402558342 0 0.45871947237575073 -0.38925037890735859 0 0.45860641197244301 -0.37187482402558342 0 0.45871947237575073 -0.38925037890735859 0 0.4439269704888249 -0.38643332836275313 0 0.45221745716943001 -0.41160343684072132 0 0.46496962182176738 -0.40820504542075081 0 0.45871947237575073 -0.38925037890735859 0 0.46496962182176738 -0.40820504542075081 0 0.46927418358495709 -0.39730184481060188 0 0.45871947237575073 -0.38925037890735859 0 0.45221745716943001 -0.41160343684072132 0 0.45871947237575073 -0.38925037890735859 0 0.43807920856362431 -0.40410495841922112 0 0.45871947237575073 -0.38925037890735859 0 0.43807920856362431 -0.40410495841922112 0 0.43807920856362431 -0.40410495841922112 0 0.4439269704888249 -0.38643332836275313 0 0.43669068442009901 -0.39488309475021 0 0.43807920856362431 -0.40410495841922112 0 0.4439269704888249 -0.38643332836275313 0 0.45871947237575073 -0.38925037890735859 0 0.43807920856362431 -0.40410495841922112 0 0.4439269704888249 -0.38643332836275313 0 0.44414489759694348 -0.37036699331155198 0 0.4439269704888249 -0.38643332836275313 0 0.4368988214418047 -0.37849012458599318 0 0.4439269704888249 -0.38643332836275313 0 0.4368988214418047 -0.37849012458599318 0 0.43442998891173529 -0.38606786657834719 0 0.45860641197244301 -0.37187482402558342 0 0.44414489759694348 -0.37036699331155198 0 0.4439269704888249 -0.38643332836275313 0 0.4439269704888249 -0.38643332836275313 0 0.43442998891173529 -0.38606786657834719 0 0.43669068442009901 -0.39488309475021 0 0.42683884334372441 -0.39031243911275432 0 0.4220497989149794 -0.3942836938437233 0 0.42082966987602172 -0.38620031488962703 0 0.42683884334372441 -0.39031243911275432 0 0.42839120420509302 -0.37921296774034507 0 0.42082966987602172 -0.38620031488962703 0 0.42445476644138141 -0.36802342435757729 0 0.42839120420509302 -0.37921296774034507 0 0.41918050134732188 -0.37852246208793611 0 0.42839120420509302 -0.37921296774034507 0 0.42082966987602172 -0.38620031488962703 0 0.41918050134732188 -0.37852246208793611 0 0.42839120420509302 -0.37921296774034507 0 0.4368988214418047 -0.37849012458599318 0 0.43442998891173529 -0.38606786657834719 0 0.43411103693773873 -0.37092250397252041 0 0.42839120420509302 -0.37921296774034507 0 0.4368988214418047 -0.37849012458599318 0 0.42683884334372441 -0.39031243911275432 0 0.42839120420509302 -0.37921296774034507 0 0.43442998891173529 -0.38606786657834719 0 0.42683884334372441 -0.39031243911275432 0 0.43442998891173529 -0.38606786657834719 0 0.43669068442009901 -0.39488309475021 0 0.42683884334372441 -0.39031243911275432 0 0.43669068442009901 -0.39488309475021 0 0.42687234852122852 -0.39818790379132629 0 0.43807920856362431 -0.40410495841922112 0 0.43669068442009901 -0.39488309475021 0 0.43422078145701642 -0.41576492291502559 0 0.43669068442009901 -0.39488309475021 0 0.4271766721579634 -0.40645017927817029 0 0.43422078145701642 -0.41576492291502559 0 0.43669068442009901 -0.39488309475021 0 0.43422078145701642 -0.41576492291502559 0 0.43669068442009901 -0.39488309475021 0 0.42687234852122852 -0.39818790379132629 0 0.4271766721579634 -0.40645017927817029 0 0.42687234852122852 -0.39818790379132629 0 0.42088516532358722 -0.40190754212003932 0 0.4271766721579634 -0.40645017927817029 0 0.42088516532358722 -0.40190754212003932 0 0.41939881812876878 -0.40824610874729839 0 0.4271766721579634 -0.40645017927817029 0 0.42683884334372441 -0.39031243911275432 0 0.42687234852122852 -0.39818790379132629 0 0.4220497989149794 -0.3942836938437233 0 0.42687234852122852 -0.39818790379132629 0 0.4220497989149794 -0.3942836938437233 0 0.42088516532358722 -0.40190754212003932 0 0.4220497989149794 -0.3942836938437233 0 0.41482296751033548 -0.39481026930486979 0 0.42082966987602172 -0.38620031488962703 0 0.4220497989149794 -0.3942836938437233 0 0.41482296751033548 -0.39481026930486979 0 0.42088516532358722 -0.40190754212003932 0 0.41482296751033548 -0.39481026930486979 0 0.42088516532358722 -0.40190754212003932 0 0.41269045108873492 -0.40542680011346099 0 0.42088516532358722 -0.40190754212003932 0 0.41269045108873492 -0.40542680011346099 0 0.41939881812876878 -0.40824610874729839 0 0.41482296751033548 -0.39481026930486979 0 0.41269045108873492 -0.40542680011346099 0 0.40656255307977718 -0.39965882785864087 0 0.41269045108873492 -0.40542680011346099 0 0.40656255307977718 -0.39965882785864087 0 0.40609445147503298 -0.40645765528247169 0 0.41482296751033548 -0.39481026930486979 0 0.40656255307977718 -0.39965882785864087 0 0.40524342266253088 -0.38944571298570502 0 0.41482296751033548 -0.39481026930486979 0 0.41406001601718062 -0.38601494536221032 0 0.40524342266253088 -0.38944571298570502 0 0.41406001601718062 -0.38601494536221032 0 0.4095682668783947 -0.37830497804368818 0 0.40524342266253088 -0.38944571298570502 0 0.41482296751033548 -0.39481026930486979 0 0.41406001601718062 -0.38601494536221032 0 0.42082966987602172 -0.38620031488962703 0 0.41406001601718062 -0.38601494536221032 0 0.42082966987602172 -0.38620031488962703 0 0.41918050134732188 -0.37852246208793611 0 0.41406001601718062 -0.38601494536221032 0 0.41918050134732188 -0.37852246208793611 0 0.4095682668783947 -0.37830497804368818 0 0.41368050551153013 -0.37186308396378281 0 0.41918050134732188 -0.37852246208793611 0 0.4095682668783947 -0.37830497804368818 0 0.40479298879909548 -0.37243334149499718 0 0.4095682668783947 -0.37830497804368818 0 0.40172642143194781 -0.37944721760464523 0 0.40023553439847259 -0.36555369900265772 0 0.39008502322190691 -0.39001381350173392 0 0.40023553439847259 -0.36555369900265772 0 0.40172642143194781 -0.37944721760464523 0 0.39008502322190691 -0.39001381350173392 0 0.40023553439847259 -0.36555369900265772 0 0.38845109995970079 -0.37830947830900941 0 0.39008502322190691 -0.39001381350173392 0 0.4095682668783947 -0.37830497804368818 0 0.40172642143194781 -0.37944721760464523 0 0.40524342266253088 -0.38944571298570502 0 0.40172642143194781 -0.37944721760464523 0 0.40524342266253088 -0.38944571298570502 0 0.39008502322190691 -0.39001381350173392 0 0.38684697606499452 -0.36660102178985599 0 0.38845109995970079 -0.37830947830900941 0 0.37628804874910649 -0.38761769779457628 0 0.38684697606499452 -0.36660102178985599 0 0.37628804874910649 -0.38761769779457628 0 0.38845109995970079 -0.37830947830900941 0 0.39008502322190691 -0.39001381350173392 0 0.38317468330790322 -0.38888400405946483 0 0.38845109995970079 -0.37830947830900941 0 0.38317468330790322 -0.38888400405946483 0 0.37628804874910649 -0.38761769779457628 0 0.37628804874910649 -0.38761769779457628 0 0.37681910419727299 -0.39099769295206788 0 0.37274364626375361 -0.3904275151449228 0 0.38317468330790322 -0.38888400405946483 0 0.37628804874910649 -0.38761769779457628 0 0.37681910419727299 -0.39099769295206788 0 0.39008502322190691 -0.39001381350173392 0 0.37993451204534101 -0.41447392800081001 0 0.39008502322190691 -0.39001381350173392 0 0.38163994200455942 -0.40020925479038721 0 0.37993451204534101 -0.41447392800081001 0 0.39008502322190691 -0.39001381350173392 0 0.39128638546661471 -0.40061750468968438 0 0.37993451204534101 -0.41447392800081001 0 0.37847518115820272 -0.39486699144316861 0 0.37633957382046201 -0.41286948037636212 0 0.37274364626375361 -0.3904275151449228 0 0.38163994200455942 -0.40020925479038721 0 0.37847518115820272 -0.39486699144316861 0 0.37633957382046201 -0.41286948037636212 0 0.38317468330790322 -0.38888400405946483 0 0.38163994200455942 -0.40020925479038721 0 0.37847518115820272 -0.39486699144316861 0 0.37847518115820272 -0.39486699144316861 0 0.37681910419727299 -0.39099769295206788 0 0.37274364626375361 -0.3904275151449228 0 0.38317468330790322 -0.38888400405946483 0 0.37847518115820272 -0.39486699144316861 0 0.37681910419727299 -0.39099769295206788 0 0.39008502322190691 -0.39001381350173392 0 0.38317468330790322 -0.38888400405946483 0 0.38163994200455942 -0.40020925479038721 0 0.39515457016735511 -0.40565065215037821 0 0.39876709585370712 -0.39742479939974978 0 0.40124444484216393 -0.40440489758506659 0 0.39128638546661471 -0.40061750468968438 0 0.39515457016735511 -0.40565065215037821 0 0.38932657546182892 -0.40881192143856188 0 0.39128638546661471 -0.40061750468968438 0 0.39515457016735511 -0.40565065215037821 0 0.39876709585370712 -0.39742479939974978 0 0.39008502322190691 -0.39001381350173392 0 0.39128638546661471 -0.40061750468968438 0 0.39876709585370712 -0.39742479939974978 0 0.40524342266253088 -0.38944571298570502 0 0.39008502322190691 -0.39001381350173392 0 0.39876709585370712 -0.39742479939974978 0 0.40656255307977718 -0.39965882785864087 0 0.40524342266253088 -0.38944571298570502 0 0.39876709585370712 -0.39742479939974978 0 0.40656255307977718 -0.39965882785864087 0 0.39876709585370712 -0.39742479939974978 0 0.40124444484216393 -0.40440489758506659 0 0.40656255307977718 -0.39965882785864087 0 0.40124444484216393 -0.40440489758506659 0 0.40609445147503298 -0.40645765528247169 0 0.40609445147503298 -0.40645765528247169 0 0.39959214844861313 -0.41058083881182439 0 0.40714209860659589 -0.41240922826913012 0 0.39959214844861313 -0.41058083881182439 0 0.4000189077444245 -0.41760132703884201 0 0.40714209860659589 -0.41240922826913012 0 0.39515457016735511 -0.40565065215037821 0 0.40124444484216393 -0.40440489758506659 0 0.39959214844861313 -0.41058083881182439 0 0.40124444484216393 -0.40440489758506659 0 0.40609445147503298 -0.40645765528247169 0 0.39959214844861313 -0.41058083881182439 0 0.4000189077444245 -0.41760132703884201 0 0.39501218474185018 -0.42419808853971169 0 0.40524065301200629 -0.42316305814860788 0 0.4000189077444245 -0.41760132703884201 0 0.40524065301200629 -0.42316305814860788 0 0.40714209860659589 -0.41240922826913012 0 0.3938202939765364 -0.41605784479431479 0 0.38807295850034312 -0.41842979731679059 0 0.39501218474185018 -0.42419808853971169 0 0.4000189077444245 -0.41760132703884201 0 0.3938202939765364 -0.41605784479431479 0 0.39501218474185018 -0.42419808853971169 0 0.39959214844861313 -0.41058083881182439 0 0.4000189077444245 -0.41760132703884201 0 0.3938202939765364 -0.41605784479431479 0 0.39515457016735511 -0.40565065215037821 0 0.39959214844861313 -0.41058083881182439 0 0.39300842422451931 -0.41059954298177631 0 0.39959214844861313 -0.41058083881182439 0 0.3938202939765364 -0.41605784479431479 0 0.39300842422451931 -0.41059954298177631 0 0.3938202939765364 -0.41605784479431479 0 0.39300842422451931 -0.41059954298177631 0 0.38724898540531433 -0.41271797937016069 0 0.39515457016735511 -0.40565065215037821 0 0.39300842422451931 -0.41059954298177631 0 0.38932657546182892 -0.40881192143856188 0 0.39128638546661471 -0.40061750468968438 0 0.38932657546182892 -0.40881192143856188 0 0.37993451204534101 -0.41447392800081001 0 0.38932657546182892 -0.40881192143856188 0 0.38724898540531433 -0.41271797937016069 0 0.37993451204534101 -0.41447392800081001 0 0.39300842422451931 -0.41059954298177631 0 0.38932657546182892 -0.40881192143856188 0 0.38724898540531433 -0.41271797937016069 0 0.3938202939765364 -0.41605784479431479 0 0.38724898540531433 -0.41271797937016069 0 0.38807295850034312 -0.41842979731679059 0 0.38807295850034312 -0.41842979731679059 0 0.38430975463122491 -0.41667822451964992 0 0.38198256257390112 -0.42109119339083839 0 0.38724898540531433 -0.41271797937016069 0 0.38430975463122491 -0.41667822451964992 0 0.37993451204534101 -0.41447392800081001 0 0.38724898540531433 -0.41271797937016069 0 0.38807295850034312 -0.41842979731679059 0 0.38430975463122491 -0.41667822451964992 0 0.37993451204534101 -0.41447392800081001 0 0.38198256257390112 -0.42109119339083839 0 0.37633957382046201 -0.41286948037636212 0 0.38430975463122491 -0.41667822451964992 0 0.37993451204534101 -0.41447392800081001 0 0.38198256257390112 -0.42109119339083839 0 0.38163994200455942 -0.40020925479038721 0 0.37993451204534101 -0.41447392800081001 0 0.37633957382046201 -0.41286948037636212 0 0.37633957382046201 -0.41286948037636212 0 0.37993550137717041 -0.43531144560780138 0 0.38198256257390112 -0.42109119339083839 0 0.37633957382046201 -0.41286948037636212 0 0.37993550137717041 -0.43531144560780138 0 0.38807295850034312 -0.41842979731679059 0 0.38198256257390112 -0.42109119339083839 0 0.38728583262377092 -0.42648124901243589 0 0.38198256257390112 -0.42109119339083839 0 0.37993550137717041 -0.43531144560780138 0 0.38728583262377092 -0.42648124901243589 0 0.38807295850034312 -0.41842979731679059 0 0.38728583262377092 -0.42648124901243589 0 0.39501218474185018 -0.42419808853971169 0 0.37993550137717041 -0.43531144560780138 0 0.39173658366241532 -0.43234388829806669 0 0.39502996484693481 -0.44101665257555572 0 0.37993550137717041 -0.43531144560780138 0 0.38728583262377092 -0.42648124901243589 0 0.39173658366241532 -0.43234388829806669 0 0.39173658366241532 -0.43234388829806669 0 0.40106674626006972 -0.43124274018586661 0 0.39502996484693481 -0.44101665257555572 0 0.38728583262377092 -0.42648124901243589 0 0.39173658366241532 -0.43234388829806669 0 0.39501218474185018 -0.42419808853971169 0 0.39173658366241532 -0.43234388829806669 0 0.39501218474185018 -0.42419808853971169 0 0.40106674626006972 -0.43124274018586661 0 0.40524065301200629 -0.42316305814860788 0 0.40106674626006972 -0.43124274018586661 0 0.41074377685335089 -0.42882104253457271 0 0.39501218474185018 -0.42419808853971169 0 0.40524065301200629 -0.42316305814860788 0 0.40106674626006972 -0.43124274018586661 0 0.40106674626006972 -0.43124274018586661 0 0.40687800688854919 -0.43665507028193051 0 0.41074377685335089 -0.42882104253457271 0 0.40106674626006972 -0.43124274018586661 0 0.40687800688854919 -0.43665507028193051 0 0.39502996484693481 -0.44101665257555572 0 0.40687800688854919 -0.43665507028193051 0 0.41705391545243692 -0.43657333319114222 0 0.41074377685335089 -0.42882104253457271 0 0.41705391545243692 -0.43657333319114222 0 0.42089759132713889 -0.42475556532549719 0 0.41074377685335089 -0.42882104253457271 0 0.42089759132713889 -0.42475556532549719 0 0.41074377685335089 -0.42882104253457271 0 0.41303784686731843 -0.41969851164731609 0 0.40524065301200629 -0.42316305814860788 0 0.41074377685335089 -0.42882104253457271 0 0.41303784686731843 -0.41969851164731609 0 0.40524065301200629 -0.42316305814860788 0 0.41303784686731843 -0.41969851164731609 0 0.40714209860659589 -0.41240922826913012 0 0.41303784686731843 -0.41969851164731609 0 0.40714209860659589 -0.41240922826913012 0 0.41458192279420758 -0.41231150426987162 0 0.41269045108873492 -0.40542680011346099 0 0.40609445147503298 -0.40645765528247169 0 0.40714209860659589 -0.41240922826913012 0 0.41269045108873492 -0.40542680011346099 0 0.40714209860659589 -0.41240922826913012 0 0.41458192279420758 -0.41231150426987162 0 0.41269045108873492 -0.40542680011346099 0 0.41458192279420758 -0.41231150426987162 0 0.41939881812876878 -0.40824610874729839 0 0.41458192279420758 -0.41231150426987162 0 0.41939881812876878 -0.40824610874729839 0 0.42165987927935089 -0.41513451795494982 0 0.41303784686731843 -0.41969851164731609 0 0.41458192279420758 -0.41231150426987162 0 0.42165987927935089 -0.41513451795494982 0 0.42089759132713889 -0.42475556532549719 0 0.41303784686731843 -0.41969851164731609 0 0.42165987927935089 -0.41513451795494982 0 0.42089759132713889 -0.42475556532549719 0 0.42165987927935089 -0.41513451795494982 0 0.43422078145701642 -0.41576492291502559 0 0.41939881812876878 -0.40824610874729839 0 0.42165987927935089 -0.41513451795494982 0 0.4271766721579634 -0.40645017927817029 0 0.42165987927935089 -0.41513451795494982 0 0.4271766721579634 -0.40645017927817029 0 0.43422078145701642 -0.41576492291502559 0 0.43807920856362431 -0.40410495841922112 0 0.43422078145701642 -0.41576492291502559 0 0.44420329604864622 -0.42505426368286059 0 0.43422078145701642 -0.41576492291502559 0 0.4321171012464583 -0.43355051584202192 0 0.43422078145701642 -0.41576492291502559 0 0.4321171012464583 -0.43355051584202192 0 0.43422078145701642 -0.41576492291502559 0 0.4321171012464583 -0.43355051584202192 0 0.42866934805335982 -0.4325410637099768 0 0.43422078145701642 -0.41576492291502559 0 0.42866934805335982 -0.4325410637099768 0 0.42089759132713889 -0.42475556532549719 0 0.43422078145701642 -0.41576492291502559 0 0.42866934805335982 -0.4325410637099768 0 0.41705391545243692 -0.43657333319114222 0 0.42089759132713889 -0.42475556532549719 0 0.42866934805335982 -0.4325410637099768 0 0.41705391545243692 -0.43657333319114222 0 0.42866934805335982 -0.4325410637099768 0 0.42311791464970261 -0.44931720450492768 0 0.4321171012464583 -0.43355051584202192 0 0.42866934805335982 -0.4325410637099768 0 0.42311791464970261 -0.44931720450492768 0 0.44132952392917768 -0.44365736946918582 0 0.4321171012464583 -0.43355051584202192 0 0.43001342103590079 -0.45133610876901831 0 0.4321171012464583 -0.43355051584202192 0 0.43001342103590079 -0.45133610876901831 0 0.42866934805335982 -0.4325410637099768 0 0.42311791464970261 -0.44931720450492768 0 0.4321171012464583 -0.43355051584202192 0 0.42311791464970261 -0.44931720450492768 0 0.43001342103590079 -0.45133610876901831 0 0.42311791464970261 -0.44931720450492768 0 0.43001342103590079 -0.45133610876901831 0 0.42311791464970261 -0.44931720450492768 0 0.43001342103590079 -0.45133610876901831 0 0.42729327215094198 -0.4743336444809152 0 0.43769598202098842 -0.46390443968526801 0 0.43001342103590079 -0.45133610876901831 0 0.42729327215094198 -0.4743336444809152 0 0.43001342103590079 -0.45133610876901831 0 0.42729327215094198 -0.4743336444809152 0 0.42311791464970261 -0.44931720450492768 0 0.41001519058596297 -0.45873405505391968 0 0.41497335125011581 -0.47392964824150541 0 0.42311791464970261 -0.44931720450492768 0 0.41497335125011581 -0.47392964824150541 0 0.42729327215094198 -0.4743336444809152 0 0.42311791464970261 -0.44931720450492768 0 0.41497335125011581 -0.47392964824150541 0 0.40625366531035639 -0.46777680238532499 0 0.41001519058596297 -0.45873405505391968 0 0.41497335125011581 -0.47392964824150541 0 0.41001519058596297 -0.45873405505391968 0 0.41049563102995412 -0.44562158292251541 0 0.40041569599415272 -0.45120186350910652 0 0.42311791464970261 -0.44931720450492768 0 0.41049563102995412 -0.44562158292251541 0 0.42311791464970261 -0.44931720450492768 0 0.41001519058596297 -0.45873405505391968 0 0.41049563102995412 -0.44562158292251541 0 0.41705391545243692 -0.43657333319114222 0 0.42311791464970261 -0.44931720450492768 0 0.41049563102995412 -0.44562158292251541 0 0.40687800688854919 -0.43665507028193051 0 0.41705391545243692 -0.43657333319114222 0 0.41049563102995412 -0.44562158292251541 0 0.40041569599415272 -0.45120186350910652 0 0.39502996484693481 -0.44101665257555572 0 0.38454546734101158 -0.45166860487223542 0 0.40687800688854919 -0.43665507028193051 0 0.41049563102995412 -0.44562158292251541 0 0.39502996484693481 -0.44101665257555572 0 0.41049563102995412 -0.44562158292251541 0 0.40041569599415272 -0.45120186350910652 0 0.39502996484693481 -0.44101665257555572 0 0.37993550137717041 -0.43531144560780138 0 0.38454546734101158 -0.45166860487223542 0 0.36971857969182992 -0.44200636944866328 0 0.38454546734101158 -0.45166860487223542 0 0.3749185327052556 -0.46436735610285701 0 0.36971857969182992 -0.44200636944866328 0 0.37993550137717041 -0.43531144560780138 0 0.39502996484693481 -0.44101665257555572 0 0.38454546734101158 -0.45166860487223542 0 0.38454546734101158 -0.45166860487223542 0 0.38684129660291522 -0.47186405194055719 0 0.3749185327052556 -0.46436735610285701 0 0.38454546734101158 -0.45166860487223542 0 0.39712780405371712 -0.46224425402651992 0 0.38684129660291522 -0.47186405194055719 0 0.40041569599415272 -0.45120186350910652 0 0.38454546734101158 -0.45166860487223542 0 0.39712780405371712 -0.46224425402651992 0 0.41001519058596297 -0.45873405505391968 0 0.40041569599415272 -0.45120186350910652 0 0.39712780405371712 -0.46224425402651992 0 0.40625366531035639 -0.46777680238532499 0 0.41001519058596297 -0.45873405505391968 0 0.39712780405371712 -0.46224425402651992 0 0.39712780405371712 -0.46224425402651992 0 0.3977214255770723 -0.48080695644346089 0 0.38684129660291522 -0.47186405194055719 0 0.40625366531035639 -0.46777680238532499 0 0.39712780405371712 -0.46224425402651992 0 0.3977214255770723 -0.48080695644346089 0 0.38684129660291522 -0.47186405194055719 0 0.38011848571868129 -0.48672834275705051 0 0.3749185327052556 -0.46436735610285701 0 0.38011848571868129 -0.48672834275705051 0 0.3749185327052556 -0.46436735610285701 0 0.3977214255770723 -0.48080695644346089 0 0.38684129660291522 -0.47186405194055719 0 0.38011848571868129 -0.48672834275705051 0 0.3977214255770723 -0.48080695644346089 0 0.3971832361715828 -0.5 0 0.40682878785052901 -0.49854209197808308 0 0.3977214255770723 -0.48080695644346089 0 0.38011848571868129 -0.48672834275705051 0 0.3971832361715828 -0.5 0 0.44187129846782419 -0.5 0 0.3971832361715828 -0.5 0 0.40682878785052901 -0.49854209197808308 0 0.44187129846782419 -0.5 0 0.40682878785052901 -0.49854209197808308 0 0.42165947017992961 -0.48867149874747401 0 0.40682878785052901 -0.49854209197808308 0 0.41497335125011581 -0.47392964824150541 0 0.3977214255770723 -0.48080695644346089 0 0.40682878785052901 -0.49854209197808308 0 0.41497335125011581 -0.47392964824150541 0 0.40682878785052901 -0.49854209197808308 0 0.42165947017992961 -0.48867149874747401 0 0.41497335125011581 -0.47392964824150541 0 0.40625366531035639 -0.46777680238532499 0 0.3977214255770723 -0.48080695644346089 0 0.41497335125011581 -0.47392964824150541 0 0.42165947017992961 -0.48867149874747401 0 0.41497335125011581 -0.47392964824150541 0 0.42729327215094198 -0.4743336444809152 0 0.42165947017992961 -0.48867149874747401 0 0.42729327215094198 -0.4743336444809152 0 0.43267815495306988 -0.48506983855403379 0 0.44106023269328931 -0.47672651962107199 0 0.43769598202098842 -0.46390443968526801 0 0.42729327215094198 -0.4743336444809152 0 0.44106023269328931 -0.47672651962107199 0 0.42729327215094198 -0.4743336444809152 0 0.43267815495306988 -0.48506983855403379 0 0.44187129846782419 -0.5 0 0.42165947017992961 -0.48867149874747401 0 0.43267815495306988 -0.48506983855403379 0 0.32784125032618971 -0.47942494066495872 0 0.33641583416409709 -0.49999999999999972 0 0.34847654120804539 -0.46682005655721592 0 0.32784125032618971 -0.47942494066495872 0 0.30628253897895319 -0.48013175171854078 0 0.30961552498664602 -0.5 0 0.32784125032618971 -0.47942494066495872 0 0.33641583416409709 -0.49999999999999972 0 0.30961552498664602 -0.5 0 0.32784125032618971 -0.47942494066495872 0 0.31926666648828211 -0.45884988132991772 0 0.32784125032618971 -0.47942494066495872 0 0.30705540407768478 -0.46412336326869819 0 0.30628253897895319 -0.48013175171854078 0 0.32784125032618971 -0.47942494066495872 0 0.34847654120804539 -0.46682005655721592 0 0.33221731134794807 -0.46453213565472218 0 0.32784125032618971 -0.47942494066495872 0 0.33641583416409709 -0.49999999999999972 0 0.38011848571868129 -0.48672834275705051 0 0.3971832361715828 -0.5 0 0.33641583416409709 -0.49999999999999972 0 0.33641583416409709 -0.49999999999999972 0 0.35998234844901988 -0.47947893885428078 0 0.34847654120804539 -0.46682005655721592 0 0.38011848571868129 -0.48672834275705051 0 0.33641583416409709 -0.49999999999999972 0 0.35998234844901988 -0.47947893885428078 0 0.35998234844901988 -0.47947893885428078 0 0.34847654120804539 -0.46682005655721592 0 0.3749185327052556 -0.46436735610285701 0 0.38011848571868129 -0.48672834275705051 0 0.35998234844901988 -0.47947893885428078 0 0.3749185327052556 -0.46436735610285701 0 0.34847654120804539 -0.46682005655721592 0 0.35606747288692092 -0.44902683989210762 0 0.34209557414664471 -0.44788332554916149 0 0.34847654120804539 -0.46682005655721592 0 0.3749185327052556 -0.46436735610285701 0 0.35606747288692092 -0.44902683989210762 0 0.3749185327052556 -0.46436735610285701 0 0.36971857969182992 -0.44200636944866328 0 0.3749185327052556 -0.46436735610285701 0 0.36971857969182992 -0.44200636944866328 0 0.35606747288692092 -0.44902683989210762 0 0.36971857969182992 -0.44200636944866328 0 0.35606747288692092 -0.44902683989210762 0 0.35833968651937259 -0.43410066569592082 0 0.35606747288692092 -0.44902683989210762 0 0.34663387888267511 -0.43649299703045119 0 0.35833968651937259 -0.43410066569592082 0 0.35606747288692092 -0.44902683989210762 0 0.34209557414664471 -0.44788332554916149 0 0.34663387888267511 -0.43649299703045119 0 0.3332545850894737 -0.43796617501819429 0 0.34209557414664471 -0.44788332554916149 0 0.34663387888267511 -0.43649299703045119 0 0.3332545850894737 -0.43796617501819429 0 0.34209557414664471 -0.44788332554916149 0 0.32604539266610838 -0.44911055924783883 0 0.34847654120804539 -0.46682005655721592 0 0.33221731134794807 -0.46453213565472218 0 0.32604539266610838 -0.44911055924783883 0 0.34847654120804539 -0.46682005655721592 0 0.34209557414664471 -0.44788332554916149 0 0.32604539266610838 -0.44911055924783883 0 0.34847654120804539 -0.46682005655721592 0 0.32604539266610838 -0.44911055924783883 0 0.33221731134794807 -0.46453213565472218 0 0.31926666648828211 -0.45884988132991772 0 0.32604539266610838 -0.44911055924783883 0 0.32784125032618971 -0.47942494066495872 0 0.33221731134794807 -0.46453213565472218 0 0.31926666648828211 -0.45884988132991772 0 0.32784125032618971 -0.47942494066495872 0 0.31926666648828211 -0.45884988132991772 0 0.30705540407768478 -0.46412336326869819 0 0.32604539266610838 -0.44911055924783883 0 0.30361424412417137 -0.43140106193846173 0 0.32604539266610838 -0.44911055924783883 0 0.30361424412417137 -0.43140106193846173 0 0.31069208265037451 -0.43827482199487672 0 0.31926666648828211 -0.45884988132991772 0 0.31069208265037451 -0.43827482199487672 0 0.32604539266610838 -0.44911055924783883 0 0.32103153056772787 -0.43554664659253339 0 0.30361424412417137 -0.43140106193846173 0 0.31926666648828211 -0.45884988132991772 0 0.32604539266610838 -0.44911055924783883 0 0.31069208265037451 -0.43827482199487672 0 0.3332545850894737 -0.43796617501819429 0 0.32604539266610838 -0.44911055924783883 0 0.32103153056772787 -0.43554664659253339 0 0.32103153056772787 -0.43554664659253339 0 0.31738385192459478 -0.4281473328386447 0 0.30361424412417137 -0.43140106193846173 0 0.32485957903429102 -0.43110810391952747 0 0.31738385192459478 -0.4281473328386447 0 0.32291091040994591 -0.42131067121361998 0 0.32485957903429102 -0.43110810391952747 0 0.32291091040994591 -0.42131067121361998 0 0.33311582838803028 -0.42704085145625559 0 0.3332545850894737 -0.43796617501819429 0 0.32485957903429102 -0.43110810391952747 0 0.32103153056772787 -0.43554664659253339 0 0.32485957903429102 -0.43110810391952747 0 0.32103153056772787 -0.43554664659253339 0 0.31738385192459478 -0.4281473328386447 0 0.31738385192459478 -0.4281473328386447 0 0.32291091040994591 -0.42131067121361998 0 0.31096341542092332 -0.41666393631482962 0 0.32323721160759361 -0.40584829128639899 0 0.30577768704238167 -0.39981775823168347 0 0.31096341542092332 -0.41666393631482962 0 0.32291091040994591 -0.42131067121361998 0 0.32323721160759361 -0.40584829128639899 0 0.31096341542092332 -0.41666393631482962 0 0.32291091040994591 -0.42131067121361998 0 0.3341048204200866 -0.41642269269574211 0 0.32323721160759361 -0.40584829128639899 0 0.32291091040994591 -0.42131067121361998 0 0.3341048204200866 -0.41642269269574211 0 0.33311582838803028 -0.42704085145625559 0 0.3341048204200866 -0.41642269269574211 0 0.33736623439380442 -0.40551323284846669 0 0.32323721160759361 -0.40584829128639899 0 0.3341048204200866 -0.41642269269574211 0 0.3488633232189397 -0.4123029515900003 0 0.33736623439380442 -0.40551323284846669 0 0.3341048204200866 -0.41642269269574211 0 0.34434490742347451 -0.42392413360526388 0 0.3488633232189397 -0.4123029515900003 0 0.33311582838803028 -0.42704085145625559 0 0.33933729994591338 -0.43135603927754118 0 0.34434490742347451 -0.42392413360526388 0 0.3341048204200866 -0.41642269269574211 0 0.33311582838803028 -0.42704085145625559 0 0.34434490742347451 -0.42392413360526388 0 0.3332545850894737 -0.43796617501819429 0 0.33311582838803028 -0.42704085145625559 0 0.33933729994591338 -0.43135603927754118 0 0.3332545850894737 -0.43796617501819429 0 0.32485957903429102 -0.43110810391952747 0 0.33311582838803028 -0.42704085145625559 0 0.33933729994591338 -0.43135603927754118 0 0.34663387888267511 -0.43649299703045119 0 0.34434490742347451 -0.42392413360526388 0 0.3332545850894737 -0.43796617501819429 0 0.33933729994591338 -0.43135603927754118 0 0.34663387888267511 -0.43649299703045119 0 0.34663387888267511 -0.43649299703045119 0 0.34434490742347451 -0.42392413360526388 0 0.35395091311867311 -0.42404656687561337 0 0.35395091311867311 -0.42404656687561337 0 0.35833968651937259 -0.43410066569592082 0 0.36451862667840412 -0.41964538279446978 0 0.34663387888267511 -0.43649299703045119 0 0.35395091311867311 -0.42404656687561337 0 0.35833968651937259 -0.43410066569592082 0 0.36971857969182992 -0.44200636944866328 0 0.36451862667840412 -0.41964538279446978 0 0.36971857969182992 -0.44200636944866328 0 0.35833968651937259 -0.43410066569592082 0 0.36451862667840412 -0.41964538279446978 0 0.37633957382046201 -0.41286948037636212 0 0.37993550137717041 -0.43531144560780138 0 0.36451862667840412 -0.41964538279446978 0 0.37993550137717041 -0.43531144560780138 0 0.36971857969182992 -0.44200636944866328 0 0.36451862667840412 -0.41964538279446978 0 0.36451862667840412 -0.41964538279446978 0 0.35931867366497838 -0.39728439614027639 0 0.36451862667840412 -0.41964538279446978 0 0.35931867366497838 -0.39728439614027639 0 0.36863734895040062 -0.40289880438412529 0 0.37633957382046201 -0.41286948037636212 0 0.36451862667840412 -0.41964538279446978 0 0.36863734895040062 -0.40289880438412529 0 0.35395091311867311 -0.42404656687561337 0 0.36451862667840412 -0.41964538279446978 0 0.3488633232189397 -0.4123029515900003 0 0.36451862667840412 -0.41964538279446978 0 0.3488633232189397 -0.4123029515900003 0 0.35931867366497838 -0.39728439614027639 0 0.34434490742347451 -0.42392413360526388 0 0.35395091311867311 -0.42404656687561337 0 0.3488633232189397 -0.4123029515900003 0 0.3488633232189397 -0.4123029515900003 0 0.34627212471177821 -0.39914230360397362 0 0.35931867366497838 -0.39728439614027639 0 0.3488633232189397 -0.4123029515900003 0 0.34627212471177821 -0.39914230360397362 0 0.33736623439380442 -0.40551323284846669 0 0.34627212471177821 -0.39914230360397362 0 0.35931867366497838 -0.39728439614027639 0 0.3466130325713267 -0.38587403158108158 0 0.37633957382046201 -0.41286948037636212 0 0.36863734895040062 -0.40289880438412529 0 0.37274364626375361 -0.3904275151449228 0 0.37633957382046201 -0.41286948037636212 0 0.37274364626375361 -0.3904275151449228 0 0.35931867366497838 -0.39728439614027639 0 0.36642934222809298 -0.39447401376488073 0 0.36863734895040062 -0.40289880438412529 0 0.35931867366497838 -0.39728439614027639 0 0.36642934222809298 -0.39447401376488073 0 0.36498813787853518 -0.38636203800520602 0 0.36642934222809298 -0.39447401376488073 0 0.36863734895040062 -0.40289880438412529 0 0.37274364626375361 -0.3904275151449228 0 0.35931867366497838 -0.39728439614027639 0 0.36498813787853518 -0.38636203800520602 0 0.35730130852880448 -0.38163871506246672 0 0.36498813787853518 -0.38636203800520602 0 0.35730130852880448 -0.38163871506246672 0 0.36914771870704671 -0.36798554991348331 0 0.37274364626375361 -0.3904275151449228 0 0.36498813787853518 -0.38636203800520602 0 0.36914771870704671 -0.36798554991348331 0 0.37628804874910649 -0.38761769779457628 0 0.37274364626375361 -0.3904275151449228 0 0.36914771870704671 -0.36798554991348331 0 0.37274364626375361 -0.3904275151449228 0 0.36914771870704671 -0.36798554991348331 0 0.36642934222809298 -0.39447401376488073 0 0.37274364626375361 -0.3904275151449228 0 0.36498813787853518 -0.38636203800520602 0 0.35931867366497838 -0.39728439614027639 0 0.35730130852880448 -0.38163871506246672 0 0.3466130325713267 -0.38587403158108158 0 0.35730130852880448 -0.38163871506246672 0 0.3466130325713267 -0.38587403158108158 0 0.3464094176674315 -0.3697642582872937 0 0.3466130325713267 -0.38587403158108158 0 0.3464094176674315 -0.3697642582872937 0 0.32367111662781639 -0.37154296666110409 0 0.3466130325713267 -0.38587403158108158 0 0.33294142652480269 -0.39258473395690852 0 0.32367111662781639 -0.37154296666110409 0 0.34627212471177821 -0.39914230360397362 0 0.3466130325713267 -0.38587403158108158 0 0.33294142652480269 -0.39258473395690852 0 0.34627212471177821 -0.39914230360397362 0 0.33736623439380442 -0.40551323284846669 0 0.33294142652480269 -0.39258473395690852 0 0.33736623439380442 -0.40551323284846669 0 0.33294142652480269 -0.39258473395690852 0 0.32323721160759361 -0.40584829128639899 0 0.32323721160759361 -0.40584829128639899 0 0.31781182621790949 -0.38956187309693568 0 0.30577768704238167 -0.39981775823168347 0 0.33294142652480269 -0.39258473395690852 0 0.32323721160759361 -0.40584829128639899 0 0.31781182621790949 -0.38956187309693568 0 0.31781182621790949 -0.38956187309693568 0 0.30343168928695358 -0.37801561534858352 0 0.32367111662781639 -0.37154296666110409 0 0.33294142652480269 -0.39258473395690852 0 0.31781182621790949 -0.38956187309693568 0 0.32367111662781639 -0.37154296666110409 0 0.31781182621790949 -0.38956187309693568 0 0.30343168928695358 -0.37801561534858352 0 0.30577768704238167 -0.39981775823168347 0 0.30577768704238167 -0.39981775823168347 0 0.2874102014095159 -0.39509192248758579 0 0.29778972871584541 -0.411333248720329 0 0.30343168928695358 -0.37801561534858352 0 0.30577768704238167 -0.39981775823168347 0 0.2874102014095159 -0.39509192248758579 0 0.30343168928695358 -0.37801561534858352 0 0.2874102014095159 -0.39509192248758579 0 0.28314208034892502 -0.37395607270838699 0 0.26942587705199361 -0.38493928597274168 0 0.28314208034892502 -0.37395607270838699 0 0.26638795307375829 -0.36808935902844231 0 0.2874102014095159 -0.39509192248758579 0 0.26942587705199361 -0.38493928597274168 0 0.28314208034892502 -0.37395607270838699 0 0.2543150598661002 -0.3778535733630547 0 0.25612988417059862 -0.39372739427770198 0 0.24189804913215951 -0.38644820318626322 0 0.26942587705199361 -0.38493928597274168 0 0.2543150598661002 -0.3778535733630547 0 0.26638795307375829 -0.36808935902844231 0 0.26942587705199361 -0.38493928597274168 0 0.2543150598661002 -0.3778535733630547 0 0.25612988417059862 -0.39372739427770198 0 0.26942587705199361 -0.38493928597274168 0 0.25612988417059862 -0.39372739427770198 0 0.2712592588911249 -0.4011252646882224 0 0.25612988417059862 -0.39372739427770198 0 0.25719318355777793 -0.40900766208145772 0 0.24221879831617951 -0.40374349928431241 0 0.25612988417059862 -0.39372739427770198 0 0.2712592588911249 -0.4011252646882224 0 0.25719318355777793 -0.40900766208145772 0 0.2874102014095159 -0.39509192248758579 0 0.26942587705199361 -0.38493928597274168 0 0.2712592588911249 -0.4011252646882224 0 0.2874102014095159 -0.39509192248758579 0 0.2712592588911249 -0.4011252646882224 0 0.28118309558223442 -0.41369156462908452 0 0.2712592588911249 -0.4011252646882224 0 0.28118309558223442 -0.41369156462908452 0 0.26821571575514519 -0.42313420304437038 0 0.25719318355777793 -0.40900766208145772 0 0.25131531011865732 -0.42556788371608179 0 0.26821571575514519 -0.42313420304437038 0 0.2712592588911249 -0.4011252646882224 0 0.25719318355777793 -0.40900766208145772 0 0.26821571575514519 -0.42313420304437038 0 0.25719318355777793 -0.40900766208145772 0 0.25131531011865732 -0.42556788371608179 0 0.24221879831617951 -0.40374349928431241 0 0.25131531011865732 -0.42556788371608179 0 0.26821571575514519 -0.42313420304437038 0 0.26662865591673662 -0.44001790662850621 0 0.25131531011865732 -0.42556788371608179 0 0.26662865591673662 -0.44001790662850621 0 0.25303584543133201 -0.44500039774258632 0 0.26821571575514519 -0.42313420304437038 0 0.27984215626159609 -0.43607922793080173 0 0.26662865591673662 -0.44001790662850621 0 0.28118309558223442 -0.41369156462908452 0 0.26821571575514519 -0.42313420304437038 0 0.27984215626159609 -0.43607922793080173 0 0.28118309558223442 -0.41369156462908452 0 0.29271019608452958 -0.4356623952759851 0 0.30361424412417137 -0.43140106193846173 0 0.28118309558223442 -0.41369156462908452 0 0.30361424412417137 -0.43140106193846173 0 0.28118309558223442 -0.41369156462908452 0 0.27984215626159609 -0.43607922793080173 0 0.29271019608452958 -0.4356623952759851 0 0.28118309558223442 -0.41369156462908452 0 0.29778972871584541 -0.411333248720329 0 0.30361424412417137 -0.43140106193846173 0 0.2874102014095159 -0.39509192248758579 0 0.28118309558223442 -0.41369156462908452 0 0.29778972871584541 -0.411333248720329 0 0.30577768704238167 -0.39981775823168347 0 0.29778972871584541 -0.411333248720329 0 0.31096341542092332 -0.41666393631482962 0 0.29778972871584541 -0.411333248720329 0 0.31096341542092332 -0.41666393631482962 0 0.30361424412417137 -0.43140106193846173 0 0.31738385192459478 -0.4281473328386447 0 0.31096341542092332 -0.41666393631482962 0 0.30361424412417137 -0.43140106193846173 0 0.30361424412417137 -0.43140106193846173 0 0.30305604377008721 -0.43921179745081218 0 0.31069208265037451 -0.43827482199487672 0 0.29271019608452958 -0.4356623952759851 0 0.30361424412417137 -0.43140106193846173 0 0.30305604377008721 -0.43921179745081218 0 0.31926666648828211 -0.45884988132991772 0 0.31069208265037451 -0.43827482199487672 0 0.30729819407149611 -0.4500231569609251 0 0.29954032620450799 -0.4528969526885272 0 0.29884610169420173 -0.44508345720189407 0 0.30729819407149611 -0.4500231569609251 0 0.29271019608452958 -0.4356623952759851 0 0.29884610169420173 -0.44508345720189407 0 0.30305604377008721 -0.43921179745081218 0 0.29884610169420173 -0.44508345720189407 0 0.30305604377008721 -0.43921179745081218 0 0.30729819407149611 -0.4500231569609251 0 0.30305604377008721 -0.43921179745081218 0 0.31069208265037451 -0.43827482199487672 0 0.30729819407149611 -0.4500231569609251 0 0.31926666648828211 -0.45884988132991772 0 0.30729819407149611 -0.4500231569609251 0 0.30705540407768478 -0.46412336326869819 0 0.30705540407768478 -0.46412336326869819 0 0.29236538620825531 -0.45864920993489661 0 0.29307765283222292 -0.471979661630339 0 0.29954032620450799 -0.4528969526885272 0 0.30729819407149611 -0.4500231569609251 0 0.30705540407768478 -0.46412336326869819 0 0.29954032620450799 -0.4528969526885272 0 0.30705540407768478 -0.46412336326869819 0 0.29236538620825531 -0.45864920993489661 0 0.29236538620825531 -0.45864920993489661 0 0.2798175264509013 -0.46452403569620382 0 0.29307765283222292 -0.471979661630339 0 0.29236538620825531 -0.45864920993489661 0 0.27981258058876179 -0.45119811388362502 0 0.2798175264509013 -0.46452403569620382 0 0.29236538620825531 -0.45864920993489661 0 0.29035437043956808 -0.44719443117813967 0 0.27981258058876179 -0.45119811388362502 0 0.29954032620450799 -0.4528969526885272 0 0.29884610169420173 -0.44508345720189407 0 0.29035437043956808 -0.44719443117813967 0 0.29954032620450799 -0.4528969526885272 0 0.29236538620825531 -0.45864920993489661 0 0.29035437043956808 -0.44719443117813967 0 0.29271019608452958 -0.4356623952759851 0 0.29884610169420173 -0.44508345720189407 0 0.29035437043956808 -0.44719443117813967 0 0.27984215626159609 -0.43607922793080173 0 0.29035437043956808 -0.44719443117813967 0 0.27981258058876179 -0.45119811388362502 0 0.27984215626159609 -0.43607922793080173 0 0.29271019608452958 -0.4356623952759851 0 0.29035437043956808 -0.44719443117813967 0 0.27984215626159609 -0.43607922793080173 0 0.27981258058876179 -0.45119811388362502 0 0.26662865591673662 -0.44001790662850621 0 0.27981258058876179 -0.45119811388362502 0 0.26662865591673662 -0.44001790662850621 0 0.26730665442921758 -0.45668510798449091 0 0.26662865591673662 -0.44001790662850621 0 0.25303584543133201 -0.44500039774258632 0 0.26730665442921758 -0.45668510798449091 0 0.25323457909965391 -0.45899582982650611 0 0.26531627945245911 -0.47227618861672721 0 0.25017935571247679 -0.4716569667895848 0 0.25303584543133201 -0.44500039774258632 0 0.25323457909965391 -0.45899582982650611 0 0.26730665442921758 -0.45668510798449091 0 0.25323457909965391 -0.45899582982650611 0 0.26730665442921758 -0.45668510798449091 0 0.26531627945245911 -0.47227618861672721 0 0.26730665442921758 -0.45668510798449091 0 0.2798175264509013 -0.46452403569620382 0 0.26531627945245911 -0.47227618861672721 0 0.27981258058876179 -0.45119811388362502 0 0.26730665442921758 -0.45668510798449091 0 0.2798175264509013 -0.46452403569620382 0 0.2798175264509013 -0.46452403569620382 0 0.28022492624676892 -0.4777315748953469 0 0.26531627945245911 -0.47227618861672721 0 0.28022492624676892 -0.4777315748953469 0 0.26531627945245911 -0.47227618861672721 0 0.26735269396930972 -0.48712056658273828 0 0.26531627945245911 -0.47227618861672721 0 0.25209246771951649 -0.48287927516763668 0 0.26735269396930972 -0.48712056658273828 0 0.26531627945245911 -0.47227618861672721 0 0.25209246771951649 -0.48287927516763668 0 0.25017935571247679 -0.4716569667895848 0 0.25209246771951649 -0.48287927516763668 0 0.25601490663174409 -0.500000000000001 0 0.26735269396930972 -0.48712056658273828 0 0.25601490663174409 -0.500000000000001 0 0.26735269396930972 -0.48712056658273828 0 0.28281521580919511 -0.5 0 0.28022492624676892 -0.4777315748953469 0 0.26735269396930972 -0.48712056658273828 0 0.28281521580919511 -0.5 0 0.28281521580919511 -0.5 0 0.29357882724505102 -0.48633566864615257 0 0.30961552498664602 -0.5 0 0.28022492624676892 -0.4777315748953469 0 0.28281521580919511 -0.5 0 0.29357882724505102 -0.48633566864615257 0 0.28022492624676892 -0.4777315748953469 0 0.29357882724505102 -0.48633566864615257 0 0.29307765283222292 -0.471979661630339 0 0.2798175264509013 -0.46452403569620382 0 0.28022492624676892 -0.4777315748953469 0 0.29307765283222292 -0.471979661630339 0 0.29357882724505102 -0.48633566864615257 0 0.29307765283222292 -0.471979661630339 0 0.30628253897895319 -0.48013175171854078 0 0.30705540407768478 -0.46412336326869819 0 0.29307765283222292 -0.471979661630339 0 0.30628253897895319 -0.48013175171854078 0 0.29357882724505102 -0.48633566864615257 0 0.30628253897895319 -0.48013175171854078 0 0.30961552498664602 -0.5 0 0.34034624863689639 -0.2987529838764057 0 0.32581556675226492 -0.2987675479273233 0 0.34962339836902001 -0.28699491181522863 0 0.32887536429856462 -0.28418317007526239 0 0.32581556675226492 -0.2987675479273233 0 0.34375334579970029 -0.28502703310199501 0 0.32581556675226492 -0.2987675479273233 0 0.34375334579970029 -0.28502703310199501 0 0.34962339836902001 -0.28699491181522863 0 0.32581556675226492 -0.2987675479273233 0 0.34962339836902001 -0.28699491181522863 0 0.32887536429856462 -0.28418317007526239 0 0.33669218373476412 -0.27574848135284402 0 0.34375334579970029 -0.28502703310199501 0 0.34034624863689639 -0.2987529838764057 0 0.33720075944729128 -0.31200916684126068 0 0.34647250835451199 -0.30653158147069409 0 0.33720075944729128 -0.31200916684126068 0 0.32581556675226492 -0.2987675479273233 0 0.32296409785442071 -0.31273457613968081 0 0.34034624863689639 -0.2987529838764057 0 0.33720075944729128 -0.31200916684126068 0 0.32581556675226492 -0.2987675479273233 0 0.32581556675226492 -0.2987675479273233 0 0.32296409785442071 -0.31273457613968081 0 0.30200773513550988 -0.31054018403941869 0 0.32581556675226492 -0.2987675479273233 0 0.30200773513550988 -0.31054018403941869 0 0.32581556675226492 -0.2987675479273233 0 0.3117904209853446 -0.29086708503386971 0 0.30200773513550988 -0.31054018403941869 0 0.32887536429856462 -0.28418317007526239 0 0.32038070926540341 -0.27193950746052098 0 0.3117904209853446 -0.29086708503386971 0 0.32887536429856462 -0.28418317007526239 0 0.32581556675226492 -0.2987675479273233 0 0.3117904209853446 -0.29086708503386971 0 0.32038070926540341 -0.27193950746052098 0 0.31612366293074279 -0.25382610042543741 0 0.30485867779484899 -0.26301991250112822 0 0.33095493140582899 -0.24942881102254519 0 0.32038070926540341 -0.27193950746052098 0 0.31612366293074279 -0.25382610042543741 0 0.33095493140582899 -0.24942881102254519 0 0.34783106546937281 -0.24843756050561569 0 0.34080476256852082 -0.26185238199468908 0 0.33095493140582899 -0.24942881102254519 0 0.32038070926540341 -0.27193950746052098 0 0.34080476256852082 -0.26185238199468908 0 0.32038070926540341 -0.27193950746052098 0 0.34080476256852082 -0.26185238199468908 0 0.32887536429856462 -0.28418317007526239 0 0.32038070926540341 -0.27193950746052098 0 0.33669218373476412 -0.27574848135284402 0 0.32038070926540341 -0.27193950746052098 0 0.34080476256852082 -0.26185238199468908 0 0.33669218373476412 -0.27574848135284402 0 0.34080476256852082 -0.26185238199468908 0 0.33669218373476412 -0.27574848135284402 0 0.34964673674163171 -0.27574031413175271 0 0.33669218373476412 -0.27574848135284402 0 0.34964673674163171 -0.27574031413175271 0 0.34375334579970029 -0.28502703310199501 0 0.34080476256852082 -0.26185238199468908 0 0.34964673674163171 -0.27574031413175271 0 0.36006956999646272 -0.26713728130961301 0 0.34964673674163171 -0.27574031413175271 0 0.36299176745672951 -0.28038444231866799 0 0.36006956999646272 -0.26713728130961301 0 0.34964673674163171 -0.27574031413175271 0 0.36299176745672951 -0.28038444231866799 0 0.34962339836902001 -0.28699491181522863 0 0.34783106546937281 -0.24843756050561569 0 0.34080476256852082 -0.26185238199468908 0 0.36122881587163819 -0.25176525652885728 0 0.34080476256852082 -0.26185238199468908 0 0.36122881587163819 -0.25176525652885728 0 0.34080476256852082 -0.26185238199468908 0 0.36122881587163819 -0.25176525652885728 0 0.36006956999646272 -0.26713728130961301 0 0.36157309947191812 -0.2492025193231692 0 0.37826539935337461 -0.26815653733742911 0 0.36157309947191812 -0.2492025193231692 0 0.38338999904444448 -0.23946047744273499 0 0.37826539935337461 -0.26815653733742911 0 0.37826539935337461 -0.26815653733742911 0 0.36122881587163819 -0.25176525652885728 0 0.36006956999646272 -0.26713728130961301 0 0.36157309947191812 -0.2492025193231692 0 0.37826539935337461 -0.26815653733742911 0 0.36122881587163819 -0.25176525652885728 0 0.37826539935337461 -0.26815653733742911 0 0.36299176745672951 -0.28038444231866799 0 0.36006956999646272 -0.26713728130961301 0 0.37826539935337461 -0.26815653733742911 0 0.36299176745672951 -0.28038444231866799 0 0.3782298036702354 -0.28298921229491808 0 0.37826539935337461 -0.26815653733742911 0 0.36299176745672951 -0.28038444231866799 0 0.37642082220089768 -0.2959784906342478 0 0.35336419694868032 -0.28824897859035142 0 0.35989071042328907 -0.2978165500639936 0 0.37642082220089768 -0.2959784906342478 0 0.35336419694868032 -0.28824897859035142 0 0.37642082220089768 -0.2959784906342478 0 0.36299176745672951 -0.28038444231866799 0 0.35336419694868032 -0.28824897859035142 0 0.37642082220089768 -0.2959784906342478 0 0.3782298036702354 -0.28298921229491808 0 0.36299176745672951 -0.28038444231866799 0 0.36299176745672951 -0.28038444231866799 0 0.35336419694868032 -0.28824897859035142 0 0.34962339836902001 -0.28699491181522863 0 0.36299176745672951 -0.28038444231866799 0 0.34962339836902001 -0.28699491181522863 0 0.36299176745672951 -0.28038444231866799 0 0.35336419694868032 -0.28824897859035142 0 0.35336419694868032 -0.28824897859035142 0 0.35130996944906301 -0.30042371538899548 0 0.35989071042328907 -0.2978165500639936 0 0.34034624863689639 -0.2987529838764057 0 0.35336419694868032 -0.28824897859035142 0 0.34962339836902001 -0.28699491181522863 0 0.34034624863689639 -0.2987529838764057 0 0.35336419694868032 -0.28824897859035142 0 0.35130996944906301 -0.30042371538899548 0 0.34034624863689639 -0.2987529838764057 0 0.35336419694868032 -0.28824897859035142 0 0.34375334579970029 -0.28502703310199501 0 0.34962339836902001 -0.28699491181522863 0 0.34964673674163171 -0.27574031413175271 0 0.34375334579970029 -0.28502703310199501 0 0.34962339836902001 -0.28699491181522863 0 0.35336419694868032 -0.28824897859035142 0 0.34962339836902001 -0.28699491181522863 0 0.33720075944729128 -0.31200916684126068 0 0.34647250835451199 -0.30653158147069409 0 0.35194254020963189 -0.31280730134829232 0 0.34647250835451199 -0.30653158147069409 0 0.35263159474426808 -0.30644898627182737 0 0.35194254020963189 -0.31280730134829232 0 0.34034624863689639 -0.2987529838764057 0 0.34647250835451199 -0.30653158147069409 0 0.35130996944906301 -0.30042371538899548 0 0.34647250835451199 -0.30653158147069409 0 0.35130996944906301 -0.30042371538899548 0 0.35263159474426808 -0.30644898627182737 0 0.35130996944906301 -0.30042371538899548 0 0.35626344676304422 -0.30315729893950161 0 0.35989071042328907 -0.2978165500639936 0 0.35130996944906301 -0.30042371538899548 0 0.35626344676304422 -0.30315729893950161 0 0.35263159474426808 -0.30644898627182737 0 0.35626344676304422 -0.30315729893950161 0 0.35716950894508948 -0.30932503421165358 0 0.36349239577355003 -0.30430262777600903 0 0.35626344676304422 -0.30315729893950161 0 0.35263159474426808 -0.30644898627182737 0 0.35716950894508948 -0.30932503421165358 0 0.35263159474426808 -0.30644898627182737 0 0.35716950894508948 -0.30932503421165358 0 0.35194254020963189 -0.31280730134829232 0 0.35716950894508948 -0.30932503421165358 0 0.36203859382256659 -0.31134215542509391 0 0.35761937700266672 -0.31633977079528358 0 0.36203859382256659 -0.31134215542509391 0 0.36349239577355003 -0.30430262777600903 0 0.37016932155194721 -0.30946489114149578 0 0.37642082220089768 -0.2959784906342478 0 0.35989071042328907 -0.2978165500639936 0 0.36349239577355003 -0.30430262777600903 0 0.36203859382256659 -0.31134215542509391 0 0.37016932155194721 -0.30946489114149578 0 0.3649556626548931 -0.31547898698423688 0 0.35716950894508948 -0.30932503421165358 0 0.36203859382256659 -0.31134215542509391 0 0.36349239577355003 -0.30430262777600903 0 0.35626344676304422 -0.30315729893950161 0 0.35989071042328907 -0.2978165500639936 0 0.36349239577355003 -0.30430262777600903 0 0.37642082220089768 -0.2959784906342478 0 0.36349239577355003 -0.30430262777600903 0 0.37016932155194721 -0.30946489114149578 0 0.37016932155194721 -0.30946489114149578 0 0.37336889936850559 -0.31947899961008203 0 0.3649556626548931 -0.31547898698423688 0 0.38072235236213958 -0.33278944475668432 0 0.37336889936850559 -0.31947899961008203 0 0.3620820688462717 -0.32388925875844149 0 0.37336889936850559 -0.31947899961008203 0 0.3649556626548931 -0.31547898698423688 0 0.3615821215287795 -0.32076911794922902 0 0.3649556626548931 -0.31547898698423688 0 0.3615821215287795 -0.32076911794922902 0 0.35761937700266672 -0.31633977079528358 0 0.36203859382256659 -0.31134215542509391 0 0.3649556626548931 -0.31547898698423688 0 0.35761937700266672 -0.31633977079528358 0 0.37336889936850559 -0.31947899961008203 0 0.3615821215287795 -0.32076911794922902 0 0.3620820688462717 -0.32388925875844149 0 0.3615821215287795 -0.32076911794922902 0 0.3620820688462717 -0.32388925875844149 0 0.35761937700266672 -0.31633977079528358 0 0.3615821215287795 -0.32076911794922902 0 0.3620820688462717 -0.32388925875844149 0 0.3620820688462717 -0.32388925875844149 0 0.36561489377665718 -0.34593740433596271 0 0.38072235236213958 -0.33278944475668432 0 0.3620820688462717 -0.32388925875844149 0 0.36561489377665718 -0.34593740433596271 0 0.38072235236213958 -0.33278944475668432 0 0.3620820688462717 -0.32388925875844149 0 0.3620820688462717 -0.32388925875844149 0 0.35230735887515502 -0.33760245395795591 0 0.36561489377665718 -0.34593740433596271 0 0.3620820688462717 -0.32388925875844149 0 0.35230735887515502 -0.33760245395795591 0 0.34537130078282308 -0.32694623928413952 0 0.35230735887515502 -0.33760245395795591 0 0.34980187963082399 -0.35229209744616191 0 0.33875120001000791 -0.33841037648241268 0 0.35230735887515502 -0.33760245395795591 0 0.34537130078282308 -0.32694623928413952 0 0.33875120001000791 -0.33841037648241268 0 0.33720075944729128 -0.31200916684126068 0 0.3620820688462717 -0.32388925875844149 0 0.35194254020963189 -0.31280730134829232 0 0.33720075944729128 -0.31200916684126068 0 0.3620820688462717 -0.32388925875844149 0 0.33720075944729128 -0.31200916684126068 0 0.3620820688462717 -0.32388925875844149 0 0.34537130078282308 -0.32694623928413952 0 0.3620820688462717 -0.32388925875844149 0 0.35194254020963189 -0.31280730134829232 0 0.35761937700266672 -0.31633977079528358 0 0.35716950894508948 -0.30932503421165358 0 0.35194254020963189 -0.31280730134829232 0 0.35761937700266672 -0.31633977079528358 0 0.36914771870704671 -0.36798554991348331 0 0.36561489377665718 -0.34593740433596271 0 0.34980187963082399 -0.35229209744616191 0 0.36914771870704671 -0.36798554991348331 0 0.36561489377665718 -0.34593740433596271 0 0.38238154859213408 -0.34994939341446818 0 0.36914771870704671 -0.36798554991348331 0 0.36561489377665718 -0.34593740433596271 0 0.35230735887515502 -0.33760245395795591 0 0.36561489377665718 -0.34593740433596271 0 0.34980187963082399 -0.35229209744616191 0 0.36914771870704671 -0.36798554991348331 0 0.34980187963082399 -0.35229209744616191 0 0.3464094176674315 -0.3697642582872937 0 0.36914771870704671 -0.36798554991348331 0 0.3464094176674315 -0.3697642582872937 0 0.35730130852880448 -0.38163871506246672 0 0.36914771870704671 -0.36798554991348331 0 0.3464094176674315 -0.3697642582872937 0 0.3464094176674315 -0.3697642582872937 0 0.32367111662781639 -0.37154296666110409 0 0.3464094176674315 -0.3697642582872937 0 0.32678360555858887 -0.35276399734147351 0 0.32367111662781639 -0.37154296666110409 0 0.34980187963082399 -0.35229209744616191 0 0.32678360555858887 -0.35276399734147351 0 0.33875120001000791 -0.33841037648241268 0 0.34980187963082399 -0.35229209744616191 0 0.3464094176674315 -0.3697642582872937 0 0.32678360555858887 -0.35276399734147351 0 0.32678360555858887 -0.35276399734147351 0 0.31193259427799702 -0.36016645722329771 0 0.30880961699254061 -0.34397638407080322 0 0.32678360555858887 -0.35276399734147351 0 0.32190029915925761 -0.33852763743835279 0 0.30880961699254061 -0.34397638407080322 0 0.32678360555858887 -0.35276399734147351 0 0.32367111662781639 -0.37154296666110409 0 0.31193259427799702 -0.36016645722329771 0 0.30343168928695358 -0.37801561534858352 0 0.32367111662781639 -0.37154296666110409 0 0.31193259427799702 -0.36016645722329771 0 0.33720075944729128 -0.31200916684126068 0 0.33397152390689561 -0.32406736798768099 0 0.32296409785442071 -0.31273457613968081 0 0.33720075944729128 -0.31200916684126068 0 0.34537130078282308 -0.32694623928413952 0 0.33397152390689561 -0.32406736798768099 0 0.34537130078282308 -0.32694623928413952 0 0.33397152390689561 -0.32406736798768099 0 0.33875120001000791 -0.33841037648241268 0 0.33397152390689561 -0.32406736798768099 0 0.33875120001000791 -0.33841037648241268 0 0.32190029915925761 -0.33852763743835279 0 0.32678360555858887 -0.35276399734147351 0 0.33875120001000791 -0.33841037648241268 0 0.32190029915925761 -0.33852763743835279 0 0.33397152390689561 -0.32406736798768099 0 0.32190029915925761 -0.33852763743835279 0 0.31989651317475087 -0.32521328555722517 0 0.32190029915925761 -0.33852763743835279 0 0.30826124384662562 -0.33006875962913512 0 0.30880961699254061 -0.34397638407080322 0 0.32190029915925761 -0.33852763743835279 0 0.31989651317475087 -0.32521328555722517 0 0.30826124384662562 -0.33006875962913512 0 0.31989651317475087 -0.32521328555722517 0 0.31328239750282671 -0.31963920134136492 0 0.30826124384662562 -0.33006875962913512 0 0.32296409785442071 -0.31273457613968081 0 0.31328239750282671 -0.31963920134136492 0 0.30200773513550988 -0.31054018403941869 0 0.33397152390689561 -0.32406736798768099 0 0.31989651317475087 -0.32521328555722517 0 0.32296409785442071 -0.31273457613968081 0 0.31989651317475087 -0.32521328555722517 0 0.32296409785442071 -0.31273457613968081 0 0.31328239750282671 -0.31963920134136492 0 0.31328239750282671 -0.31963920134136492 0 0.30826124384662562 -0.33006875962913512 0 0.30200773513550988 -0.31054018403941869 0 0.30826124384662562 -0.33006875962913512 0 0.29445172810447168 -0.33180657598446289 0 0.30200773513550988 -0.31054018403941869 0 0.29445172810447168 -0.33180657598446289 0 0.30880961699254061 -0.34397638407080322 0 0.2910013370105235 -0.34571590690483328 0 0.30826124384662562 -0.33006875962913512 0 0.29445172810447168 -0.33180657598446289 0 0.30880961699254061 -0.34397638407080322 0 0.29445172810447168 -0.33180657598446289 0 0.2781999035187559 -0.3223128201515158 0 0.27769878647194252 -0.34038516263014962 0 0.29445172810447168 -0.33180657598446289 0 0.2910013370105235 -0.34571590690483328 0 0.27769878647194252 -0.34038516263014962 0 0.2781999035187559 -0.3223128201515158 0 0.30200773513550988 -0.31054018403941869 0 0.29445172810447168 -0.33180657598446289 0 0.2781999035187559 -0.3223128201515158 0 0.30200773513550988 -0.31054018403941869 0 0.30343168928695358 -0.37801561534858352 0 0.31193259427799702 -0.36016645722329771 0 0.29619884037960892 -0.35925898636914111 0 0.31193259427799702 -0.36016645722329771 0 0.30880961699254061 -0.34397638407080322 0 0.29619884037960892 -0.35925898636914111 0 0.30880961699254061 -0.34397638407080322 0 0.2910013370105235 -0.34571590690483328 0 0.29619884037960892 -0.35925898636914111 0 0.2910013370105235 -0.34571590690483328 0 0.2771976694251283 -0.35845750510878338 0 0.27769878647194252 -0.34038516263014962 0 0.2910013370105235 -0.34571590690483328 0 0.29619884037960892 -0.35925898636914111 0 0.2771976694251283 -0.35845750510878338 0 0.30343168928695358 -0.37801561534858352 0 0.29619884037960892 -0.35925898636914111 0 0.28314208034892502 -0.37395607270838699 0 0.29619884037960892 -0.35925898636914111 0 0.28314208034892502 -0.37395607270838699 0 0.2771976694251283 -0.35845750510878338 0 0.28314208034892502 -0.37395607270838699 0 0.26638795307375829 -0.36808935902844231 0 0.2771976694251283 -0.35845750510878338 0 0.26638795307375829 -0.36808935902844231 0 0.2771976694251283 -0.35845750510878338 0 0.26407248276613371 -0.35048570128491008 0 0.2771976694251283 -0.35845750510878338 0 0.27769878647194252 -0.34038516263014962 0 0.2771976694251283 -0.35845750510878338 0 0.26407248276613371 -0.35048570128491008 0 0.27769878647194252 -0.34038516263014962 0 0.26407248276613371 -0.35048570128491008 0 0.25671122010134811 -0.33864206078699838 0 0.2484717095243528 -0.34901893476030699 0 0.26407248276613371 -0.35048570128491008 0 0.25221238085393388 -0.36319079487236372 0 0.2484717095243528 -0.34901893476030699 0 0.26638795307375829 -0.36808935902844231 0 0.26407248276613371 -0.35048570128491008 0 0.25221238085393388 -0.36319079487236372 0 0.2543150598661002 -0.3778535733630547 0 0.26638795307375829 -0.36808935902844231 0 0.25221238085393388 -0.36319079487236372 0 0.26649096223211699 -0.31997724831821922 0 0.2781999035187559 -0.3223128201515158 0 0.26520878238752399 -0.30617377516736971 0 0.27306735053142189 -0.32485079503383812 0 0.26649096223211699 -0.31997724831821922 0 0.2781999035187559 -0.3223128201515158 0 0.27306735053142189 -0.32485079503383812 0 0.26649096223211699 -0.31997724831821922 0 0.26207225338735968 -0.32839912620638773 0 0.27306735053142189 -0.32485079503383812 0 0.2781999035187559 -0.3223128201515158 0 0.2781999035187559 -0.3223128201515158 0 0.27769878647194252 -0.34038516263014962 0 0.27306735053142189 -0.32485079503383812 0 0.2781999035187559 -0.3223128201515158 0 0.27769878647194252 -0.34038516263014962 0 0.26407248276613371 -0.35048570128491008 0 0.27769878647194252 -0.34038516263014962 0 0.2667244186516412 -0.33655256918845677 0 0.27306735053142189 -0.32485079503383812 0 0.2667244186516412 -0.33655256918845677 0 0.26207225338735968 -0.32839912620638773 0 0.27306735053142189 -0.32485079503383812 0 0.27769878647194252 -0.34038516263014962 0 0.2667244186516412 -0.33655256918845677 0 0.2667244186516412 -0.33655256918845677 0 0.26207225338735968 -0.32839912620638773 0 0.25671122010134811 -0.33864206078699838 0 0.26407248276613371 -0.35048570128491008 0 0.2667244186516412 -0.33655256918845677 0 0.25671122010134811 -0.33864206078699838 0 0.25671122010134811 -0.33864206078699838 0 0.24571035341518249 -0.33780793009758048 0 0.2484717095243528 -0.34901893476030699 0 0.26207225338735968 -0.32839912620638773 0 0.25671122010134811 -0.33864206078699838 0 0.25119887832867221 -0.32994679665368581 0 0.25671122010134811 -0.33864206078699838 0 0.25119887832867221 -0.32994679665368581 0 0.24571035341518249 -0.33780793009758048 0 0.26207225338735968 -0.32839912620638773 0 0.25119887832867221 -0.32994679665368581 0 0.25390652133552288 -0.31814972503198452 0 0.26649096223211699 -0.31997724831821922 0 0.26207225338735968 -0.32839912620638773 0 0.25390652133552288 -0.31814972503198452 0 0.26649096223211699 -0.31997724831821922 0 0.25390652133552288 -0.31814972503198452 0 0.26520878238752399 -0.30617377516736971 0 0.25390652133552288 -0.31814972503198452 0 0.25157554889381289 -0.3029860093984339 0 0.26520878238752399 -0.30617377516736971 0 0.25157554889381289 -0.3029860093984339 0 0.26520878238752399 -0.30617377516736971 0 0.25707211178811368 -0.29070571348483792 0 0.26520878238752399 -0.30617377516736971 0 0.25707211178811368 -0.29070571348483792 0 0.26891002967316102 -0.28628744036289377 0 0.25707211178811368 -0.29070571348483792 0 0.26318291304086538 -0.2752351995270193 0 0.25184639563294198 -0.28013545519253658 0 0.25707211178811368 -0.29070571348483792 0 0.26891002967316102 -0.28628744036289377 0 0.26318291304086538 -0.2752351995270193 0 0.27903765557208671 -0.29210003430395981 0 0.27879259820055058 -0.30093781137314579 0 0.26891002967316102 -0.28628744036289377 0 0.27903765557208671 -0.29210003430395981 0 0.27879259820055058 -0.30093781137314579 0 0.26891002967316102 -0.28628744036289377 0 0.27903765557208671 -0.29210003430395981 0 0.27938529288234459 -0.27956280259477589 0 0.27903765557208671 -0.29210003430395981 0 0.27938529288234459 -0.27956280259477589 0 0.2781999035187559 -0.3223128201515158 0 0.27879259820055058 -0.30093781137314579 0 0.26520878238752399 -0.30617377516736971 0 0.26891002967316102 -0.28628744036289377 0 0.27879259820055058 -0.30093781137314579 0 0.2781999035187559 -0.3223128201515158 0 0.26520878238752399 -0.30617377516736971 0 0.27879259820055058 -0.30093781137314579 0 0.2781999035187559 -0.3223128201515158 0 0.27879259820055058 -0.30093781137314579 0 0.30200773513550988 -0.31054018403941869 0 0.27879259820055058 -0.30093781137314579 0 0.29370649449803882 -0.29774546777434019 0 0.30200773513550988 -0.31054018403941869 0 0.27903765557208671 -0.29210003430395981 0 0.27879259820055058 -0.30093781137314579 0 0.29370649449803882 -0.29774546777434019 0 0.27903765557208671 -0.29210003430395981 0 0.29995665596228588 -0.28202663292635288 0 0.27903765557208671 -0.29210003430395981 0 0.29370649449803882 -0.29774546777434019 0 0.29995665596228588 -0.28202663292635288 0 0.27903765557208671 -0.29210003430395981 0 0.29995665596228588 -0.28202663292635288 0 0.27938529288234459 -0.27956280259477589 0 0.29370649449803882 -0.29774546777434019 0 0.3117904209853446 -0.29086708503386971 0 0.29995665596228588 -0.28202663292635288 0 0.32038070926540341 -0.27193950746052098 0 0.3117904209853446 -0.29086708503386971 0 0.29995665596228588 -0.28202663292635288 0 0.29370649449803882 -0.29774546777434019 0 0.3117904209853446 -0.29086708503386971 0 0.30200773513550988 -0.31054018403941869 0 0.30485867779484899 -0.26301991250112822 0 0.2910607718375719 -0.2691908232592265 0 0.2960622489784801 -0.25367981408193813 0 0.30679468666361731 -0.249384579544184 0 0.30485867779484899 -0.26301991250112822 0 0.2960622489784801 -0.25367981408193813 0 0.30679468666361731 -0.249384579544184 0 0.31612366293074279 -0.25382610042543741 0 0.30485867779484899 -0.26301991250112822 0 0.32038070926540341 -0.27193950746052098 0 0.29995665596228588 -0.28202663292635288 0 0.30485867779484899 -0.26301991250112822 0 0.32038070926540341 -0.27193950746052098 0 0.29995665596228588 -0.28202663292635288 0 0.29995665596228588 -0.28202663292635288 0 0.30485867779484899 -0.26301991250112822 0 0.2910607718375719 -0.2691908232592265 0 0.2910607718375719 -0.2691908232592265 0 0.27997798756413422 -0.25818779381640589 0 0.27938529288234459 -0.27956280259477589 0 0.29995665596228588 -0.28202663292635288 0 0.2910607718375719 -0.2691908232592265 0 0.27938529288234459 -0.27956280259477589 0 0.2960622489784801 -0.25367981408193813 0 0.27997798756413422 -0.25818779381640589 0 0.2960622489784801 -0.25367981408193813 0 0.28004875328311768 -0.25563569083518961 0 0.27997798756413422 -0.25818779381640589 0 0.29632562921252242 -0.24084854670530759 0 0.2960622489784801 -0.25367981408193813 0 0.28004875328311768 -0.25563569083518961 0 0.2910607718375719 -0.2691908232592265 0 0.2960622489784801 -0.25367981408193813 0 0.27997798756413422 -0.25818779381640589 0 0.28004875328311768 -0.25563569083518961 0 0.2760177793832792 -0.25929773214454321 0 0.27317960725986401 -0.25147320184929878 0 0.28026885945067043 -0.24769775683955519 0 0.28004875328311768 -0.25563569083518961 0 0.27317960725986401 -0.25147320184929878 0 0.28026885945067043 -0.24769775683955519 0 0.28004875328311768 -0.25563569083518961 0 0.2760177793832792 -0.25929773214454321 0 0.27262833586398177 -0.2623769587760757 0 0.24972414706016799 -0.26666712005764648 0 0.28004875328311768 -0.25563569083518961 0 0.2760177793832792 -0.25929773214454321 0 0.28004875328311768 -0.25563569083518961 0 0.27997798756413422 -0.25818779381640589 0 0.2760177793832792 -0.25929773214454321 0 0.28004875328311768 -0.25563569083518961 0 0.27997798756413422 -0.25818779381640589 0 0.27997798756413422 -0.25818779381640589 0 0.2760177793832792 -0.25929773214454321 0 0.2760177793832792 -0.25929773214454321 0 0.27262833586398177 -0.2623769587760757 0 0.27335038973462777 -0.27015798787028561 0 0.27997798756413422 -0.25818779381640589 0 0.2760177793832792 -0.25929773214454321 0 0.27335038973462777 -0.27015798787028561 0 0.2760177793832792 -0.25929773214454321 0 0.27262833586398177 -0.2623769587760757 0 0.26624854112165408 -0.2474146548390701 0 0.27317960725986401 -0.25147320184929878 0 0.26426527685923368 -0.25743952655496583 0 0.2760177793832792 -0.25929773214454321 0 0.27317960725986401 -0.25147320184929878 0 0.26426527685923368 -0.25743952655496583 0 0.27997798756413422 -0.25818779381640589 0 0.27938529288234459 -0.27956280259477589 0 0.27335038973462777 -0.27015798787028561 0 0.26891002967316102 -0.28628744036289377 0 0.27938529288234459 -0.27956280259477589 0 0.27335038973462777 -0.27015798787028561 0 0.26891002967316102 -0.28628744036289377 0 0.27335038973462777 -0.27015798787028561 0 0.26318291304086538 -0.2752351995270193 0 0.27997798756413422 -0.25818779381640589 0 0.27938529288234459 -0.27956280259477589 0 0.27262833586398177 -0.2623769587760757 0 0.27335038973462777 -0.27015798787028561 0 0.26318291304086538 -0.2752351995270193 0 0.27262833586398177 -0.2623769587760757 0 0.26318291304086538 -0.2752351995270193 0 0.24972414706016799 -0.26666712005764648 0 0.26318291304086538 -0.2752351995270193 0 0.25184639563294198 -0.28013545519253658 0 0.24972414706016799 -0.26666712005764648 0 0.2760177793832792 -0.25929773214454321 0 0.26426527685923368 -0.25743952655496583 0 0.24972414706016799 -0.26666712005764648 0 0.26426527685923368 -0.25743952655496583 0 0.25241460081779321 -0.25043473270287703 0 0.24972414706016799 -0.26666712005764648 0 0.2760177793832792 -0.25929773214454321 0 0.24972414706016799 -0.26666712005764648 0 0.26624854112165408 -0.2474146548390701 0 0.26426527685923368 -0.25743952655496583 0 0.26624854112165408 -0.2474146548390701 0 0.26426527685923368 -0.25743952655496583 0 0.25241460081779321 -0.25043473270287703 0 0.25241460081779321 -0.25043473270287703 0 0.23901890545249649 -0.25648585442895377 0 0.24972414706016799 -0.26666712005764648 0 0.23901890545249649 -0.25648585442895377 0 0.24972414706016799 -0.26666712005764648 0 0.22343051473705711 -0.27403650797075108 0 0.24972414706016799 -0.26666712005764648 0 0.22343051473705711 -0.27403650797075108 0 0.237406410642621 -0.28793378770064282 0 0.24972414706016799 -0.26666712005764648 0 0.22343051473705711 -0.27403650797075108 0 0.25184639563294198 -0.28013545519253658 0 0.24972414706016799 -0.26666712005764648 0 0.237406410642621 -0.28793378770064282 0 0.23901890545249649 -0.25648585442895377 0 0.22343051473705711 -0.27403650797075108 0 0.22387296456393649 -0.25705860102201228 0 0.23901890545249649 -0.25648585442895377 0 0.22387296456393649 -0.25705860102201228 0 0.22865362017507851 -0.2459522529565806 0 0.22387296456393649 -0.25705860102201228 0 0.22865362017507851 -0.2459522529565806 0 0.21747070015921119 -0.24758646643530779 0 0.22343051473705711 -0.27403650797075108 0 0.22387296456393649 -0.25705860102201228 0 0.20660961767864569 -0.25912809453969349 0 0.22387296456393649 -0.25705860102201228 0 0.20660961767864569 -0.25912809453969349 0 0.21747070015921119 -0.24758646643530779 0 0.22343051473705711 -0.27403650797075108 0 0.19713688241394631 -0.28140589588385578 0 0.22343051473705711 -0.27403650797075108 0 0.20660961767864569 -0.25912809453969349 0 0.19713688241394631 -0.28140589588385578 0 0.20660961767864569 -0.25912809453969349 0 0.19713688241394631 -0.28140589588385578 0 0.18225956063703971 -0.26765793536170179 0 0.20660961767864569 -0.25912809453969349 0 0.18225956063703971 -0.26765793536170179 0 0.19136082564305021 -0.2484708756777885 0 0.1879371121335297 -0.30516471459894468 0 0.2154779256444426 -0.29955261463680588 0 0.20238621096456169 -0.32011331046633201 0 0.1879371121335297 -0.30516471459894468 0 0.19713688241394631 -0.28140589588385578 0 0.2154779256444426 -0.29955261463680588 0 0.22343051473705711 -0.27403650797075108 0 0.19713688241394631 -0.28140589588385578 0 0.2154779256444426 -0.29955261463680588 0 0.2154779256444426 -0.29955261463680588 0 0.2390209499860303 -0.30793056800992502 0 0.22277222405437661 -0.31802291345784911 0 0.2154779256444426 -0.29955261463680588 0 0.237406410642621 -0.28793378770064282 0 0.2390209499860303 -0.30793056800992502 0 0.22343051473705711 -0.27403650797075108 0 0.2154779256444426 -0.29955261463680588 0 0.237406410642621 -0.28793378770064282 0 0.25157554889381289 -0.3029860093984339 0 0.25707211178811368 -0.29070571348483792 0 0.237406410642621 -0.28793378770064282 0 0.25707211178811368 -0.29070571348483792 0 0.25184639563294198 -0.28013545519253658 0 0.237406410642621 -0.28793378770064282 0 0.25157554889381289 -0.3029860093984339 0 0.237406410642621 -0.28793378770064282 0 0.2390209499860303 -0.30793056800992502 0 0.25390652133552288 -0.31814972503198452 0 0.25157554889381289 -0.3029860093984339 0 0.2390209499860303 -0.30793056800992502 0 0.25390652133552288 -0.31814972503198452 0 0.2390209499860303 -0.30793056800992502 0 0.23849683290192711 -0.32655354001661863 0 0.25119887832867221 -0.32994679665368581 0 0.25390652133552288 -0.31814972503198452 0 0.23849683290192711 -0.32655354001661863 0 0.23849683290192711 -0.32655354001661863 0 0.24571035341518249 -0.33780793009758048 0 0.23547870521557071 -0.34451511601257462 0 0.25119887832867221 -0.32994679665368581 0 0.23849683290192711 -0.32655354001661863 0 0.24571035341518249 -0.33780793009758048 0 0.23849683290192711 -0.32655354001661863 0 0.23547870521557071 -0.34451511601257462 0 0.2184792007749215 -0.33596453415956401 0 0.23849683290192711 -0.32655354001661863 0 0.22277222405437661 -0.31802291345784911 0 0.2184792007749215 -0.33596453415956401 0 0.2390209499860303 -0.30793056800992502 0 0.23849683290192711 -0.32655354001661863 0 0.22277222405437661 -0.31802291345784911 0 0.2543150598661002 -0.3778535733630547 0 0.25221238085393388 -0.36319079487236372 0 0.24107760733654909 -0.37212755537095499 0 0.25221238085393388 -0.36319079487236372 0 0.24107760733654909 -0.37212755537095499 0 0.23845439992224229 -0.35772245663765329 0 0.24107760733654909 -0.37212755537095499 0 0.23845439992224229 -0.35772245663765329 0 0.22953788506097331 -0.36625024908291398 0 0.25221238085393388 -0.36319079487236372 0 0.23845439992224229 -0.35772245663765329 0 0.2484717095243528 -0.34901893476030699 0 0.24571035341518249 -0.33780793009758048 0 0.2484717095243528 -0.34901893476030699 0 0.23547870521557071 -0.34451511601257462 0 0.23845439992224229 -0.35772245663765329 0 0.2484717095243528 -0.34901893476030699 0 0.23547870521557071 -0.34451511601257462 0 0.23547870521557071 -0.34451511601257462 0 0.22431707106900151 -0.35393553033387209 0 0.2184792007749215 -0.33596453415956401 0 0.23845439992224229 -0.35772245663765329 0 0.22431707106900151 -0.35393553033387209 0 0.22953788506097331 -0.36625024908291398 0 0.23845439992224229 -0.35772245663765329 0 0.23547870521557071 -0.34451511601257462 0 0.22431707106900151 -0.35393553033387209 0 0.22953788506097331 -0.36625024908291398 0 0.21374372850296319 -0.36751946088175869 0 0.227573924272679 -0.38046950699598492 0 0.22431707106900151 -0.35393553033387209 0 0.22953788506097331 -0.36625024908291398 0 0.21374372850296319 -0.36751946088175869 0 0.24107760733654909 -0.37212755537095499 0 0.22953788506097331 -0.36625024908291398 0 0.227573924272679 -0.38046950699598492 0 0.21374372850296319 -0.36751946088175869 0 0.210208506937338 -0.3516413652287681 0 0.19361168085718991 -0.36466350037132261 0 0.21374372850296319 -0.36751946088175869 0 0.19361168085718991 -0.36466350037132261 0 0.20204223939295729 -0.38049764053701662 0 0.22431707106900151 -0.35393553033387209 0 0.210208506937338 -0.3516413652287681 0 0.2184792007749215 -0.33596453415956401 0 0.22431707106900151 -0.35393553033387209 0 0.21374372850296319 -0.36751946088175869 0 0.210208506937338 -0.3516413652287681 0 0.210208506937338 -0.3516413652287681 0 0.19361168085718991 -0.36466350037132261 0 0.19534214130791189 -0.34151242765146722 0 0.22277222405437661 -0.31802291345784911 0 0.2184792007749215 -0.33596453415956401 0 0.20238621096456169 -0.32011331046633201 0 0.2154779256444426 -0.29955261463680588 0 0.22277222405437661 -0.31802291345784911 0 0.20238621096456169 -0.32011331046633201 0 0.210208506937338 -0.3516413652287681 0 0.2184792007749215 -0.33596453415956401 0 0.19534214130791189 -0.34151242765146722 0 0.2184792007749215 -0.33596453415956401 0 0.19534214130791189 -0.34151242765146722 0 0.20238621096456169 -0.32011331046633201 0 0.19534214130791189 -0.34151242765146722 0 0.20238621096456169 -0.32011331046633201 0 0.1800596041559033 -0.32727582332231731 0 0.1879371121335297 -0.30516471459894468 0 0.20238621096456169 -0.32011331046633201 0 0.1800596041559033 -0.32727582332231731 0 0.1879371121335297 -0.30516471459894468 0 0.1800596041559033 -0.32727582332231731 0 0.16171879953148921 -0.31386535948739752 0 0.19534214130791189 -0.34151242765146722 0 0.1800596041559033 -0.32727582332231731 0 0.1727991882107478 -0.34948988670936437 0 0.1800596041559033 -0.32727582332231731 0 0.163762493002265 -0.33212527150976479 0 0.1727991882107478 -0.34948988670936437 0 0.163762493002265 -0.33212527150976479 0 0.1727991882107478 -0.34948988670936437 0 0.1556435196492226 -0.34395183875876562 0 0.163762493002265 -0.33212527150976479 0 0.16171879953148921 -0.31386535948739752 0 0.14859135346396191 -0.32604344927097889 0 0.1800596041559033 -0.32727582332231731 0 0.163762493002265 -0.33212527150976479 0 0.16171879953148921 -0.31386535948739752 0 0.19361168085718991 -0.36466350037132261 0 0.1727991882107478 -0.34948988670936437 0 0.17049377456838291 -0.37686463166009099 0 0.19361168085718991 -0.36466350037132261 0 0.19534214130791189 -0.34151242765146722 0 0.1727991882107478 -0.34948988670936437 0 0.1727991882107478 -0.34948988670936437 0 0.1546376167929463 -0.36112284535454958 0 0.1556435196492226 -0.34395183875876562 0 0.15413229712703261 -0.36972141921677998 0 0.1546376167929463 -0.36112284535454958 0 0.17049377456838291 -0.37686463166009099 0 0.1546376167929463 -0.36112284535454958 0 0.17049377456838291 -0.37686463166009099 0 0.1727991882107478 -0.34948988670936437 0 0.1546376167929463 -0.36112284535454958 0 0.17049377456838291 -0.37686463166009099 0 0.15413229712703261 -0.36972141921677998 0 0.14037100614140821 -0.36353594437070591 0 0.1416549905892609 -0.3770066299824667 0 0.15413229712703261 -0.36972141921677998 0 0.1546376167929463 -0.36112284535454958 0 0.15413229712703261 -0.36972141921677998 0 0.1546376167929463 -0.36112284535454958 0 0.14037100614140821 -0.36353594437070591 0 0.1546376167929463 -0.36112284535454958 0 0.1393590267621648 -0.34595446076095221 0 0.14037100614140821 -0.36353594437070591 0 0.1546376167929463 -0.36112284535454958 0 0.1556435196492226 -0.34395183875876562 0 0.1546376167929463 -0.36112284535454958 0 0.1556435196492226 -0.34395183875876562 0 0.1393590267621648 -0.34595446076095221 0 0.1546376167929463 -0.36112284535454958 0 0.1393590267621648 -0.34595446076095221 0 0.12745085933380329 -0.35423090476633268 0 0.1393590267621648 -0.34595446076095221 0 0.14037100614140821 -0.36353594437070591 0 0.14037100614140821 -0.36353594437070591 0 0.1416549905892609 -0.3770066299824667 0 0.1240614338456624 -0.37194020949616052 0 0.12745085933380329 -0.35423090476633268 0 0.14037100614140821 -0.36353594437070591 0 0.1240614338456624 -0.37194020949616052 0 0.16171879953148921 -0.31386535948739752 0 0.14859135346396191 -0.32604344927097889 0 0.14107823628748209 -0.31518516712568873 0 0.1556435196492226 -0.34395183875876562 0 0.1393590267621648 -0.34595446076095221 0 0.14859135346396191 -0.32604344927097889 0 0.1393590267621648 -0.34595446076095221 0 0.14859135346396191 -0.32604344927097889 0 0.1367622824663563 -0.33061842442775041 0 0.163762493002265 -0.33212527150976479 0 0.1556435196492226 -0.34395183875876562 0 0.14859135346396191 -0.32604344927097889 0 0.1393590267621648 -0.34595446076095221 0 0.1367622824663563 -0.33061842442775041 0 0.12408043673138271 -0.3307860761673555 0 0.12745085933380329 -0.35423090476633268 0 0.1393590267621648 -0.34595446076095221 0 0.12408043673138271 -0.3307860761673555 0 0.1393590267621648 -0.34595446076095221 0 0.12408043673138271 -0.3307860761673555 0 0.14107823628748209 -0.31518516712568873 0 0.12869660008228251 -0.32083057042236668 0 0.12542803600290769 -0.30672450909944321 0 0.14859135346396191 -0.32604344927097889 0 0.1367622824663563 -0.33061842442775041 0 0.12869660008228251 -0.32083057042236668 0 0.14859135346396191 -0.32604344927097889 0 0.12869660008228251 -0.32083057042236668 0 0.1367622824663563 -0.33061842442775041 0 0.12869660008228251 -0.32083057042236668 0 0.12408043673138271 -0.3307860761673555 0 0.14859135346396191 -0.32604344927097889 0 0.14107823628748209 -0.31518516712568873 0 0.12869660008228251 -0.32083057042236668 0 0.14107823628748209 -0.31518516712568873 0 0.12542803600290769 -0.30672450909944321 0 0.14405887867116879 -0.3016058229718791 0 0.12542803600290769 -0.30672450909944321 0 0.14405887867116879 -0.3016058229718791 0 0.12376173592536011 -0.28709211698794412 0 0.16171879953148921 -0.31386535948739752 0 0.14107823628748209 -0.31518516712568873 0 0.14405887867116879 -0.3016058229718791 0 0.14405887867116879 -0.3016058229718791 0 0.14630263048980091 -0.28200880560337649 0 0.1708432500908354 -0.28877528379696038 0 0.14405887867116879 -0.3016058229718791 0 0.14630263048980091 -0.28200880560337649 0 0.12376173592536011 -0.28709211698794412 0 0.14630263048980091 -0.28200880560337649 0 0.1346905799108257 -0.26249869470809373 0 0.12376173592536011 -0.28709211698794412 0 0.1346905799108257 -0.26249869470809373 0 0.1630257027769379 -0.25548478519294121 0 0.15584797221889829 -0.2390394655459922 0 0.1346905799108257 -0.26249869470809373 0 0.15942434478108791 -0.27128510093261471 0 0.1630257027769379 -0.25548478519294121 0 0.1346905799108257 -0.26249869470809373 0 0.1630257027769379 -0.25548478519294121 0 0.14630263048980091 -0.28200880560337649 0 0.1346905799108257 -0.26249869470809373 0 0.15942434478108791 -0.27128510093261471 0 0.14630263048980091 -0.28200880560337649 0 0.15942434478108791 -0.27128510093261471 0 0.1708432500908354 -0.28877528379696038 0 0.15942434478108791 -0.27128510093261471 0 0.18225956063703971 -0.26765793536170179 0 0.1708432500908354 -0.28877528379696038 0 0.15942434478108791 -0.27128510093261471 0 0.1630257027769379 -0.25548478519294121 0 0.18225956063703971 -0.26765793536170179 0 0.1630257027769379 -0.25548478519294121 0 0.19136082564305021 -0.2484708756777885 0 0.1630257027769379 -0.25548478519294121 0 0.18225956063703971 -0.26765793536170179 0 0.19136082564305021 -0.2484708756777885 0 0.19713688241394631 -0.28140589588385578 0 0.18225956063703971 -0.26765793536170179 0 0.1708432500908354 -0.28877528379696038 0 0.1879371121335297 -0.30516471459894468 0 0.19713688241394631 -0.28140589588385578 0 0.1708432500908354 -0.28877528379696038 0 0.19713688241394631 -0.28140589588385578 0 0.1708432500908354 -0.28877528379696038 0 0.1879371121335297 -0.30516471459894468 0 0.16171879953148921 -0.31386535948739752 0 0.1708432500908354 -0.28877528379696038 0 0.16171879953148921 -0.31386535948739752 0 0.14405887867116879 -0.3016058229718791 0 0.1708432500908354 -0.28877528379696038 0 0.20246822923601351 -0.5 0 0.2035702784650246 -0.48501554053491719 0 0.1821928608305631 -0.48386688462243571 0 0.19349524034772159 -0.47239383428813081 0 0.2035702784650246 -0.48501554053491719 0 0.1821928608305631 -0.48386688462243571 0 0.19349524034772159 -0.47239383428813081 0 0.21798864921746791 -0.47944804331191199 0 0.19349524034772159 -0.47239383428813081 0 0.21798864921746791 -0.47944804331191199 0 0.2035702784650246 -0.48501554053491719 0 0.19349524034772159 -0.47239383428813081 0 0.20916536920477069 -0.46933122108016673 0 0.21798864921746791 -0.47944804331191199 0 0.21798864921746791 -0.47944804331191199 0 0.21717177255412839 -0.48982583887738268 0 0.2035702784650246 -0.48501554053491719 0 0.20246822923601351 -0.5 0 0.21717177255412839 -0.48982583887738268 0 0.22924156793387879 -0.5 0 0.20246822923601351 -0.5 0 0.21717177255412839 -0.48982583887738268 0 0.2035702784650246 -0.48501554053491719 0 0.21798864921746791 -0.47944804331191199 0 0.21717177255412839 -0.48982583887738268 0 0.23259013791825711 -0.48466561054008422 0 0.21717177255412839 -0.48982583887738268 0 0.23259013791825711 -0.48466561054008422 0 0.22924156793387879 -0.5 0 0.25209246771951649 -0.48287927516763668 0 0.25601490663174409 -0.500000000000001 0 0.23259013791825711 -0.48466561054008422 0 0.25601490663174409 -0.500000000000001 0 0.23259013791825711 -0.48466561054008422 0 0.22924156793387879 -0.5 0 0.25601490663174409 -0.500000000000001 0 0.23259013791825711 -0.48466561054008422 0 0.25209246771951649 -0.48287927516763668 0 0.23259013791825711 -0.48466561054008422 0 0.24038221506437699 -0.475038412315131 0 0.25017935571247679 -0.4716569667895848 0 0.24038221506437699 -0.475038412315131 0 0.23955977406574441 -0.46565668986936398 0 0.25209246771951649 -0.48287927516763668 0 0.25017935571247679 -0.4716569667895848 0 0.24038221506437699 -0.475038412315131 0 0.24038221506437699 -0.475038412315131 0 0.22718966591902551 -0.46761772497500448 0 0.23955977406574441 -0.46565668986936398 0 0.20916536920477069 -0.46933122108016673 0 0.23259013791825711 -0.48466561054008422 0 0.20916536920477069 -0.46933122108016673 0 0.23259013791825711 -0.48466561054008422 0 0.22718966591902551 -0.46761772497500448 0 0.20916536920477069 -0.46933122108016673 0 0.21798864921746791 -0.47944804331191199 0 0.23259013791825711 -0.48466561054008422 0 0.23259013791825711 -0.48466561054008422 0 0.24038221506437699 -0.475038412315131 0 0.22718966591902551 -0.46761772497500448 0 0.22718966591902551 -0.46761772497500448 0 0.2251013862804882 -0.45266514194928847 0 0.21667017382501111 -0.45917926063764719 0 0.2251013862804882 -0.45266514194928847 0 0.2147669957297387 -0.4481177367223913 0 0.21667017382501111 -0.45917926063764719 0 0.22718966591902551 -0.46761772497500448 0 0.2375932146816426 -0.45302731729310891 0 0.2251013862804882 -0.45266514194928847 0 0.25323457909965391 -0.45899582982650611 0 0.23955977406574441 -0.46565668986936398 0 0.2375932146816426 -0.45302731729310891 0 0.22718966591902551 -0.46761772497500448 0 0.23955977406574441 -0.46565668986936398 0 0.2375932146816426 -0.45302731729310891 0 0.25323457909965391 -0.45899582982650611 0 0.25017935571247679 -0.4716569667895848 0 0.23955977406574441 -0.46565668986936398 0 0.25303584543133201 -0.44500039774258632 0 0.25323457909965391 -0.45899582982650611 0 0.2375932146816426 -0.45302731729310891 0 0.25303584543133201 -0.44500039774258632 0 0.2375932146816426 -0.45302731729310891 0 0.2409960332753161 -0.44067852758097148 0 0.2375932146816426 -0.45302731729310891 0 0.2409960332753161 -0.44067852758097148 0 0.22777217943939679 -0.43980782914091238 0 0.2375932146816426 -0.45302731729310891 0 0.22777217943939679 -0.43980782914091238 0 0.2251013862804882 -0.45266514194928847 0 0.22777217943939679 -0.43980782914091238 0 0.2251013862804882 -0.45266514194928847 0 0.2147669957297387 -0.4481177367223913 0 0.22777217943939679 -0.43980782914091238 0 0.2147669957297387 -0.4481177367223913 0 0.20994323711454341 -0.43598935344663442 0 0.20355646182275611 -0.44383059742948522 0 0.1968047875090663 -0.43575617974728698 0 0.20994323711454341 -0.43598935344663442 0 0.20355646182275611 -0.44383059742948522 0 0.2147669957297387 -0.4481177367223913 0 0.20994323711454341 -0.43598935344663442 0 0.20355646182275611 -0.44383059742948522 0 0.2147669957297387 -0.4481177367223913 0 0.20378560162072651 -0.45367987557382078 0 0.2147669957297387 -0.4481177367223913 0 0.21667017382501111 -0.45917926063764719 0 0.20378560162072651 -0.45367987557382078 0 0.20916536920477069 -0.46933122108016673 0 0.21667017382501111 -0.45917926063764719 0 0.20378560162072651 -0.45367987557382078 0 0.20916536920477069 -0.46933122108016673 0 0.22718966591902551 -0.46761772497500448 0 0.21667017382501111 -0.45917926063764719 0 0.19349524034772159 -0.47239383428813081 0 0.20916536920477069 -0.46933122108016673 0 0.18574060049128421 -0.45399683162024917 0 0.20916536920477069 -0.46933122108016673 0 0.20378560162072651 -0.45367987557382078 0 0.18574060049128421 -0.45399683162024917 0 0.20916536920477069 -0.46933122108016673 0 0.18574060049128421 -0.45399683162024917 0 0.19504386268320509 -0.44494598328280838 0 0.18533186197219251 -0.43746643204319979 0 0.18574060049128421 -0.45399683162024917 0 0.20378560162072651 -0.45367987557382078 0 0.19504386268320509 -0.44494598328280838 0 0.18574060049128421 -0.45399683162024917 0 0.19504386268320509 -0.44494598328280838 0 0.1968047875090663 -0.43575617974728698 0 0.18533186197219251 -0.43746643204319979 0 0.20355646182275611 -0.44383059742948522 0 0.19504386268320509 -0.44494598328280838 0 0.1968047875090663 -0.43575617974728698 0 0.20355646182275611 -0.44383059742948522 0 0.20378560162072651 -0.45367987557382078 0 0.19504386268320509 -0.44494598328280838 0 0.20292368860853641 -0.42645227295317961 0 0.1968047875090663 -0.43575617974728698 0 0.18991391803794269 -0.42608536489372129 0 0.20292368860853641 -0.42645227295317961 0 0.18991391803794269 -0.42608536489372129 0 0.19444813673790831 -0.41992438955333761 0 0.1968047875090663 -0.43575617974728698 0 0.18991391803794269 -0.42608536489372129 0 0.18533186197219251 -0.43746643204319979 0 0.20294732582755179 -0.40908409339938062 0 0.20355209256633569 -0.41551731887076521 0 0.18140284773881871 -0.41164260149568421 0 0.20355209256633569 -0.41551731887076521 0 0.18140284773881871 -0.41164260149568421 0 0.19444813673790831 -0.41992438955333761 0 0.20355209256633569 -0.41551731887076521 0 0.18140284773881871 -0.41164260149568421 0 0.18991391803794269 -0.42608536489372129 0 0.19444813673790831 -0.41992438955333761 0 0.18140284773881871 -0.41164260149568421 0 0.20292368860853641 -0.42645227295317961 0 0.19444813673790831 -0.41992438955333761 0 0.20355209256633569 -0.41551731887076521 0 0.20294732582755179 -0.40908409339938062 0 0.219008384707057 -0.41113413727500059 0 0.21277486735505949 -0.40031853854498062 0 0.20294732582755179 -0.40908409339938062 0 0.20355209256633569 -0.41551731887076521 0 0.21954471931128469 -0.42556176883312791 0 0.20294732582755179 -0.40908409339938062 0 0.21954471931128469 -0.42556176883312791 0 0.219008384707057 -0.41113413727500059 0 0.20294732582755179 -0.40908409339938062 0 0.21954471931128469 -0.42556176883312791 0 0.20292368860853641 -0.42645227295317961 0 0.20994323711454341 -0.43598935344663442 0 0.21954471931128469 -0.42556176883312791 0 0.20292368860853641 -0.42645227295317961 0 0.20355209256633569 -0.41551731887076521 0 0.21954471931128469 -0.42556176883312791 0 0.20292368860853641 -0.42645227295317961 0 0.1968047875090663 -0.43575617974728698 0 0.20994323711454341 -0.43598935344663442 0 0.22777217943939679 -0.43980782914091238 0 0.20994323711454341 -0.43598935344663442 0 0.21954471931128469 -0.42556176883312791 0 0.21954471931128469 -0.42556176883312791 0 0.23609120334416039 -0.42969348131811569 0 0.232485629748028 -0.41650457027465582 0 0.22777217943939679 -0.43980782914091238 0 0.21954471931128469 -0.42556176883312791 0 0.23609120334416039 -0.42969348131811569 0 0.2409960332753161 -0.44067852758097148 0 0.22777217943939679 -0.43980782914091238 0 0.23609120334416039 -0.42969348131811569 0 0.25131531011865732 -0.42556788371608179 0 0.23609120334416039 -0.42969348131811569 0 0.232485629748028 -0.41650457027465582 0 0.25131531011865732 -0.42556788371608179 0 0.25303584543133201 -0.44500039774258632 0 0.2409960332753161 -0.44067852758097148 0 0.25131531011865732 -0.42556788371608179 0 0.2409960332753161 -0.44067852758097148 0 0.23609120334416039 -0.42969348131811569 0 0.25131531011865732 -0.42556788371608179 0 0.232485629748028 -0.41650457027465582 0 0.24221879831617951 -0.40374349928431241 0 0.232485629748028 -0.41650457027465582 0 0.22577869470595349 -0.4032868774776236 0 0.24221879831617951 -0.40374349928431241 0 0.21954471931128469 -0.42556176883312791 0 0.232485629748028 -0.41650457027465582 0 0.219008384707057 -0.41113413727500059 0 0.232485629748028 -0.41650457027465582 0 0.219008384707057 -0.41113413727500059 0 0.22577869470595349 -0.4032868774776236 0 0.219008384707057 -0.41113413727500059 0 0.22577869470595349 -0.4032868774776236 0 0.21277486735505949 -0.40031853854498062 0 0.22577869470595349 -0.4032868774776236 0 0.23167783066997891 -0.39324009660807691 0 0.24221879831617951 -0.40374349928431241 0 0.22577869470595349 -0.4032868774776236 0 0.22138883410814431 -0.39257737471180959 0 0.21277486735505949 -0.40031853854498062 0 0.22577869470595349 -0.4032868774776236 0 0.22138883410814431 -0.39257737471180959 0 0.23167783066997891 -0.39324009660807691 0 0.23167783066997891 -0.39324009660807691 0 0.24221879831617951 -0.40374349928431241 0 0.24189804913215951 -0.38644820318626322 0 0.25612988417059862 -0.39372739427770198 0 0.24221879831617951 -0.40374349928431241 0 0.24189804913215951 -0.38644820318626322 0 0.2543150598661002 -0.3778535733630547 0 0.24107760733654909 -0.37212755537095499 0 0.24189804913215951 -0.38644820318626322 0 0.24107760733654909 -0.37212755537095499 0 0.24189804913215951 -0.38644820318626322 0 0.227573924272679 -0.38046950699598492 0 0.22138883410814431 -0.39257737471180959 0 0.23167783066997891 -0.39324009660807691 0 0.227573924272679 -0.38046950699598492 0 0.23167783066997891 -0.39324009660807691 0 0.24189804913215951 -0.38644820318626322 0 0.227573924272679 -0.38046950699598492 0 0.22138883410814431 -0.39257737471180959 0 0.227573924272679 -0.38046950699598492 0 0.2134689833107786 -0.38461784172670338 0 0.21374372850296319 -0.36751946088175869 0 0.227573924272679 -0.38046950699598492 0 0.2134689833107786 -0.38461784172670338 0 0.21374372850296319 -0.36751946088175869 0 0.2134689833107786 -0.38461784172670338 0 0.20204223939295729 -0.38049764053701662 0 0.2134689833107786 -0.38461784172670338 0 0.20303687195003611 -0.39308098173966521 0 0.20204223939295729 -0.38049764053701662 0 0.20294732582755179 -0.40908409339938062 0 0.21277486735505949 -0.40031853854498062 0 0.20303687195003611 -0.39308098173966521 0 0.22138883410814431 -0.39257737471180959 0 0.2134689833107786 -0.38461784172670338 0 0.21277486735505949 -0.40031853854498062 0 0.2134689833107786 -0.38461784172670338 0 0.21277486735505949 -0.40031853854498062 0 0.20303687195003611 -0.39308098173966521 0 0.20294732582755179 -0.40908409339938062 0 0.18634993234381861 -0.39260641796563323 0 0.18140284773881871 -0.41164260149568421 0 0.20294732582755179 -0.40908409339938062 0 0.18634993234381861 -0.39260641796563323 0 0.20294732582755179 -0.40908409339938062 0 0.20303687195003611 -0.39308098173966521 0 0.18634993234381861 -0.39260641796563323 0 0.19361168085718991 -0.36466350037132261 0 0.20204223939295729 -0.38049764053701662 0 0.18634993234381861 -0.39260641796563323 0 0.20303687195003611 -0.39308098173966521 0 0.20204223939295729 -0.38049764053701662 0 0.18634993234381861 -0.39260641796563323 0 0.19361168085718991 -0.36466350037132261 0 0.18634993234381861 -0.39260641796563323 0 0.19361168085718991 -0.36466350037132261 0 0.18634993234381861 -0.39260641796563323 0 0.17049377456838291 -0.37686463166009099 0 0.18634993234381861 -0.39260641796563323 0 0.16716431517526981 -0.39249838037769003 0 0.17049377456838291 -0.37686463166009099 0 0.18634993234381861 -0.39260641796563323 0 0.17049377456838291 -0.37686463166009099 0 0.18634993234381861 -0.39260641796563323 0 0.18140284773881871 -0.41164260149568421 0 0.18634993234381861 -0.39260641796563323 0 0.16716431517526981 -0.39249838037769003 0 0.18140284773881871 -0.41164260149568421 0 0.16716431517526981 -0.39249838037769003 0 0.1519796258298404 -0.40649539805604529 0 0.18140284773881871 -0.41164260149568421 0 0.16716431517526981 -0.39249838037769003 0 0.15305676001047561 -0.38810845541559558 0 0.1519796258298404 -0.40649539805604529 0 0.16716431517526981 -0.39249838037769003 0 0.16121218598630979 -0.38179824505713073 0 0.15305676001047561 -0.38810845541559558 0 0.16716431517526981 -0.39249838037769003 0 0.17049377456838291 -0.37686463166009099 0 0.16121218598630979 -0.38179824505713073 0 0.15413229712703261 -0.36972141921677998 0 0.17049377456838291 -0.37686463166009099 0 0.16121218598630979 -0.38179824505713073 0 0.15413229712703261 -0.36972141921677998 0 0.15305676001047561 -0.38810845541559558 0 0.1416549905892609 -0.3770066299824667 0 0.15413229712703261 -0.36972141921677998 0 0.16121218598630979 -0.38179824505713073 0 0.15305676001047561 -0.38810845541559558 0 0.15305676001047561 -0.38810845541559558 0 0.1416549905892609 -0.3770066299824667 0 0.13445006248531879 -0.38819738382057911 0 0.15413229712703261 -0.36972141921677998 0 0.15305676001047561 -0.38810845541559558 0 0.1416549905892609 -0.3770066299824667 0 0.13445006248531879 -0.38819738382057911 0 0.1240614338456624 -0.37194020949616052 0 0.13445006248531879 -0.38819738382057911 0 0.12633245043332411 -0.40200876400127378 0 0.15017061324618319 -0.40617893523556481 0 0.13445006248531879 -0.38819738382057911 0 0.12633245043332411 -0.40200876400127378 0 0.1142794042482875 -0.385064390666364 0 0.12633245043332411 -0.40200876400127378 0 0.15017061324618319 -0.40617893523556481 0 0.15305676001047561 -0.38810845541559558 0 0.1519796258298404 -0.40649539805604529 0 0.15305676001047561 -0.38810845541559558 0 0.13445006248531879 -0.38819738382057911 0 0.15017061324618319 -0.40617893523556481 0 0.15305676001047561 -0.38810845541559558 0 0.15017061324618319 -0.40617893523556481 0 0.1519796258298404 -0.40649539805604529 0 0.15305676001047561 -0.38810845541559558 0 0.15017061324618319 -0.40617893523556481 0 0.1519796258298404 -0.40649539805604529 0 0.15056300821491761 -0.43067740555085959 0 0.1573917659000586 -0.4196552577956445 0 0.15017061324618319 -0.40617893523556481 0 0.14378540410595711 -0.41806944684715291 0 0.14733951792721059 -0.43223217573806699 0 0.15017061324618319 -0.40617893523556481 0 0.1519796258298404 -0.40649539805604529 0 0.15056300821491761 -0.43067740555085959 0 0.15017061324618319 -0.40617893523556481 0 0.14733951792721059 -0.43223217573806699 0 0.1519796258298404 -0.40649539805604529 0 0.15056300821491761 -0.43067740555085959 0 0.15017061324618319 -0.40617893523556481 0 0.1519796258298404 -0.40649539805604529 0 0.12633245043332411 -0.40200876400127378 0 0.15017061324618319 -0.40617893523556481 0 0.14378540410595711 -0.41806944684715291 0 0.12633245043332411 -0.40200876400127378 0 0.14378540410595711 -0.41806944684715291 0 0.13075679836288739 -0.42083843834367368 0 0.13075679836288739 -0.42083843834367368 0 0.1307916906839037 -0.43302805660599952 0 0.11908545041115649 -0.42814124882652799 0 0.13075679836288739 -0.42083843834367368 0 0.1307916906839037 -0.43302805660599952 0 0.13865991143110731 -0.4277477526299388 0 0.14378540410595711 -0.41806944684715291 0 0.13075679836288739 -0.42083843834367368 0 0.13865991143110731 -0.4277477526299388 0 0.1307916906839037 -0.43302805660599952 0 0.13865991143110731 -0.4277477526299388 0 0.13931159332373699 -0.43763974777888082 0 0.13865991143110731 -0.4277477526299388 0 0.14311309651446749 -0.43437845892511628 0 0.13931159332373699 -0.43763974777888082 0 0.14311309651446749 -0.43437845892511628 0 0.14412569696214131 -0.43861578499750009 0 0.13931159332373699 -0.43763974777888082 0 0.15017061324618319 -0.40617893523556481 0 0.14733951792721059 -0.43223217573806699 0 0.15056300821491761 -0.43067740555085959 0 0.13865991143110731 -0.4277477526299388 0 0.14311309651446749 -0.43437845892511628 0 0.14304312697572699 -0.42990593963007112 0 0.14311309651446749 -0.43437845892511628 0 0.14304312697572699 -0.42990593963007112 0 0.14733951792721059 -0.43223217573806699 0 0.14311309651446749 -0.43437845892511628 0 0.14733951792721059 -0.43223217573806699 0 0.14412569696214131 -0.43861578499750009 0 0.14378540410595711 -0.41806944684715291 0 0.14304312697572699 -0.42990593963007112 0 0.14733951792721059 -0.43223217573806699 0 0.14378540410595711 -0.41806944684715291 0 0.13865991143110731 -0.4277477526299388 0 0.14304312697572699 -0.42990593963007112 0 0.15056300821491761 -0.43067740555085959 0 0.1582081900808229 -0.42884516016255148 0 0.1573917659000586 -0.4196552577956445 0 0.15056300821491761 -0.43067740555085959 0 0.1554014456506011 -0.43768038693307898 0 0.15419501571203911 -0.44309167928524168 0 0.15056300821491761 -0.43067740555085959 0 0.15538326954749959 -0.43369054688032482 0 0.1582081900808229 -0.42884516016255148 0 0.15056300821491761 -0.43067740555085959 0 0.15538326954749959 -0.43369054688032482 0 0.1554014456506011 -0.43768038693307898 0 0.15538326954749959 -0.43369054688032482 0 0.158999600402601 -0.43588190317046888 0 0.1554014456506011 -0.43768038693307898 0 0.158999600402601 -0.43588190317046888 0 0.16694505296178791 -0.4321168048127178 0 0.1582081900808229 -0.42884516016255148 0 0.158999600402601 -0.43588190317046888 0 0.16694505296178791 -0.4321168048127178 0 0.1653820023977863 -0.4397218712161276 0 0.15538326954749959 -0.43369054688032482 0 0.158999600402601 -0.43588190317046888 0 0.1582081900808229 -0.42884516016255148 0 0.16694505296178791 -0.4321168048127178 0 0.1582081900808229 -0.42884516016255148 0 0.16839049834616851 -0.42050565764566677 0 0.16694505296178791 -0.4321168048127178 0 0.16839049834616851 -0.42050565764566677 0 0.17749146629906609 -0.42669344070467857 0 0.1582081900808229 -0.42884516016255148 0 0.1573917659000586 -0.4196552577956445 0 0.16839049834616851 -0.42050565764566677 0 0.1519796258298404 -0.40649539805604529 0 0.1573917659000586 -0.4196552577956445 0 0.16839049834616851 -0.42050565764566677 0 0.1519796258298404 -0.40649539805604529 0 0.18140284773881871 -0.41164260149568421 0 0.1519796258298404 -0.40649539805604529 0 0.16839049834616851 -0.42050565764566677 0 0.18140284773881871 -0.41164260149568421 0 0.16839049834616851 -0.42050565764566677 0 0.18140284773881871 -0.41164260149568421 0 0.17749146629906609 -0.42669344070467857 0 0.18140284773881871 -0.41164260149568421 0 0.17749146629906609 -0.42669344070467857 0 0.18991391803794269 -0.42608536489372129 0 0.18140284773881871 -0.41164260149568421 0 0.17749146629906609 -0.42669344070467857 0 0.18991391803794269 -0.42608536489372129 0 0.18533186197219251 -0.43746643204319979 0 0.17749146629906609 -0.42669344070467857 0 0.17749146629906609 -0.42669344070467857 0 0.17358008485931409 -0.44174427991367299 0 0.16694505296178791 -0.4321168048127178 0 0.17749146629906609 -0.42669344070467857 0 0.17358008485931409 -0.44174427991367299 0 0.18533186197219251 -0.43746643204319979 0 0.17749146629906609 -0.42669344070467857 0 0.17358008485931409 -0.44174427991367299 0 0.17358008485931409 -0.44174427991367299 0 0.18574060049128421 -0.45399683162024917 0 0.16670236282121581 -0.44965488509530421 0 0.18533186197219251 -0.43746643204319979 0 0.17358008485931409 -0.44174427991367299 0 0.18574060049128421 -0.45399683162024917 0 0.18574060049128421 -0.45399683162024917 0 0.16900183147797521 -0.46533962526434958 0 0.16670236282121581 -0.44965488509530421 0 0.19349524034772159 -0.47239383428813081 0 0.18574060049128421 -0.45399683162024917 0 0.16900183147797521 -0.46533962526434958 0 0.16900183147797521 -0.46533962526434958 0 0.1569751416728393 -0.4553338494547533 0 0.16670236282121581 -0.44965488509530421 0 0.16900183147797521 -0.46533962526434958 0 0.14450842260822891 -0.45828541624056812 0 0.16900183147797521 -0.46533962526434958 0 0.1569751416728393 -0.4553338494547533 0 0.14450842260822891 -0.45828541624056812 0 0.1569751416728393 -0.4553338494547533 0 0.15697001797289051 -0.44922113485475212 0 0.16670236282121581 -0.44965488509530421 0 0.15697001797289051 -0.44922113485475212 0 0.16670236282121581 -0.44965488509530421 0 0.15889421612179161 -0.44302005604184341 0 0.17358008485931409 -0.44174427991367299 0 0.16670236282121581 -0.44965488509530421 0 0.1653820023977863 -0.4397218712161276 0 0.16694505296178791 -0.4321168048127178 0 0.17358008485931409 -0.44174427991367299 0 0.1653820023977863 -0.4397218712161276 0 0.158999600402601 -0.43588190317046888 0 0.1653820023977863 -0.4397218712161276 0 0.15889421612179161 -0.44302005604184341 0 0.16670236282121581 -0.44965488509530421 0 0.1653820023977863 -0.4397218712161276 0 0.15889421612179161 -0.44302005604184341 0 0.15697001797289051 -0.44922113485475212 0 0.15889421612179161 -0.44302005604184341 0 0.15419501571203911 -0.44309167928524168 0 0.158999600402601 -0.43588190317046888 0 0.15889421612179161 -0.44302005604184341 0 0.1554014456506011 -0.43768038693307898 0 0.15889421612179161 -0.44302005604184341 0 0.1554014456506011 -0.43768038693307898 0 0.15419501571203911 -0.44309167928524168 0 0.14733951792721059 -0.43223217573806699 0 0.14592849538731861 -0.44521715343902241 0 0.14914639059999471 -0.45485941304567379 0 0.15056300821491761 -0.43067740555085959 0 0.15419501571203911 -0.44309167928524168 0 0.14914639059999471 -0.45485941304567379 0 0.14733951792721059 -0.43223217573806699 0 0.15056300821491761 -0.43067740555085959 0 0.14914639059999471 -0.45485941304567379 0 0.15056300821491761 -0.43067740555085959 0 0.14914639059999471 -0.45485941304567379 0 0.15697001797289051 -0.44922113485475212 0 0.15419501571203911 -0.44309167928524168 0 0.14914639059999471 -0.45485941304567379 0 0.14592849538731861 -0.44521715343902241 0 0.14450842260822891 -0.45828541624056812 0 0.14914639059999471 -0.45485941304567379 0 0.14592849538731861 -0.44521715343902241 0 0.14450842260822891 -0.45828541624056812 0 0.1445862521973777 -0.45169311597546058 0 0.14592849538731861 -0.44521715343902241 0 0.14450842260822891 -0.45828541624056812 0 0.1445862521973777 -0.45169311597546058 0 0.1432596737356458 -0.44829692634805213 0 0.14592849538731861 -0.44521715343902241 0 0.1432596737356458 -0.44829692634805213 0 0.14592849538731861 -0.44521715343902241 0 0.14230024186937459 -0.44519977754075007 0 0.1432596737356458 -0.44829692634805213 0 0.14230024186937459 -0.44519977754075007 0 0.14026103118920041 -0.44717086800711131 0 0.1432596737356458 -0.44829692634805213 0 0.1417870512249933 -0.45032914159453302 0 0.14026103118920041 -0.44717086800711131 0 0.1417870512249933 -0.45032914159453302 0 0.1378214081247438 -0.45104261688270308 0 0.14243714731742421 -0.45314234777256679 0 0.1445862521973777 -0.45169311597546058 0 0.1432596737356458 -0.44829692634805213 0 0.1417870512249933 -0.45032914159453302 0 0.1445862521973777 -0.45169311597546058 0 0.1417870512249933 -0.45032914159453302 0 0.14243714731742421 -0.45314234777256679 0 0.14733951792721059 -0.43223217573806699 0 0.14592849538731861 -0.44521715343902241 0 0.14733951792721059 -0.43223217573806699 0 0.14592849538731861 -0.44521715343902241 0 0.14412569696214131 -0.43861578499750009 0 0.14592849538731861 -0.44521715343902241 0 0.14272110813160321 -0.44219866902525012 0 0.14412569696214131 -0.43861578499750009 0 0.14230024186937459 -0.44519977754075007 0 0.14018250516949279 -0.44320781111369439 0 0.14026103118920041 -0.44717086800711131 0 0.14592849538731861 -0.44521715343902241 0 0.14272110813160321 -0.44219866902525012 0 0.14230024186937459 -0.44519977754075007 0 0.14272110813160321 -0.44219866902525012 0 0.14230024186937459 -0.44519977754075007 0 0.14018250516949279 -0.44320781111369439 0 0.14272110813160321 -0.44219866902525012 0 0.14412569696214131 -0.43861578499750009 0 0.13931159332373699 -0.43763974777888082 0 0.14272110813160321 -0.44219866902525012 0 0.13931159332373699 -0.43763974777888082 0 0.14018250516949279 -0.44320781111369439 0 0.1307916906839037 -0.43302805660599952 0 0.13931159332373699 -0.43763974777888082 0 0.13428440599745581 -0.44354826792874602 0 0.13931159332373699 -0.43763974777888082 0 0.13428440599745581 -0.44354826792874602 0 0.14018250516949279 -0.44320781111369439 0 0.13428440599745581 -0.44354826792874602 0 0.14018250516949279 -0.44320781111369439 0 0.14026103118920041 -0.44717086800711131 0 0.1378214081247438 -0.45104261688270308 0 0.1291094907257139 -0.45077389279619351 0 0.1354228208180987 -0.45552704079612533 0 0.13428440599745581 -0.44354826792874602 0 0.14026103118920041 -0.44717086800711131 0 0.1378214081247438 -0.45104261688270308 0 0.13428440599745581 -0.44354826792874602 0 0.1378214081247438 -0.45104261688270308 0 0.1291094907257139 -0.45077389279619351 0 0.1378214081247438 -0.45104261688270308 0 0.14076253737432301 -0.45483609759156779 0 0.14243714731742421 -0.45314234777256679 0 0.1417870512249933 -0.45032914159453302 0 0.14026103118920041 -0.44717086800711131 0 0.1378214081247438 -0.45104261688270308 0 0.1307916906839037 -0.43302805660599952 0 0.13428440599745581 -0.44354826792874602 0 0.12264244298150601 -0.44010220238610748 0 0.13428440599745581 -0.44354826792874602 0 0.1291094907257139 -0.45077389279619351 0 0.12264244298150601 -0.44010220238610748 0 0.12862723201416651 -0.46112107162065102 0 0.13375472260828131 -0.46696634759844352 0 0.12923593963923441 -0.47347319412060462 0 0.1291094907257139 -0.45077389279619351 0 0.12862723201416651 -0.46112107162065102 0 0.1354228208180987 -0.45552704079612533 0 0.12862723201416651 -0.46112107162065102 0 0.13640150729247619 -0.46045553513073512 0 0.1354228208180987 -0.45552704079612533 0 0.1354228208180987 -0.45552704079612533 0 0.1395826486283655 -0.45800957085022131 0 0.14076253737432301 -0.45483609759156779 0 0.1378214081247438 -0.45104261688270308 0 0.1354228208180987 -0.45552704079612533 0 0.14076253737432301 -0.45483609759156779 0 0.13640150729247619 -0.46045553513073512 0 0.1354228208180987 -0.45552704079612533 0 0.1395826486283655 -0.45800957085022131 0 0.13640150729247619 -0.46045553513073512 0 0.1395826486283655 -0.45800957085022131 0 0.140001965294315 -0.46109701161400102 0 0.13640150729247619 -0.46045553513073512 0 0.140001965294315 -0.46109701161400102 0 0.13860951234206939 -0.46487913842024331 0 0.140001965294315 -0.46109701161400102 0 0.13860951234206939 -0.46487913842024331 0 0.14257437032293299 -0.46360440948183501 0 0.13640150729247619 -0.46045553513073512 0 0.13375472260828131 -0.46696634759844352 0 0.13860951234206939 -0.46487913842024331 0 0.12862723201416651 -0.46112107162065102 0 0.13640150729247619 -0.46045553513073512 0 0.13375472260828131 -0.46696634759844352 0 0.13375472260828131 -0.46696634759844352 0 0.13860951234206939 -0.46487913842024331 0 0.14080382316854351 -0.46981657196628751 0 0.13860951234206939 -0.46487913842024331 0 0.14257437032293299 -0.46360440948183501 0 0.14080382316854351 -0.46981657196628751 0 0.1478602023122213 -0.46663635834385853 0 0.14450842260822891 -0.45828541624056812 0 0.14435058835421899 -0.4597378907481246 0 0.14257437032293299 -0.46360440948183501 0 0.1478602023122213 -0.46663635834385853 0 0.14080382316854351 -0.46981657196628751 0 0.16900183147797521 -0.46533962526434958 0 0.14450842260822891 -0.45828541624056812 0 0.15516123007073049 -0.46920564598308512 0 0.140001965294315 -0.46109701161400102 0 0.14257437032293299 -0.46360440948183501 0 0.1425089985272481 -0.45925536394492222 0 0.14257437032293299 -0.46360440948183501 0 0.1478602023122213 -0.46663635834385853 0 0.14435058835421899 -0.4597378907481246 0 0.1445862521973777 -0.45169311597546058 0 0.14389308305414639 -0.45503747073667078 0 0.14450842260822891 -0.45828541624056812 0 0.1445862521973777 -0.45169311597546058 0 0.14389308305414639 -0.45503747073667078 0 0.14243714731742421 -0.45314234777256679 0 0.14389308305414639 -0.45503747073667078 0 0.14076253737432301 -0.45483609759156779 0 0.14243714731742421 -0.45314234777256679 0 0.14389308305414639 -0.45503747073667078 0 0.14076253737432301 -0.45483609759156779 0 0.14238444919721549 -0.45706682249165448 0 0.1395826486283655 -0.45800957085022131 0 0.14076253737432301 -0.45483609759156779 0 0.14238444919721549 -0.45706682249165448 0 0.14389308305414639 -0.45503747073667078 0 0.14383428963840239 -0.45660872682113768 0 0.14238444919721549 -0.45706682249165448 0 0.14389308305414639 -0.45503747073667078 0 0.14383428963840239 -0.45660872682113768 0 0.14450842260822891 -0.45828541624056812 0 0.14257437032293299 -0.46360440948183501 0 0.1425089985272481 -0.45925536394492222 0 0.14435058835421899 -0.4597378907481246 0 0.14383428963840239 -0.45660872682113768 0 0.14450842260822891 -0.45828541624056812 0 0.14238444919721549 -0.45706682249165448 0 0.14450842260822891 -0.45828541624056812 0 0.14238444919721549 -0.45706682249165448 0 0.1425089985272481 -0.45925536394492222 0 0.1395826486283655 -0.45800957085022131 0 0.14238444919721549 -0.45706682249165448 0 0.1425089985272481 -0.45925536394492222 0 0.1395826486283655 -0.45800957085022131 0 0.140001965294315 -0.46109701161400102 0 0.1425089985272481 -0.45925536394492222 0 0.14450842260822891 -0.45828541624056812 0 0.1425089985272481 -0.45925536394492222 0 0.14435058835421899 -0.4597378907481246 0 0.14450842260822891 -0.45828541624056812 0 0.14435058835421899 -0.4597378907481246 0 0.1569751416728393 -0.4553338494547533 0 0.14450842260822891 -0.45828541624056812 0 0.14914639059999471 -0.45485941304567379 0 0.1569751416728393 -0.4553338494547533 0 0.15697001797289051 -0.44922113485475212 0 0.14914639059999471 -0.45485941304567379 0 0.1478602023122213 -0.46663635834385853 0 0.14450842260822891 -0.45828541624056812 0 0.15516123007073049 -0.46920564598308512 0 0.15516123007073049 -0.46920564598308512 0 0.14437332914122189 -0.47948864208060582 0 0.1625576156498203 -0.48298346632507932 0 0.1478602023122213 -0.46663635834385853 0 0.15516123007073049 -0.46920564598308512 0 0.14437332914122189 -0.47948864208060582 0 0.1478602023122213 -0.46663635834385853 0 0.14437332914122189 -0.47948864208060582 0 0.14080382316854351 -0.46981657196628751 0 0.13375472260828131 -0.46696634759844352 0 0.14080382316854351 -0.46981657196628751 0 0.12923593963923441 -0.47347319412060462 0 0.14437332914122189 -0.47948864208060582 0 0.14080382316854351 -0.46981657196628751 0 0.12923593963923441 -0.47347319412060462 0 0.14437332914122189 -0.47948864208060582 0 0.12923593963923441 -0.47347319412060462 0 0.13091811481241089 -0.4868238427256712 0 0.13091811481241089 -0.4868238427256712 0 0.14892155184028291 -0.5 0 0.1221482131424175 -0.49999999999999861 0 0.14437332914122189 -0.47948864208060582 0 0.14892155184028291 -0.5 0 0.1625576156498203 -0.48298346632507932 0 0.14437332914122189 -0.47948864208060582 0 0.13091811481241089 -0.4868238427256712 0 0.14892155184028291 -0.5 0 0.14892155184028291 -0.5 0 0.1625576156498203 -0.48298346632507932 0 0.1756948905381481 -0.5 0 0.16900183147797521 -0.46533962526434958 0 0.15516123007073049 -0.46920564598308512 0 0.1625576156498203 -0.48298346632507932 0 0.16900183147797521 -0.46533962526434958 0 0.1625576156498203 -0.48298346632507932 0 0.1821928608305631 -0.48386688462243571 0 0.19349524034772159 -0.47239383428813081 0 0.16900183147797521 -0.46533962526434958 0 0.19349524034772159 -0.47239383428813081 0 0.16900183147797521 -0.46533962526434958 0 0.1821928608305631 -0.48386688462243571 0 0.1625576156498203 -0.48298346632507932 0 0.1821928608305631 -0.48386688462243571 0 0.1756948905381481 -0.5 0 0.20246822923601351 -0.5 0 0.1821928608305631 -0.48386688462243571 0 0.1756948905381481 -0.5 0 0.070497214854466916 -0.5 0 0.075175961192974108 -0.4829669329906886 0 0.059052513578249768 -0.48415459239490799 0 0.070497214854466916 -0.5 0 0.075175961192974108 -0.4829669329906886 0 0.087923458301642277 -0.48744414093662841 0 0.06833921180433046 -0.47112136683426759 0 0.059052513578249768 -0.48415459239490799 0 0.06833921180433046 -0.47112136683426759 0 0.075175961192974108 -0.4829669329906886 0 0.087709861163430436 -0.47309639426530781 0 0.06833921180433046 -0.47112136683426759 0 0.075175961192974108 -0.4829669329906886 0 0.059052513578249768 -0.48415459239490799 0 0.06833921180433046 -0.47112136683426759 0 0.087709861163430436 -0.47309639426530781 0 0.082558476327306535 -0.46471530944265799 0 0.075175961192974108 -0.4829669329906886 0 0.087709861163430436 -0.47309639426530781 0 0.087923458301642277 -0.48744414093662841 0 0.070497214854466916 -0.5 0 0.087923458301642277 -0.48744414093662841 0 0.096322713998442278 -0.5 0 0.087923458301642277 -0.48744414093662841 0 0.096322713998442278 -0.5 0 0.1099115402988976 -0.48115737742714593 0 0.096322713998442278 -0.5 0 0.1221482131424175 -0.49999999999999861 0 0.1099115402988976 -0.48115737742714593 0 0.1221482131424175 -0.49999999999999861 0 0.1099115402988976 -0.48115737742714593 0 0.13091811481241089 -0.4868238427256712 0 0.1221482131424175 -0.49999999999999861 0 0.1099115402988976 -0.48115737742714593 0 0.12923593963923441 -0.47347319412060462 0 0.1099115402988976 -0.48115737742714593 0 0.1169040238681895 -0.46682596607294652 0 0.12923593963923441 -0.47347319412060462 0 0.13091811481241089 -0.4868238427256712 0 0.1099115402988976 -0.48115737742714593 0 0.1099115402988976 -0.48115737742714593 0 0.097674867455377096 -0.46231475485429369 0 0.1169040238681895 -0.46682596607294652 0 0.1099115402988976 -0.48115737742714593 0 0.097674867455377096 -0.46231475485429369 0 0.087709861163430436 -0.47309639426530781 0 0.1099115402988976 -0.48115737742714593 0 0.097674867455377096 -0.46231475485429369 0 0.087709861163430436 -0.47309639426530781 0 0.087923458301642277 -0.48744414093662841 0 0.1099115402988976 -0.48115737742714593 0 0.097674867455377096 -0.46231475485429369 0 0.1158354795562235 -0.45333192188838439 0 0.095343160784426451 -0.45101193727388761 0 0.097674867455377096 -0.46231475485429369 0 0.095343160784426451 -0.45101193727388761 0 0.089219038721278579 -0.46151923395839739 0 0.097674867455377096 -0.46231475485429369 0 0.1169040238681895 -0.46682596607294652 0 0.1158354795562235 -0.45333192188838439 0 0.12862723201416651 -0.46112107162065102 0 0.1169040238681895 -0.46682596607294652 0 0.1158354795562235 -0.45333192188838439 0 0.1291094907257139 -0.45077389279619351 0 0.12862723201416651 -0.46112107162065102 0 0.1158354795562235 -0.45333192188838439 0 0.12862723201416651 -0.46112107162065102 0 0.12923593963923441 -0.47347319412060462 0 0.1169040238681895 -0.46682596607294652 0 0.1158354795562235 -0.45333192188838439 0 0.12264244298150601 -0.44010220238610748 0 0.11145713139585831 -0.43506809958531162 0 0.1291094907257139 -0.45077389279619351 0 0.1158354795562235 -0.45333192188838439 0 0.12264244298150601 -0.44010220238610748 0 0.1158354795562235 -0.45333192188838439 0 0.094576881488232428 -0.43429864913084198 0 0.1158354795562235 -0.45333192188838439 0 0.094576881488232428 -0.43429864913084198 0 0.11145713139585831 -0.43506809958531162 0 0.1158354795562235 -0.45333192188838439 0 0.095343160784426451 -0.45101193727388761 0 0.094576881488232428 -0.43429864913084198 0 0.077625910030409584 -0.45808814127362613 0 0.094576881488232428 -0.43429864913084198 0 0.080051520573090187 -0.44188261542645391 0 0.077625910030409584 -0.45808814127362613 0 0.094576881488232428 -0.43429864913084198 0 0.08280882787585242 -0.45645777395583981 0 0.077625910030409584 -0.45808814127362613 0 0.094576881488232428 -0.43429864913084198 0 0.095343160784426451 -0.45101193727388761 0 0.08280882787585242 -0.45645777395583981 0 0.094576881488232428 -0.43429864913084198 0 0.095343160784426451 -0.45101193727388761 0 0.089219038721278579 -0.46151923395839739 0 0.08280882787585242 -0.45645777395583981 0 0.087709861163430436 -0.47309639426530781 0 0.097674867455377096 -0.46231475485429369 0 0.089219038721278579 -0.46151923395839739 0 0.087709861163430436 -0.47309639426530781 0 0.089219038721278579 -0.46151923395839739 0 0.082558476327306535 -0.46471530944265799 0 0.082558476327306535 -0.46471530944265799 0 0.08280882787585242 -0.45645777395583981 0 0.077625910030409584 -0.45808814127362613 0 0.089219038721278579 -0.46151923395839739 0 0.082558476327306535 -0.46471530944265799 0 0.08280882787585242 -0.45645777395583981 0 0.08280882787585242 -0.45645777395583981 0 0.077625910030409584 -0.45808814127362613 0 0.077625910030409584 -0.45808814127362613 0 0.060851720230301373 -0.46336472323921751 0 0.06833921180433046 -0.47112136683426759 0 0.077625910030409584 -0.45808814127362613 0 0.060851720230301373 -0.46336472323921751 0 0.077625910030409584 -0.45808814127362613 0 0.067271612203057482 -0.45390157704404333 0 0.060851720230301373 -0.46336472323921751 0 0.077625910030409584 -0.45808814127362613 0 0.067271612203057482 -0.45390157704404333 0 0.072166286971328888 -0.44926053450321318 0 0.06833921180433046 -0.47112136683426759 0 0.077625910030409584 -0.45808814127362613 0 0.06833921180433046 -0.47112136683426759 0 0.082558476327306535 -0.46471530944265799 0 0.077625910030409584 -0.45808814127362613 0 0.067271612203057482 -0.45390157704404333 0 0.060459971928924848 -0.45375260900138797 0 0.060851720230301373 -0.46336472323921751 0 0.080051520573090187 -0.44188261542645391 0 0.063716105078758287 -0.44316980426872993 0 0.072166286971328888 -0.44926053450321318 0 0.067271612203057482 -0.45390157704404333 0 0.063716105078758287 -0.44316980426872993 0 0.060459971928924848 -0.45375260900138797 0 0.080051520573090187 -0.44188261542645391 0 0.077625910030409584 -0.45808814127362613 0 0.072166286971328888 -0.44926053450321318 0 0.080051520573090187 -0.44188261542645391 0 0.063716105078758287 -0.44316980426872993 0 0.071036985036272413 -0.43177931448789281 0 0.067271612203057482 -0.45390157704404333 0 0.063716105078758287 -0.44316980426872993 0 0.072166286971328888 -0.44926053450321318 0 0.063716105078758287 -0.44316980426872993 0 0.071036985036272413 -0.43177931448789281 0 0.054390818821292868 -0.4355912502071223 0 0.071036985036272413 -0.43177931448789281 0 0.073922142761436382 -0.41580602442127518 0 0.060735723662262243 -0.42299167800792831 0 0.073922142761436382 -0.41580602442127518 0 0.056040759424869427 -0.41188534234209823 0 0.060735723662262243 -0.42299167800792831 0 0.073922142761436382 -0.41580602442127518 0 0.053267404034640371 -0.39731339971170843 0 0.073922142761436382 -0.41580602442127518 0 0.09095896784398258 -0.41221563270929712 0 0.078656124807606143 -0.39366842153269049 0 0.073922142761436382 -0.41580602442127518 0 0.09095896784398258 -0.41221563270929712 0 0.094576881488232428 -0.43429864913084198 0 0.080051520573090187 -0.44188261542645391 0 0.071036985036272413 -0.43177931448789281 0 0.094576881488232428 -0.43429864913084198 0 0.073922142761436382 -0.41580602442127518 0 0.094576881488232428 -0.43429864913084198 0 0.071036985036272413 -0.43177931448789281 0 0.073922142761436382 -0.41580602442127518 0 0.094576881488232428 -0.43429864913084198 0 0.09095896784398258 -0.41221563270929712 0 0.094576881488232428 -0.43429864913084198 0 0.10514540254217281 -0.4194664756946957 0 0.094576881488232428 -0.43429864913084198 0 0.11145713139585831 -0.43506809958531162 0 0.10514540254217281 -0.4194664756946957 0 0.094576881488232428 -0.43429864913084198 0 0.10514540254217281 -0.4194664756946957 0 0.11145713139585831 -0.43506809958531162 0 0.11908545041115649 -0.42814124882652799 0 0.10514540254217281 -0.4194664756946957 0 0.12264244298150601 -0.44010220238610748 0 0.11145713139585831 -0.43506809958531162 0 0.11908545041115649 -0.42814124882652799 0 0.1307916906839037 -0.43302805660599952 0 0.12264244298150601 -0.44010220238610748 0 0.11908545041115649 -0.42814124882652799 0 0.12633245043332411 -0.40200876400127378 0 0.13075679836288739 -0.42083843834367368 0 0.11676287787400121 -0.41365870392663062 0 0.13075679836288739 -0.42083843834367368 0 0.11908545041115649 -0.42814124882652799 0 0.11676287787400121 -0.41365870392663062 0 0.11908545041115649 -0.42814124882652799 0 0.11676287787400121 -0.41365870392663062 0 0.10514540254217281 -0.4194664756946957 0 0.09095896784398258 -0.41221563270929712 0 0.10514540254217281 -0.4194664756946957 0 0.1024942876204651 -0.39783859276698208 0 0.11676287787400121 -0.41365870392663062 0 0.10514540254217281 -0.4194664756946957 0 0.1024942876204651 -0.39783859276698208 0 0.12633245043332411 -0.40200876400127378 0 0.1024942876204651 -0.39783859276698208 0 0.1142794042482875 -0.385064390666364 0 0.12633245043332411 -0.40200876400127378 0 0.11676287787400121 -0.41365870392663062 0 0.1024942876204651 -0.39783859276698208 0 0.12633245043332411 -0.40200876400127378 0 0.1024942876204651 -0.39783859276698208 0 0.1142794042482875 -0.385064390666364 0 0.1240614338456624 -0.37194020949616052 0 0.1010625482549421 -0.37375009137591142 0 0.13445006248531879 -0.38819738382057911 0 0.1142794042482875 -0.385064390666364 0 0.1240614338456624 -0.37194020949616052 0 0.1024942876204651 -0.39783859276698208 0 0.1142794042482875 -0.385064390666364 0 0.1010625482549421 -0.37375009137591142 0 0.1024942876204651 -0.39783859276698208 0 0.078656124807606143 -0.39366842153269049 0 0.1010625482549421 -0.37375009137591142 0 0.078656124807606143 -0.39366842153269049 0 0.1010625482549421 -0.37375009137591142 0 0.084113257283456436 -0.36663025146129802 0 0.09095896784398258 -0.41221563270929712 0 0.1024942876204651 -0.39783859276698208 0 0.078656124807606143 -0.39366842153269049 0 0.1024942876204651 -0.39783859276698208 0 0.078656124807606143 -0.39366842153269049 0 0.078656124807606143 -0.39366842153269049 0 0.065165908399607481 -0.39907152399101831 0 0.054817961994747068 -0.38949825029839902 0 0.073922142761436382 -0.41580602442127518 0 0.078656124807606143 -0.39366842153269049 0 0.065165908399607481 -0.39907152399101831 0 0.078656124807606143 -0.39366842153269049 0 0.054817961994747068 -0.38949825029839902 0 0.073922142761436382 -0.41580602442127518 0 0.065165908399607481 -0.39907152399101831 0 0.053267404034640371 -0.39731339971170843 0 0.078656124807606143 -0.39366842153269049 0 0.084113257283456436 -0.36663025146129802 0 0.068136500090328261 -0.36870028083988621 0 0.078656124807606143 -0.39366842153269049 0 0.054817961994747068 -0.38949825029839902 0 0.068136500090328261 -0.36870028083988621 0 0.054817961994747068 -0.38949825029839902 0 0.0430823884606591 -0.37564809549167338 0 0.05190150139418466 -0.36290454825085428 0 0.065165908399607481 -0.39907152399101831 0 0.054817961994747068 -0.38949825029839902 0 0.053267404034640371 -0.39731339971170843 0 0.053267404034640371 -0.39731339971170843 0 0.046920472803650783 -0.40679253823424733 0 0.056040759424869427 -0.41188534234209823 0 0.053267404034640371 -0.39731339971170843 0 0.041816782243088907 -0.39930371256898001 0 0.046920472803650783 -0.40679253823424733 0 0.054817961994747068 -0.38949825029839902 0 0.053267404034640371 -0.39731339971170843 0 0.041816782243088907 -0.39930371256898001 0 0.041816782243088907 -0.39930371256898001 0 0.030979799181887559 -0.38532807906411037 0 0.026795690990309231 -0.40795284289229972 0 0.054817961994747068 -0.38949825029839902 0 0.041816782243088907 -0.39930371256898001 0 0.030979799181887559 -0.38532807906411037 0 0.041816782243088907 -0.39930371256898001 0 0.037907072548050133 -0.4097223587620345 0 0.046920472803650783 -0.40679253823424733 0 0.041816782243088907 -0.39930371256898001 0 0.026795690990309231 -0.40795284289229972 0 0.037907072548050133 -0.4097223587620345 0 0.054817961994747068 -0.38949825029839902 0 0.0430823884606591 -0.37564809549167338 0 0.030979799181887559 -0.38532807906411037 0 0.054817961994747068 -0.38949825029839902 0 0.030979799181887559 -0.38532807906411037 0 0.030979799181887559 -0.38532807906411037 0 0.0023783755119446211 -0.38032463835499941 0 0.02049775264505449 -0.37122929675444838 0 0.030979799181887559 -0.38532807906411037 0 0.010058650619435139 -0.39081765262868567 0 0.020860459317554279 -0.3951559357740792 0 0.030979799181887559 -0.38532807906411037 0 0.0023783755119446211 -0.38032463835499941 0 0.030979799181887559 -0.38532807906411037 0 0.0023783755119446211 -0.38032463835499941 0 0.010058650619435139 -0.39081765262868567 0 0.00014117791405256379 -0.38472310531667142 0 0.0023783755119446211 -0.38032463835499941 0 0.010058650619435139 -0.39081765262868567 0 -0.0024102202140195059 -0.37948693688002788 0 0.00014117791405256379 -0.38472310531667142 0 0.0023783755119446211 -0.38032463835499941 0 0.00014117791405256379 -0.38472310531667142 0 0.0023783755119446211 -0.38032463835499941 0 0.00014117791405256379 -0.38472310531667142 0 0.008746661229666261 -0.40238391631414139 0 -0.0083598813377065428 -0.40143670642789148 0 0.008746661229666261 -0.40238391631414139 0 0.001888367606252044 -0.41113361882236621 0 0.00014117791405256379 -0.38472310531667142 0 0.010058650619435139 -0.39081765262868567 0 0.008746661229666261 -0.40238391631414139 0 -0.0083598813377065428 -0.40143670642789148 0 0.00014117791405256379 -0.38472310531667142 0 0.008746661229666261 -0.40238391631414139 0 0.010058650619435139 -0.39081765262868567 0 0.008746661229666261 -0.40238391631414139 0 0.020860459317554279 -0.3951559357740792 0 0.030979799181887559 -0.38532807906411037 0 0.020860459317554279 -0.3951559357740792 0 0.026795690990309231 -0.40795284289229972 0 0.008746661229666261 -0.40238391631414139 0 0.020860459317554279 -0.3951559357740792 0 0.026795690990309231 -0.40795284289229972 0 0.030979799181887559 -0.38532807906411037 0 0.026795690990309231 -0.40795284289229972 0 0.008746661229666261 -0.40238391631414139 0 0.026795690990309231 -0.40795284289229972 0 0.017352144545279721 -0.42004472731161158 0 0.026795690990309231 -0.40795284289229972 0 0.030842721240167199 -0.41691745542588948 0 0.02398101347426481 -0.41816712864734618 0 0.027567344055459759 -0.42176436023476138 0 0.030842721240167199 -0.41691745542588948 0 0.032782059411678693 -0.4233215755862082 0 0.027567344055459759 -0.42176436023476138 0 0.030842721240167199 -0.41691745542588948 0 0.02398101347426481 -0.41816712864734618 0 0.027567344055459759 -0.42176436023476138 0 0.02398101347426481 -0.41816712864734618 0 0.021759285953287629 -0.4227606387216471 0 0.026795690990309231 -0.40795284289229972 0 0.02398101347426481 -0.41816712864734618 0 0.017352144545279721 -0.42004472731161158 0 0.02398101347426481 -0.41816712864734618 0 0.020218430235396701 -0.42024698175096881 0 0.017352144545279721 -0.42004472731161158 0 0.02398101347426481 -0.41816712864734618 0 0.020218430235396701 -0.42024698175096881 0 0.021759285953287629 -0.4227606387216471 0 0.020218430235396701 -0.42024698175096881 0 0.017352144545279721 -0.42004472731161158 0 0.021759285953287629 -0.4227606387216471 0 0.008746661229666261 -0.40238391631414139 0 0.017352144545279721 -0.42004472731161158 0 0.0085909741252602166 -0.41485924995590262 0 0.008746661229666261 -0.40238391631414139 0 0.017352144545279721 -0.42004472731161158 0 0.017352144545279721 -0.42004472731161158 0 0.0085909741252602166 -0.41485924995590262 0 0.0071116905236185031 -0.4228872269951654 0 0.0085909741252602166 -0.41485924995590262 0 0.0037417901428385579 -0.41882230129761472 0 0.001888367606252044 -0.41113361882236621 0 0.0085909741252602166 -0.41485924995590262 0 0.0037417901428385579 -0.41882230129761472 0 0.0071116905236185031 -0.4228872269951654 0 0.008746661229666261 -0.40238391631414139 0 0.0085909741252602166 -0.41485924995590262 0 0.001888367606252044 -0.41113361882236621 0 -0.0050022394068944898 -0.43208469912744968 0 0.0044305844222376489 -0.43482972146128068 0 0.0014429593824763661 -0.42588013494941718 0 0.0044305844222376489 -0.43482972146128068 0 0.0014429593824763661 -0.42588013494941718 0 0.0071116905236185031 -0.4228872269951654 0 0.0037417901428385579 -0.41882230129761472 0 0.0014429593824763661 -0.42588013494941718 0 0.0071116905236185031 -0.4228872269951654 0 0.017352144545279721 -0.42004472731161158 0 0.0044305844222376489 -0.43482972146128068 0 0.01507163335785406 -0.43109063101212991 0 0.017352144545279721 -0.42004472731161158 0 0.0044305844222376489 -0.43482972146128068 0 0.0071116905236185031 -0.4228872269951654 0 0.017352144545279721 -0.42004472731161158 0 0.0044305844222376489 -0.43482972146128068 0 0.0044305844222376489 -0.43482972146128068 0 0.01507163335785406 -0.43109063101212991 0 0.011994324991526801 -0.43640229309841377 0 0.0044305844222376489 -0.43482972146128068 0 0.011994324991526801 -0.43640229309841377 0 0.0086914243696431526 -0.44039147253878058 0 0.017352144545279721 -0.42004472731161158 0 0.025399486883567558 -0.43658120299126801 0 0.01507163335785406 -0.43109063101212991 0 0.011994324991526801 -0.43640229309841377 0 0.025399486883567558 -0.43658120299126801 0 0.017352144545279721 -0.42004472731161158 0 0.021759285953287629 -0.4227606387216471 0 0.025399486883567558 -0.43658120299126801 0 0.017352144545279721 -0.42004472731161158 0 0.01507163335785406 -0.43109063101212991 0 0.025399486883567558 -0.43658120299126801 0 0.021759285953287629 -0.4227606387216471 0 0.028471640197900432 -0.42765500279271618 0 0.025399486883567558 -0.43658120299126801 0 0.027567344055459759 -0.42176436023476138 0 0.021759285953287629 -0.4227606387216471 0 0.028471640197900432 -0.42765500279271618 0 0.027567344055459759 -0.42176436023476138 0 0.028471640197900432 -0.42765500279271618 0 0.032782059411678693 -0.4233215755862082 0 0.025399486883567558 -0.43658120299126801 0 0.035208719399173458 -0.43280879193422572 0 0.028471640197900432 -0.42765500279271618 0 0.025399486883567558 -0.43658120299126801 0 0.035208719399173458 -0.43280879193422572 0 0.035208719399173458 -0.43280879193422572 0 0.04315969546303456 -0.41764524468875602 0 0.060735723662262243 -0.42299167800792831 0 0.035208719399173458 -0.43280879193422572 0 0.054390818821292868 -0.4355912502071223 0 0.043534928125700062 -0.44000495114804911 0 0.028471640197900432 -0.42765500279271618 0 0.035208719399173458 -0.43280879193422572 0 0.032782059411678693 -0.4233215755862082 0 0.035208719399173458 -0.43280879193422572 0 0.032782059411678693 -0.4233215755862082 0 0.04315969546303456 -0.41764524468875602 0 0.030842721240167199 -0.41691745542588948 0 0.032782059411678693 -0.4233215755862082 0 0.04315969546303456 -0.41764524468875602 0 0.030842721240167199 -0.41691745542588948 0 0.037907072548050133 -0.4097223587620345 0 0.04315969546303456 -0.41764524468875602 0 0.026795690990309231 -0.40795284289229972 0 0.030842721240167199 -0.41691745542588948 0 0.037907072548050133 -0.4097223587620345 0 0.037907072548050133 -0.4097223587620345 0 0.04315969546303456 -0.41764524468875602 0 0.046920472803650783 -0.40679253823424733 0 0.073922142761436382 -0.41580602442127518 0 0.053267404034640371 -0.39731339971170843 0 0.056040759424869427 -0.41188534234209823 0 0.04315969546303456 -0.41764524468875602 0 0.056040759424869427 -0.41188534234209823 0 0.060735723662262243 -0.42299167800792831 0 0.04315969546303456 -0.41764524468875602 0 0.046920472803650783 -0.40679253823424733 0 0.056040759424869427 -0.41188534234209823 0 0.035208719399173458 -0.43280879193422572 0 0.060735723662262243 -0.42299167800792831 0 0.054390818821292868 -0.4355912502071223 0 0.071036985036272413 -0.43177931448789281 0 0.060735723662262243 -0.42299167800792831 0 0.054390818821292868 -0.4355912502071223 0 0.035208719399173458 -0.43280879193422572 0 0.060735723662262243 -0.42299167800792831 0 0.052022108047738269 -0.45181176112598748 0 0.052451773364653058 -0.44275430049721098 0 0.043534928125700062 -0.44000495114804911 0 0.054390818821292868 -0.4355912502071223 0 0.052451773364653058 -0.44275430049721098 0 0.043534928125700062 -0.44000495114804911 0 0.063716105078758287 -0.44316980426872993 0 0.054390818821292868 -0.4355912502071223 0 0.052451773364653058 -0.44275430049721098 0 0.063716105078758287 -0.44316980426872993 0 0.052022108047738269 -0.45181176112598748 0 0.052451773364653058 -0.44275430049721098 0 0.063716105078758287 -0.44316980426872993 0 0.052022108047738269 -0.45181176112598748 0 0.060459971928924848 -0.45375260900138797 0 0.060851720230301373 -0.46336472323921751 0 0.044077530430193787 -0.4686413052048109 0 0.052022108047738269 -0.45181176112598748 0 0.060459971928924848 -0.45375260900138797 0 0.060851720230301373 -0.46336472323921751 0 0.052022108047738269 -0.45181176112598748 0 0.060851720230301373 -0.46336472323921751 0 0.044077530430193787 -0.4686413052048109 0 0.044077530430193787 -0.4686413052048109 0 0.043534928125700062 -0.44000495114804911 0 0.044077530430193787 -0.4686413052048109 0 0.036260806081792683 -0.45443085270449379 0 0.043534928125700062 -0.44000495114804911 0 0.052022108047738269 -0.45181176112598748 0 0.044077530430193787 -0.4686413052048109 0 0.043534928125700062 -0.44000495114804911 0 0.044077530430193787 -0.4686413052048109 0 0.036260806081792683 -0.45443085270449379 0 0.030847291442153781 -0.4639488026833577 0 0.036260806081792683 -0.45443085270449379 0 0.027665499963449091 -0.45515789371177318 0 0.030847291442153781 -0.4639488026833577 0 0.036260806081792683 -0.45443085270449379 0 0.03411071450737263 -0.44315912183413952 0 0.027665499963449091 -0.45515789371177318 0 0.036260806081792683 -0.45443085270449379 0 0.043534928125700062 -0.44000495114804911 0 0.03411071450737263 -0.44315912183413952 0 0.035208719399173458 -0.43280879193422572 0 0.03411071450737263 -0.44315912183413952 0 0.025121878233054371 -0.44574843042834422 0 0.035208719399173458 -0.43280879193422572 0 0.043534928125700062 -0.44000495114804911 0 0.03411071450737263 -0.44315912183413952 0 0.011994324991526801 -0.43640229309841377 0 0.025399486883567558 -0.43658120299126801 0 0.0096817151360844341 -0.44262590586052292 0 0.025399486883567558 -0.43658120299126801 0 0.025121878233054371 -0.44574843042834422 0 0.0096817151360844341 -0.44262590586052292 0 0.025121878233054371 -0.44574843042834422 0 0.0096817151360844341 -0.44262590586052292 0 0.01684555826369686 -0.45878997639264968 0 0.025399486883567558 -0.43658120299126801 0 0.0096817151360844341 -0.44262590586052292 0 0.025399486883567558 -0.43658120299126801 0 0.035208719399173458 -0.43280879193422572 0 0.025121878233054371 -0.44574843042834422 0 0.03411071450737263 -0.44315912183413952 0 0.025121878233054371 -0.44574843042834422 0 0.027665499963449091 -0.45515789371177318 0 -0.008490975700803146 -0.4496147156109509 0 0.0086914243696431526 -0.44039147253878058 0 0.0096817151360844341 -0.44262590586052292 0 0.0096817151360844341 -0.44262590586052292 0 0.0031161620136742289 -0.45530284170723789 0 0.01684555826369686 -0.45878997639264968 0 -0.008490975700803146 -0.4496147156109509 0 0.0044305844222376489 -0.43482972146128068 0 0.0086914243696431526 -0.44039147253878058 0 -0.008490975700803146 -0.4496147156109509 0 0.0096817151360844341 -0.44262590586052292 0 -0.008490975700803146 -0.4496147156109509 0 0.0096817151360844341 -0.44262590586052292 0 0.0031161620136742289 -0.45530284170723789 0 0.0096817151360844341 -0.44262590586052292 0 0.01684555826369686 -0.45878997639264968 0 0.011994324991526801 -0.43640229309841377 0 0.0086914243696431526 -0.44039147253878058 0 0.0096817151360844341 -0.44262590586052292 0 0.0086914243696431526 -0.44039147253878058 0 0.0096817151360844341 -0.44262590586052292 0 0.0041693236073766524 -0.4638961273049339 0 0.01684555826369686 -0.45878997639264968 0 0.024009401391311049 -0.47495404692477577 0 0.0041693236073766524 -0.4638961273049339 0 0.0031161620136742289 -0.45530284170723789 0 0.01684555826369686 -0.45878997639264968 0 0.01684555826369686 -0.45878997639264968 0 0.024009401391311049 -0.47495404692477577 0 0.01684555826369686 -0.45878997639264968 0 0.030847291442153781 -0.4639488026833577 0 0.024009401391311049 -0.47495404692477577 0 0.025121878233054371 -0.44574843042834422 0 0.01684555826369686 -0.45878997639264968 0 0.027665499963449091 -0.45515789371177318 0 0.01684555826369686 -0.45878997639264968 0 0.027665499963449091 -0.45515789371177318 0 0.030847291442153781 -0.4639488026833577 0 0.0041693236073766524 -0.4638961273049339 0 0.024009401391311049 -0.47495404692477577 0 0.001367869583954965 -0.48207629245983707 0 0.024009401391311049 -0.47495404692477577 0 0.001367869583954965 -0.48207629245983707 0 0.024009401391311049 -0.47495404692477577 0 0.001367869583954965 -0.48207629245983707 0 0.0094427674154289355 -0.49999999999999828 0 0.001367869583954965 -0.48207629245983707 0 0.0094427674154289355 -0.49999999999999828 0 0.024009401391311049 -0.47495404692477577 0 0.0094427674154289355 -0.49999999999999828 0 0.035109654787001232 -0.50000000000000022 0 0.024009401391311049 -0.47495404692477577 0 0.035109654787001232 -0.50000000000000022 0 0.044671715710491652 -0.500000000000001 0 0.044374623070343872 -0.48432065260240592 0 0.035109654787001232 -0.50000000000000022 0 0.044671715710491652 -0.500000000000001 0 0.044374623070343872 -0.48432065260240592 0 0.024009401391311049 -0.47495404692477577 0 0.035109654787001232 -0.50000000000000022 0 0.044374623070343872 -0.48432065260240592 0 0.044077530430193787 -0.4686413052048109 0 0.024009401391311049 -0.47495404692477577 0 0.044077530430193787 -0.4686413052048109 0 0.024009401391311049 -0.47495404692477577 0 0.044374623070343872 -0.48432065260240592 0 0.044077530430193787 -0.4686413052048109 0 0.030847291442153781 -0.4639488026833577 0 0.024009401391311049 -0.47495404692477577 0 0.044077530430193787 -0.4686413052048109 0 0.044374623070343872 -0.48432065260240592 0 0.044374623070343872 -0.48432065260240592 0 0.055339119822683802 -0.47432052805512193 0 0.059052513578249768 -0.48415459239490799 0 0.044077530430193787 -0.4686413052048109 0 0.044374623070343872 -0.48432065260240592 0 0.055339119822683802 -0.47432052805512193 0 0.060851720230301373 -0.46336472323921751 0 0.044077530430193787 -0.4686413052048109 0 0.055339119822683802 -0.47432052805512193 0 0.06833921180433046 -0.47112136683426759 0 0.060851720230301373 -0.46336472323921751 0 0.055339119822683802 -0.47432052805512193 0 0.06833921180433046 -0.47112136683426759 0 0.055339119822683802 -0.47432052805512193 0 0.059052513578249768 -0.48415459239490799 0 0.070497214854466916 -0.5 0 0.059052513578249768 -0.48415459239490799 0 0.054649016803388052 -0.49211881124932838 0 0.044671715710491652 -0.500000000000001 0 0.044374623070343872 -0.48432065260240592 0 0.054649016803388052 -0.49211881124932838 0 0.070497214854466916 -0.5 0 0.044671715710491652 -0.500000000000001 0 0.054649016803388052 -0.49211881124932838 0 0.044374623070343872 -0.48432065260240592 0 0.059052513578249768 -0.48415459239490799 0 0.054649016803388052 -0.49211881124932838 0 0.083908104088682045 -0.28580478682991672 0 0.089487987162395616 -0.28988053698625699 0 0.1002373724423981 -0.28596328712036112 0 0.083908104088682045 -0.28580478682991672 0 0.078020334178601186 -0.27652651373839893 0 0.1002373724423981 -0.28596328712036112 0 0.079603699178801418 -0.28663015213858062 0 0.081556018810072975 -0.29926310429093622 0 0.075789503991602961 -0.29163922791277569 0 0.079603699178801418 -0.28663015213858062 0 0.081556018810072975 -0.29926310429093622 0 0.094202772939700918 -0.30112392185616971 0 0.079603699178801418 -0.28663015213858062 0 0.083908104088682045 -0.28580478682991672 0 0.089487987162395616 -0.28988053698625699 0 0.079603699178801418 -0.28663015213858062 0 0.094202772939700918 -0.30112392185616971 0 0.079603699178801418 -0.28663015213858062 0 0.089487987162395616 -0.28988053698625699 0 0.094202772939700918 -0.30112392185616971 0 0.08815876356063454 -0.31020873327173393 0 0.081556018810072975 -0.29926310429093622 0 0.094202772939700918 -0.30112392185616971 0 0.08815876356063454 -0.31020873327173393 0 0.081556018810072975 -0.29926310429093622 0 0.067515680420665997 -0.30479977496971328 0 0.08815876356063454 -0.31020873327173393 0 0.067515680420665997 -0.30479977496971328 0 0.074948788349293721 -0.32052355399385057 0 0.081556018810072975 -0.29926310429093622 0 0.067515680420665997 -0.30479977496971328 0 0.07150670688525107 -0.29434880980831257 0 0.08815876356063454 -0.31020873327173393 0 0.067515680420665997 -0.30479977496971328 0 0.067515680420665997 -0.30479977496971328 0 0.07150670688525107 -0.29434880980831257 0 0.060706597660698691 -0.29500461165137021 0 0.079603699178801418 -0.28663015213858062 0 0.070491591092286393 -0.28631484541327329 0 0.061014065371659418 -0.2709357474175999 0 0.07150670688525107 -0.29434880980831257 0 0.062091523628428069 -0.28635158634339303 0 0.060706597660698691 -0.29500461165137021 0 0.081556018810072975 -0.29926310429093622 0 0.075789503991602961 -0.29163922791277569 0 0.07150670688525107 -0.29434880980831257 0 0.075789503991602961 -0.29163922791277569 0 0.07150670688525107 -0.29434880980831257 0 0.070491591092286393 -0.28631484541327329 0 0.079603699178801418 -0.28663015213858062 0 0.075789503991602961 -0.29163922791277569 0 0.070491591092286393 -0.28631484541327329 0 0.07150670688525107 -0.29434880980831257 0 0.070491591092286393 -0.28631484541327329 0 0.062091523628428069 -0.28635158634339303 0 0.083908104088682045 -0.28580478682991672 0 0.078020334178601186 -0.27652651373839893 0 0.061014065371659418 -0.2709357474175999 0 0.083908104088682045 -0.28580478682991672 0 0.061014065371659418 -0.2709357474175999 0 0.079603699178801418 -0.28663015213858062 0 0.083908104088682045 -0.28580478682991672 0 0.061014065371659418 -0.2709357474175999 0 0.070491591092286393 -0.28631484541327329 0 0.062091523628428069 -0.28635158634339303 0 0.061014065371659418 -0.2709357474175999 0 0.078020334178601186 -0.27652651373839893 0 0.073643214167236876 -0.26118041644916262 0 0.061014065371659418 -0.2709357474175999 0 0.068670900169069571 -0.25170484312657088 0 0.062537389150411099 -0.25798261247412158 0 0.073643214167236876 -0.26118041644916262 0 0.068670900169069571 -0.25170484312657088 0 0.062537389150411099 -0.25798261247412158 0 0.060643709716919861 -0.24915130951748629 0 0.062537389150411099 -0.25798261247412158 0 0.073643214167236876 -0.26118041644916262 0 0.061014065371659418 -0.2709357474175999 0 0.068670900169069571 -0.25170484312657088 0 0.073643214167236876 -0.26118041644916262 0 0.078732715016248386 -0.2465985142875933 0 0.08630462784978804 -0.26006394322370091 0 0.078732715016248386 -0.2465985142875933 0 0.09477141884214027 -0.24650166742010321 0 0.073643214167236876 -0.26118041644916262 0 0.08630462784978804 -0.26006394322370091 0 0.078732715016248386 -0.2465985142875933 0 0.078020334178601186 -0.27652651373839893 0 0.08630462784978804 -0.26006394322370091 0 0.1063554570447135 -0.2695126042232463 0 0.078020334178601186 -0.27652651373839893 0 0.073643214167236876 -0.26118041644916262 0 0.08630462784978804 -0.26006394322370091 0 0.078020334178601186 -0.27652651373839893 0 0.1063554570447135 -0.2695126042232463 0 0.078020334178601186 -0.27652651373839893 0 0.1063554570447135 -0.2695126042232463 0 0.1002373724423981 -0.28596328712036112 0 0.08630462784978804 -0.26006394322370091 0 0.1063554570447135 -0.2695126042232463 0 0.09477141884214027 -0.24650166742010321 0 0.1063554570447135 -0.2695126042232463 0 0.1124148736483154 -0.24934285577144161 0 0.09477141884214027 -0.24650166742010321 0 0.1346905799108257 -0.26249869470809373 0 0.1063554570447135 -0.2695126042232463 0 0.1124148736483154 -0.24934285577144161 0 0.1063554570447135 -0.2695126042232463 0 0.12376173592536011 -0.28709211698794412 0 0.1002373724423981 -0.28596328712036112 0 0.1346905799108257 -0.26249869470809373 0 0.1063554570447135 -0.2695126042232463 0 0.1346905799108257 -0.26249869470809373 0 0.1063554570447135 -0.2695126042232463 0 0.12376173592536011 -0.28709211698794412 0 0.12376173592536011 -0.28709211698794412 0 0.1002373724423981 -0.28596328712036112 0 0.11075170882743469 -0.29897165815681243 0 0.1002373724423981 -0.28596328712036112 0 0.094202772939700918 -0.30112392185616971 0 0.11075170882743469 -0.29897165815681243 0 0.089487987162395616 -0.28988053698625699 0 0.1002373724423981 -0.28596328712036112 0 0.094202772939700918 -0.30112392185616971 0 0.08815876356063454 -0.31020873327173393 0 0.094202772939700918 -0.30112392185616971 0 0.1088018467006025 -0.31561769157375669 0 0.094202772939700918 -0.30112392185616971 0 0.11075170882743469 -0.29897165815681243 0 0.1088018467006025 -0.31561769157375669 0 0.094202772939700918 -0.30112392185616971 0 0.1088018467006025 -0.31561769157375669 0 0.12542803600290769 -0.30672450909944321 0 0.11075170882743469 -0.29897165815681243 0 0.1088018467006025 -0.31561769157375669 0 0.12542803600290769 -0.30672450909944321 0 0.12376173592536011 -0.28709211698794412 0 0.11075170882743469 -0.29897165815681243 0 0.12869660008228251 -0.32083057042236668 0 0.12408043673138271 -0.3307860761673555 0 0.1088018467006025 -0.31561769157375669 0 0.12408043673138271 -0.3307860761673555 0 0.1068930145444638 -0.33468881875944612 0 0.1088018467006025 -0.31561769157375669 0 0.12869660008228251 -0.32083057042236668 0 0.12542803600290769 -0.30672450909944321 0 0.1088018467006025 -0.31561769157375669 0 0.12869660008228251 -0.32083057042236668 0 0.1088018467006025 -0.31561769157375669 0 0.12408043673138271 -0.3307860761673555 0 0.1088018467006025 -0.31561769157375669 0 0.12408043673138271 -0.3307860761673555 0 0.1068930145444638 -0.33468881875944612 0 0.1126185818878445 -0.35135785471741088 0 0.1068930145444638 -0.33468881875944612 0 0.093164720728689671 -0.35071572267500312 0 0.088564196847221277 -0.3307128635708515 0 0.1068930145444638 -0.33468881875944612 0 0.1088018467006025 -0.31561769157375669 0 0.088564196847221277 -0.3307128635708515 0 0.08815876356063454 -0.31020873327173393 0 0.1088018467006025 -0.31561769157375669 0 0.08815876356063454 -0.31020873327173393 0 0.1088018467006025 -0.31561769157375669 0 0.088564196847221277 -0.3307128635708515 0 0.1240614338456624 -0.37194020949616052 0 0.1126185818878445 -0.35135785471741088 0 0.1010625482549421 -0.37375009137591142 0 0.12745085933380329 -0.35423090476633268 0 0.1240614338456624 -0.37194020949616052 0 0.1126185818878445 -0.35135785471741088 0 0.12745085933380329 -0.35423090476633268 0 0.12408043673138271 -0.3307860761673555 0 0.1126185818878445 -0.35135785471741088 0 0.1126185818878445 -0.35135785471741088 0 0.1010625482549421 -0.37375009137591142 0 0.093164720728689671 -0.35071572267500312 0 0.1068930145444638 -0.33468881875944612 0 0.1126185818878445 -0.35135785471741088 0 0.093164720728689671 -0.35071572267500312 0 0.1010625482549421 -0.37375009137591142 0 0.084113257283456436 -0.36663025146129802 0 0.093164720728689671 -0.35071572267500312 0 0.084113257283456436 -0.36663025146129802 0 0.093164720728689671 -0.35071572267500312 0 0.077289850623643491 -0.34955992594572688 0 0.077289850623643491 -0.34955992594572688 0 0.068136500090328261 -0.36870028083988621 0 0.062188135968238127 -0.34991115203252721 0 0.077289850623643491 -0.34955992594572688 0 0.070556471152670788 -0.33503054794377229 0 0.062188135968238127 -0.34991115203252721 0 0.084113257283456436 -0.36663025146129802 0 0.077289850623643491 -0.34955992594572688 0 0.068136500090328261 -0.36870028083988621 0 0.08815876356063454 -0.31020873327173393 0 0.088564196847221277 -0.3307128635708515 0 0.074948788349293721 -0.32052355399385057 0 0.093164720728689671 -0.35071572267500312 0 0.077289850623643491 -0.34955992594572688 0 0.088564196847221277 -0.3307128635708515 0 0.077289850623643491 -0.34955992594572688 0 0.088564196847221277 -0.3307128635708515 0 0.070556471152670788 -0.33503054794377229 0 0.088564196847221277 -0.3307128635708515 0 0.070556471152670788 -0.33503054794377229 0 0.074948788349293721 -0.32052355399385057 0 0.070556471152670788 -0.33503054794377229 0 0.05994882976527599 -0.3218658502131817 0 0.057561578642685789 -0.33783305944186232 0 0.070556471152670788 -0.33503054794377229 0 0.057561578642685789 -0.33783305944186232 0 0.062188135968238127 -0.34991115203252721 0 0.070556471152670788 -0.33503054794377229 0 0.074948788349293721 -0.32052355399385057 0 0.05994882976527599 -0.3218658502131817 0 0.067515680420665997 -0.30479977496971328 0 0.074948788349293721 -0.32052355399385057 0 0.05994882976527599 -0.3218658502131817 0 0.05994882976527599 -0.3218658502131817 0 0.046346652556273397 -0.33171561870375299 0 0.04376698356965486 -0.3161838281140375 0 0.05994882976527599 -0.3218658502131817 0 0.04376698356965486 -0.3161838281140375 0 0.054526022759073693 -0.31056006749115622 0 0.05994882976527599 -0.3218658502131817 0 0.057561578642685789 -0.33783305944186232 0 0.046346652556273397 -0.33171561870375299 0 0.057561578642685789 -0.33783305944186232 0 0.046346652556273397 -0.33171561870375299 0 0.048926321542892247 -0.34724740929346842 0 0.046346652556273397 -0.33171561870375299 0 0.048926321542892247 -0.34724740929346842 0 0.039504588773732613 -0.33923191176406192 0 0.029469237185336051 -0.34709687945899781 0 0.028532450423909821 -0.32890413150214792 0 0.046346652556273397 -0.33171561870375299 0 0.039504588773732613 -0.33923191176406192 0 0.04376698356965486 -0.3161838281140375 0 0.046346652556273397 -0.33171561870375299 0 0.039504588773732613 -0.33923191176406192 0 0.048926321542892247 -0.34724740929346842 0 0.04376698356965486 -0.3161838281140375 0 0.028532450423909821 -0.32890413150214792 0 0.041609487879893957 -0.30319387807572268 0 0.028532450423909821 -0.32890413150214792 0 0.041609487879893957 -0.30319387807572268 0 0.039504588773732613 -0.33923191176406192 0 0.04376698356965486 -0.3161838281140375 0 0.039504588773732613 -0.33923191176406192 0 0.04376698356965486 -0.3161838281140375 0 0.028532450423909821 -0.32890413150214792 0 0.046346652556273397 -0.33171561870375299 0 0.04376698356965486 -0.3161838281140375 0 0.054817961994747068 -0.38949825029839902 0 0.068136500090328261 -0.36870028083988621 0 0.05190150139418466 -0.36290454825085428 0 0.068136500090328261 -0.36870028083988621 0 0.05190150139418466 -0.36290454825085428 0 0.062188135968238127 -0.34991115203252721 0 0.05190150139418466 -0.36290454825085428 0 0.062188135968238127 -0.34991115203252721 0 0.048926321542892247 -0.34724740929346842 0 0.057561578642685789 -0.33783305944186232 0 0.062188135968238127 -0.34991115203252721 0 0.048926321542892247 -0.34724740929346842 0 0.05190150139418466 -0.36290454825085428 0 0.048926321542892247 -0.34724740929346842 0 0.035242193977810088 -0.36227999541408618 0 0.039504588773732613 -0.33923191176406192 0 0.035242193977810088 -0.36227999541408618 0 0.029469237185336051 -0.34709687945899781 0 0.039504588773732613 -0.33923191176406192 0 0.035242193977810088 -0.36227999541408618 0 0.039504588773732613 -0.33923191176406192 0 0.048926321542892247 -0.34724740929346842 0 0.035242193977810088 -0.36227999541408618 0 0.0430823884606591 -0.37564809549167338 0 0.030979799181887559 -0.38532807906411037 0 0.035242193977810088 -0.36227999541408618 0 0.0430823884606591 -0.37564809549167338 0 0.05190150139418466 -0.36290454825085428 0 0.035242193977810088 -0.36227999541408618 0 0.030979799181887559 -0.38532807906411037 0 0.035242193977810088 -0.36227999541408618 0 0.030979799181887559 -0.38532807906411037 0 0.035242193977810088 -0.36227999541408618 0 0.02049775264505449 -0.37122929675444838 0 0.035242193977810088 -0.36227999541408618 0 0.02049775264505449 -0.37122929675444838 0 0.01545541296792622 -0.35461438492857311 0 0.035242193977810088 -0.36227999541408618 0 0.029469237185336051 -0.34709687945899781 0 0.01545541296792622 -0.35461438492857311 0 0.01545541296792622 -0.35461438492857311 0 0.001736735560337046 -0.34458920157877498 0 0.010600705189761901 -0.33370115742334272 0 -0.01318778385321114 -0.35736842157253651 0 0.01545541296792622 -0.35461438492857311 0 0.001736735560337046 -0.34458920157877498 0 0.0023783755119446211 -0.38032463835499941 0 0.02049775264505449 -0.37122929675444838 0 0.01545541296792622 -0.35461438492857311 0 -0.0024102202140195059 -0.37948693688002788 0 0.0023783755119446211 -0.38032463835499941 0 0.01545541296792622 -0.35461438492857311 0 0.0023783755119446211 -0.38032463835499941 0 0.01545541296792622 -0.35461438492857311 0 0.028532450423909821 -0.32890413150214792 0 0.010600705189761901 -0.33370115742334272 0 0.0079812764457104952 -0.31559530161391047 0 0.028532450423909821 -0.32890413150214792 0 0.0079812764457104952 -0.31559530161391047 0 0.025810578876557751 -0.3049833178412894 0 0.029469237185336051 -0.34709687945899781 0 0.01545541296792622 -0.35461438492857311 0 0.028532450423909821 -0.32890413150214792 0 0.01545541296792622 -0.35461438492857311 0 0.028532450423909821 -0.32890413150214792 0 0.01545541296792622 -0.35461438492857311 0 0.028532450423909821 -0.32890413150214792 0 0.010600705189761901 -0.33370115742334272 0 -0.0039872347153526583 -0.32859099620149618 0 0.001736735560337046 -0.34458920157877498 0 0.010600705189761901 -0.33370115742334272 0 -0.0039872347153526583 -0.32859099620149618 0 0.010600705189761901 -0.33370115742334272 0 0.0079812764457104952 -0.31559530161391047 0 -0.009642070915086105 -0.30556822425034719 0 0.0079812764457104952 -0.31559530161391047 0 0.01399382855829426 -0.29077582985417127 0 -0.0127219740500978 -0.28377568063547148 0 0.01399382855829426 -0.29077582985417127 0 0.01399382855829426 -0.29077582985417127 0 0.028301614850650119 -0.28302912104469558 0 0.022595716860811129 -0.27470289768924988 0 0.01399382855829426 -0.29077582985417127 0 0.028301614850650119 -0.28302912104469558 0 0.040709631166686508 -0.29777597907287062 0 0.01399382855829426 -0.29077582985417127 0 0.040709631166686508 -0.29777597907287062 0 0.0079812764457104952 -0.31559530161391047 0 0.01399382855829426 -0.29077582985417127 0 0.025810578876557751 -0.3049833178412894 0 0.01399382855829426 -0.29077582985417127 0 0.025810578876557751 -0.3049833178412894 0 0.040709631166686508 -0.29777597907287062 0 0.04376698356965486 -0.3161838281140375 0 0.046872597280697578 -0.29939081666769218 0 0.041609487879893957 -0.30319387807572268 0 0.04376698356965486 -0.3161838281140375 0 0.046872597280697578 -0.29939081666769218 0 0.028532450423909821 -0.32890413150214792 0 0.025810578876557751 -0.3049833178412894 0 0.041609487879893957 -0.30319387807572268 0 0.025810578876557751 -0.3049833178412894 0 0.041609487879893957 -0.30319387807572268 0 0.040709631166686508 -0.29777597907287062 0 0.04376698356965486 -0.3161838281140375 0 0.041609487879893957 -0.30319387807572268 0 0.043935305263347907 -0.29862117920922809 0 0.046872597280697578 -0.29939081666769218 0 0.046244439134701602 -0.29408128114531329 0 0.043935305263347907 -0.29862117920922809 0 0.046872597280697578 -0.29939081666769218 0 0.041609487879893957 -0.30319387807572268 0 0.043935305263347907 -0.29862117920922809 0 0.046872597280697578 -0.29939081666769218 0 0.043935305263347907 -0.29862117920922809 0 0.041609487879893957 -0.30319387807572268 0 0.041609487879893957 -0.30319387807572268 0 0.040709631166686508 -0.29777597907287062 0 0.043935305263347907 -0.29862117920922809 0 0.041609487879893957 -0.30319387807572268 0 0.040709631166686508 -0.29777597907287062 0 0.043935305263347907 -0.29862117920922809 0 0.040709631166686508 -0.29777597907287062 0 0.040709631166686508 -0.29777597907287062 0 0.035907282816808418 -0.26886177756249069 0 0.040709631166686508 -0.29777597907287062 0 0.046244439134701602 -0.29408128114531329 0 0.035907282816808418 -0.26886177756249069 0 0.028301614850650119 -0.28302912104469558 0 0.040709631166686508 -0.29777597907287062 0 0.035907282816808418 -0.26886177756249069 0 0.043935305263347907 -0.29862117920922809 0 0.046244439134701602 -0.29408128114531329 0 0.043935305263347907 -0.29862117920922809 0 0.040709631166686508 -0.29777597907287062 0 0.046244439134701602 -0.29408128114531329 0 0.046872597280697578 -0.29939081666769218 0 0.055546480088450853 -0.29013207046773959 0 0.060706597660698691 -0.29500461165137021 0 0.046872597280697578 -0.29939081666769218 0 0.050312550107290827 -0.28078993047683481 0 0.046872597280697578 -0.29939081666769218 0 0.055546480088450853 -0.29013207046773959 0 0.050312550107290827 -0.28078993047683481 0 0.046872597280697578 -0.29939081666769218 0 0.046244439134701602 -0.29408128114531329 0 0.050312550107290827 -0.28078993047683481 0 0.062091523628428069 -0.28635158634339303 0 0.055546480088450853 -0.29013207046773959 0 0.050312550107290827 -0.28078993047683481 0 0.062091523628428069 -0.28635158634339303 0 0.055546480088450853 -0.29013207046773959 0 0.060706597660698691 -0.29500461165137021 0 0.04376698356965486 -0.3161838281140375 0 0.046872597280697578 -0.29939081666769218 0 0.054526022759073693 -0.31056006749115622 0 0.067515680420665997 -0.30479977496971328 0 0.05994882976527599 -0.3218658502131817 0 0.054526022759073693 -0.31056006749115622 0 0.067515680420665997 -0.30479977496971328 0 0.046872597280697578 -0.29939081666769218 0 0.060706597660698691 -0.29500461165137021 0 0.067515680420665997 -0.30479977496971328 0 0.046872597280697578 -0.29939081666769218 0 0.067515680420665997 -0.30479977496971328 0 0.046872597280697578 -0.29939081666769218 0 0.054526022759073693 -0.31056006749115622 0 0.051635158109353638 -0.2522929185582275 0 0.061014065371659418 -0.2709357474175999 0 0.038120026654636888 -0.25606670800528319 0 0.061014065371659418 -0.2709357474175999 0 0.038120026654636888 -0.25606670800528319 0 0.062537389150411099 -0.25798261247412158 0 0.051635158109353638 -0.2522929185582275 0 0.061014065371659418 -0.2709357474175999 0 0.062537389150411099 -0.25798261247412158 0 0.051635158109353638 -0.2522929185582275 0 0.060643709716919861 -0.24915130951748629 0 0.061014065371659418 -0.2709357474175999 0 0.050312550107290827 -0.28078993047683481 0 0.035907282816808418 -0.26886177756249069 0 0.062091523628428069 -0.28635158634339303 0 0.061014065371659418 -0.2709357474175999 0 0.050312550107290827 -0.28078993047683481 0 0.046244439134701602 -0.29408128114531329 0 0.050312550107290827 -0.28078993047683481 0 0.035907282816808418 -0.26886177756249069 0 0.061014065371659418 -0.2709357474175999 0 0.035907282816808418 -0.26886177756249069 0 0.038120026654636888 -0.25606670800528319 0 0.035907282816808418 -0.26886177756249069 0 0.038120026654636888 -0.25606670800528319 0 0.023652067762056962 -0.26122582845696363 0 0.038120026654636888 -0.25606670800528319 0 0.023652067762056962 -0.26122582845696363 0 0.01522598793761438 -0.2411976685929664 0 0.023652067762056962 -0.26122582845696363 0 0.022595716860811129 -0.27470289768924988 0 0.0064113245404139908 -0.26530009043482788 0 0.028301614850650119 -0.28302912104469558 0 0.035907282816808418 -0.26886177756249069 0 0.022595716860811129 -0.27470289768924988 0 0.035907282816808418 -0.26886177756249069 0 0.023652067762056962 -0.26122582845696363 0 0.022595716860811129 -0.27470289768924988 0 -0.0127219740500978 -0.28377568063547148 0 0.01399382855829426 -0.29077582985417127 0 0.0064113245404139908 -0.26530009043482788 0 0.01399382855829426 -0.29077582985417127 0 0.022595716860811129 -0.27470289768924988 0 0.0064113245404139908 -0.26530009043482788 0 0.023652067762056962 -0.26122582845696363 0 0.0064113245404139908 -0.26530009043482788 0 0.01522598793761438 -0.2411976685929664 0 -0.0042469490959310546 -0.24105588206608369 0 0.01522598793761438 -0.2411976685929664 0 0.0080886019295227304 -0.22334361936230621 0 -0.0042469490959310546 -0.24105588206608369 0 0.0064113245404139908 -0.26530009043482788 0 0.01522598793761438 -0.2411976685929664 0 0.01522598793761438 -0.2411976685929664 0 0.0080886019295227304 -0.22334361936230621 0 0.029848785966222549 -0.22467218689454249 0 0.01522598793761438 -0.2411976685929664 0 0.029848785966222549 -0.22467218689454249 0 0.040049149458647862 -0.2402072910848079 0 0.038120026654636888 -0.25606670800528319 0 0.01522598793761438 -0.2411976685929664 0 0.040049149458647862 -0.2402072910848079 0 0.038120026654636888 -0.25606670800528319 0 0.01522598793761438 -0.2411976685929664 0 -0.011684435195542121 -0.19235029798179959 0 0.015886187675048211 -0.20297840504938719 0 -0.001950199932115194 -0.2097495786964387 0 -0.011684435195542121 -0.19235029798179959 0 0.015886187675048211 -0.20297840504938719 0 -0.011684435195542121 -0.19235029798179959 0 0.015886187675048211 -0.20297840504938719 0 0.0089288639899517616 -0.1799517076714372 0 -0.001950199932115194 -0.2097495786964387 0 0.0080886019295227304 -0.22334361936230621 0 0.015886187675048211 -0.20297840504938719 0 0.0080886019295227304 -0.22334361936230621 0 0.029848785966222549 -0.22467218689454249 0 0.015886187675048211 -0.20297840504938719 0 0.029848785966222549 -0.22467218689454249 0 0.015886187675048211 -0.20297840504938719 0 0.042834745918904973 -0.20937539307532829 0 0.015886187675048211 -0.20297840504938719 0 0.036582469344693197 -0.19011752362393319 0 0.0089288639899517616 -0.1799517076714372 0 0.036582469344693197 -0.19011752362393319 0 0.042834745918904973 -0.20937539307532829 0 0.059517719286908369 -0.1959707505161723 0 0.015886187675048211 -0.20297840504938719 0 0.036582469344693197 -0.19011752362393319 0 0.042834745918904973 -0.20937539307532829 0 0.042834745918904973 -0.20937539307532829 0 0.059517719286908369 -0.1959707505161723 0 0.063232013994969749 -0.21493004671985691 0 0.042834745918904973 -0.20937539307532829 0 0.051941299245587769 -0.22758344564807789 0 0.063232013994969749 -0.21493004671985691 0 0.051635158109353638 -0.2522929185582275 0 0.038120026654636888 -0.25606670800528319 0 0.040049149458647862 -0.2402072910848079 0 0.029848785966222549 -0.22467218689454249 0 0.042834745918904973 -0.20937539307532829 0 0.051941299245587769 -0.22758344564807789 0 0.029848785966222549 -0.22467218689454249 0 0.040049149458647862 -0.2402072910848079 0 0.051941299245587769 -0.22758344564807789 0 0.051941299245587769 -0.22758344564807789 0 0.070610386738899161 -0.2301857030121148 0 0.063232013994969749 -0.21493004671985691 0 0.051941299245587769 -0.22758344564807789 0 0.056413142465954282 -0.2393987625308939 0 0.070610386738899161 -0.2301857030121148 0 0.040049149458647862 -0.2402072910848079 0 0.051941299245587769 -0.22758344564807789 0 0.056413142465954282 -0.2393987625308939 0 0.051635158109353638 -0.2522929185582275 0 0.040049149458647862 -0.2402072910848079 0 0.056413142465954282 -0.2393987625308939 0 0.056413142465954282 -0.2393987625308939 0 0.060643709716919861 -0.24915130951748629 0 0.067092989881396378 -0.24301997764314451 0 0.051635158109353638 -0.2522929185582275 0 0.056413142465954282 -0.2393987625308939 0 0.060643709716919861 -0.24915130951748629 0 0.067092989881396378 -0.24301997764314451 0 0.078732715016248386 -0.2465985142875933 0 0.070610386738899161 -0.2301857030121148 0 0.068670900169069571 -0.25170484312657088 0 0.060643709716919861 -0.24915130951748629 0 0.067092989881396378 -0.24301997764314451 0 0.056413142465954282 -0.2393987625308939 0 0.067092989881396378 -0.24301997764314451 0 0.070610386738899161 -0.2301857030121148 0 0.068670900169069571 -0.25170484312657088 0 0.067092989881396378 -0.24301997764314451 0 0.078732715016248386 -0.2465985142875933 0 0.078732715016248386 -0.2465985142875933 0 0.086555561221717842 -0.2320598547149956 0 0.070610386738899161 -0.2301857030121148 0 0.078732715016248386 -0.2465985142875933 0 0.086555561221717842 -0.2320598547149956 0 0.09477141884214027 -0.24650166742010321 0 0.086555561221717842 -0.2320598547149956 0 0.070610386738899161 -0.2301857030121148 0 0.080140549614657636 -0.2167707802342009 0 0.092657077553068901 -0.2206050850423481 0 0.086555561221717842 -0.2320598547149956 0 0.080140549614657636 -0.2167707802342009 0 0.070610386738899161 -0.2301857030121148 0 0.063232013994969749 -0.21493004671985691 0 0.080140549614657636 -0.2167707802342009 0 0.063232013994969749 -0.21493004671985691 0 0.07427292814946003 -0.20484205992450019 0 0.080140549614657636 -0.2167707802342009 0 0.059517719286908369 -0.1959707505161723 0 0.063232013994969749 -0.21493004671985691 0 0.07427292814946003 -0.20484205992450019 0 0.059517719286908369 -0.1959707505161723 0 0.07427292814946003 -0.20484205992450019 0 0.082232275079004102 -0.1897000104048249 0 0.059517719286908369 -0.1959707505161723 0 0.082232275079004102 -0.1897000104048249 0 0.069325445922192405 -0.17750942562424529 0 0.07427292814946003 -0.20484205992450019 0 0.082232275079004102 -0.1897000104048249 0 0.089089015676835942 -0.20581539299170951 0 0.082232275079004102 -0.1897000104048249 0 0.1001142501218981 -0.19439065134516639 0 0.097849487588856643 -0.18000544609910499 0 0.082232275079004102 -0.1897000104048249 0 0.089089015676835942 -0.20581539299170951 0 0.1001142501218981 -0.19439065134516639 0 0.07427292814946003 -0.20484205992450019 0 0.080140549614657636 -0.2167707802342009 0 0.089089015676835942 -0.20581539299170951 0 0.092657077553068901 -0.2206050850423481 0 0.080140549614657636 -0.2167707802342009 0 0.089089015676835942 -0.20581539299170951 0 0.092657077553068901 -0.2206050850423481 0 0.089089015676835942 -0.20581539299170951 0 0.10344538258092879 -0.21237831716195441 0 0.089089015676835942 -0.20581539299170951 0 0.10344538258092879 -0.21237831716195441 0 0.1001142501218981 -0.19439065134516639 0 0.10344538258092879 -0.21237831716195441 0 0.1001142501218981 -0.19439065134516639 0 0.11700156928509001 -0.19724393022828909 0 0.1001142501218981 -0.19439065134516639 0 0.11700156928509001 -0.19724393022828909 0 0.11318159998109049 -0.1820736988617109 0 0.11700156928509001 -0.19724393022828909 0 0.11318159998109049 -0.1820736988617109 0 0.13015836463603331 -0.18680420016310481 0 0.10344538258092879 -0.21237831716195441 0 0.12139850008723869 -0.21231032922883719 0 0.11429638767800571 -0.22298099667505331 0 0.10344538258092879 -0.21237831716195441 0 0.11700156928509001 -0.19724393022828909 0 0.12139850008723869 -0.21231032922883719 0 0.11700156928509001 -0.19724393022828909 0 0.12139850008723869 -0.21231032922883719 0 0.12924144026734499 -0.20162071726484609 0 0.11429638767800571 -0.22298099667505331 0 0.1236491410850933 -0.23584551251244881 0 0.10260777135880431 -0.23235579999331599 0 0.12139850008723869 -0.21231032922883719 0 0.11429638767800571 -0.22298099667505331 0 0.12946969481637269 -0.22342477506286221 0 0.11429638767800571 -0.22298099667505331 0 0.1236491410850933 -0.23584551251244881 0 0.12946969481637269 -0.22342477506286221 0 0.1346905799108257 -0.26249869470809373 0 0.1236491410850933 -0.23584551251244881 0 0.1124148736483154 -0.24934285577144161 0 0.1236491410850933 -0.23584551251244881 0 0.1124148736483154 -0.24934285577144161 0 0.10260777135880431 -0.23235579999331599 0 0.1124148736483154 -0.24934285577144161 0 0.09477141884214027 -0.24650166742010321 0 0.10260777135880431 -0.23235579999331599 0 0.086555561221717842 -0.2320598547149956 0 0.09477141884214027 -0.24650166742010321 0 0.10260777135880431 -0.23235579999331599 0 0.092657077553068901 -0.2206050850423481 0 0.086555561221717842 -0.2320598547149956 0 0.10260777135880431 -0.23235579999331599 0 0.10344538258092879 -0.21237831716195441 0 0.11429638767800571 -0.22298099667505331 0 0.10260777135880431 -0.23235579999331599 0 0.092657077553068901 -0.2206050850423481 0 0.10344538258092879 -0.21237831716195441 0 0.10260777135880431 -0.23235579999331599 0 0.10831380337559469 -0.16372601897955061 0 0.089573919338718402 -0.14817286918041181 0 0.1118226011198238 -0.14956625326078021 0 0.10831380337559469 -0.16372601897955061 0 0.089573919338718402 -0.14817286918041181 0 0.1101135778644796 -0.13522139959251109 0 0.1118226011198238 -0.14956625326078021 0 0.089573919338718402 -0.14817286918041181 0 0.1101135778644796 -0.13522139959251109 0 0.092807760148714641 -0.12454407421679781 0 0.11151991775603259 -0.1177426262654688 0 0.1101135778644796 -0.13522139959251109 0 0.089573919338718402 -0.14817286918041181 0 0.092807760148714641 -0.12454407421679781 0 0.1101135778644796 -0.13522139959251109 0 0.11151991775603259 -0.1177426262654688 0 0.1276075298871012 -0.12854147022919951 0 0.1101135778644796 -0.13522139959251109 0 0.12344333801129979 -0.1423247201707728 0 0.1276075298871012 -0.12854147022919951 0 0.1101135778644796 -0.13522139959251109 0 0.12344333801129979 -0.1423247201707728 0 0.1118226011198238 -0.14956625326078021 0 0.12344333801129979 -0.1423247201707728 0 0.1118226011198238 -0.14956625326078021 0 0.1253326927526357 -0.15756249646372869 0 0.12495480361634211 -0.17202637998491629 0 0.10831380337559469 -0.16372601897955061 0 0.1253326927526357 -0.15756249646372869 0 0.1118226011198238 -0.14956625326078021 0 0.10831380337559469 -0.16372601897955061 0 0.1253326927526357 -0.15756249646372869 0 0.12495480361634211 -0.17202637998491629 0 0.11318159998109049 -0.1820736988617109 0 0.10831380337559469 -0.16372601897955061 0 0.12495480361634211 -0.17202637998491629 0 0.11318159998109049 -0.1820736988617109 0 0.13015836463603331 -0.18680420016310481 0 0.11318159998109049 -0.1820736988617109 0 0.097849487588856643 -0.18000544609910499 0 0.10831380337559469 -0.16372601897955061 0 0.1001142501218981 -0.19439065134516639 0 0.11318159998109049 -0.1820736988617109 0 0.097849487588856643 -0.18000544609910499 0 0.097849487588856643 -0.18000544609910499 0 0.10831380337559469 -0.16372601897955061 0 0.085405509386695916 -0.170136850904272 0 0.10831380337559469 -0.16372601897955061 0 0.085405509386695916 -0.170136850904272 0 0.089573919338718402 -0.14817286918041181 0 0.085405509386695916 -0.170136850904272 0 0.068849785435589866 -0.15810227599569049 0 0.089573919338718402 -0.14817286918041181 0 0.082232275079004102 -0.1897000104048249 0 0.085405509386695916 -0.170136850904272 0 0.069325445922192405 -0.17750942562424529 0 0.082232275079004102 -0.1897000104048249 0 0.097849487588856643 -0.18000544609910499 0 0.085405509386695916 -0.170136850904272 0 0.069325445922192405 -0.17750942562424529 0 0.068849785435589866 -0.15810227599569049 0 0.050621940422763807 -0.17363724030026681 0 0.085405509386695916 -0.170136850904272 0 0.069325445922192405 -0.17750942562424529 0 0.068849785435589866 -0.15810227599569049 0 0.068849785435589866 -0.15810227599569049 0 0.070834035301842097 -0.1326197193812729 0 0.047849771554059138 -0.14427102859448629 0 0.068849785435589866 -0.15810227599569049 0 0.089573919338718402 -0.14817286918041181 0 0.070834035301842097 -0.1326197193812729 0 0.089573919338718402 -0.14817286918041181 0 0.070834035301842097 -0.1326197193812729 0 0.092807760148714641 -0.12454407421679781 0 0.089573919338718402 -0.14817286918041181 0 0.070834035301842097 -0.1326197193812729 0 0.070834035301842097 -0.1326197193812729 0 0.047849771554059138 -0.14427102859448629 0 0.052094151264965853 -0.117066569582134 0 0.047849771554059138 -0.14427102859448629 0 0.02846052564263012 -0.1656166140771802 0 0.027719859759277848 -0.13838118604550931 0 0.047849771554059138 -0.14427102859448629 0 0.052094151264965853 -0.117066569582134 0 0.036195463480279369 -0.1242765086694947 0 0.047849771554059138 -0.14427102859448629 0 0.027719859759277848 -0.13838118604550931 0 0.036195463480279369 -0.1242765086694947 0 0.059517719286908369 -0.1959707505161723 0 0.069325445922192405 -0.17750942562424529 0 0.050621940422763807 -0.17363724030026681 0 0.036582469344693197 -0.19011752362393319 0 0.059517719286908369 -0.1959707505161723 0 0.050621940422763807 -0.17363724030026681 0 0.068849785435589866 -0.15810227599569049 0 0.047849771554059138 -0.14427102859448629 0 0.050621940422763807 -0.17363724030026681 0 0.047849771554059138 -0.14427102859448629 0 0.050621940422763807 -0.17363724030026681 0 0.02846052564263012 -0.1656166140771802 0 0.036582469344693197 -0.19011752362393319 0 0.050621940422763807 -0.17363724030026681 0 0.02846052564263012 -0.1656166140771802 0 0.036582469344693197 -0.19011752362393319 0 0.02846052564263012 -0.1656166140771802 0 0.0089288639899517616 -0.1799517076714372 0 0.02846052564263012 -0.1656166140771802 0 0.0064191928339507407 -0.164292436503471 0 0.01388665011250549 -0.15105611253131351 0 0.02846052564263012 -0.1656166140771802 0 0.0064191928339507407 -0.164292436503471 0 0.0089288639899517616 -0.1799517076714372 0 -0.0065904008473937452 -0.17748729088198689 0 0.0064191928339507407 -0.164292436503471 0 0.0089288639899517616 -0.1799517076714372 0 0.027719859759277848 -0.13838118604550931 0 0.0090665138201122611 -0.13458367275464961 0 0.019959267595004292 -0.12015033934234839 0 0.027719859759277848 -0.13838118604550931 0 0.019959267595004292 -0.12015033934234839 0 0.036195463480279369 -0.1242765086694947 0 0.027719859759277848 -0.13838118604550931 0 0.01388665011250549 -0.15105611253131351 0 0.0090665138201122611 -0.13458367275464961 0 0.02846052564263012 -0.1656166140771802 0 0.027719859759277848 -0.13838118604550931 0 0.01388665011250549 -0.15105611253131351 0 -0.0016517895909729759 -0.14913519766653521 0 0.01388665011250549 -0.15105611253131351 0 0.0090665138201122611 -0.13458367275464961 0 -0.0016517895909729759 -0.14913519766653521 0 0.0064191928339507407 -0.164292436503471 0 0.01388665011250549 -0.15105611253131351 0 -0.0095636458269275949 -0.13064788567915631 0 0.0090665138201122611 -0.13458367275464961 0 0.0038204708684723399 -0.1199975449956384 0 0.0090665138201122611 -0.13458367275464961 0 0.0038204708684723399 -0.1199975449956384 0 0.019959267595004292 -0.12015033934234839 0 -0.0088475822703880137 -0.1121173624287804 0 0.0038204708684723399 -0.1199975449956384 0 0.0080312610179324 -0.1062209242384643 0 0.0038204708684723399 -0.1199975449956384 0 0.019959267595004292 -0.12015033934234839 0 0.0080312610179324 -0.1062209242384643 0 0.019959267595004292 -0.12015033934234839 0 0.036195463480279369 -0.1242765086694947 0 0.0333542672280897 -0.1015134197829953 0 0.0080312610179324 -0.1062209242384643 0 0.0086630023115394222 -0.091407271345933974 0 0.0333542672280897 -0.1015134197829953 0 0.019959267595004292 -0.12015033934234839 0 0.0080312610179324 -0.1062209242384643 0 0.0333542672280897 -0.1015134197829953 0 -0.0064178238754883671 -0.095728903008746299 0 0.0080312610179324 -0.1062209242384643 0 0.0086630023115394222 -0.091407271345933974 0 -0.0057488126967492458 -0.077864854612590587 0 0.0086630023115394222 -0.091407271345933974 0 0.016982405517875311 -0.078732047633354951 0 -0.0057488126967492458 -0.077864854612590587 0 0.0056488667538581293 -0.065527085463935736 0 0.016982405517875311 -0.078732047633354951 0 0.0056488667538581293 -0.065527085463935736 0 0.02528901194599387 -0.063760969999624093 0 0.016982405517875311 -0.078732047633354951 0 0.02528901194599387 -0.063760969999624093 0 0.016982405517875311 -0.078732047633354951 0 0.036907621996869963 -0.079528566818166321 0 0.0086630023115394222 -0.091407271345933974 0 0.016982405517875311 -0.078732047633354951 0 0.0333542672280897 -0.1015134197829953 0 0.016982405517875311 -0.078732047633354951 0 0.036907621996869963 -0.079528566818166321 0 0.0333542672280897 -0.1015134197829953 0 0.036907621996869963 -0.079528566818166321 0 0.055247786237107917 -0.085162011768038975 0 0.0333542672280897 -0.1015134197829953 0 0.02528901194599387 -0.063760969999624093 0 0.036907621996869963 -0.079528566818166321 0 0.048476402025037307 -0.062371887328239402 0 0.036907621996869963 -0.079528566818166321 0 0.055247786237107917 -0.085162011768038975 0 0.048476402025037307 -0.062371887328239402 0 0.048476402025037307 -0.062371887328239402 0 0.06267030802572876 -0.058323116598696573 0 0.067437890707656462 -0.072291998706719734 0 0.055247786237107917 -0.085162011768038975 0 0.048476402025037307 -0.062371887328239402 0 0.067437890707656462 -0.072291998706719734 0 0.061153297897108883 -0.1020948325032475 0 0.052094151264965853 -0.117066569582134 0 0.0333542672280897 -0.1015134197829953 0 0.055247786237107917 -0.085162011768038975 0 0.061153297897108883 -0.1020948325032475 0 0.0333542672280897 -0.1015134197829953 0 0.070834035301842097 -0.1326197193812729 0 0.052094151264965853 -0.117066569582134 0 0.052094151264965853 -0.117066569582134 0 0.036195463480279369 -0.1242765086694947 0 0.0333542672280897 -0.1015134197829953 0 0.052094151264965853 -0.117066569582134 0 0.0333542672280897 -0.1015134197829953 0 0.026737685234225459 -0.01031165401823585 0 0.01514139729703496 -0.0013759143423081031 0 0.0068720610923031717 -0.0055029179110838711 0 0.023710047616364659 0.0069156477976223402 0 0.038337861133160352 0.00060673527080243631 0 0.026737685234225459 -0.01031165401823585 0 0.023710047616364659 0.0069156477976223402 0 0.026737685234225459 -0.01031165401823585 0 0.01514139729703496 -0.0013759143423081031 0 -0.002902715634884295 -0.015629490120933679 0 0.026737685234225459 -0.01031165401823585 0 0.0068720610923031717 -0.0055029179110838711 0 -0.002902715634884295 -0.015629490120933679 0 0.026737685234225459 -0.01031165401823585 0 0.005475147787082555 0.0053164928731475134 0 0.01514139729703496 -0.0013759143423081031 0 0.0068720610923031717 -0.0055029179110838711 0 -0.0056325041382708106 -0.001671571725724148 0 0.005475147787082555 0.0053164928731475134 0 0.0068720610923031717 -0.0055029179110838711 0 -0.002902715634884295 -0.015629490120933679 0 0.026737685234225459 -0.01031165401823585 0 0.0031290989705711758 -0.029797021315310531 0 0.0031290989705711758 -0.029797021315310531 0 0.027050882253834101 -0.025908481724470821 0 0.026737685234225459 -0.01031165401823585 0 0.0031290989705711758 -0.029797021315310531 0 0.027050882253834101 -0.025908481724470821 0 0.026737685234225459 -0.01031165401823585 0 0.027050882253834101 -0.025908481724470821 0 0.03905885044271757 -0.01124814351383316 0 0.027050882253834101 -0.025908481724470821 0 0.018114609006209609 -0.038178346744099062 0 0.032150591662299492 -0.047438354896985953 0 0.018114609006209609 -0.038178346744099062 0 0.010127863138133689 -0.049569529039628912 0 0.032150591662299492 -0.047438354896985953 0 0.0031290989705711758 -0.029797021315310531 0 0.027050882253834101 -0.025908481724470821 0 0.018114609006209609 -0.038178346744099062 0 0.0031290989705711758 -0.029797021315310531 0 0.018114609006209609 -0.038178346744099062 0 0.010127863138133689 -0.049569529039628912 0 -0.0078170970257354904 -0.042035043314792367 0 0.0031290989705711758 -0.029797021315310531 0 0.010127863138133689 -0.049569529039628912 0 0.0056488667538581293 -0.065527085463935736 0 0.02528901194599387 -0.063760969999624093 0 0.010127863138133689 -0.049569529039628912 0 0.02528901194599387 -0.063760969999624093 0 0.010127863138133689 -0.049569529039628912 0 0.032150591662299492 -0.047438354896985953 0 0.02528901194599387 -0.063760969999624093 0 0.032150591662299492 -0.047438354896985953 0 0.048476402025037307 -0.062371887328239402 0 0.032150591662299492 -0.047438354896985953 0 0.048476402025037307 -0.062371887328239402 0 0.057752750538034817 -0.042189227022471007 0 0.048476402025037307 -0.062371887328239402 0 0.057752750538034817 -0.042189227022471007 0 0.06267030802572876 -0.058323116598696573 0 0.057752750538034817 -0.042189227022471007 0 0.041981722497816377 -0.034389001444389722 0 0.050972665537097103 -0.02201994213363111 0 0.032150591662299492 -0.047438354896985953 0 0.057752750538034817 -0.042189227022471007 0 0.041981722497816377 -0.034389001444389722 0 0.027050882253834101 -0.025908481724470821 0 0.032150591662299492 -0.047438354896985953 0 0.041981722497816377 -0.034389001444389722 0 0.027050882253834101 -0.025908481724470821 0 0.050972665537097103 -0.02201994213363111 0 0.027050882253834101 -0.025908481724470821 0 0.050972665537097103 -0.02201994213363111 0 0.03905885044271757 -0.01124814351383316 0 0.027050882253834101 -0.025908481724470821 0 0.041981722497816377 -0.034389001444389722 0 0.050972665537097103 -0.02201994213363111 0 0.057752750538034817 -0.042189227022471007 0 0.050972665537097103 -0.02201994213363111 0 0.074894448820360032 -0.0181314025427914 0 0.052195158055270842 0.001392625036369546 0 0.050972665537097103 -0.02201994213363111 0 0.067305906500593371 -0.0035502476455594621 0 0.052195158055270842 0.001392625036369546 0 0.050972665537097103 -0.02201994213363111 0 0.03905885044271757 -0.01124814351383316 0 0.038337861133160352 0.00060673527080243631 0 0.052195158055270842 0.001392625036369546 0 0.03905885044271757 -0.01124814351383316 0 0.038337861133160352 0.00060673527080243631 0 0.026737685234225459 -0.01031165401823585 0 0.03905885044271757 -0.01124814351383316 0 0.074894448820360032 -0.0181314025427914 0 0.098816232103622836 -0.01424286295195171 0 0.096288827351058495 -0.00076293681715209455 0 0.083713321977171906 0.0049096628315781782 0 0.074894448820360032 -0.0181314025427914 0 0.096288827351058495 -0.00076293681715209455 0 0.083713321977171906 0.0049096628315781782 0 0.067305906500593371 -0.0035502476455594621 0 0.074894448820360032 -0.0181314025427914 0 0.050972665537097103 -0.02201994213363111 0 0.067305906500593371 -0.0035502476455594621 0 0.074894448820360032 -0.0181314025427914 0 0.050972665537097103 -0.02201994213363111 0 0.074894448820360032 -0.0181314025427914 0 0.074894448820360032 -0.0181314025427914 0 0.095585103926693643 -0.024262574202455971 0 0.098816232103622836 -0.01424286295195171 0 0.074894448820360032 -0.0181314025427914 0 0.091594125676936311 -0.035546409113755839 0 0.076255787482962745 -0.039999030863263778 0 0.074894448820360032 -0.0181314025427914 0 0.091594125676936311 -0.035546409113755839 0 0.095585103926693643 -0.024262574202455971 0 0.074894448820360032 -0.0181314025427914 0 0.098816232103622836 -0.01424286295195171 0 0.091594125676936311 -0.035546409113755839 0 0.076255787482962745 -0.039999030863263778 0 0.090659853664900841 -0.052760749527366022 0 0.057752750538034817 -0.042189227022471007 0 0.074894448820360032 -0.0181314025427914 0 0.076255787482962745 -0.039999030863263778 0 0.057752750538034817 -0.042189227022471007 0 0.076255787482962745 -0.039999030863263778 0 0.077189512406841451 -0.05566751570316554 0 0.06267030802572876 -0.058323116598696573 0 0.077189512406841451 -0.05566751570316554 0 0.067437890707656462 -0.072291998706719734 0 0.057752750538034817 -0.042189227022471007 0 0.06267030802572876 -0.058323116598696573 0 0.077189512406841451 -0.05566751570316554 0 0.076255787482962745 -0.039999030863263778 0 0.077189512406841451 -0.05566751570316554 0 0.090659853664900841 -0.052760749527366022 0 0.077189512406841451 -0.05566751570316554 0 0.090659853664900841 -0.052760749527366022 0 0.082775138669651624 -0.069669026404960477 0 0.10457614893576971 -0.044742157754011719 0 0.098279404960291306 -0.067607676606864855 0 0.1232536941432458 -0.068580322652224857 0 0.090659853664900841 -0.052760749527366022 0 0.10457614893576971 -0.044742157754011719 0 0.098279404960291306 -0.067607676606864855 0 0.1205668018519495 -0.046829363648314533 0 0.1232536941432458 -0.068580322652224857 0 0.1205668018519495 -0.046829363648314533 0 0.10457614893576971 -0.044742157754011719 0 0.1232536941432458 -0.068580322652224857 0 0.10457614893576971 -0.044742157754011719 0 0.1232536941432458 -0.068580322652224857 0 0.1205668018519495 -0.046829363648314533 0 0.11787990956065381 -0.025078404644404181 0 0.12943648009662481 -0.035689994552709131 0 0.1205668018519495 -0.046829363648314533 0 0.1061856743616382 -0.032805211139475307 0 0.10457614893576971 -0.044742157754011719 0 0.1205668018519495 -0.046829363648314533 0 0.11787990956065381 -0.025078404644404181 0 0.1205668018519495 -0.046829363648314533 0 0.1061856743616382 -0.032805211139475307 0 0.11787990956065381 -0.025078404644404181 0 0.091594125676936311 -0.035546409113755839 0 0.090659853664900841 -0.052760749527366022 0 0.10457614893576971 -0.044742157754011719 0 0.091594125676936311 -0.035546409113755839 0 0.1061856743616382 -0.032805211139475307 0 0.10457614893576971 -0.044742157754011719 0 0.091594125676936311 -0.035546409113755839 0 0.1061856743616382 -0.032805211139475307 0 0.095585103926693643 -0.024262574202455971 0 0.095585103926693643 -0.024262574202455971 0 0.1069119562178263 -0.02037235747390968 0 0.098816232103622836 -0.01424286295195171 0 0.1061856743616382 -0.032805211139475307 0 0.095585103926693643 -0.024262574202455971 0 0.1069119562178263 -0.02037235747390968 0 0.1061856743616382 -0.032805211139475307 0 0.1069119562178263 -0.02037235747390968 0 0.11787990956065381 -0.025078404644404181 0 0.11787990956065381 -0.025078404644404181 0 0.1180015385767916 -0.01779982850072075 0 0.129260913998334 -0.02301310654192764 0 0.1069119562178263 -0.02037235747390968 0 0.11787990956065381 -0.025078404644404181 0 0.1180015385767916 -0.01779982850072075 0 0.1069119562178263 -0.02037235747390968 0 0.1180015385767916 -0.01779982850072075 0 0.1061515757922892 -0.01029301428629891 0 0.1180015385767916 -0.01779982850072075 0 0.1061515757922892 -0.01029301428629891 0 0.12980333731485461 -0.010242259557063369 0 0.1061515757922892 -0.01029301428629891 0 0.12980333731485461 -0.010242259557063369 0 0.1167036944564606 -0.0033909693209686429 0 0.1061515757922892 -0.01029301428629891 0 0.12980333731485461 -0.010242259557063369 0 0.1167036944564606 -0.0033909693209686429 0 0.1254970565252467 -0.00055485016598096602 0 0.12980333731485461 -0.010242259557063369 0 0.11501839911308701 0.003750665338283013 0 0.1167036944564606 -0.0033909693209686429 0 0.1254970565252467 -0.00055485016598096602 0 0.1070481035368254 0.00038461206621701738 0 0.1167036944564606 -0.0033909693209686429 0 0.1061515757922892 -0.01029301428629891 0 0.1070481035368254 0.00038461206621701738 0 0.1061515757922892 -0.01029301428629891 0 0.096288827351058495 -0.00076293681715209455 0 0.1069119562178263 -0.02037235747390968 0 0.1061515757922892 -0.01029301428629891 0 0.098816232103622836 -0.01424286295195171 0 0.1061515757922892 -0.01029301428629891 0 0.098816232103622836 -0.01424286295195171 0 0.096288827351058495 -0.00076293681715209455 0 0.077290060388793685 -0.1095273622853211 0 0.081908663777065779 -0.08567790117374946 0 0.097886196055260083 -0.1040236682843273 0 0.070834035301842097 -0.1326197193812729 0 0.092807760148714641 -0.12454407421679781 0 0.077290060388793685 -0.1095273622853211 0 0.092807760148714641 -0.12454407421679781 0 0.077290060388793685 -0.1095273622853211 0 0.097886196055260083 -0.1040236682843273 0 0.061153297897108883 -0.1020948325032475 0 0.052094151264965853 -0.117066569582134 0 0.077290060388793685 -0.1095273622853211 0 0.070834035301842097 -0.1326197193812729 0 0.052094151264965853 -0.117066569582134 0 0.077290060388793685 -0.1095273622853211 0 0.061153297897108883 -0.1020948325032475 0 0.077290060388793685 -0.1095273622853211 0 0.081908663777065779 -0.08567790117374946 0 0.055247786237107917 -0.085162011768038975 0 0.061153297897108883 -0.1020948325032475 0 0.081908663777065779 -0.08567790117374946 0 0.055247786237107917 -0.085162011768038975 0 0.067437890707656462 -0.072291998706719734 0 0.081908663777065779 -0.08567790117374946 0 0.077189512406841451 -0.05566751570316554 0 0.067437890707656462 -0.072291998706719734 0 0.082775138669651624 -0.069669026404960477 0 0.067437890707656462 -0.072291998706719734 0 0.082775138669651624 -0.069669026404960477 0 0.081908663777065779 -0.08567790117374946 0 0.082775138669651624 -0.069669026404960477 0 0.081908663777065779 -0.08567790117374946 0 0.098279404960291306 -0.067607676606864855 0 0.090659853664900841 -0.052760749527366022 0 0.082775138669651624 -0.069669026404960477 0 0.098279404960291306 -0.067607676606864855 0 0.081908663777065779 -0.08567790117374946 0 0.10736658550644319 -0.086478535805763382 0 0.097886196055260083 -0.1040236682843273 0 0.081908663777065779 -0.08567790117374946 0 0.10736658550644319 -0.086478535805763382 0 0.098279404960291306 -0.067607676606864855 0 0.10736658550644319 -0.086478535805763382 0 0.098279404960291306 -0.067607676606864855 0 0.1232536941432458 -0.068580322652224857 0 0.10736658550644319 -0.086478535805763382 0 0.1141987329646776 -0.1021619623395351 0 0.12594860182057871 -0.090396167894289101 0 0.10736658550644319 -0.086478535805763382 0 0.1232536941432458 -0.068580322652224857 0 0.12594860182057871 -0.090396167894289101 0 0.1232536941432458 -0.068580322652224857 0 0.12594860182057871 -0.090396167894289101 0 0.1141987329646776 -0.1021619623395351 0 0.12864350949791209 -0.1122120131363533 0 0.12594860182057871 -0.090396167894289101 0 0.10736658550644319 -0.086478535805763382 0 0.1141987329646776 -0.1021619623395351 0 0.097886196055260083 -0.1040236682843273 0 0.1141987329646776 -0.1021619623395351 0 0.097886196055260083 -0.1040236682843273 0 0.11151991775603259 -0.1177426262654688 0 0.092807760148714641 -0.12454407421679781 0 0.097886196055260083 -0.1040236682843273 0 0.11151991775603259 -0.1177426262654688 0 0.11151991775603259 -0.1177426262654688 0 0.12864350949791209 -0.1122120131363533 0 0.1276075298871012 -0.12854147022919951 0 0.1141987329646776 -0.1021619623395351 0 0.11151991775603259 -0.1177426262654688 0 0.12864350949791209 -0.1122120131363533 0 0.12864350949791209 -0.1122120131363533 0 0.1423623471684026 -0.1196490635848497 0 0.1276075298871012 -0.12854147022919951 0 0.12864350949791209 -0.1122120131363533 0 0.1423623471684026 -0.1196490635848497 0 0.13810886892529819 -0.10390186341898 0 0.1423623471684026 -0.1196490635848497 0 0.15464202604531629 -0.10864127410219709 0 0.1593478841122811 -0.1239014661515604 0 0.1423623471684026 -0.1196490635848497 0 0.15464202604531629 -0.10864127410219709 0 0.13810886892529819 -0.10390186341898 0 0.15464202604531629 -0.10864127410219709 0 0.13810886892529819 -0.10390186341898 0 0.13894786009428131 -0.08861079837721085 0 0.15464202604531629 -0.10864127410219709 0 0.13894786009428131 -0.08861079837721085 0 0.15464202604531629 -0.10864127410219709 0 0.13894786009428131 -0.08861079837721085 0 0.1603012410704415 -0.088043657412734483 0 0.12864350949791209 -0.1122120131363533 0 0.13810886892529819 -0.10390186341898 0 0.12594860182057871 -0.090396167894289101 0 0.13810886892529819 -0.10390186341898 0 0.12594860182057871 -0.090396167894289101 0 0.13894786009428131 -0.08861079837721085 0 0.12864350949791209 -0.1122120131363533 0 0.12594860182057871 -0.090396167894289101 0 0.1232536941432458 -0.068580322652224857 0 0.13894786009428131 -0.08861079837721085 0 0.1232536941432458 -0.068580322652224857 0 0.12594860182057871 -0.090396167894289101 0 0.13894786009428131 -0.08861079837721085 0 0.1232536941432458 -0.068580322652224857 0 0.1451842396632361 -0.070526050641113336 0 0.139005165063535 -0.050604130127596611 0 0.1232536941432458 -0.068580322652224857 0 0.13894786009428131 -0.08861079837721085 0 0.1451842396632361 -0.070526050641113336 0 0.1451842396632361 -0.070526050641113336 0 0.1591352996973163 -0.073698337809496681 0 0.1594106490228866 -0.057737000342595809 0 0.1451842396632361 -0.070526050641113336 0 0.15089216013131879 -0.080219711060138837 0 0.1591352996973163 -0.073698337809496681 0 0.13894786009428131 -0.08861079837721085 0 0.15089216013131879 -0.080219711060138837 0 0.1603012410704415 -0.088043657412734483 0 0.13894786009428131 -0.08861079837721085 0 0.1451842396632361 -0.070526050641113336 0 0.15089216013131879 -0.080219711060138837 0 0.1603012410704415 -0.088043657412734483 0 0.1591352996973163 -0.073698337809496681 0 0.1763868622474066 -0.07398871809099411 0 0.1603012410704415 -0.088043657412734483 0 0.1763868622474066 -0.07398871809099411 0 0.17676201444458259 -0.090349522097625812 0 0.15089216013131879 -0.080219711060138837 0 0.1603012410704415 -0.088043657412734483 0 0.1591352996973163 -0.073698337809496681 0 0.1763868622474066 -0.07398871809099411 0 0.1594106490228866 -0.057737000342595809 0 0.1591352996973163 -0.073698337809496681 0 0.1763868622474066 -0.07398871809099411 0 0.1594106490228866 -0.057737000342595809 0 0.1763868622474066 -0.07398871809099411 0 0.1594106490228866 -0.057737000342595809 0 0.18115934250380181 -0.056304033873956702 0 0.1763868622474066 -0.07398871809099411 0 0.1933630754719266 -0.090240435839392341 0 0.19260408318655009 -0.068940558013675074 0 0.1763868622474066 -0.07398871809099411 0 0.18115934250380181 -0.056304033873956702 0 0.19260408318655009 -0.068940558013675074 0 0.1763868622474066 -0.07398871809099411 0 0.1933630754719266 -0.090240435839392341 0 0.1763868622474066 -0.07398871809099411 0 0.17676201444458259 -0.090349522097625812 0 0.1933630754719266 -0.090240435839392341 0 0.17635547979210381 -0.10707095099547639 0 0.1933630754719266 -0.090240435839392341 0 0.17676201444458259 -0.090349522097625812 0 0.17635547979210381 -0.10707095099547639 0 0.1933630754719266 -0.090240435839392341 0 0.17635547979210381 -0.10707095099547639 0 0.183510899382961 -0.12283076088752461 0 0.1593478841122811 -0.1239014661515604 0 0.17635547979210381 -0.10707095099547639 0 0.183510899382961 -0.12283076088752461 0 0.19361066172105951 -0.1118482306470357 0 0.15464202604531629 -0.10864127410219709 0 0.17635547979210381 -0.10707095099547639 0 0.1593478841122811 -0.1239014661515604 0 0.17635547979210381 -0.10707095099547639 0 0.1593478841122811 -0.1239014661515604 0 0.1603012410704415 -0.088043657412734483 0 0.17676201444458259 -0.090349522097625812 0 0.17635547979210381 -0.10707095099547639 0 0.15464202604531629 -0.10864127410219709 0 0.1603012410704415 -0.088043657412734483 0 0.17635547979210381 -0.10707095099547639 0 0.15345509883742009 -0.01019150482782784 0 0.12980333731485461 -0.010242259557063369 0 0.15345509883742009 -0.01019150482782784 0 0.14024072943406241 -0.0075194032431784574 0 0.12980333731485461 -0.010242259557063369 0 0.15345509883742009 -0.01019150482782784 0 0.12980333731485461 -0.010242259557063369 0 0.14177888940141689 -0.01976160701819973 0 0.16086610818027189 0.00088494390851339051 0 0.15345509883742009 -0.01019150482782784 0 0.14833042641046409 -0.002631935689413961 0 0.1419667591125528 0.002147773280953317 0 0.14833042641046409 -0.002631935689413961 0 0.14024072943406241 -0.0075194032431784574 0 0.15345509883742009 -0.01019150482782784 0 0.14833042641046409 -0.002631935689413961 0 0.14024072943406241 -0.0075194032431784574 0 0.13299307729309279 0.006441163532843899 0 0.14024072943406241 -0.0075194032431784574 0 0.13299307729309279 0.006441163532843899 0 0.14024072943406241 -0.0075194032431784574 0 0.1254970565252467 -0.00055485016598096602 0 0.14024072943406241 -0.0075194032431784574 0 0.1254970565252467 -0.00055485016598096602 0 0.12980333731485461 -0.010242259557063369 0 0.12980333731485461 -0.010242259557063369 0 0.129260913998334 -0.02301310654192764 0 0.14177888940141689 -0.01976160701819973 0 0.1180015385767916 -0.01779982850072075 0 0.12980333731485461 -0.010242259557063369 0 0.129260913998334 -0.02301310654192764 0 0.11787990956065381 -0.025078404644404181 0 0.129260913998334 -0.02301310654192764 0 0.12943648009662481 -0.035689994552709131 0 0.129260913998334 -0.02301310654192764 0 0.1416759485151696 -0.03199331990542565 0 0.12943648009662481 -0.035689994552709131 0 0.129260913998334 -0.02301310654192764 0 0.14177888940141689 -0.01976160701819973 0 0.1416759485151696 -0.03199331990542565 0 0.14177888940141689 -0.01976160701819973 0 0.1416759485151696 -0.03199331990542565 0 0.15662286383900831 -0.02399585998432982 0 0.15345509883742009 -0.01019150482782784 0 0.14177888940141689 -0.01976160701819973 0 0.15662286383900831 -0.02399585998432982 0 0.1416759485151696 -0.03199331990542565 0 0.15627343730448839 -0.039923833386935177 0 0.15662286383900831 -0.02399585998432982 0 0.1416759485151696 -0.03199331990542565 0 0.139005165063535 -0.050604130127596611 0 0.15627343730448839 -0.039923833386935177 0 0.1416759485151696 -0.03199331990542565 0 0.12943648009662481 -0.035689994552709131 0 0.139005165063535 -0.050604130127596611 0 0.1205668018519495 -0.046829363648314533 0 0.12943648009662481 -0.035689994552709131 0 0.139005165063535 -0.050604130127596611 0 0.1205668018519495 -0.046829363648314533 0 0.1232536941432458 -0.068580322652224857 0 0.139005165063535 -0.050604130127596611 0 0.139005165063535 -0.050604130127596611 0 0.1594106490228866 -0.057737000342595809 0 0.15627343730448839 -0.039923833386935177 0 0.1451842396632361 -0.070526050641113336 0 0.139005165063535 -0.050604130127596611 0 0.1594106490228866 -0.057737000342595809 0 0.1594106490228866 -0.057737000342595809 0 0.16974452465772169 -0.04529012027482035 0 0.15627343730448839 -0.039923833386935177 0 0.1594106490228866 -0.057737000342595809 0 0.18115934250380181 -0.056304033873956702 0 0.16974452465772169 -0.04529012027482035 0 0.18115934250380181 -0.056304033873956702 0 0.18634284452566099 -0.036730156863417518 0 0.16974452465772169 -0.04529012027482035 0 0.18634284452566099 -0.036730156863417518 0 0.16974452465772169 -0.04529012027482035 0 0.1716088745151659 -0.02948094285307892 0 0.16974452465772169 -0.04529012027482035 0 0.15627343730448839 -0.039923833386935177 0 0.1716088745151659 -0.02948094285307892 0 0.15627343730448839 -0.039923833386935177 0 0.1716088745151659 -0.02948094285307892 0 0.15662286383900831 -0.02399585998432982 0 0.1716088745151659 -0.02948094285307892 0 0.15662286383900831 -0.02399585998432982 0 0.1771068603599856 -0.0101407500985923 0 0.18634284452566099 -0.036730156863417518 0 0.1716088745151659 -0.02948094285307892 0 0.18750885460937911 -0.02171815949838956 0 0.1716088745151659 -0.02948094285307892 0 0.1771068603599856 -0.0101407500985923 0 0.18750885460937911 -0.02171815949838956 0 0.18521698577699611 0.0080719676923715084 0 0.1771068603599856 -0.0101407500985923 0 0.19333238575284159 -0.001624579554046546 0 0.16086610818027189 0.00088494390851339051 0 0.15345509883742009 -0.01019150482782784 0 0.1771068603599856 -0.0101407500985923 0 0.15345509883742009 -0.01019150482782784 0 0.1771068603599856 -0.0101407500985923 0 0.15345509883742009 -0.01019150482782784 0 0.15662286383900831 -0.02399585998432982 0 0.1771068603599856 -0.0101407500985923 0 0.21703109114326871 -0.0031006257221327408 0 0.20722302021076999 -0.01007612330378117 0 0.2202246071738376 -0.01501935769985575 0 0.20722302021076999 -0.01007612330378117 0 0.20075862180993179 -0.010089961528708001 0 0.21703109114326871 -0.0031006257221327408 0 0.20722302021076999 -0.01007612330378117 0 0.2049739318777517 -0.0019828991504563451 0 0.20722302021076999 -0.01007612330378117 0 0.2049739318777517 -0.0019828991504563451 0 0.20075862180993179 -0.010089961528708001 0 0.1771068603599856 -0.0101407500985923 0 0.20075862180993179 -0.010089961528708001 0 0.18750885460937911 -0.02171815949838956 0 0.1771068603599856 -0.0101407500985923 0 0.19333238575284159 -0.001624579554046546 0 0.20075862180993179 -0.010089961528708001 0 0.1771068603599856 -0.0101407500985923 0 0.20075862180993179 -0.010089961528708001 0 0.2049739318777517 -0.0019828991504563451 0 0.19333238575284159 -0.001624579554046546 0 0.20075862180993179 -0.010089961528708001 0 0.20075862180993179 -0.010089961528708001 0 0.18750885460937911 -0.02171815949838956 0 0.1988445202303398 -0.0291584996867441 0 0.18634284452566099 -0.036730156863417518 0 0.18750885460937911 -0.02171815949838956 0 0.1988445202303398 -0.0291584996867441 0 0.20075862180993179 -0.010089961528708001 0 0.1988445202303398 -0.0291584996867441 0 0.21567637915938109 -0.030745604210910011 0 0.20722302021076999 -0.01007612330378117 0 0.21567637915938109 -0.030745604210910011 0 0.2202246071738376 -0.01501935769985575 0 0.20075862180993179 -0.010089961528708001 0 0.21567637915938109 -0.030745604210910011 0 0.20722302021076999 -0.01007612330378117 0 0.20075862180993179 -0.010089961528708001 0 0.21567637915938109 -0.030745604210910011 0 0.1988445202303398 -0.0291584996867441 0 0.21567637915938109 -0.030745604210910011 0 0.20249462524444009 -0.050013373101591901 0 0.21567637915938109 -0.030745604210910011 0 0.2170593825987191 -0.046824245489526843 0 0.20249462524444009 -0.050013373101591901 0 0.18634284452566099 -0.036730156863417518 0 0.1988445202303398 -0.0291584996867441 0 0.20249462524444009 -0.050013373101591901 0 0.18115934250380181 -0.056304033873956702 0 0.18634284452566099 -0.036730156863417518 0 0.20249462524444009 -0.050013373101591901 0 0.18115934250380181 -0.056304033873956702 0 0.20249462524444009 -0.050013373101591901 0 0.19260408318655009 -0.068940558013675074 0 0.20249462524444009 -0.050013373101591901 0 0.2138060654875521 -0.057826439439151542 0 0.2096165104651754 -0.074156229162440301 0 0.2170593825987191 -0.046824245489526843 0 0.20249462524444009 -0.050013373101591901 0 0.2138060654875521 -0.057826439439151542 0 0.22586994545842429 -0.058072022485488338 0 0.2305941365088304 -0.05140124689311211 0 0.24551189385827979 -0.07205688957531417 0 0.2170593825987191 -0.046824245489526843 0 0.2138060654875521 -0.057826439439151542 0 0.22586994545842429 -0.058072022485488338 0 0.2170593825987191 -0.046824245489526843 0 0.22586994545842429 -0.058072022485488338 0 0.2305941365088304 -0.05140124689311211 0 0.25074953979106701 -0.057391721610124569 0 0.2417312498522074 -0.052498977024630078 0 0.24551189385827979 -0.07205688957531417 0 0.2305941365088304 -0.05140124689311211 0 0.24551189385827979 -0.07205688957531417 0 0.2305941365088304 -0.05140124689311211 0 0.2417312498522074 -0.052498977024630078 0 0.24551189385827979 -0.07205688957531417 0 0.2417312498522074 -0.052498977024630078 0 0.2389135976964287 -0.041534991498874609 0 0.24997138218959711 -0.046602097251877819 0 0.25074953979106701 -0.057391721610124569 0 0.2417312498522074 -0.052498977024630078 0 0.24997138218959711 -0.046602097251877819 0 0.2305941365088304 -0.05140124689311211 0 0.2417312498522074 -0.052498977024630078 0 0.2389135976964287 -0.041534991498874609 0 0.2389135976964287 -0.041534991498874609 0 0.24997138218959711 -0.046602097251877819 0 0.24741741088909919 -0.03711588908773511 0 0.25254148323653008 -0.028052360621987089 0 0.24741741088909919 -0.03711588908773511 0 0.24040728284069759 -0.030311605845318172 0 0.2389135976964287 -0.041534991498874609 0 0.24741741088909919 -0.03711588908773511 0 0.24040728284069759 -0.030311605845318172 0 0.2389135976964287 -0.041534991498874609 0 0.2310283664757804 -0.035338208954513499 0 0.24040728284069759 -0.030311605845318172 0 0.21567637915938109 -0.030745604210910011 0 0.2170593825987191 -0.046824245489526843 0 0.2305941365088304 -0.05140124689311211 0 0.21567637915938109 -0.030745604210910011 0 0.2305941365088304 -0.05140124689311211 0 0.21567637915938109 -0.030745604210910011 0 0.2305941365088304 -0.05140124689311211 0 0.2310283664757804 -0.035338208954513499 0 0.2305941365088304 -0.05140124689311211 0 0.2389135976964287 -0.041534991498874609 0 0.2310283664757804 -0.035338208954513499 0 0.21567637915938109 -0.030745604210910011 0 0.2295504361735641 -0.02269759632435258 0 0.2202246071738376 -0.01501935769985575 0 0.21567637915938109 -0.030745604210910011 0 0.2310283664757804 -0.035338208954513499 0 0.2295504361735641 -0.02269759632435258 0 0.2310283664757804 -0.035338208954513499 0 0.2295504361735641 -0.02269759632435258 0 0.24040728284069759 -0.030311605845318172 0 0.25254148323653008 -0.028052360621987089 0 0.25507115673211361 -0.0045350410014435294 0 0.24207895432854279 -0.018814286748831292 0 0.2295504361735641 -0.02269759632435258 0 0.24040728284069759 -0.030311605845318172 0 0.24207895432854279 -0.018814286748831292 0 0.25254148323653008 -0.028052360621987089 0 0.24040728284069759 -0.030311605845318172 0 0.24207895432854279 -0.018814286748831292 0 0.2295504361735641 -0.02269759632435258 0 0.24207895432854279 -0.018814286748831292 0 0.2328244126598088 -0.0084748299510550764 0 0.25507115673211361 -0.0045350410014435294 0 0.24207895432854279 -0.018814286748831292 0 0.2328244126598088 -0.0084748299510550764 0 0.2307010633220338 0.0065947605314399501 0 0.25507115673211361 -0.0045350410014435294 0 0.2328244126598088 -0.0084748299510550764 0 0.2307010633220338 0.0065947605314399501 0 0.21703109114326871 -0.0031006257221327408 0 0.2328244126598088 -0.0084748299510550764 0 0.21703109114326871 -0.0031006257221327408 0 0.2328244126598088 -0.0084748299510550764 0 0.2202246071738376 -0.01501935769985575 0 0.2295504361735641 -0.02269759632435258 0 0.2328244126598088 -0.0084748299510550764 0 0.2202246071738376 -0.01501935769985575 0 0.20544485604847629 -0.1018066011102528 0 0.21752663662502589 -0.11337276638111329 0 0.2271954885265246 -0.096617454553157303 0 0.20544485604847629 -0.1018066011102528 0 0.21386897549316469 -0.088937683097296966 0 0.2271954885265246 -0.096617454553157303 0 0.20544485604847629 -0.1018066011102528 0 0.21752663662502589 -0.11337276638111329 0 0.20544485604847629 -0.1018066011102528 0 0.21752663662502589 -0.11337276638111329 0 0.20640180209918491 -0.1209577599355635 0 0.21752663662502589 -0.11337276638111329 0 0.20640180209918491 -0.1209577599355635 0 0.22384141129844609 -0.13014377648995429 0 0.183510899382961 -0.12283076088752461 0 0.19361066172105951 -0.1118482306470357 0 0.1957748641751485 -0.12874000259693119 0 0.20640180209918491 -0.1209577599355635 0 0.19361066172105951 -0.1118482306470357 0 0.1957748641751485 -0.12874000259693119 0 0.20544485604847629 -0.1018066011102528 0 0.20640180209918491 -0.1209577599355635 0 0.19361066172105951 -0.1118482306470357 0 0.17635547979210381 -0.10707095099547639 0 0.19361066172105951 -0.1118482306470357 0 0.1933630754719266 -0.090240435839392341 0 0.20544485604847629 -0.1018066011102528 0 0.19361066172105951 -0.1118482306470357 0 0.1933630754719266 -0.090240435839392341 0 0.20544485604847629 -0.1018066011102528 0 0.1933630754719266 -0.090240435839392341 0 0.1933630754719266 -0.090240435839392341 0 0.2096165104651754 -0.074156229162440301 0 0.20249462524444009 -0.050013373101591901 0 0.19260408318655009 -0.068940558013675074 0 0.2096165104651754 -0.074156229162440301 0 0.1933630754719266 -0.090240435839392341 0 0.19260408318655009 -0.068940558013675074 0 0.2096165104651754 -0.074156229162440301 0 0.22586994545842429 -0.058072022485488338 0 0.2096165104651754 -0.074156229162440301 0 0.2138060654875521 -0.057826439439151542 0 0.22586994545842429 -0.058072022485488338 0 0.2096165104651754 -0.074156229162440301 0 0.2096165104651754 -0.074156229162440301 0 0.21386897549316469 -0.088937683097296966 0 0.22766648933194869 -0.079387843441363154 0 0.20544485604847629 -0.1018066011102528 0 0.1933630754719266 -0.090240435839392341 0 0.21386897549316469 -0.088937683097296966 0 0.1933630754719266 -0.090240435839392341 0 0.2096165104651754 -0.074156229162440301 0 0.21386897549316469 -0.088937683097296966 0 0.22766648933194869 -0.079387843441363154 0 0.24287672884378531 -0.093222622253899892 0 0.2271954885265246 -0.096617454553157303 0 0.21386897549316469 -0.088937683097296966 0 0.22766648933194869 -0.079387843441363154 0 0.2271954885265246 -0.096617454553157303 0 0.22586994545842429 -0.058072022485488338 0 0.2096165104651754 -0.074156229162440301 0 0.22766648933194869 -0.079387843441363154 0 0.22586994545842429 -0.058072022485488338 0 0.22766648933194869 -0.079387843441363154 0 0.24551189385827979 -0.07205688957531417 0 0.22766648933194869 -0.079387843441363154 0 0.24551189385827979 -0.07205688957531417 0 0.24287672884378531 -0.093222622253899892 0 0.2604296512077291 -0.092712532257516259 0 0.24551189385827979 -0.07205688957531417 0 0.24287672884378531 -0.093222622253899892 0 0.24287672884378531 -0.093222622253899892 0 0.2271954885265246 -0.096617454553157303 0 0.2391389157583155 -0.1101791528518366 0 0.25731793437991413 -0.10838186084421191 0 0.24287672884378531 -0.093222622253899892 0 0.2391389157583155 -0.1101791528518366 0 0.21752663662502589 -0.11337276638111329 0 0.2271954885265246 -0.096617454553157303 0 0.2391389157583155 -0.1101791528518366 0 0.2271954885265246 -0.096617454553157303 0 0.2391389157583155 -0.1101791528518366 0 0.21752663662502589 -0.11337276638111329 0 0.23150821048146461 -0.12162489286282981 0 0.2391389157583155 -0.1101791528518366 0 0.21752663662502589 -0.11337276638111329 0 0.23150821048146461 -0.12162489286282981 0 0.22384141129844609 -0.13014377648995429 0 0.25108234299010679 -0.1237408511505155 0 0.2391389157583155 -0.1101791528518366 0 0.24255838249171349 -0.1273846196801762 0 0.25731793437991413 -0.10838186084421191 0 0.25108234299010679 -0.1237408511505155 0 0.2391389157583155 -0.1101791528518366 0 0.23150821048146461 -0.12162489286282981 0 0.2391389157583155 -0.1101791528518366 0 0.24255838249171349 -0.1273846196801762 0 0.25108234299010679 -0.1237408511505155 0 0.2391389157583155 -0.1101791528518366 0 0.25108234299010679 -0.1237408511505155 0 0.24255838249171349 -0.1273846196801762 0 0.25108234299010679 -0.1237408511505155 0 0.24255838249171349 -0.1273846196801762 0 0.2478804031781367 -0.1395639772109625 0 0.24255838249171349 -0.1273846196801762 0 0.2478804031781367 -0.1395639772109625 0 0.23501799576963461 -0.13786653464280499 0 0.23150821048146461 -0.12162489286282981 0 0.24255838249171349 -0.1273846196801762 0 0.23392475755722489 -0.12912696502898199 0 0.24255838249171349 -0.1273846196801762 0 0.23501799576963461 -0.13786653464280499 0 0.23392475755722489 -0.12912696502898199 0 0.25269095186966017 -0.156165935810328 0 0.2478804031781367 -0.1395639772109625 0 0.23784880614643211 -0.14935287852957149 0 0.25269095186966017 -0.156165935810328 0 0.23784880614643211 -0.14935287852957149 0 0.2361286825347646 -0.16269622414384011 0 0.2478804031781367 -0.1395639772109625 0 0.23501799576963461 -0.13786653464280499 0 0.23784880614643211 -0.14935287852957149 0 0.23784880614643211 -0.14935287852957149 0 0.22589589649235131 -0.1538985103745231 0 0.2361286825347646 -0.16269622414384011 0 0.23501799576963461 -0.13786653464280499 0 0.23784880614643211 -0.14935287852957149 0 0.22473582217524701 -0.14182547515137089 0 0.23784880614643211 -0.14935287852957149 0 0.22473582217524701 -0.14182547515137089 0 0.22589589649235131 -0.1538985103745231 0 0.22473582217524701 -0.14182547515137089 0 0.22589589649235131 -0.1538985103745231 0 0.21507350179878759 -0.14712036596404579 0 0.22589589649235131 -0.1538985103745231 0 0.21507350179878759 -0.14712036596404579 0 0.21641984022350749 -0.15720511265075229 0 0.23150821048146461 -0.12162489286282981 0 0.23392475755722489 -0.12912696502898199 0 0.22384141129844609 -0.13014377648995429 0 0.23501799576963461 -0.13786653464280499 0 0.23392475755722489 -0.12912696502898199 0 0.22384141129844609 -0.13014377648995429 0 0.23501799576963461 -0.13786653464280499 0 0.22473582217524701 -0.14182547515137089 0 0.22384141129844609 -0.13014377648995429 0 0.22473582217524701 -0.14182547515137089 0 0.22384141129844609 -0.13014377648995429 0 0.21092697363618079 -0.13506654708186011 0 0.20640180209918491 -0.1209577599355635 0 0.22384141129844609 -0.13014377648995429 0 0.21092697363618079 -0.13506654708186011 0 0.20640180209918491 -0.1209577599355635 0 0.21092697363618079 -0.13506654708186011 0 0.1957748641751485 -0.12874000259693119 0 0.22473582217524701 -0.14182547515137089 0 0.21092697363618079 -0.13506654708186011 0 0.21507350179878759 -0.14712036596404579 0 0.21507350179878759 -0.14712036596404579 0 0.20736833270214899 -0.15340814811288889 0 0.21641984022350749 -0.15720511265075229 0 0.21092697363618079 -0.13506654708186011 0 0.21507350179878759 -0.14712036596404579 0 0.20096010460739411 -0.14462780566848929 0 0.21507350179878759 -0.14712036596404579 0 0.20736833270214899 -0.15340814811288889 0 0.20096010460739411 -0.14462780566848929 0 0.20096010460739411 -0.14462780566848929 0 0.19106002678109771 -0.1510902306329627 0 0.1990178037641904 -0.15880949068815881 0 0.20736833270214899 -0.15340814811288889 0 0.20096010460739411 -0.14462780566848929 0 0.1990178037641904 -0.15880949068815881 0 0.20096010460739411 -0.14462780566848929 0 0.19106002678109771 -0.1510902306329627 0 0.18772865668091171 -0.1386706449095195 0 0.20096010460739411 -0.14462780566848929 0 0.18772865668091171 -0.1386706449095195 0 0.1957748641751485 -0.12874000259693119 0 0.21092697363618079 -0.13506654708186011 0 0.20096010460739411 -0.14462780566848929 0 0.1957748641751485 -0.12874000259693119 0 0.183510899382961 -0.12283076088752461 0 0.18772865668091171 -0.1386706449095195 0 0.1957748641751485 -0.12874000259693119 0 0.19118354035547691 -0.18220502536237981 0 0.1970950036361209 -0.17015971023003421 0 0.18539760644748021 -0.166309604958434 0 0.19118354035547691 -0.18220502536237981 0 0.1970950036361209 -0.17015971023003421 0 0.20316812466392059 -0.17902670494844489 0 0.20316812466392059 -0.17902670494844489 0 0.2069680952892356 -0.19094031247203261 0 0.19591439584512901 -0.1917576027263585 0 0.19118354035547691 -0.18220502536237981 0 0.20316812466392059 -0.17902670494844489 0 0.19591439584512901 -0.1917576027263585 0 0.1990178037641904 -0.15880949068815881 0 0.1970950036361209 -0.17015971023003421 0 0.18539760644748021 -0.166309604958434 0 0.19106002678109771 -0.1510902306329627 0 0.1990178037641904 -0.15880949068815881 0 0.18539760644748021 -0.166309604958434 0 0.1990178037641904 -0.15880949068815881 0 0.1970950036361209 -0.17015971023003421 0 0.20947857048981011 -0.16595369253358869 0 0.1970950036361209 -0.17015971023003421 0 0.20947857048981011 -0.16595369253358869 0 0.20316812466392059 -0.17902670494844489 0 0.20736833270214899 -0.15340814811288889 0 0.1990178037641904 -0.15880949068815881 0 0.20947857048981011 -0.16595369253358869 0 0.20947857048981011 -0.16595369253358869 0 0.21641984022350749 -0.15720511265075229 0 0.2242828996344392 -0.16564484626871481 0 0.20736833270214899 -0.15340814811288889 0 0.20947857048981011 -0.16595369253358869 0 0.21641984022350749 -0.15720511265075229 0 0.20947857048981011 -0.16595369253358869 0 0.21812399937369159 -0.1744576396590298 0 0.2242828996344392 -0.16564484626871481 0 0.21812399937369159 -0.1744576396590298 0 0.20316812466392059 -0.17902670494844489 0 0.2175084867670434 -0.18519162885192891 0 0.20947857048981011 -0.16595369253358869 0 0.21812399937369159 -0.1744576396590298 0 0.20316812466392059 -0.17902670494844489 0 0.20316812466392059 -0.17902670494844489 0 0.2175084867670434 -0.18519162885192891 0 0.2069680952892356 -0.19094031247203261 0 0.2175084867670434 -0.18519162885192891 0 0.23042054747848301 -0.17855456918805249 0 0.22539813731825939 -0.19231982118191859 0 0.21812399937369159 -0.1744576396590298 0 0.23042054747848301 -0.17855456918805249 0 0.2242828996344392 -0.16564484626871481 0 0.21812399937369159 -0.1744576396590298 0 0.2175084867670434 -0.18519162885192891 0 0.23042054747848301 -0.17855456918805249 0 0.23042054747848301 -0.17855456918805249 0 0.2242828996344392 -0.16564484626871481 0 0.2361286825347646 -0.16269622414384011 0 0.22589589649235131 -0.1538985103745231 0 0.21641984022350749 -0.15720511265075229 0 0.2242828996344392 -0.16564484626871481 0 0.22589589649235131 -0.1538985103745231 0 0.2242828996344392 -0.16564484626871481 0 0.2361286825347646 -0.16269622414384011 0 0.23042054747848301 -0.17855456918805249 0 0.2361286825347646 -0.16269622414384011 0 0.24563299358722171 -0.17256060469185061 0 0.25269095186966017 -0.156165935810328 0 0.2361286825347646 -0.16269622414384011 0 0.24563299358722171 -0.17256060469185061 0 0.23042054747848301 -0.17855456918805249 0 0.24143901157077299 -0.1832258004221573 0 0.23487469713800449 -0.19220565346234941 0 0.23042054747848301 -0.17855456918805249 0 0.24143901157077299 -0.1832258004221573 0 0.24563299358722171 -0.17256060469185061 0 0.25509373551380121 -0.17893097573479161 0 0.24143901157077299 -0.1832258004221573 0 0.24563299358722171 -0.17256060469185061 0 0.25042149449415368 -0.18865724081545401 0 0.25509373551380121 -0.17893097573479161 0 0.24143901157077299 -0.1832258004221573 0 0.25042149449415368 -0.18865724081545401 0 0.24143901157077299 -0.1832258004221573 0 0.244227286666265 -0.1964905043982611 0 0.2520260174112951 -0.19611349652224269 0 0.25042149449415368 -0.18865724081545401 0 0.244227286666265 -0.1964905043982611 0 0.24143901157077299 -0.1832258004221573 0 0.23487469713800449 -0.19220565346234941 0 0.244227286666265 -0.1964905043982611 0 0.23487469713800449 -0.19220565346234941 0 0.23737781191870391 -0.19916549351526361 0 0.244227286666265 -0.1964905043982611 0 0.23737781191870391 -0.19916549351526361 0 0.24159546907531479 -0.203944085811055 0 0.23516494882901551 -0.20397214479712281 0 0.23737781191870391 -0.19916549351526361 0 0.23516494882901551 -0.20397214479712281 0 0.23102665788491991 -0.19921507910752981 0 0.23487469713800449 -0.19220565346234941 0 0.23737781191870391 -0.19916549351526361 0 0.23102665788491991 -0.19921507910752981 0 0.23737781191870391 -0.19916549351526361 0 0.244227286666265 -0.1964905043982611 0 0.24159546907531479 -0.203944085811055 0 0.244227286666265 -0.1964905043982611 0 0.24806112304804151 -0.20079628444228459 0 0.24159546907531479 -0.203944085811055 0 0.2520260174112951 -0.19611349652224269 0 0.244227286666265 -0.1964905043982611 0 0.24806112304804151 -0.20079628444228459 0 0.25396624877084079 -0.20952651608544151 0 0.2260276794089226 -0.21827517038042399 0 0.25396624877084079 -0.20952651608544151 0 0.25215667626286681 -0.2053611499286197 0 0.22807950025187471 -0.21378072883296281 0 0.25215667626286681 -0.2053611499286197 0 0.22807950025187471 -0.21378072883296281 0 0.25396624877084079 -0.20952651608544151 0 0.22807950025187471 -0.21378072883296281 0 0.2260276794089226 -0.21827517038042399 0 0.25396624877084079 -0.20952651608544151 0 0.2260276794089226 -0.21827517038042399 0 0.2333205401169135 -0.2189145902706475 0 0.25396624877084079 -0.20952651608544151 0 0.24251107481173559 -0.2191062869323693 0 0.2333205401169135 -0.2189145902706475 0 0.25215667626286681 -0.2053611499286197 0 0.24159546907531479 -0.203944085811055 0 0.22807950025187471 -0.21378072883296281 0 0.25215667626286681 -0.2053611499286197 0 0.24806112304804151 -0.20079628444228459 0 0.24159546907531479 -0.203944085811055 0 0.25396624877084079 -0.20952651608544151 0 0.2476196529828556 -0.21837733181959809 0 0.24251107481173559 -0.2191062869323693 0 0.24159546907531479 -0.203944085811055 0 0.23516494882901551 -0.20397214479712281 0 0.22807950025187471 -0.21378072883296281 0 0.23516494882901551 -0.20397214479712281 0 0.22776668181760629 -0.20542310255649199 0 0.22807950025187471 -0.21378072883296281 0 0.22807950025187471 -0.21378072883296281 0 0.2260276794089226 -0.21827517038042399 0 0.20400232424088249 -0.22220030773730601 0 0.22776668181760629 -0.20542310255649199 0 0.22807950025187471 -0.21378072883296281 0 0.22246581780540989 -0.2073250853275567 0 0.22807950025187471 -0.21378072883296281 0 0.22246581780540989 -0.2073250853275567 0 0.21476740616046039 -0.21130348794532461 0 0.22776668181760629 -0.20542310255649199 0 0.22246581780540989 -0.2073250853275567 0 0.22347941803740851 -0.2008320377215855 0 0.22246581780540989 -0.2073250853275567 0 0.22347941803740851 -0.2008320377215855 0 0.2162747590664284 -0.20339259458632589 0 0.22347941803740851 -0.2008320377215855 0 0.22539813731825939 -0.19231982118191859 0 0.21684618825313781 -0.19470599532712229 0 0.22347941803740851 -0.2008320377215855 0 0.21684618825313781 -0.19470599532712229 0 0.2162747590664284 -0.20339259458632589 0 0.2175084867670434 -0.18519162885192891 0 0.22539813731825939 -0.19231982118191859 0 0.21684618825313781 -0.19470599532712229 0 0.23487469713800449 -0.19220565346234941 0 0.22539813731825939 -0.19231982118191859 0 0.23102665788491991 -0.19921507910752981 0 0.23042054747848301 -0.17855456918805249 0 0.23487469713800449 -0.19220565346234941 0 0.22539813731825939 -0.19231982118191859 0 0.22347941803740851 -0.2008320377215855 0 0.22539813731825939 -0.19231982118191859 0 0.23102665788491991 -0.19921507910752981 0 0.23516494882901551 -0.20397214479712281 0 0.22776668181760629 -0.20542310255649199 0 0.23102665788491991 -0.19921507910752981 0 0.22776668181760629 -0.20542310255649199 0 0.22347941803740851 -0.2008320377215855 0 0.23102665788491991 -0.19921507910752981 0 0.23901890545249649 -0.25648585442895377 0 0.23962034154339609 -0.24253617465164209 0 0.22865362017507851 -0.2459522529565806 0 0.25241460081779321 -0.25043473270287703 0 0.23962034154339609 -0.24253617465164209 0 0.24829625608795741 -0.2383585599429115 0 0.25241460081779321 -0.25043473270287703 0 0.23901890545249649 -0.25648585442895377 0 0.23962034154339609 -0.24253617465164209 0 0.23962034154339609 -0.24253617465164209 0 0.24829625608795741 -0.2383585599429115 0 0.23884350605880481 -0.23204823181049711 0 0.23962034154339609 -0.24253617465164209 0 0.23884350605880481 -0.23204823181049711 0 0.22966346140410959 -0.23362581329919449 0 0.23884350605880481 -0.23204823181049711 0 0.2430627975064063 -0.22454247348489331 0 0.23493460767829491 -0.22508502658547999 0 0.23884350605880481 -0.23204823181049711 0 0.23493460767829491 -0.22508502658547999 0 0.22966346140410959 -0.23362581329919449 0 0.24829625608795741 -0.2383585599429115 0 0.23884350605880481 -0.23204823181049711 0 0.2461409648831353 -0.22952784983332991 0 0.25238674146233819 -0.23044019217813061 0 0.24829625608795741 -0.2383585599429115 0 0.2461409648831353 -0.22952784983332991 0 0.25238674146233819 -0.23044019217813061 0 0.25011186226830828 -0.22413328924172579 0 0.2461409648831353 -0.22952784983332991 0 0.23884350605880481 -0.23204823181049711 0 0.2461409648831353 -0.22952784983332991 0 0.2430627975064063 -0.22454247348489331 0 0.25011186226830828 -0.22413328924172579 0 0.2461409648831353 -0.22952784983332991 0 0.2430627975064063 -0.22454247348489331 0 0.25011186226830828 -0.22413328924172579 0 0.2476196529828556 -0.21837733181959809 0 0.2430627975064063 -0.22454247348489331 0 0.2476196529828556 -0.21837733181959809 0 0.2430627975064063 -0.22454247348489331 0 0.24251107481173559 -0.2191062869323693 0 0.2430627975064063 -0.22454247348489331 0 0.24251107481173559 -0.2191062869323693 0 0.23493460767829491 -0.22508502658547999 0 0.24251107481173559 -0.2191062869323693 0 0.23493460767829491 -0.22508502658547999 0 0.2333205401169135 -0.2189145902706475 0 0.23493460767829491 -0.22508502658547999 0 0.2333205401169135 -0.2189145902706475 0 0.22888611519387411 -0.22408542468771389 0 0.2260276794089226 -0.21827517038042399 0 0.2333205401169135 -0.2189145902706475 0 0.22888611519387411 -0.22408542468771389 0 0.2260276794089226 -0.21827517038042399 0 0.22888611519387411 -0.22408542468771389 0 0.2239606534057865 -0.22830235497955001 0 0.2260276794089226 -0.21827517038042399 0 0.2239606534057865 -0.22830235497955001 0 0.21428225938889731 -0.22975134370746439 0 0.2239606534057865 -0.22830235497955001 0 0.22966346140410959 -0.23362581329919449 0 0.22018461561872441 -0.2373686935129857 0 0.2239606534057865 -0.22830235497955001 0 0.22018461561872441 -0.2373686935129857 0 0.21428225938889731 -0.22975134370746439 0 0.23493460767829491 -0.22508502658547999 0 0.22888611519387411 -0.22408542468771389 0 0.22966346140410959 -0.23362581329919449 0 0.22888611519387411 -0.22408542468771389 0 0.2239606534057865 -0.22830235497955001 0 0.22966346140410959 -0.23362581329919449 0 0.23962034154339609 -0.24253617465164209 0 0.22966346140410959 -0.23362581329919449 0 0.22865362017507851 -0.2459522529565806 0 0.22966346140410959 -0.23362581329919449 0 0.22018461561872441 -0.2373686935129857 0 0.22865362017507851 -0.2459522529565806 0 0.22018461561872441 -0.2373686935129857 0 0.22865362017507851 -0.2459522529565806 0 0.21747070015921119 -0.24758646643530779 0 0.20660961767864569 -0.25912809453969349 0 0.21747070015921119 -0.24758646643530779 0 0.20600726265971631 -0.2407190343615617 0 0.22018461561872441 -0.2373686935129857 0 0.21747070015921119 -0.24758646643530779 0 0.20600726265971631 -0.2407190343615617 0 0.22018461561872441 -0.2373686935129857 0 0.20600726265971631 -0.2407190343615617 0 0.21428225938889731 -0.22975134370746439 0 0.2260276794089226 -0.21827517038042399 0 0.21428225938889731 -0.22975134370746439 0 0.19808911004700419 -0.22702382467540669 0 0.2260276794089226 -0.21827517038042399 0 0.20400232424088249 -0.22220030773730601 0 0.19808911004700419 -0.22702382467540669 0 0.2260276794089226 -0.21827517038042399 0 0.19808911004700419 -0.22702382467540669 0 0.20600726265971631 -0.2407190343615617 0 0.21428225938889731 -0.22975134370746439 0 0.19808911004700419 -0.22702382467540669 0 0.20400232424088249 -0.22220030773730601 0 0.18972212895776011 -0.22002239288791631 0 0.17992514822989039 -0.23061988664164909 0 0.20400232424088249 -0.22220030773730601 0 0.17992514822989039 -0.23061988664164909 0 0.20400232424088249 -0.22220030773730601 0 0.19808911004700419 -0.22702382467540669 0 0.17992514822989039 -0.23061988664164909 0 0.20400232424088249 -0.22220030773730601 0 0.18972212895776011 -0.22002239288791631 0 0.19793645885559441 -0.2152826256200257 0 0.20660961767864569 -0.25912809453969349 0 0.20600726265971631 -0.2407190343615617 0 0.19136082564305021 -0.2484708756777885 0 0.19808911004700419 -0.22702382467540669 0 0.19422137094202169 -0.23930298909821329 0 0.18193360210940959 -0.24105360720622321 0 0.20600726265971631 -0.2407190343615617 0 0.19808911004700419 -0.22702382467540669 0 0.19422137094202169 -0.23930298909821329 0 0.19422137094202169 -0.23930298909821329 0 0.19136082564305021 -0.2484708756777885 0 0.18193360210940959 -0.24105360720622321 0 0.20600726265971631 -0.2407190343615617 0 0.19422137094202169 -0.23930298909821329 0 0.19136082564305021 -0.2484708756777885 0 0.20996617938305601 -0.1991745805754162 0 0.2069680952892356 -0.19094031247203261 0 0.2020556913634653 -0.20011187399429151 0 0.20996617938305601 -0.1991745805754162 0 0.20801726729303471 -0.20600302752314939 0 0.2020556913634653 -0.20011187399429151 0 0.20996617938305601 -0.1991745805754162 0 0.2069680952892356 -0.19094031247203261 0 0.21684618825313781 -0.19470599532712229 0 0.2175084867670434 -0.18519162885192891 0 0.2069680952892356 -0.19094031247203261 0 0.21684618825313781 -0.19470599532712229 0 0.20996617938305601 -0.1991745805754162 0 0.21684618825313781 -0.19470599532712229 0 0.2162747590664284 -0.20339259458632589 0 0.20996617938305601 -0.1991745805754162 0 0.2162747590664284 -0.20339259458632589 0 0.20801726729303471 -0.20600302752314939 0 0.2162747590664284 -0.20339259458632589 0 0.21476740616046039 -0.21130348794532461 0 0.20801726729303471 -0.20600302752314939 0 0.22807950025187471 -0.21378072883296281 0 0.20400232424088249 -0.22220030773730601 0 0.21476740616046039 -0.21130348794532461 0 0.22246581780540989 -0.2073250853275567 0 0.2162747590664284 -0.20339259458632589 0 0.21476740616046039 -0.21130348794532461 0 0.22807950025187471 -0.21378072883296281 0 0.20400232424088249 -0.22220030773730601 0 0.20400232424088249 -0.22220030773730601 0 0.21476740616046039 -0.21130348794532461 0 0.20523302970371521 -0.21328226168125769 0 0.20801726729303471 -0.20600302752314939 0 0.19980653808108259 -0.20875336635628061 0 0.2020556913634653 -0.20011187399429151 0 0.20523302970371521 -0.21328226168125769 0 0.20801726729303471 -0.20600302752314939 0 0.19980653808108259 -0.20875336635628061 0 0.21476740616046039 -0.21130348794532461 0 0.20523302970371521 -0.21328226168125769 0 0.20801726729303471 -0.20600302752314939 0 0.19980653808108259 -0.20875336635628061 0 0.19276879340225081 -0.2022612590148575 0 0.2020556913634653 -0.20011187399429151 0 0.19980653808108259 -0.20875336635628061 0 0.19793645885559441 -0.2152826256200257 0 0.1913799089873964 -0.21160107784428761 0 0.20400232424088249 -0.22220030773730601 0 0.20523302970371521 -0.21328226168125769 0 0.19793645885559441 -0.2152826256200257 0 0.20523302970371521 -0.21328226168125769 0 0.19980653808108259 -0.20875336635628061 0 0.19793645885559441 -0.2152826256200257 0 0.18972212895776011 -0.22002239288791631 0 0.1913799089873964 -0.21160107784428761 0 0.18272685369954991 -0.214059932041401 0 0.18972212895776011 -0.22002239288791631 0 0.19793645885559441 -0.2152826256200257 0 0.1913799089873964 -0.21160107784428761 0 0.1913799089873964 -0.21160107784428761 0 0.19276879340225081 -0.2022612590148575 0 0.18514638543939829 -0.20604944908697401 0 0.19980653808108259 -0.20875336635628061 0 0.1913799089873964 -0.21160107784428761 0 0.19276879340225081 -0.2022612590148575 0 0.19276879340225081 -0.2022612590148575 0 0.19591439584512901 -0.1917576027263585 0 0.1823098406970334 -0.19529418408095289 0 0.19276879340225081 -0.2022612590148575 0 0.2020556913634653 -0.20011187399429151 0 0.19591439584512901 -0.1917576027263585 0 0.2069680952892356 -0.19094031247203261 0 0.2020556913634653 -0.20011187399429151 0 0.19591439584512901 -0.1917576027263585 0 0.19118354035547691 -0.18220502536237981 0 0.19591439584512901 -0.1917576027263585 0 0.1823098406970334 -0.19529418408095289 0 0.1823098406970334 -0.19529418408095289 0 0.17074150828312071 -0.1895104413716176 0 0.16767263313934549 -0.19961519786021131 0 0.1823098406970334 -0.19529418408095289 0 0.17074150828312071 -0.1895104413716176 0 0.17954735311401551 -0.1828074877440021 0 0.1823098406970334 -0.19529418408095289 0 0.1755993549683347 -0.2076357169799336 0 0.16767263313934549 -0.19961519786021131 0 0.19276879340225081 -0.2022612590148575 0 0.1823098406970334 -0.19529418408095289 0 0.18514638543939829 -0.20604944908697401 0 0.1823098406970334 -0.19529418408095289 0 0.18514638543939829 -0.20604944908697401 0 0.1755993549683347 -0.2076357169799336 0 0.1913799089873964 -0.21160107784428761 0 0.18514638543939829 -0.20604944908697401 0 0.18272685369954991 -0.214059932041401 0 0.18514638543939829 -0.20604944908697401 0 0.18272685369954991 -0.214059932041401 0 0.1755993549683347 -0.2076357169799336 0 0.18972212895776011 -0.22002239288791631 0 0.18272685369954991 -0.214059932041401 0 0.18006467808428969 -0.2218573253394226 0 0.18272685369954991 -0.214059932041401 0 0.1744486657601203 -0.21719363010987219 0 0.1755993549683347 -0.2076357169799336 0 0.18272685369954991 -0.214059932041401 0 0.1744486657601203 -0.21719363010987219 0 0.18006467808428969 -0.2218573253394226 0 0.1755993549683347 -0.2076357169799336 0 0.16383573386833811 -0.2133312773351439 0 0.16767263313934549 -0.19961519786021131 0 0.1744486657601203 -0.21719363010987219 0 0.16383573386833811 -0.2133312773351439 0 0.1684157320558225 -0.22452332198201669 0 0.1744486657601203 -0.21719363010987219 0 0.1755993549683347 -0.2076357169799336 0 0.16383573386833811 -0.2133312773351439 0 0.16383573386833811 -0.2133312773351439 0 0.15636464967582711 -0.2031969614753828 0 0.16767263313934549 -0.19961519786021131 0 0.16383573386833811 -0.2133312773351439 0 0.15636464967582711 -0.2031969614753828 0 0.14891547606809999 -0.2125691313187999 0 0.15636464967582711 -0.2031969614753828 0 0.15771775242258329 -0.19028853955587841 0 0.16767263313934549 -0.19961519786021131 0 0.15771775242258329 -0.19028853955587841 0 0.17074150828312071 -0.1895104413716176 0 0.16767263313934549 -0.19961519786021131 0 0.1630257027769379 -0.25548478519294121 0 0.19136082564305021 -0.2484708756777885 0 0.18193360210940959 -0.24105360720622321 0 0.19808911004700419 -0.22702382467540669 0 0.18193360210940959 -0.24105360720622321 0 0.17015054068508581 -0.2357724789703893 0 0.19808911004700419 -0.22702382467540669 0 0.17015054068508581 -0.2357724789703893 0 0.19808911004700419 -0.22702382467540669 0 0.17992514822989039 -0.23061988664164909 0 0.17015054068508581 -0.2357724789703893 0 0.18972212895776011 -0.22002239288791631 0 0.17992514822989039 -0.23061988664164909 0 0.18006467808428969 -0.2218573253394226 0 0.17992514822989039 -0.23061988664164909 0 0.18006467808428969 -0.2218573253394226 0 0.1684157320558225 -0.22452332198201669 0 0.1744486657601203 -0.21719363010987219 0 0.18006467808428969 -0.2218573253394226 0 0.1684157320558225 -0.22452332198201669 0 0.17992514822989039 -0.23061988664164909 0 0.1684157320558225 -0.22452332198201669 0 0.15584797221889829 -0.2390394655459922 0 0.16383573386833811 -0.2133312773351439 0 0.1684157320558225 -0.22452332198201669 0 0.15388370142865551 -0.22450456684186751 0 0.1684157320558225 -0.22452332198201669 0 0.15584797221889829 -0.2390394655459922 0 0.15388370142865551 -0.22450456684186751 0 0.17992514822989039 -0.23061988664164909 0 0.17015054068508581 -0.2357724789703893 0 0.15584797221889829 -0.2390394655459922 0 0.1630257027769379 -0.25548478519294121 0 0.18193360210940959 -0.24105360720622321 0 0.17015054068508581 -0.2357724789703893 0 0.1630257027769379 -0.25548478519294121 0 0.17015054068508581 -0.2357724789703893 0 0.15584797221889829 -0.2390394655459922 0 0.17992514822989039 -0.23061988664164909 0 0.15584797221889829 -0.2390394655459922 0 0.1346905799108257 -0.26249869470809373 0 0.15584797221889829 -0.2390394655459922 0 0.14004842935149961 -0.2347384676055409 0 0.15584797221889829 -0.2390394655459922 0 0.15388370142865551 -0.22450456684186751 0 0.14004842935149961 -0.2347384676055409 0 0.15388370142865551 -0.22450456684186751 0 0.14176000410741649 -0.2226368555564063 0 0.14004842935149961 -0.2347384676055409 0 0.15388370142865551 -0.22450456684186751 0 0.14176000410741649 -0.2226368555564063 0 0.14891547606809999 -0.2125691313187999 0 0.1236491410850933 -0.23584551251244881 0 0.12946969481637269 -0.22342477506286221 0 0.14004842935149961 -0.2347384676055409 0 0.14176000410741649 -0.2226368555564063 0 0.12946969481637269 -0.22342477506286221 0 0.135665706588983 -0.2120364887988867 0 0.14176000410741649 -0.2226368555564063 0 0.12946969481637269 -0.22342477506286221 0 0.14004842935149961 -0.2347384676055409 0 0.1346905799108257 -0.26249869470809373 0 0.1236491410850933 -0.23584551251244881 0 0.14004842935149961 -0.2347384676055409 0 0.15771775242258329 -0.19028853955587841 0 0.1428534335924917 -0.19900484638381291 0 0.14530481109102461 -0.18437521111275831 0 0.15636464967582711 -0.2031969614753828 0 0.15771775242258329 -0.19028853955587841 0 0.1428534335924917 -0.19900484638381291 0 0.15636464967582711 -0.2031969614753828 0 0.1428534335924917 -0.19900484638381291 0 0.14891547606809999 -0.2125691313187999 0 0.16383573386833811 -0.2133312773351439 0 0.15388370142865551 -0.22450456684186751 0 0.14891547606809999 -0.2125691313187999 0 0.14176000410741649 -0.2226368555564063 0 0.14891547606809999 -0.2125691313187999 0 0.135665706588983 -0.2120364887988867 0 0.1428534335924917 -0.19900484638381291 0 0.14891547606809999 -0.2125691313187999 0 0.135665706588983 -0.2120364887988867 0 0.1428534335924917 -0.19900484638381291 0 0.135665706588983 -0.2120364887988867 0 0.12924144026734499 -0.20162071726484609 0 0.12139850008723869 -0.21231032922883719 0 0.12946969481637269 -0.22342477506286221 0 0.135665706588983 -0.2120364887988867 0 0.12139850008723869 -0.21231032922883719 0 0.135665706588983 -0.2120364887988867 0 0.12924144026734499 -0.20162071726484609 0 0.1428534335924917 -0.19900484638381291 0 0.12924144026734499 -0.20162071726484609 0 0.13015836463603331 -0.18680420016310481 0 0.1428534335924917 -0.19900484638381291 0 0.13015836463603331 -0.18680420016310481 0 0.14530481109102461 -0.18437521111275831 0 0.11700156928509001 -0.19724393022828909 0 0.12924144026734499 -0.20162071726484609 0 0.13015836463603331 -0.18680420016310481 0 0.12495480361634211 -0.17202637998491629 0 0.13015836463603331 -0.18680420016310481 0 0.14170539834193011 -0.16949130119297739 0 0.13015836463603331 -0.18680420016310481 0 0.14530481109102461 -0.18437521111275831 0 0.14170539834193011 -0.16949130119297739 0 0.14530481109102461 -0.18437521111275831 0 0.15419910106813081 -0.17743189462062989 0 0.14170539834193011 -0.16949130119297739 0 0.15771775242258329 -0.19028853955587841 0 0.14530481109102461 -0.18437521111275831 0 0.15419910106813081 -0.17743189462062989 0 0.15419910106813081 -0.17743189462062989 0 0.14170539834193011 -0.16949130119297739 0 0.1602968410269589 -0.16587117556729619 0 0.14170539834193011 -0.16949130119297739 0 0.14641388713171219 -0.15615243610945331 0 0.1602968410269589 -0.16587117556729619 0 0.14170539834193011 -0.16949130119297739 0 0.1253326927526357 -0.15756249646372869 0 0.14641388713171219 -0.15615243610945331 0 0.12495480361634211 -0.17202637998491629 0 0.14170539834193011 -0.16949130119297739 0 0.1253326927526357 -0.15756249646372869 0 0.1253326927526357 -0.15756249646372869 0 0.14234028843245841 -0.14073198130764461 0 0.12344333801129979 -0.1423247201707728 0 0.1253326927526357 -0.15756249646372869 0 0.14234028843245841 -0.14073198130764461 0 0.1253326927526357 -0.15756249646372869 0 0.14234028843245841 -0.14073198130764461 0 0.14641388713171219 -0.15615243610945331 0 0.12344333801129979 -0.1423247201707728 0 0.1276075298871012 -0.12854147022919951 0 0.14234028843245841 -0.14073198130764461 0 0.1423623471684026 -0.1196490635848497 0 0.1276075298871012 -0.12854147022919951 0 0.14234028843245841 -0.14073198130764461 0 0.1423623471684026 -0.1196490635848497 0 0.1593478841122811 -0.1239014661515604 0 0.14234028843245841 -0.14073198130764461 0 0.1593478841122811 -0.1239014661515604 0 0.14234028843245841 -0.14073198130764461 0 0.16239421510457799 -0.14710522601561979 0 0.1593478841122811 -0.1239014661515604 0 0.14234028843245841 -0.14073198130764461 0 0.14234028843245841 -0.14073198130764461 0 0.14641388713171219 -0.15615243610945331 0 0.16239421510457799 -0.14710522601561979 0 0.16239421510457799 -0.14710522601561979 0 0.17925337431180341 -0.149568157832493 0 0.17249930551707049 -0.16029510266610339 0 0.1593478841122811 -0.1239014661515604 0 0.16239421510457799 -0.14710522601561979 0 0.17438663828431991 -0.1362520707575352 0 0.183510899382961 -0.12283076088752461 0 0.18772865668091171 -0.1386706449095195 0 0.17438663828431991 -0.1362520707575352 0 0.183510899382961 -0.12283076088752461 0 0.1593478841122811 -0.1239014661515604 0 0.17438663828431991 -0.1362520707575352 0 0.19106002678109771 -0.1510902306329627 0 0.17925337431180341 -0.149568157832493 0 0.18539760644748021 -0.166309604958434 0 0.16239421510457799 -0.14710522601561979 0 0.17438663828431991 -0.1362520707575352 0 0.17925337431180341 -0.149568157832493 0 0.18772865668091171 -0.1386706449095195 0 0.17438663828431991 -0.1362520707575352 0 0.17925337431180341 -0.149568157832493 0 0.19106002678109771 -0.1510902306329627 0 0.18772865668091171 -0.1386706449095195 0 0.17925337431180341 -0.149568157832493 0 0.17925337431180341 -0.149568157832493 0 0.17249930551707049 -0.16029510266610339 0 0.18539760644748021 -0.166309604958434 0 0.17249930551707049 -0.16029510266610339 0 0.1727863595551547 -0.1709412138630598 0 0.18539760644748021 -0.166309604958434 0 0.1727863595551547 -0.1709412138630598 0 0.18539760644748021 -0.166309604958434 0 0.17954735311401551 -0.1828074877440021 0 0.19118354035547691 -0.18220502536237981 0 0.18539760644748021 -0.166309604958434 0 0.17954735311401551 -0.1828074877440021 0 0.19118354035547691 -0.18220502536237981 0 0.1823098406970334 -0.19529418408095289 0 0.17954735311401551 -0.1828074877440021 0 0.17074150828312071 -0.1895104413716176 0 0.17954735311401551 -0.1828074877440021 0 0.16619069167024841 -0.17942269837946309 0 0.1727863595551547 -0.1709412138630598 0 0.17954735311401551 -0.1828074877440021 0 0.16619069167024841 -0.17942269837946309 0 0.1727863595551547 -0.1709412138630598 0 0.16619069167024841 -0.17942269837946309 0 0.1602968410269589 -0.16587117556729619 0 0.15771775242258329 -0.19028853955587841 0 0.17074150828312071 -0.1895104413716176 0 0.16619069167024841 -0.17942269837946309 0 0.15771775242258329 -0.19028853955587841 0 0.15419910106813081 -0.17743189462062989 0 0.16619069167024841 -0.17942269837946309 0 0.15419910106813081 -0.17743189462062989 0 0.16619069167024841 -0.17942269837946309 0 0.1602968410269589 -0.16587117556729619 0 0.14641388713171219 -0.15615243610945331 0 0.16239421510457799 -0.14710522601561979 0 0.1602968410269589 -0.16587117556729619 0 0.16239421510457799 -0.14710522601561979 0 0.17249930551707049 -0.16029510266610339 0 0.1602968410269589 -0.16587117556729619 0 0.17249930551707049 -0.16029510266610339 0 0.1727863595551547 -0.1709412138630598 0 0.1602968410269589 -0.16587117556729619 0 
</DataArray>
</Points>
<Cells>
<DataArray type="UInt32" Name="connectivity" format="ascii">
0 1 2 3 4 5 6 7 8 9 10 11 12 13 14 15 16 17 18 19 20 21 22 23 24 25 26 27 28 29 30 31 32 33 34 35 36 37 38 39 40 41 42 43 44 45 46 47 48 49 50 51 52 53 54 55 56 57 58 59 60 61 62 63 64 65 66 67 68 69 70 71 72 73 74 75 76 77 78 79 80 81 82 83 84 85 86 87 88 89 90 91 92 93 94 95 96 97 98 99 100 101 102 103 104 105 106 107 108 109 110 111 112 113 114 115 116 117 118 119 120 121 122 123 124 125 126 127 128 129 130 131 132 133 134 135 136 137 138 139 140 141 142 143 144 145 146 147 148 149 150 151 152 153 154 155 156 157 158 159 160 161 162 163 164 165 166 167 168 169 170 171 172 173 174 175 176 177 178 179 180 181 182 183 184 185 186 187 188 189 190 191 192 193 194 195 196 197 198 199 200 201 202 203 204 205 206 207 208 209 210 211 212 213 214 215 216 217 218 219 220 221 222 223 224 225 226 227 228 229 230 231 232 233 234 235 236 237 238 239 240 241 242 243 244 245 246 247 248 249 250 251 252 253 254 255 256 257 258 259 260 261 262 263 264 265 266 267 268 269 270 271 272 273 274 275 276 277 278 279 280 281 282 283 284 285 286 287 288 289 290 291 292 293 294 295 296 297 298 299 300 301 302 303 304 305 306 307 308 309 310 311 312 313 314 315 316 317 318 319 320 321 322 323 324 325 326 327 328 329 330 331 332 333 334 335 336 337 338 339 340 341 342 343 344 345 346 347 348 349 350 351 352 353 354 355 356 357 358 359 360 361 362 363 364 365 366 367 368 369 370 371 372 373 374 375 376 377 378 379 380 381 382 383 384 385 386 387 388 389 390 391 392 393 394 395 396 397 398 399 400 401 402 403 404 405 406 407 408 409 410 411 412 413 414 415 416 417 418 419 420 421 422 423 424 425 426 427 428 429 430 431 432 433 434 435 436 437 438 439 440 441 442 443 444 445 446 447 448 449 450 451 452 453 454 455 456 457 458 459 460 461 462 463 464 465 466 467 468 469 470 471 472 473 474 475 476 477 478 479 480 481 482 483 484 485 486 487 488 489 490 491 492 493 494 495 496 497 498 499 500 501 502 503 504 505 506 507 508 509 510 511 512 513 514 515 516 517 518 519 520 521 522 523 524 525 526 527 528 529 530 531 532 533 534 535 536 537 538 539 540 541 542 543 544 545 546 547 548 549 550 551 552 553 554 555 556 557 558 559 560 561 562 563 564 565 566 567 568 569 570 571 572 573 574 575 576 577 578 579 580 581 582 583 584 585 586 587 588 589 590 591 592 593 594 595 596 597 598 599 600 601 602 603 604 605 606 607 608 609 610 611 612 613 614 615 616 617 618 619 620 621 622 623 624 625 626 627 628 629 630 631 632 633 634 635 636 637 638 639 640 641 642 643 644 645 646 647 648 649 650 651 652 653 654 655 656 657 658 659 660 661 662 663 664 665 666 667 668 669 670 671 672 673 674 675 676 677 678 679 680 681 682 683 684 685 686 687 688 689 690 691 692 693 694 695 696 697 698 699 700 701 702 703 704 705 706 707 708 709 710 711 712 713 714 715 716 717 718 719 720 721 722 723 724 725 726 727 728 729 730 731 732 733 734 735 736 737 738 739 740 741 742 743 744 745 746 747 748 749 750 751 752 753 754 755 756 757 758 759 760 761 762 763 764 765 766 767 768 769 770 771 772 773 774 775 776 777 778 779 780 781 782 783 784 785 786 787 788 789 790 791 792 793 794 795 796 797 798 799 800 801 802 803 804 805 806 807 808 809 810 811 812 813 814 815 816 817 818 819 820 821 822 823 824 825 826 827 828 829 830 831 832 833 834 835 836 837 838 839 840 841 842 843 844 845 846 847 848 849 850 851 852 853 854 855 856 857 858 859 860 861 862 863 864 865 866 867 868 869 870 871 872 873 874 875 876 877 878 879 880 881 882 883 884 885 886 887 888 889 890 891 892 893 894 895 896 897 898 899 900 901 902 903 904 905 906 907 908 909 910 911 912 913 914 915 916 917 918 919 920 921 922 923 924 925 926 927 928 929 930 931 932 933 934 935 936 937 938 939 940 941 942 943 944 945 946 947 948 949 950 951 952 953 954 955 956 957 958 959 960 961 962 963 964 965 966 967 968 969 970 971 972 973 974 975 976 977 978 979 980 981 982 983 984 985 986 987 988 989 990 991 992 993 994 995 996 997 998 999 1000 1001 1002 1003 1004 1005 1006 1007 1008 1009 1010 1011 1012 1013 1014 1015 1016 1017 1018 1019 1020 1021 1022 1023 1024 1025 1026 1027 1028 1029 1030 1031 1032 1033 1034 1035 1036 1037 1038 1039 1040 1041 1042 1043 1044 1045 1046 1047 1048 1049 1050 1051 1052 1053 1054 1055 1056 1057 1058 1059 1060 1061 1062 1063 1064 1065 1066 1067 1068 1069 1070 1071 1072 1073 1074 1075 1076 1077 1078 1079 1080 1081 1082 1083 1084 1085 1086 1087 1088 1089 1090 1091 1092 1093 1094 1095 1096 1097 1098 1099 1100 1101 1102 1103 1104 1105 1106 1107 1108 1109 1110 1111 1112 1113 1114 1115 1116 1117 1118 1119 1120 1121 1122 1123 1124 1125 1126 1127 1128 1129 1130 1131 1132 1133 1134 1135 1136 1137 1138 1139 1140 1141 1142 1143 1144 1145 1146 1147 1148 1149 1150 1151 1152 1153 1154 1155 1156 1157 1158 1159 1160 1161 1162 1163 1164 1165 1166 1167 1168 1169 1170 1171 1172 1173 1174 1175 1176 1177 1178 1179 1180 1181 1182 1183 1184 1185 1186 1187 1188 1189 1190 1191 1192 1193 1194 1195 1196 1197 1198 1199 1200 1201 1202 1203 1204 1205 1206 1207 1208 1209 1210 1211 1212 1213 1214 1215 1216 1217 1218 1219 1220 1221 1222 1223 1224 1225 1226 1227 1228 1229 1230 1231 1232 1233 1234 1235 1236 1237 1238 1239 1240 1241 1242 1243 1244 1245 1246 1247 1248 1249 1250 1251 1252 1253 1254 1255 1256 1257 1258 1259 1260 1261 1262 1263 1264 1265 1266 1267 1268 1269 1270 1271 1272 1273 1274 1275 1276 1277 1278 1279 1280 1281 1282 1283 1284 1285 1286 1287 1288 1289 1290 1291 1292 1293 1294 1295 1296 1297 1298 1299 1300 1301 1302 1303 1304 1305 1306 1307 1308 1309 1310 1311 1312 1313 1314 1315 1316 1317 1318 1319 1320 1321 1322 1323 1324 1325 1326 1327 1328 1329 1330 1331 1332 1333 1334 1335 1336 1337 1338 1339 1340 1341 1342 1343 1344 1345 1346 1347 1348 1349 1350 1351 1352 1353 1354 1355 1356 1357 1358 1359 1360 1361 1362 1363 1364 1365 1366 1367 1368 1369 1370 1371 1372 1373 1374 1375 1376 1377 1378 1379 1380 1381 1382 1383 1384 1385 1386 1387 1388 1389 1390 1391 1392 1393 1394 1395 1396 1397 1398 1399 1400 1401 1402 1403 1404 1405 1406 1407 1408 1409 1410 1411 1412 1413 1414 1415 1416 1417 1418 1419 1420 1421 1422 1423 1424 1425 1426 1427 1428 1429 1430 1431 1432 1433 1434 1435 1436 1437 1438 1439 1440 1441 1442 1443 1444 1445 1446 1447 1448 1449 1450 1451 1452 1453 1454 1455 1456 1457 1458 1459 1460 1461 1462 1463 1464 1465 1466 1467 1468 1469 1470 1471 1472 1473 1474 1475 1476 1477 1478 1479 1480 1481 1482 1483 1484 1485 1486 1487 1488 1489 1490 1491 1492 1493 1494 1495 1496 1497 1498 1499 1500 1501 1502 1503 1504 1505 1506 1507 1508 1509 1510 1511 1512 1513 1514 1515 1516 1517 1518 1519 1520 1521 1522 1523 1524 1525 1526 1527 1528 1529 1530 1531 1532 1533 1534 1535 1536 1537 1538 1539 1540 1541 1542 1543 1544 1545 1546 1547 1548 1549 1550 1551 1552 1553 1554 1555 1556 1557 1558 1559 1560 1561 1562 1563 1564 1565 1566 1567 1568 1569 1570 1571 1572 1573 1574 1575 1576 1577 1578 1579 1580 1581 1582 1583 1584 1585 1586 1587 1588 1589 1590 1591 1592 1593 1594 1595 1596 1597 1598 1599 1600 1601 1602 1603 1604 1605 1606 1607 1608 1609 1610 1611 1612 1613 1614 1615 1616 1617 1618 1619 1620 1621 1622 1623 1624 1625 1626 1627 1628 1629 1630 1631 1632 1633 1634 1635 1636 1637 1638 1639 1640 1641 1642 1643 1644 1645 1646 1647 1648 1649 1650 1651 1652 1653 1654 1655 1656 1657 1658 1659 1660 1661 1662 1663 1664 1665 1666 1667 1668 1669 1670 1671 1672 1673 1674 1675 1676 1677 1678 1679 1680 1681 1682 1683 1684 1685 1686 1687 1688 1689 1690 1691 1692 1693 1694 1695 1696 1697 1698 1699 1700 1701 1702 1703 1704 1705 1706 1707 1708 1709 1710 1711 1712 1713 1714 1715 1716 1717 1718 1719 1720 1721 1722 1723 1724 1725 1726 1727 1728 1729 1730 1731 1732 1733 1734 1735 1736 1737 1738 1739 1740 1741 1742 1743 1744 1745 1746 1747 1748 1749 1750 1751 1752 1753 1754 1755 1756 1757 1758 1759 1760 1761 1762 1763 1764 1765 1766 1767 1768 1769 1770 1771 1772 1773 1774 1775 1776 1777 1778 1779 1780 1781 1782 1783 1784 1785 1786 1787 1788 1789 1790 1791 1792 1793 1794 1795 1796 1797 1798 1799 1800 1801 1802 1803 1804 1805 1806 1807 1808 1809 1810 1811 1812 1813 1814 1815 1816 1817 1818 1819 1820 1821 1822 1823 1824 1825 1826 1827 1828 1829 1830 1831 1832 1833 1834 1835 1836 1837 1838 1839 1840 1841 1842 1843 1844 1845 1846 1847 1848 1849 1850 1851 1852 1853 1854 1855 1856 1857 1858 1859 1860 1861 1862 1863 1864 1865 1866 1867 1868 1869 1870 1871 1872 1873 1874 1875 1876 1877 1878 1879 1880 1881 1882 1883 1884 1885 1886 1887 1888 1889 1890 1891 1892 1893 1894 1895 1896 1897 1898 1899 1900 1901 1902 1903 1904 1905 1906 1907 1908 1909 1910 1911 1912 1913 1914 1915 1916 1917 1918 1919 1920 1921 1922 1923 1924 1925 1926 1927 1928 1929 1930 1931 1932 1933 1934 1935 1936 1937 1938 1939 1940 1941 1942 1943 1944 1945 1946 1947 1948 1949 1950 1951 1952 1953 1954 1955 1956 1957 1958 1959 1960 1961 1962 1963 1964 1965 1966 1967 1968 1969 1970 1971 1972 1973 1974 1975 1976 1977 1978 1979 1980 1981 1982 1983 1984 1985 1986 1987 1988 1989 1990 1991 1992 1993 1994 1995 1996 1997 1998 1999 2000 2001 2002 2003 2004 2005 2006 2007 2008 2009 2010 2011 2012 2013 2014 2015 2016 2017 2018 2019 2020 2021 2022 2023 2024 2025 2026 2027 2028 2029 2030 2031 2032 2033 2034 2035 2036 2037 2038 2039 2040 2041 2042 2043 2044 2045 2046 2047 2048 2049 2050 2051 2052 2053 2054 2055 2056 2057 2058 2059 2060 2061 2062 2063 2064 2065 2066 2067 2068 2069 2070 2071 2072 2073 2074 2075 2076 2077 2078 2079 2080 2081 2082 2083 2084 2085 2086 2087 2088 2089 2090 2091 2092 2093 2094 2095 2096 2097 2098 2099 2100 2101 2102 2103 2104 2105 2106 2107 2108 2109 2110 2111 2112 2113 2114 2115 2116 2117 2118 2119 2120 2121 2122 2123 2124 2125 2126 2127 2128 2129 2130 2131 2132 2133 2134 2135 2136 2137 2138 2139 2140 2141 2142 2143 2144 2145 2146 2147 2148 2149 2150 2151 2152 2153 2154 2155 2156 2157 2158 2159 2160 2161 2162 2163 2164 2165 2166 2167 2168 2169 2170 2171 2172 2173 2174 2175 2176 2177 2178 2179 2180 2181 2182 2183 2184 2185 2186 2187 2188 2189 2190 2191 2192 2193 2194 2195 2196 2197 2198 2199 2200 2201 2202 2203 2204 2205 2206 2207 2208 2209 2210 2211 2212 2213 2214 2215 2216 2217 2218 2219 2220 2221 2222 2223 2224 2225 2226 2227 2228 2229 2230 2231 2232 2233 2234 2235 2236 2237 2238 2239 2240 2241 2242 2243 2244 2245 2246 2247 2248 2249 2250 2251 2252 2253 2254 2255 2256 2257 2258 2259 2260 2261 2262 2263 2264 2265 2266 2267 2268 2269 2270 2271 2272 2273 2274 2275 2276 2277 2278 2279 2280 2281 2282 2283 2284 2285 2286 2287 2288 2289 2290 2291 2292 2293 2294 2295 2296 2297 2298 2299 2300 2301 2302 2303 2304 2305 2306 2307 2308 2309 2310 2311 2312 2313 2314 2315 2316 2317 2318 2319 2320 2321 2322 2323 2324 2325 2326 2327 2328 2329 2330 2331 2332 2333 2334 2335 2336 2337 2338 2339 2340 2341 2342 2343 2344 2345 2346 2347 2348 2349 2350 2351 2352 2353 2354 2355 2356 2357 2358 2359 2360 2361 2362 2363 2364 2365 2366 2367 2368 2369 2370 2371 2372 2373 2374 2375 2376 2377 2378 2379 2380 2381 2382 2383 2384 2385 2386 2387 2388 2389 2390 2391 2392 2393 2394 2395 2396 2397 2398 2399 2400 2401 2402 2403 2404 2405 2406 2407 2408 2409 2410 2411 2412 2413 2414 2415 2416 2417 2418 2419 2420 2421 2422 2423 2424 2425 2426 2427 2428 2429 2430 2431 2432 2433 2434 2435 2436 2437 2438 2439 2440 2441 2442 2443 2444 2445 2446 2447 2448 2449 2450 2451 2452 2453 2454 2455 2456 2457 2458 2459 2460 2461 2462 2463 2464 2465 2466 2467 2468 2469 2470 2471 2472 2473 2474 2475 2476 2477 2478 2479 2480 2481 2482 2483 2484 2485 2486 2487 2488 2489 2490 2491 2492 2493 2494 2495 2496 2497 2498 2499 2500 2501 2502 2503 2504 2505 2506 2507 2508 2509 2510 2511 2512 2513 2514 2515 2516 2517 2518 2519 2520 2521 2522 2523 2524 2525 2526 2527 2528 2529 2530 2531 2532 2533 2534 2535 2536 2537 2538 2539 2540 2541 2542 2543 2544 2545 2546 2547 2548 2549 2550 2551 2552 2553 2554 2555 2556 2557 2558 2559 2560 2561 2562 2563 2564 2565 2566 2567 2568 2569 2570 2571 2572 2573 2574 2575 2576 2577 2578 2579 2580 2581 2582 2583 2584 2585 2586 2587 2588 2589 2590 2591 2592 2593 2594 2595 2596 2597 2598 2599 2600 2601 2602 2603 2604 2605 2606 2607 2608 2609 2610 2611 2612 2613 2614 2615 2616 2617 2618 2619 2620 2621 2622 2623 2624 2625 2626 2627 2628 2629 2630 2631 2632 2633 2634 2635 2636 2637 2638 2639 2640 2641 2642 2643 2644 2645 2646 2647 2648 2649 2650 2651 2652 2653 2654 2655 2656 2657 2658 2659 2660 2661 2662 2663 2664 2665 2666 2667 2668 2669 2670 2671 2672 2673 2674 2675 2676 2677 2678 2679 2680 2681 2682 2683 2684 2685 2686 2687 2688 2689 2690 2691 2692 2693 2694 2695 2696 2697 2698 2699 2700 2701 2702 2703 2704 2705 2706 2707 2708 2709 2710 2711 2712 2713 2714 2715 2716 2717 2718 2719 2720 2721 2722 2723 2724 2725 2726 2727 2728 2729 2730 2731 2732 2733 2734 2735 2736 2737 2738 2739 2740 2741 2742 2743 2744 2745 2746 2747 2748 2749 2750 2751 2752 2753 2754 2755 2756 2757 2758 2759 2760 2761 2762 2763 2764 2765 2766 2767 2768 2769 2770 2771 2772 2773 2774 2775 2776 2777 2778 2779 2780 2781 2782 2783 2784 2785 2786 2787 2788 2789 2790 2791 2792 2793 2794 2795 2796 2797 2798 2799 2800 2801 2802 2803 2804 2805 2806 2807 2808 2809 2810 2811 2812 2813 2814 2815 2816 2817 2818 2819 2820 2821 2822 2823 2824 2825 2826 2827 2828 2829 2830 2831 2832 2833 2834 2835 2836 2837 2838 2839 2840 2841 2842 2843 2844 2845 2846 2847 2848 2849 2850 2851 2852 2853 2854 2855 2856 2857 2858 2859 2860 2861 2862 2863 2864 2865 2866 2867 2868 2869 2870 2871 2872 2873 2874 2875 2876 2877 2878 2879 2880 2881 2882 2883 2884 2885 2886 2887 2888 2889 2890 2891 2892 2893 2894 2895 2896 2897 2898 2899 2900 2901 2902 2903 2904 2905 2906 2907 2908 2909 2910 2911 2912 2913 2914 2915 2916 2917 2918 2919 2920 2921 2922 2923 2924 2925 2926 2927 2928 2929 2930 2931 2932 2933 2934 2935 2936 2937 2938 2939 2940 2941 2942 2943 2944 2945 2946 2947 2948 2949 2950 2951 2952 2953 2954 2955 2956 2957 2958 2959 2960 2961 2962 2963 2964 2965 2966 2967 2968 2969 2970 2971 2972 2973 2974 2975 2976 2977 2978 2979 2980 2981 2982 2983 2984 2985 2986 2987 2988 2989 2990 2991 2992 2993 2994 2995 2996 2997 2998 2999 3000 3001 3002 3003 3004 3005 3006 3007 3008 3009 3010 3011 3012 3013 3014 3015 3016 3017 3018 3019 3020 3021 3022 3023 3024 3025 3026 3027 3028 3029 3030 3031 3032 3033 3034 3035 3036 3037 3038 3039 3040 3041 3042 3043 3044 3045 3046 3047 3048 3049 3050 3051 3052 3053 3054 3055 3056 3057 3058 3059 3060 3061 3062 3063 3064 3065 3066 3067 3068 3069 3070 3071 3072 3073 3074 3075 3076 3077 3078 3079 3080 3081 3082 3083 3084 3085 3086 3087 3088 3089 3090 3091 3092 3093 3094 3095 3096 3097 3098 3099 3100 3101 3102 3103 3104 3105 3106 3107 3108 3109 3110 3111 3112 3113 3114 3115 3116 3117 3118 3119 3120 3121 3122 3123 3124 3125 3126 3127 3128 3129 3130 3131 3132 3133 3134 3135 3136 3137 3138 3139 3140 3141 3142 3143 3144 3145 3146 3147 3148 3149 3150 3151 3152 3153 3154 3155 3156 3157 3158 3159 3160 3161 3162 3163 3164 3165 3166 3167 3168 3169 3170 3171 3172 3173 3174 3175 3176 3177 3178 3179 3180 3181 3182 3183 3184 3185 3186 3187 3188 3189 3190 3191 3192 3193 3194 3195 3196 3197 3198 3199 3200 3201 3202 3203 3204 3205 3206 3207 3208 3209 3210 3211 3212 3213 3214 3215 3216 3217 3218 3219 3220 3221 3222 3223 3224 3225 3226 3227 3228 3229 3230 3231 3232 3233 3234 3235 3236 3237 3238 3239 3240 3241 3242 3243 3244 3245 3246 3247 3248 3249 3250 3251 3252 3253 3254 3255 3256 3257 3258 3259 3260 3261 3262 3263 3264 3265 3266 3267 3268 3269 3270 3271 3272 3273 3274 3275 3276 3277 3278 3279 3280 3281 3282 3283 3284 3285 3286 3287 3288 3289 3290 3291 3292 3293 3294 3295 3296 3297 3298 3299 3300 3301 3302 3303 3304 3305 3306 3307 3308 3309 3310 3311 3312 3313 3314 3315 3316 3317 3318 3319 3320 3321 3322 3323 3324 3325 3326 3327 3328 3329 3330 3331 3332 3333 3334 3335 3336 3337 3338 3339 3340 3341 3342 3343 3344 3345 3346 3347 3348 3349 3350 3351 3352 3353 3354 3355 3356 3357 3358 3359 3360 3361 3362 3363 3364 3365 3366 3367 3368 3369 3370 3371 3372 3373 3374 3375 3376 3377 3378 3379 3380 3381 3382 3383 3384 3385 3386 3387 3388 3389 3390 3391 3392 3393 3394 3395 3396 3397 3398 3399 3400 3401 3402 3403 3404 3405 3406 3407 3408 3409 3410 3411 3412 3413 3414 3415 3416 3417 3418 3419 3420 3421 3422 3423 3424 3425 3426 3427 3428 3429 3430 3431 3432 3433 3434 3435 3436 3437 3438 3439 3440 3441 3442 3443 3444 3445 3446 3447 3448 3449 3450 3451 3452 3453 3454 3455 3456 3457 3458 3459 3460 3461 3462 3463 3464 3465 3466 3467 3468 3469 3470 3471 3472 3473 3474 3475 3476 3477 3478 3479 3480 3481 3482 3483 3484 3485 3486 3487 3488 3489 3490 3491 3492 3493 3494 3495 3496 3497 3498 3499 3500 3501 3502 3503 3504 3505 3506 3507 3508 3509 3510 3511 3512 3513 3514 3515 3516 3517 3518 3519 3520 3521 3522 3523 3524 3525 3526 3527 3528 3529 3530 3531 3532 3533 3534 3535 3536 3537 3538 3539 3540 3541 3542 3543 3544 3545 3546 3547 3548 3549 3550 3551 3552 3553 3554 3555 3556 3557 3558 3559 3560 3561 3562 3563 3564 3565 3566 3567 3568 3569 3570 3571 3572 3573 3574 3575 3576 3577 3578 3579 3580 3581 3582 3583 3584 3585 3586 3587 3588 3589 3590 3591 3592 3593 3594 3595 3596 3597 3598 3599 3600 3601 3602 3603 3604 3605 3606 3607 3608 3609 3610 3611 3612 3613 3614 3615 3616 3617 3618 3619 3620 3621 3622 3623 3624 3625 3626 3627 3628 3629 3630 3631 3632 3633 3634 3635 3636 3637 3638 3639 3640 3641 3642 3643 3644 3645 3646 3647 3648 3649 3650 3651 3652 3653 3654 3655 3656 3657 3658 3659 3660 3661 3662 3663 3664 3665 3666 3667 3668 3669 3670 3671 3672 3673 3674 3675 3676 3677 3678 3679 3680 3681 3682 3683 3684 3685 3686 3687 3688 3689 3690 3691 3692 3693 3694 3695 3696 3697 3698 3699 3700 3701 3702 3703 3704 3705 3706 3707 3708 3709 3710 3711 3712 3713 3714 3715 3716 3717 3718 3719 3720 3721 3722 3723 3724 3725 3726 3727 3728 3729 3730 3731 3732 3733 3734 3735 3736 3737 3738 3739 3740 3741 3742 3743 3744 3745 3746 3747 3748 3749 3750 3751 3752 3753 3754 3755 3756 3757 3758 3759 3760 3761 3762 3763 3764 3765 3766 3767 3768 3769 3770 3771 3772 3773 3774 3775 3776 3777 3778 3779 3780 3781 3782 3783 3784 3785 3786 3787 3788 3789 3790 3791 3792 3793 3794 3795 3796 3797 3798 3799 3800 3801 3802 3803 3804 3805 3806 3807 3808 3809 3810 3811 3812 3813 3814 3815 3816 3817 3818 3819 3820 3821 3822 3823 3824 3825 3826 3827 3828 3829 3830 3831 3832 3833 3834 3835 3836 3837 3838 3839 3840 3841 3842 3843 3844 3845 3846 3847 3848 3849 3850 3851 3852 3853 3854 3855 3856 3857 3858 3859 3860 3861 3862 3863 3864 3865 3866 3867 3868 3869 3870 3871 3872 3873 3874 3875 3876 3877 3878 3879 3880 3881 3882 3883 3884 3885 3886 3887 3888 3889 3890 3891 3892 3893 3894 3895 3896 3897 3898 3899 3900 3901 3902 3903 3904 3905 3906 3907 3908 3909 3910 3911 3912 3913 3914 3915 3916 3917 3918 3919 3920 3921 3922 3923 3924 3925 3926 3927 3928 3929 3930 3931 3932 3933 3934 3935 3936 3937 3938 3939 3940 3941 3942 3943 3944 3945 3946 3947 3948 3949 3950 3951 3952 3953 3954 3955 3956 3957 3958 3959 3960 3961 3962 3963 3964 3965 3966 3967 3968 3969 3970 3971 3972 3973 3974 3975 3976 3977 3978 3979 3980 3981 3982 3983 3984 3985 3986 3987 3988 3989 3990 3991 3992 3993 3994 3995 3996 3997 3998 3999 4000 4001 4002 4003 4004 4005 4006 4007 4008 4009 4010 4011 4012 4013 4014 4015 4016 4017 4018 4019 4020 4021 4022 4023 4024 4025 4026 4027 4028 4029 4030 4031 4032 4033 4034 4035 4036 4037 4038 4039 4040 4041 4042 4043 4044 4045 4046 4047 4048 4049 4050 4051 4052 4053 4054 4055 4056 4057 4058 4059 4060 4061 4062 4063 4064 4065 4066 4067 4068 4069 4070 4071 4072 4073 4074 4075 4076 4077 4078 4079 4080 4081 4082 4083 4084 4085 4086 4087 4088 4089 4090 4091 4092 4093 4094 4095 4096 4097 4098 4099 4100 4101 4102 4103 4104 4105 4106 4107 4108 4109 4110 4111 4112 4113 4114 4115 4116 4117 4118 4119 4120 4121 4122 4123 4124 4125 4126 4127 4128 4129 4130 4131 4132 4133 4134 4135 4136 4137 4138 4139 4140 4141 4142 4143 4144 4145 4146 4147 4148 4149 4150 4151 4152 4153 4154 4155 4156 4157 4158 4159 4160 4161 4162 4163 4164 4165 4166 4167 4168 4169 4170 4171 4172 4173 4174 4175 4176 4177 4178 4179 4180 4181 4182 4183 4184 4185 4186 4187 4188 4189 4190 4191 4192 4193 4194 4195 4196 4197 4198 4199 4200 4201 4202 4203 4204 4205 4206 4207 4208 4209 4210 4211 4212 4213 4214 4215 4216 4217 4218 4219 4220 4221 4222 4223 4224 4225 4226 4227 4228 4229 4230 4231 4232 4233 4234 4235 4236 4237 4238 4239 4240 4241 4242 4243 4244 4245 4246 4247 4248 4249 4250 4251 4252 4253 4254 4255 4256 4257 4258 4259 4260 4261 4262 4263 4264 4265 4266 4267 4268 4269 4270 4271 4272 4273 4274 4275 4276 4277 4278 4279 4280 4281 4282 4283 4284 4285 4286 4287 4288 4289 4290 4291 4292 4293 4294 4295 4296 4297 4298 4299 4300 4301 4302 4303 4304 4305 4306 4307 4308 4309 4310 4311 4312 4313 4314 4315 4316 4317 4318 4319 4320 4321 4322 4323 4324 4325 4326 4327 4328 4329 4330 4331 4332 4333 4334 4335 4336 4337 4338 4339 4340 4341 4342 4343 4344 4345 4346 4347 4348 4349 4350 4351 4352 4353 4354 4355 4356 4357 4358 4359 4360 4361 4362 4363 4364 4365 4366 4367 4368 4369 4370 4371 4372 4373 4374 4375 4376 4377 4378 4379 4380 4381 4382 4383 4384 4385 4386 4387 4388 4389 4390 4391 4392 4393 4394 4395 4396 4397 4398 4399 4400 4401 4402 4403 4404 4405 4406 4407 4408 4409 4410 4411 4412 4413 4414 4415 4416 4417 4418 4419 4420 4421 4422 4423 4424 4425 4426 4427 4428 4429 4430 4431 4432 4433 4434 4435 4436 4437 4438 4439 4440 4441 4442 4443 4444 4445 4446 4447 4448 4449 4450 4451 4452 4453 4454 4455 4456 4457 4458 4459 4460 4461 4462 4463 4464 4465 4466 4467 4468 4469 4470 4471 4472 4473 4474 4475 4476 4477 4478 4479 4480 4481 4482 4483 4484 4485 4486 4487 4488 4489 4490 4491 4492 4493 4494 4495 4496 4497 4498 4499 4500 4501 4502 4503 4504 4505 4506 4507 4508 4509 4510 4511 4512 4513 4514 4515 4516 4517 4518 4519 4520 4521 4522 4523 4524 4525 4526 4527 4528 4529 4530 4531 4532 4533 4534 4535 4536 4537 4538 4539 4540 4541 4542 4543 4544 4545 4546 4547 4548 4549 4550 4551 4552 4553 4554 4555 4556 4557 4558 4559 4560 4561 4562 4563 4564 4565 4566 4567 4568 4569 4570 4571 4572 4573 4574 4575 4576 4577 4578 4579 4580 4581 4582 4583 4584 4585 4586 4587 4588 4589 4590 4591 4592 4593 4594 4595 4596 4597 4598 4599 4600 4601 4602 4603 4604 4605 4606 4607 4608 4609 4610 4611 4612 4613 4614 4615 4616 4617 4618 4619 4620 4621 4622 4623 4624 4625 4626 4627 4628 4629 4630 4631 4632 4633 4634 4635 4636 4637 4638 4639 4640 4641 4642 4643 4644 4645 4646 4647 4648 4649 4650 4651 4652 4653 4654 4655 4656 4657 4658 4659 4660 4661 4662 4663 4664 4665 4666 4667 4668 4669 4670 4671 4672 4673 4674 4675 4676 4677 4678 4679 4680 4681 4682 4683 4684 4685 4686 4687 4688 4689 4690 4691 4692 4693 4694 4695 4696 4697 4698 4699 4700 4701 4702 4703 4704 4705 4706 4707 4708 4709 4710 4711 4712 4713 4714 4715 4716 4717 4718 4719 4720 4721 4722 4723 4724 4725 4726 4727 4728 4729 4730 4731 4732 4733 4734 4735 4736 4737 4738 4739 4740 4741 4742 4743 4744 4745 4746 4747 4748 4749 4750 4751 4752 4753 4754 4755 4756 4757 4758 4759 4760 4761 4762 4763 4764 4765 4766 4767 4768 4769 4770 4771 4772 4773 4774 4775 4776 4777 4778 4779 4780 4781 4782 4783 4784 4785 4786 4787 4788 4789 4790 4791 4792 4793 4794 4795 4796 4797 4798 4799 4800 4801 4802 4803 4804 4805 4806 4807 4808 4809 4810 4811 4812 4813 4814 4815 4816 4817 4818 4819 4820 4821 4822 4823 4824 4825 4826 4827 4828 4829 4830 4831 4832 4833 4834 4835 4836 4837 4838 4839 4840 4841 4842 4843 4844 4845 4846 4847 4848 4849 4850 4851 4852 4853 4854 4855 4856 4857 4858 4859 4860 4861 4862 4863 4864 4865 4866 4867 4868 4869 4870 4871 4872 4873 4874 4875 4876 4877 4878 4879 4880 4881 4882 4883 4884 4885 4886 4887 4888 4889 4890 4891 4892 4893 4894 4895 4896 4897 4898 4899 4900 4901 4902 4903 4904 4905 4906 4907 4908 4909 4910 4911 4912 4913 4914 4915 4916 4917 4918 4919 4920 4921 4922 4923 4924 4925 4926 4927 4928 4929 4930 4931 4932 4933 4934 4935 4936 4937 4938 4939 4940 4941 4942 4943 4944 4945 4946 4947 4948 4949 4950 4951 4952 4953 4954 4955 4956 4957 4958 4959 4960 4961 4962 4963 4964 4965 4966 4967 4968 4969 4970 4971 4972 4973 4974 4975 4976 4977 4978 4979 4980 4981 4982 4983 4984 4985 4986 4987 4988 4989 4990 4991 4992 4993 4994 4995 4996 4997 4998 4999 5000 5001 5002 5003 5004 5005 5006 5007 5008 5009 5010 5011 5012 5013 5014 5015 5016 5017 5018 5019 5020 5021 5022 5023 5024 5025 5026 5027 5028 5029 5030 5031 5032 5033 5034 5035 5036 5037 5038 5039 5040 5041 5042 5043 5044 5045 5046 5047 5048 5049 5050 5051 5052 5053 5054 5055 5056 5057 5058 5059 5060 5061 5062 5063 5064 5065 5066 5067 5068 5069 5070 5071 5072 5073 5074 5075 5076 5077 5078 5079 5080 5081 5082 5083 5084 5085 5086 5087 5088 5089 5090 5091 5092 5093 5094 5095 5096 5097 5098 5099 5100 5101 5102 5103 5104 5105 5106 5107 5108 5109 5110 5111 5112 5113 5114 5115 5116 5117 5118 5119 5120 5121 5122 5123 5124 5125 5126 5127 5128 5129 5130 5131 5132 5133 5134 5135 5136 5137 5138 5139 5140 5141 5142 5143 5144 5145 5146 5147 5148 5149 5150 5151 5152 5153 5154 5155 5156 5157 5158 5159 5160 5161 5162 5163 5164 5165 5166 5167 5168 5169 5170 5171 5172 5173 5174 5175 5176 5177 5178 5179 5180 5181 5182 5183 5184 5185 5186 5187 5188 5189 5190 5191 5192 5193 5194 5195 5196 5197 5198 5199 5200 5201 5202 5203 5204 5205 5206 5207 5208 5209 5210 5211 5212 5213 5214 5215 5216 5217 5218 5219 5220 5221 5222 5223 5224 5225 5226 5227 5228 5229 5230 5231 5232 5233 5234 5235 5236 5237 5238 5239 5240 5241 5242 5243 5244 5245 5246 5247 5248 5249 5250 5251 5252 5253 5254 5255 5256 5257 5258 5259 5260 5261 5262 5263 5264 5265 5266 5267 5268 5269 5270 5271 5272 5273 5274 5275 5276 5277 5278 5279 5280 5281 5282 5283 5284 5285 5286 5287 5288 5289 5290 5291 5292 5293 5294 5295 5296 5297 5298 5299 5300 5301 5302 5303 5304 5305 5306 5307 5308 5309 5310 5311 5312 5313 5314 5315 5316 5317 5318 5319 5320 5321 5322 5323 5324 5325 5326 5327 5328 5329 5330 5331 5332 5333 5334 5335 5336 5337 5338 5339 5340 5341 5342 5343 5344 5345 5346 5347 5348 5349 5350 5351 5352 5353 5354 5355 5356 5357 5358 5359 5360 5361 5362 5363 5364 5365 5366 5367 5368 5369 5370 5371 5372 5373 5374 5375 5376 5377 5378 5379 5380 5381 5382 5383 5384 5385 5386 5387 5388 5389 5390 5391 5392 5393 5394 5395 5396 5397 5398 5399 5400 5401 5402 5403 5404 5405 5406 5407 5408 5409 5410 5411 5412 5413 5414 5415 5416 5417 5418 5419 5420 5421 5422 5423 5424 5425 5426 5427 5428 5429 5430 5431 5432 5433 5434 5435 5436 5437 5438 5439 5440 5441 5442 5443 5444 5445 5446 5447 5448 5449 5450 5451 5452 5453 5454 5455 5456 5457 5458 5459 5460 5461 5462 5463 5464 5465 5466 5467 5468 5469 5470 5471 5472 5473 5474 5475 5476 5477 5478 5479 5480 5481 5482 5483 5484 5485 5486 5487 5488 5489 5490 5491 5492 5493 5494 5495 5496 5497 5498 5499 5500 5501 5502 5503 5504 5505 5506 5507 5508 5509 5510 5511 5512 5513 5514 5515 5516 5517 5518 5519 5520 5521 5522 5523 5524 5525 5526 5527 5528 5529 5530 5531 5532 5533 5534 5535 5536 5537 5538 5539 5540 5541 5542 5543 5544 5545 5546 5547 5548 5549 5550 5551 5552 5553 5554 5555 5556 5557 5558 5559 5560 5561 5562 5563 5564 5565 5566 5567 5568 5569 5570 5571 5572 5573 5574 5575 5576 5577 5578 5579 5580 5581 5582 5583 5584 5585 5586 5587 5588 5589 5590 5591 5592 5593 5594 5595 5596 5597 5598 5599 5600 5601 5602 5603 5604 5605 5606 5607 5608 5609 5610 5611 5612 5613 5614 5615 5616 5617 5618 5619 5620 5621 5622 5623 5624 5625 5626 5627 5628 5629 5630 5631 5632 5633 5634 5635 5636 5637 5638 5639 5640 5641 5642 5643 5644 5645 5646 5647 5648 5649 5650 5651 5652 5653 5654 5655 5656 5657 5658 5659 5660 5661 5662 5663 5664 5665 5666 5667 5668 5669 5670 5671 5672 5673 5674 5675 5676 5677 5678 5679 5680 5681 5682 5683 5684 5685 5686 5687 5688 5689 5690 5691 5692 5693 5694 5695 5696 5697 5698 5699 5700 5701 5702 5703 5704 5705 5706 5707 5708 5709 5710 5711 5712 5713 5714 5715 5716 5717 5718 5719 5720 5721 5722 5723 5724 5725 5726 5727 5728 5729 5730 5731 5732 5733 5734 5735 5736 5737 5738 5739 5740 5741 5742 5743 5744 5745 5746 5747 5748 5749 5750 5751 5752 5753 5754 5755 5756 5757 5758 5759 5760 5761 5762 5763 5764 5765 5766 5767 5768 5769 5770 5771 5772 5773 5774 5775 5776 5777 5778 5779 5780 5781 5782 5783 5784 5785 5786 5787 5788 5789 5790 5791 5792 5793 5794 5795 5796 5797 5798 5799 5800 5801 5802 5803 5804 5805 5806 5807 5808 5809 5810 5811 5812 5813 5814 5815 5816 5817 5818 5819 5820 5821 5822 5823 5824 5825 5826 5827 5828 5829 5830 5831 5832 5833 5834 5835 5836 5837 5838 5839 5840 5841 5842 5843 5844 5845 5846 5847 5848 5849 5850 5851 5852 5853 5854 5855 5856 5857 5858 5859 5860 5861 5862 5863 5864 5865 5866 5867 5868 5869 5870 5871 5872 5873 5874 5875 5876 5877 5878 5879 5880 5881 5882 5883 5884 5885 5886 5887 5888 5889 5890 5891 5892 5893 5894 5895 5896 5897 5898 5899 5900 5901 5902 5903 5904 5905 5906 5907 5908 5909 5910 5911 5912 5913 5914 5915 5916 5917 5918 5919 5920 5921 5922 5923 5924 5925 5926 5927 5928 5929 5930 5931 5932 5933 5934 5935 5936 5937 5938 5939 5940 5941 5942 5943 5944 5945 5946 5947 5948 5949 5950 5951 5952 5953 5954 5955 5956 5957 5958 5959 5960 5961 5962 5963 5964 5965 5966 5967 5968 5969 5970 5971 5972 5973 5974 5975 5976 5977 5978 5979 5980 5981 5982 5983 5984 5985 5986 5987 5988 5989 5990 5991 5992 5993 5994 5995 5996 5997 5998 5999 6000 6001 6002 6003 6004 6005 6006 6007 6008 6009 6010 6011 6012 6013 6014 6015 6016 6017 6018 6019 6020 6021 6022 6023 6024 6025 6026 6027 6028 6029 6030 6031 6032 6033 6034 6035 6036 6037 6038 6039 6040 6041 6042 6043 6044 6045 6046 6047 6048 6049 6050 6051 6052 6053 6054 6055 6056 6057 6058 6059 6060 6061 6062 6063 6064 6065 6066 6067 6068 6069 6070 6071 6072 6073 6074 6075 6076 6077 6078 6079 6080 6081 6082 6083 6084 6085 6086 6087 6088 6089 6090 6091 6092 6093 6094 6095 6096 6097 6098 6099 6100 6101 6102 6103 6104 6105 6106 6107 6108 6109 6110 6111 6112 6113 6114 6115 6116 6117 6118 6119 6120 6121 6122 6123 6124 6125 6126 6127 6128 6129 6130 6131 6132 6133 6134 6135 6136 6137 6138 6139 6140 6141 6142 6143 6144 6145 6146 6147 6148 6149 6150 6151 6152 6153 6154 6155 6156 6157 6158 6159 6160 6161 6162 6163 6164 6165 6166 6167 6168 6169 6170 6171 6172 6173 6174 6175 6176 6177 6178 6179 6180 6181 6182 6183 6184 6185 6186 6187 6188 6189 6190 6191 6192 6193 6194 6195 6196 6197 6198 6199 6200 6201 6202 6203 6204 6205 6206 6207 6208 6209 6210 6211 6212 6213 6214 6215 6216 6217 6218 6219 6220 6221 6222 6223 6224 6225 6226 6227 6228 6229 6230 6231 6232 6233 6234 6235 6236 6237 6238 6239 6240 6241 6242 6243 6244 6245 6246 6247 6248 6249 6250 6251 6252 6253 6254 6255 6256 6257 6258 6259 6260 6261 6262 6263 6264 6265 6266 6267 6268 6269 6270 6271 6272 6273 6274 6275 6276 6277 6278 6279 6280 6281 6282 6283 6284 6285 6286 6287 6288 6289 6290 6291 6292 6293 6294 6295 6296 6297 6298 6299 6300 6301 6302 6303 6304 6305 6306 6307 6308 6309 6310 6311 6312 6313 6314 6315 6316 6317 6318 6319 6320 6321 6322 6323 6324 6325 6326 6327 6328 6329 6330 6331 6332 6333 6334 6335 6336 6337 6338 6339 6340 6341 6342 6343 6344 6345 6346 6347 6348 6349 6350 6351 6352 6353 6354 6355 6356 6357 6358 6359 6360 6361 6362 6363 6364 6365 6366 6367 6368 6369 6370 6371 6372 6373 6374 6375 6376 6377 6378 6379 6380 6381 6382 6383 6384 6385 6386 6387 6388 6389 6390 6391 6392 6393 6394 6395 6396 6397 6398 6399 6400 6401 6402 6403 6404 6405 6406 6407 6408 6409 6410 6411 6412 6413 6414 6415 6416 6417 6418 6419 6420 6421 6422 6423 6424 6425 6426 6427 6428 6429 6430 6431 6432 6433 6434 6435 6436 6437 6438 6439 6440 6441 6442 6443 6444 6445 6446 6447 6448 6449 6450 6451 6452 6453 6454 6455 6456 6457 6458 6459 6460 6461 6462 6463 6464 6465 6466 6467 6468 6469 6470 6471 6472 6473 6474 6475 6476 6477 6478 6479 6480 6481 6482 6483 6484 6485 6486 6487 6488 6489 6490 6491 6492 6493 6494 6495 6496 6497 6498 6499 6500 6501 6502 6503 6504 6505 6506 6507 6508 6509 6510 6511 6512 6513 6514 6515 6516 6517 6518 6519 6520 6521 6522 6523 6524 6525 6526 6527 6528 6529 6530 6531 6532 6533 6534 6535 6536 6537 6538 6539 6540 6541 6542 6543 6544 6545 6546 6547 6548 6549 6550 6551 6552 6553 6554 6555 6556 6557 6558 6559 6560 6561 6562 6563 6564 6565 6566 6567 6568 6569 6570 6571 6572 6573 6574 6575 6576 6577 6578 6579 6580 6581 6582 6583 6584 6585 6586 6587 6588 6589 6590 6591 6592 6593 6594 6595 6596 6597 6598 6599 6600 6601 6602 6603 6604 6605 6606 6607 6608 6609 6610 6611 6612 6613 6614 6615 6616 6617 6618 6619 6620 6621 6622 6623 6624 6625 6626 6627 6628 6629 6630 6631 6632 6633 6634 6635 6636 6637 6638 6639 6640 6641 6642 6643 6644 6645 6646 6647 6648 6649 6650 6651 6652 6653 6654 6655 6656 6657 6658 6659 6660 6661 6662 6663 6664 6665 6666 6667 6668 6669 6670 6671 6672 6673 6674 6675 6676 6677 6678 6679 6680 6681 6682 6683 6684 6685 6686 6687 6688 6689 6690 6691 6692 6693 6694 6695 6696 6697 6698 6699 6700 6701 6702 6703 6704 6705 6706 6707 6708 6709 6710 6711 6712 6713 6714 6715 6716 6717 6718 6719 6720 6721 6722 6723 6724 6725 6726 6727 6728 6729 6730 6731 6732 6733 6734 6735 6736 6737 6738 6739 6740 6741 6742 6743 6744 6745 6746 6747 6748 6749 6750 6751 6752 6753 6754 6755 6756 6757 6758 6759 6760 6761 6762 6763 6764 6765 6766 6767 6768 6769 6770 6771 6772 6773 6774 6775 6776 6777 6778 6779 6780 6781 6782 6783 6784 6785 6786 6787 6788 6789 6790 6791 6792 6793 6794 6795 6796 6797 6798 6799 6800 6801 6802 6803 6804 6805 6806 6807 6808 6809 6810 6811 6812 6813 6814 6815 6816 6817 6818 6819 6820 6821 6822 6823 6824 6825 6826 6827 6828 6829 6830 6831 6832 6833 6834 6835 6836 6837 6838 6839 6840 6841 6842 6843 6844 6845 6846 6847 6848 6849 6850 6851 6852 6853 6854 6855 6856 6857 6858 6859 6860 6861 6862 6863 6864 6865 6866 6867 6868 6869 6870 6871 6872 6873 6874 6875 6876 6877 6878 6879 6880 6881 6882 6883 6884 6885 6886 6887 6888 6889 6890 6891 6892 6893 6894 6895 6896 6897 6898 6899 6900 6901 6902 6903 6904 6905 6906 6907 6908 6909 6910 6911 6912 6913 6914 6915 6916 6917 6918 6919 6920 6921 6922 6923 6924 6925 6926 6927 6928 6929 6930 6931 6932 6933 6934 6935 6936 6937 6938 6939 6940 6941 6942 6943 6944 6945 6946 6947 6948 6949 6950 6951 6952 6953 6954 6955 6956 6957 6958 6959 6960 6961 6962 6963 6964 6965 6966 6967 6968 6969 6970 6971 6972 6973 6974 6975 6976 6977 6978 6979 6980 6981 6982 6983 6984 6985 6986 6987 6988 6989 6990 6991 6992 6993 6994 6995 6996 6997 6998 6999 7000 7001 7002 7003 7004 7005 7006 7007 7008 7009 7010 7011 7012 7013 7014 7015 7016 7017 7018 7019 7020 7021 7022 7023 7024 7025 7026 7027 7028 7029 7030 7031 7032 7033 7034 7035 7036 7037 7038 7039 7040 7041 7042 7043 7044 7045 7046 7047 7048 7049 7050 7051 7052 7053 7054 7055 7056 7057 7058 7059 7060 7061 7062 7063 7064 7065 7066 7067 7068 7069 7070 7071 7072 7073 7074 7075 7076 7077 7078 7079 7080 7081 7082 7083 7084 7085 7086 7087 7088 7089 7090 7091 7092 7093 7094 7095 7096 7097 7098 7099 7100 7101 7102 7103 7104 7105 7106 7107 7108 7109 7110 7111 7112 7113 7114 7115 7116 7117 7118 7119 7120 7121 7122 7123 7124 7125 7126 7127 7128 7129 7130 7131 7132 7133 7134 7135 7136 7137 7138 7139 7140 7141 7142 7143 7144 7145 7146 7147 7148 7149 7150 7151 7152 7153 7154 7155 7156 7157 7158 7159 7160 7161 7162 7163 7164 7165 7166 7167 7168 7169 7170 7171 7172 7173 7174 7175 7176 7177 7178 7179 7180 7181 7182 7183 7184 7185 7186 7187 7188 7189 7190 7191 7192 7193 7194 7195 7196 7197 7198 7199 7200 7201 7202 7203 7204 7205 7206 7207 7208 7209 7210 7211 7212 7213 7214 7215 7216 7217 7218 7219 7220 7221 7222 7223 7224 7225 7226 7227 7228 7229 7230 7231 7232 7233 7234 7235 7236 7237 7238 7239 7240 7241 7242 7243 7244 7245 7246 7247 7248 7249 7250 7251 7252 7253 7254 7255 7256 7257 7258 7259 7260 7261 7262 7263 7264 7265 7266 7267 7268 7269 7270 7271 7272 7273 7274 7275 7276 7277 7278 7279 7280 7281 7282 7283 7284 7285 7286 7287 7288 7289 7290 7291 7292 7293 7294 7295 7296 7297 7298 7299 7300 7301 7302 7303 7304 7305 7306 7307 7308 7309 7310 7311 7312 7313 7314 7315 7316 7317 7318 7319 7320 7321 7322 7323 7324 7325 7326 7327 7328 7329 7330 7331 7332 7333 7334 7335 7336 7337 7338 7339 7340 7341 7342 7343 7344 7345 7346 7347 7348 7349 7350 7351 7352 7353 7354 7355 7356 7357 7358 7359 7360 7361 7362 7363 7364 7365 7366 7367 7368 7369 7370 7371 7372 7373 7374 7375 7376 7377 7378 7379 7380 7381 7382 7383 7384 7385 7386 7387 7388 7389 7390 7391 7392 7393 7394 7395 7396 7397 7398 7399 7400 7401 7402 7403 7404 7405 7406 7407 7408 7409 7410 7411 7412 7413 7414 7415 7416 7417 7418 7419 7420 7421 7422 7423 7424 7425 7426 7427 7428 7429 7430 7431 7432 7433 7434 7435 7436 7437 7438 7439 7440 7441 7442 7443 7444 7445 7446 7447 7448 7449 7450 7451 7452 7453 7454 7455 7456 7457 7458 7459 7460 7461 7462 7463 7464 7465 7466 7467 7468 7469 7470 7471 7472 7473 7474 7475 7476 7477 7478 7479 7480 7481 7482 7483 7484 7485 7486 7487 7488 7489 7490 7491 7492 7493 7494 7495 7496 7497 7498 7499 7500 7501 7502 7503 7504 7505 7506 7507 7508 7509 7510 7511 7512 7513 7514 7515 7516 7517 7518 7519 7520 7521 7522 7523 7524 7525 7526 7527 7528 7529 7530 7531 7532 7533 7534 7535 7536 7537 7538 7539 7540 7541 7542 7543 7544 7545 7546 7547 7548 7549 7550 7551 7552 7553 7554 7555 7556 7557 7558 7559 7560 7561 7562 7563 7564 7565 7566 7567 7568 7569 7570 7571 7572 7573 7574 7575 7576 7577 7578 7579 7580 7581 7582 7583 7584 7585 7586 7587 7588 7589 7590 7591 7592 7593 7594 7595 7596 7597 7598 7599 7600 7601 7602 7603 7604 7605 7606 7607 7608 7609 7610 7611 7612 7613 7614 7615 7616 7617 7618 7619 7620 7621 7622 7623 7624 7625 7626 7627 7628 7629 7630 7631 7632 7633 7634 7635 7636 7637 7638 7639 7640 7641 7642 7643 7644 7645 7646 7647 7648 7649 7650 7651 7652 7653 7654 7655 7656 7657 7658 7659 7660 7661 7662 7663 7664 7665 7666 7667 7668 7669 7670 7671 7672 7673 7674 7675 7676 7677 7678 7679 7680 7681 7682 7683 7684 7685 7686 7687 7688 7689 7690 7691 7692 7693 7694 7695 7696 7697 7698 7699 7700 7701 7702 7703 7704 7705 7706 7707 7708 7709 7710 7711 7712 7713 7714 7715 7716 7717 7718 7719 7720 7721 7722 7723 7724 7725 7726 7727 7728 7729 7730 7731 7732 7733 7734 7735 7736 7737 7738 7739 7740 7741 7742 7743 7744 7745 7746 7747 7748 7749 7750 7751 7752 7753 7754 7755 7756 7757 7758 7759 7760 7761 7762 7763 7764 7765 7766 7767 7768 7769 7770 7771 7772 7773 7774 7775 7776 7777 7778 7779 7780 7781 7782 7783 7784 7785 7786 7787 7788 7789 7790 7791 7792 7793 7794 7795 7796 7797 7798 7799 7800 7801 7802 7803 7804 7805 7806 7807 7808 7809 7810 7811 7812 7813 7814 7815 7816 7817 7818 7819 7820 7821 7822 7823 7824 7825 7826 7827 7828 7829 7830 7831 7832 7833 7834 7835 7836 7837 7838 7839 7840 7841 7842 7843 7844 7845 7846 7847 7848 7849 7850 7851 7852 7853 7854 7855 7856 7857 7858 7859 7860 7861 7862 7863 7864 7865 7866 7867 7868 7869 7870 7871 7872 7873 7874 7875 7876 7877 7878 7879 7880 7881 7882 7883 7884 7885 7886 7887 7888 7889 7890 7891 7892 7893 7894 7895 7896 7897 7898 7899 7900 7901 7902 7903 7904 7905 7906 7907 7908 7909 7910 7911 7912 7913 7914 7915 7916 7917 7918 7919 7920 7921 7922 7923 7924 7925 7926 7927 7928 7929 7930 7931 7932 7933 7934 7935 7936 7937 7938 7939 7940 7941 7942 7943 7944 7945 7946 7947 7948 7949 7950 7951 7952 7953 7954 7955 7956 7957 7958 7959 7960 7961 7962 7963 7964 7965 7966 7967 7968 7969 7970 7971 7972 7973 7974 7975 7976 7977 7978 7979 7980 7981 7982 7983 7984 7985 7986 7987 7988 7989 7990 7991 7992 7993 7994 7995 7996 7997 7998 7999 8000 8001 8002 8003 8004 8005 8006 8007 8008 8009 8010 8011 8012 8013 8014 8015 8016 8017 8018 8019 8020 8021 8022 8023 8024 8025 8026 8027 8028 8029 8030 8031 8032 8033 8034 8035 8036 8037 8038 8039 8040 8041 8042 8043 8044 8045 8046 8047 8048 8049 8050 8051 8052 8053 8054 8055 8056 8057 8058 8059 8060 8061 8062 8063 8064 8065 8066 8067 8068 8069 8070 8071 8072 8073 8074 8075 8076 8077 8078 8079 8080 8081 8082 8083 8084 8085 8086 8087 8088 8089 8090 8091 8092 8093 8094 8095 8096 8097 8098 8099 8100 8101 8102 8103 8104 8105 8106 8107 8108 8109 8110 8111 8112 8113 8114 8115 8116 8117 8118 8119 8120 8121 8122 8123 8124 8125 8126 8127 8128 8129 8130 8131 8132 8133 8134 8135 8136 8137 8138 8139 8140 8141 8142 8143 8144 8145 8146 8147 8148 8149 8150 8151 8152 8153 8154 8155 8156 8157 8158 8159 8160 8161 8162 8163 8164 8165 8166 8167 8168 8169 8170 8171 8172 8173 8174 8175 8176 8177 8178 8179 8180 8181 8182 8183 8184 8185 8186 8187 8188 8189 8190 8191 8192 8193 8194 8195 8196 8197 8198 8199 8200 8201 8202 8203 8204 8205 8206 8207 8208 8209 8210 8211 8212 8213 8214 8215 8216 8217 8218 8219 8220 8221 8222 8223 8224 8225 8226 8227 8228 8229 8230 8231 8232 8233 8234 8235 8236 8237 8238 8239 8240 8241 8242 8243 8244 8245 8246 8247 8248 8249 8250 8251 8252 8253 8254 8255 8256 8257 8258 8259 8260 8261 8262 8263 8264 8265 8266 8267 8268 8269 8270 8271 8272 8273 8274 8275 8276 8277 8278 8279 8280 8281 8282 8283 8284 8285 8286 8287 8288 8289 8290 8291 8292 8293 8294 8295 8296 8297 8298 8299 8300 8301 8302 8303 8304 8305 8306 8307 8308 8309 8310 8311 8312 8313 8314 8315 8316 8317 8318 8319 8320 8321 8322 8323 8324 8325 8326 8327 8328 8329 8330 8331 8332 8333 8334 8335 8336 8337 8338 8339 8340 8341 8342 8343 8344 8345 8346 8347 8348 8349 8350 8351 8352 8353 8354 8355 8356 8357 8358 8359 8360 8361 8362 8363 8364 8365 8366 8367 8368 8369 8370 8371 8372 8373 8374 8375 8376 8377 8378 8379 8380 8381 8382 8383 8384 8385 8386 8387 8388 8389 8390 8391 8392 8393 8394 8395 8396 8397 8398 8399 8400 8401 8402 8403 8404 8405 8406 8407 8408 8409 8410 8411 8412 8413 8414 8415 8416 8417 8418 8419 8420 8421 8422 8423 8424 8425 8426 8427 8428 8429 8430 8431 8432 8433 8434 8435 8436 8437 8438 8439 8440 8441 8442 8443 8444 8445 8446 8447 8448 8449 8450 8451 8452 8453 8454 8455 8456 8457 8458 8459 8460 8461 8462 8463 8464 8465 8466 8467 8468 8469 8470 8471 8472 8473 8474 8475 8476 8477 8478 8479 8480 8481 8482 8483 8484 8485 8486 8487 8488 8489 8490 8491 8492 8493 8494 8495 8496 8497 8498 8499 8500 8501 8502 8503 8504 8505 8506 8507 8508 8509 8510 8511 8512 8513 8514 8515 8516 8517 8518 8519 8520 8521 8522 8523 8524 8525 8526 8527 8528 8529 8530 8531 8532 8533 8534 8535 8536 8537 8538 8539 8540 8541 8542 8543 8544 8545 8546 8547 8548 8549 8550 8551 8552 8553 8554 8555 8556 8557 8558 8559 8560 8561 8562 8563 8564 8565 8566 8567 8568 8569 8570 8571 8572 8573 8574 8575 8576 8577 8578 8579 8580 8581 8582 8583 8584 8585 8586 8587 8588 8589 8590 8591 8592 8593 8594 8595 8596 8597 8598 8599 8600 8601 8602 8603 8604 8605 8606 8607 8608 8609 8610 8611 8612 8613 8614 8615 8616 8617 8618 8619 8620 8621 8622 8623 8624 8625 8626 8627 8628 8629 8630 8631 8632 8633 8634 8635 8636 8637 8638 8639 8640 8641 8642 8643 8644 8645 8646 8647 8648 8649 8650 8651 8652 8653 8654 8655 8656 8657 8658 8659 8660 8661 8662 8663 8664 8665 8666 8667 8668 8669 8670 8671 8672 8673 8674 8675 8676 8677 8678 8679 8680 8681 8682 8683 8684 8685 8686 8687 8688 8689 8690 8691 8692 8693 8694 8695 8696 8697 8698 8699 8700 8701 8702 8703 8704 8705 8706 8707 8708 8709 8710 8711 8712 8713 8714 8715 8716 8717 8718 8719 8720 8721 8722 8723 8724 8725 8726 8727 8728 8729 8730 8731 8732 8733 8734 8735 8736 8737 8738 8739 8740 8741 8742 8743 8744 8745 8746 8747 8748 8749 8750 8751 8752 8753 8754 8755 8756 8757 8758 8759 8760 8761 8762 8763 8764 8765 8766 8767 8768 8769 8770 8771 8772 8773 8774 8775 8776 8777 8778 8779 8780 8781 8782 8783 8784 8785 8786 8787 8788 8789 8790 8791 8792 8793 8794 8795 8796 8797 8798 8799 8800 8801 8802 8803 8804 8805 8806 8807 8808 8809 8810 8811 8812 8813 8814 8815 8816 8817 8818 8819 8820 8821 8822 8823 8824 8825 8826 8827 8828 8829 8830 8831 8832 8833 8834 8835 8836 8837 8838 8839 8840 8841 8842 8843 8844 8845 8846 8847 8848 8849 8850 8851 8852 8853 8854 8855 8856 8857 8858 8859 8860 8861 8862 8863 8864 8865 8866 8867 8868 8869 8870 8871 8872 8873 8874 8875 8876 8877 8878 8879 8880 8881 8882 8883 8884 8885 8886 8887 8888 8889 8890 8891 8892 8893 8894 8895 8896 8897 8898 8899 8900 8901 8902 8903 8904 8905 8906 8907 8908 8909 8910 8911 8912 8913 8914 8915 8916 8917 8918 8919 8920 8921 8922 8923 8924 8925 8926 8927 8928 8929 8930 8931 8932 8933 8934 8935 8936 8937 8938 8939 8940 8941 8942 8943 8944 8945 8946 8947 8948 8949 8950 8951 8952 8953 8954 8955 8956 8957 8958 8959 8960 8961 8962 8963 8964 8965 8966 8967 8968 8969 8970 8971 8972 8973 8974 8975 8976 8977 8978 8979 8980 8981 8982 8983 8984 8985 8986 8987 8988 8989 8990 8991 8992 8993 8994 8995 8996 8997 8998 8999 9000 9001 9002 9003 9004 9005 9006 9007 9008 9009 9010 9011 9012 9013 9014 9015 9016 9017 9018 9019 9020 9021 9022 9023 9024 9025 9026 9027 9028 9029 9030 9031 9032 9033 9034 9035 9036 9037 9038 9039 9040 9041 9042 9043 9044 9045 9046 9047 9048 9049 9050 9051 9052 9053 9054 9055 9056 9057 9058 9059 9060 9061 9062 9063 9064 9065 9066 9067 9068 9069 9070 9071 9072 9073 9074 9075 9076 9077 9078 9079 9080 9081 9082 9083 9084 9085 9086 9087 9088 9089 9090 9091 9092 9093 9094 9095 9096 9097 9098 9099 9100 9101 9102 9103 9104 9105 9106 9107 9108 9109 9110 9111 9112 9113 9114 9115 9116 9117 9118 9119 9120 9121 9122 9123 9124 9125 9126 9127 9128 9129 9130 9131 9132 9133 9134 9135 9136 9137 9138 9139 9140 9141 9142 9143 9144 9145 9146 9147 9148 9149 9150 9151 9152 9153 9154 9155 9156 9157 9158 9159 9160 9161 9162 9163 9164 9165 9166 9167 9168 9169 9170 9171 9172 9173 9174 9175 9176 9177 9178 9179 9180 9181 9182 9183 9184 9185 9186 9187 9188 9189 9190 9191 9192 9193 9194 9195 9196 9197 9198 9199 9200 9201 9202 9203 9204 9205 9206 9207 9208 9209 9210 9211 9212 9213 9214 9215 9216 9217 9218 9219 9220 9221 9222 9223 9224 9225 9226 9227 9228 9229 9230 9231 9232 9233 9234 9235 9236 9237 9238 9239 9240 9241 9242 9243 9244 9245 9246 9247 9248 9249 9250 9251 9252 9253 9254 9255 9256 9257 9258 9259 9260 9261 9262 9263 9264 9265 9266 9267 9268 9269 9270 9271 9272 9273 9274 9275 9276 9277 9278 9279 9280 9281 9282 9283 9284 9285 9286 9287 9288 9289 9290 9291 9292 9293 9294 9295 9296 9297 9298 9299 9300 9301 9302 9303 9304 9305 9306 9307 9308 9309 9310 9311 9312 9313 9314 9315 9316 9317 9318 9319 9320 9321 9322 9323 9324 9325 9326 9327 9328 9329 9330 9331 9332 9333 9334 9335 9336 9337 9338 9339 9340 9341 9342 9343 9344 9345 9346 9347 9348 9349 9350 9351 9352 9353 9354 9355 9356 9357 9358 9359 9360 9361 9362 9363 9364 9365 9366 9367 9368 9369 9370 9371 9372 9373 9374 9375 9376 9377 9378 9379 9380 9381 9382 9383 9384 9385 9386 9387 9388 9389 9390 9391 9392 9393 9394 9395 9396 9397 9398 9399 9400 9401 9402 9403 9404 9405 9406 9407 9408 9409 9410 9411 9412 9413 9414 9415 9416 9417 9418 9419 9420 9421 9422 9423 9424 9425 9426 9427 9428 9429 9430 9431 9432 9433 9434 9435 9436 9437 9438 9439 9440 9441 9442 9443 9444 9445 9446 9447 9448 9449 9450 9451 9452 9453 9454 9455 9456 9457 9458 9459 9460 9461 9462 9463 9464 9465 9466 9467 9468 9469 9470 9471 9472 9473 9474 9475 9476 9477 9478 9479 9480 9481 9482 9483 9484 9485 9486 9487 9488 9489 9490 9491 9492 9493 9494 9495 9496 9497 9498 9499 9500 9501 9502 9503 9504 9505 9506 9507 9508 9509 9510 9511 9512 9513 9514 9515 9516 9517 9518 9519 9520 9521 9522 9523 9524 9525 9526 9527 9528 9529 9530 9531 9532 9533 9534 9535 9536 9537 9538 9539 9540 9541 9542 9543 9544 9545 9546 9547 9548 9549 9550 9551 9552 9553 9554 9555 9556 9557 9558 9559 9560 9561 9562 9563 9564 9565 9566 9567 9568 9569 9570 9571 9572 9573 9574 9575 9576 9577 9578 9579 9580 9581 9582 9583 9584 9585 9586 9587 9588 9589 9590 9591 9592 9593 9594 9595 9596 9597 9598 9599 9600 9601 9602 9603 9604 9605 9606 9607 9608 9609 9610 9611 9612 9613 9614 9615 9616 9617 9618 9619 9620 9621 9622 9623 9624 9625 9626 9627 9628 9629 9630 9631 9632 9633 9634 9635 9636 9637 9638 9639 9640 9641 9642 9643 9644 9645 9646 9647 9648 9649 9650 9651 9652 9653 9654 9655 9656 9657 9658 9659 9660 9661 9662 9663 9664 9665 9666 9667 9668 9669 9670 9671 9672 9673 9674 9675 9676 9677 9678 9679 9680 9681 9682 9683 9684 9685 9686 9687 9688 9689 9690 9691 9692 9693 9694 9695 9696 9697 9698 9699 9700 9701 9702 9703 9704 9705 9706 9707 9708 9709 9710 9711 9712 9713 9714 9715 9716 9717 9718 9719 9720 9721 9722 9723 9724 9725 9726 9727 9728 9729 9730 9731 9732 9733 9734 9735 9736 9737 9738 9739 9740 9741 9742 9743 9744 9745 9746 9747 9748 9749 9750 9751 9752 9753 9754 9755 9756 9757 9758 9759 9760 9761 9762 9763 9764 9765 9766 9767 9768 9769 9770 9771 9772 9773 9774 9775 9776 9777 9778 9779 9780 9781 9782 9783 9784 9785 9786 9787 9788 9789 9790 9791 9792 9793 9794 9795 9796 9797 9798 9799 9800 9801 9802 9803 9804 9805 9806 9807 9808 9809 9810 9811 9812 9813 9814 9815 9816 9817 9818 9819 9820 9821 9822 9823 9824 9825 9826 9827 9828 9829 9830 9831 9832 9833 9834 9835 9836 9837 9838 9839 9840 9841 9842 9843 9844 9845 9846 9847 9848 9849 9850 9851 9852 9853 9854 9855 9856 9857 9858 9859 9860 9861 9862 9863 9864 9865 9866 9867 9868 9869 9870 9871 9872 9873 9874 9875 9876 9877 9878 9879 9880 9881 9882 9883 9884 9885 9886 9887 9888 9889 9890 9891 9892 9893 9894 9895 9896 9897 9898 9899 9900 9901 9902 9903 9904 9905 9906 9907 9908 9909 9910 9911 9912 9913 9914 9915 9916 9917 9918 9919 9920 9921 9922 9923 9924 9925 9926 9927 9928 9929 9930 9931 9932 9933 9934 9935 9936 9937 9938 9939 9940 9941 9942 9943 9944 9945 9946 9947 9948 9949 9950 9951 9952 9953 9954 9955 9956 9957 9958 9959 9960 9961 9962 9963 9964 9965 9966 9967 9968 9969 9970 9971 9972 9973 9974 9975 9976 9977 9978 9979 9980 9981 9982 9983 9984 9985 9986 9987 9988 9989 9990 9991 9992 9993 9994 9995 9996 9997 9998 9999 10000 10001 10002 10003 10004 10005 10006 10007 10008 10009 10010 10011 10012 10013 10014 10015 10016 10017 10018 10019 10020 10021 10022 10023 10024 10025 10026 10027 10028 10029 10030 10031 10032 10033 10034 10035 10036 10037 10038 10039 10040 10041 10042 10043 10044 10045 10046 10047 10048 10049 10050 10051 10052 10053 10054 10055 10056 10057 10058 10059 10060 10061 10062 10063 10064 10065 10066 10067 10068 10069 10070 10071 10072 10073 10074 10075 10076 10077 10078 10079 10080 10081 10082 10083 10084 10085 10086 10087 10088 10089 10090 10091 10092 10093 10094 10095 10096 10097 10098 10099 10100 10101 10102 10103 10104 10105 10106 10107 10108 10109 10110 10111 10112 10113 10114 10115 10116 10117 10118 10119 10120 10121 10122 10123 10124 10125 10126 10127 10128 10129 10130 10131 10132 10133 10134 10135 10136 10137 10138 10139 10140 10141 10142 10143 10144 10145 10146 10147 10148 10149 10150 10151 10152 10153 10154 10155 10156 10157 10158 10159 10160 10161 10162 10163 10164 10165 10166 10167 10168 10169 10170 10171 10172 10173 10174 10175 10176 10177 10178 10179 10180 10181 10182 10183 10184 10185 10186 10187 10188 10189 10190 10191 10192 10193 10194 10195 10196 10197 10198 10199 10200 10201 10202 10203 10204 10205 10206 10207 10208 10209 10210 10211 10212 10213 10214 10215 10216 10217 10218 10219 10220 10221 10222 10223 10224 10225 10226 10227 10228 10229 10230 10231 10232 10233 10234 10235 10236 10237 10238 10239 10240 10241 10242 10243 10244 10245 10246 10247 10248 10249 10250 10251 10252 10253 10254 10255 10256 10257 10258 10259 10260 10261 10262 10263 10264 10265 10266 10267 10268 10269 10270 10271 10272 10273 10274 10275 10276 10277 10278 10279 10280 10281 10282 10283 10284 10285 10286 10287 10288 10289 10290 10291 10292 10293 10294 10295 10296 10297 10298 10299 10300 10301 10302 10303 10304 10305 10306 10307 10308 10309 10310 10311 10312 10313 10314 10315 10316 10317 10318 10319 10320 10321 10322 10323 10324 10325 10326 10327 10328 10329 10330 10331 10332 10333 10334 10335 10336 10337 10338 10339 10340 10341 10342 10343 10344 10345 10346 10347 10348 10349 10350 10351 10352 10353 10354 10355 10356 10357 10358 10359 10360 10361 10362 10363 10364 10365 10366 10367 10368 10369 10370 10371 10372 10373 10374 10375 10376 10377 10378 10379 10380 10381 10382 10383 10384 10385 10386 10387 10388 10389 10390 10391 10392 10393 10394 10395 10396 10397 10398 10399 10400 10401 10402 10403 10404 10405 10406 10407 10408 10409 10410 10411 10412 10413 10414 10415 10416 10417 10418 10419 10420 10421 10422 10423 10424 10425 10426 10427 10428 10429 10430 10431 10432 10433 10434 10435 10436 10437 10438 10439 10440 10441 10442 10443 10444 10445 10446 10447 10448 10449 10450 10451 10452 10453 10454 10455 10456 10457 10458 10459 10460 10461 10462 10463 10464 10465 10466 10467 10468 10469 10470 10471 10472 10473 10474 10475 10476 10477 10478 10479 10480 10481 10482 10483 10484 10485 10486 10487 10488 10489 10490 10491 10492 10493 10494 10495 10496 10497 10498 10499 10500 10501 10502 10503 10504 10505 10506 10507 10508 10509 10510 10511 10512 10513 10514 10515 10516 10517 10518 10519 10520 10521 10522 10523 10524 10525 10526 10527 10528 10529 10530 10531 10532 10533 10534 10535 10536 10537 10538 10539 10540 10541 10542 10543 10544 10545 10546 10547 10548 10549 10550 10551 10552 10553 10554 10555 10556 10557 10558 10559 10560 10561 10562 10563 10564 10565 10566 10567 10568 10569 10570 10571 10572 10573 10574 10575 10576 10577 10578 10579 10580 10581 10582 10583 10584 10585 10586 10587 10588 10589 10590 10591 10592 10593 10594 10595 10596 10597 10598 10599 10600 10601 10602 10603 10604 10605 10606 10607 10608 10609 10610 10611 10612 10613 10614 10615 10616 10617 10618 10619 10620 10621 10622 10623 10624 10625 10626 10627 10628 10629 10630 10631 10632 10633 10634 10635 10636 10637 10638 10639 10640 10641 10642 10643 10644 10645 10646 10647 10648 10649 10650 10651 10652 10653 10654 10655 10656 10657 10658 10659 10660 10661 10662 10663 10664 10665 10666 10667 10668 10669 10670 10671 10672 10673 10674 10675 10676 10677 10678 10679 10680 10681 10682 10683 10684 10685 10686 10687 10688 10689 10690 10691 10692 10693 10694 10695 10696 10697 10698 10699 10700 10701 10702 10703 10704 10705 10706 10707 10708 10709 10710 10711 10712 10713 10714 10715 10716 10717 10718 10719 10720 10721 10722 10723 10724 10725 10726 10727 10728 10729 10730 10731 10732 10733 10734 10735 10736 10737 10738 10739 10740 10741 10742 10743 10744 10745 10746 10747 10748 10749 10750 10751 10752 10753 10754 10755 10756 10757 10758 10759 10760 10761 10762 10763 10764 10765 10766 10767 10768 10769 10770 10771 10772 10773 10774 10775 10776 10777 10778 10779 10780 10781 10782 10783 10784 10785 10786 10787 10788 10789 10790 10791 10792 10793 10794 10795 10796 10797 10798 10799 10800 10801 10802 10803 10804 10805 10806 10807 10808 10809 10810 10811 10812 10813 10814 10815 10816 10817 10818 10819 10820 10821 10822 10823 10824 10825 10826 10827 10828 10829 10830 10831 10832 10833 10834 10835 10836 10837 10838 10839 10840 10841 10842 10843 10844 10845 10846 10847 10848 10849 10850 10851 10852 10853 10854 10855 10856 10857 10858 10859 10860 10861 10862 10863 10864 10865 10866 10867 10868 10869 10870 10871 10872 10873 10874 10875 10876 10877 10878 10879 10880 10881 10882 10883 10884 10885 10886 10887 10888 10889 10890 10891 10892 10893 10894 10895 10896 10897 10898 10899 10900 10901 10902 10903 10904 10905 10906 10907 10908 10909 10910 10911 10912 10913 10914 10915 10916 10917 10918 10919 10920 10921 10922 10923 10924 10925 10926 10927 10928 10929 10930 10931 10932 10933 10934 10935 10936 10937 10938 10939 10940 10941 10942 10943 10944 10945 10946 10947 10948 10949 10950 10951 10952 10953 10954 10955 10956 10957 10958 10959 10960 10961 10962 10963 10964 10965 10966 10967 10968 10969 10970 10971 10972 10973 10974 10975 10976 10977 10978 10979 10980 10981 10982 10983 10984 10985 10986 10987 10988 10989 10990 10991 10992 10993 10994 10995 10996 10997 10998 10999 11000 11001 11002 11003 11004 11005 11006 11007 11008 11009 11010 11011 11012 11013 11014 11015 11016 11017 11018 11019 11020 11021 11022 11023 11024 11025 11026 11027 11028 11029 11030 11031 11032 11033 11034 11035 11036 11037 11038 11039 11040 11041 11042 11043 11044 11045 11046 11047 11048 11049 11050 11051 11052 11053 11054 11055 11056 11057 11058 11059 11060 11061 11062 11063 11064 11065 11066 11067 11068 11069 11070 11071 11072 11073 11074 11075 11076 11077 11078 11079 11080 11081 11082 11083 11084 11085 11086 11087 11088 11089 11090 11091 11092 11093 11094 11095 11096 11097 11098 11099 11100 11101 11102 11103 11104 11105 11106 11107 11108 11109 11110 11111 11112 11113 11114 11115 11116 11117 11118 11119 11120 11121 11122 11123 11124 11125 11126 11127 11128 11129 11130 11131 11132 11133 11134 11135 11136 11137 11138 11139 11140 11141 11142 11143 11144 11145 11146 11147 11148 11149 11150 11151 11152 11153 11154 11155 11156 11157 11158 11159 11160 11161 11162 11163 11164 11165 11166 11167 11168 11169 11170 11171 11172 11173 11174 11175 11176 11177 11178 11179 11180 11181 11182 11183 11184 11185 11186 11187 11188 11189 11190 11191 11192 11193 11194 11195 11196 11197 11198 11199 11200 11201 11202 11203 11204 11205 11206 11207 11208 11209 11210 11211 11212 11213 11214 11215 11216 11217 11218 11219 11220 11221 11222 11223 11224 11225 11226 11227 11228 11229 11230 11231 11232 11233 11234 11235 11236 11237 11238 11239 11240 11241 11242 11243 11244 11245 11246 11247 11248 11249 11250 11251 11252 11253 11254 11255 11256 11257 11258 11259 11260 11261 11262 11263 11264 11265 11266 11267 11268 11269 11270 11271 11272 11273 11274 11275 11276 11277 11278 11279 11280 11281 11282 11283 11284 11285 11286 11287 11288 11289 11290 11291 11292 11293 11294 11295 11296 11297 11298 11299 11300 11301 11302 11303 11304 11305 11306 11307 11308 11309 11310 11311 11312 11313 11314 11315 11316 11317 11318 11319 11320 11321 11322 11323 11324 11325 11326 11327 11328 11329 11330 11331 11332 11333 11334 11335 11336 11337 11338 11339 11340 11341 11342 11343 11344 11345 11346 11347 11348 11349 11350 11351 11352 11353 11354 11355 11356 11357 11358 11359 11360 11361 11362 11363 11364 11365 11366 11367 11368 11369 11370 11371 11372 11373 11374 11375 11376 11377 11378 11379 11380 11381 11382 11383 11384 11385 11386 11387 11388 11389 11390 11391 11392 11393 11394 11395 11396 11397 11398 11399 11400 11401 11402 11403 11404 11405 11406 11407 11408 11409 11410 11411 11412 11413 11414 11415 11416 11417 11418 11419 11420 11421 11422 11423 11424 11425 11426 11427 11428 11429 11430 11431 11432 11433 11434 11435 11436 11437 11438 11439 11440 11441 11442 11443 11444 11445 11446 11447 11448 11449 11450 11451 11452 11453 11454 11455 11456 11457 11458 11459 11460 11461 11462 11463 11464 11465 11466 11467 11468 11469 11470 11471 11472 11473 11474 11475 11476 11477 11478 11479 11480 11481 11482 11483 11484 11485 11486 11487 11488 11489 11490 11491 11492 11493 11494 11495 11496 11497 11498 11499 11500 11501 11502 11503 11504 11505 11506 11507 11508 11509 11510 11511 11512 11513 11514 11515 11516 11517 11518 11519 11520 11521 11522 11523 11524 11525 11526 11527 11528 11529 11530 11531 11532 11533 11534 11535 11536 11537 11538 11539 11540 11541 11542 11543 11544 11545 11546 11547 11548 11549 11550 11551 11552 11553 11554 11555 11556 11557 11558 11559 11560 11561 11562 11563 11564 11565 11566 11567 11568 11569 11570 11571 11572 11573 11574 11575 11576 11577 11578 11579 11580 11581 11582 11583 11584 11585 11586 11587 11588 11589 11590 11591 11592 11593 11594 11595 11596 11597 11598 11599 11600 11601 11602 11603 11604 11605 11606 11607 11608 11609 11610 11611 11612 11613 11614 11615 11616 11617 11618 11619 11620 11621 11622 11623 11624 11625 11626 11627 11628 11629 11630 11631 11632 11633 11634 11635 11636 11637 11638 11639 11640 11641 11642 11643 11644 11645 11646 11647 11648 11649 11650 11651 11652 11653 11654 11655 11656 11657 11658 11659 11660 11661 11662 11663 11664 11665 11666 11667 11668 11669 11670 11671 11672 11673 11674 11675 11676 11677 11678 11679 11680 11681 11682 11683 11684 11685 11686 11687 11688 11689 11690 11691 11692 11693 11694 11695 11696 11697 11698 11699 11700 11701 11702 11703 11704 11705 11706 11707 11708 11709 11710 11711 11712 11713 11714 11715 11716 11717 11718 11719 11720 11721 11722 11723 11724 11725 11726 11727 11728 11729 11730 11731 11732 11733 11734 11735 11736 11737 11738 11739 11740 11741 11742 11743 11744 11745 11746 11747 11748 11749 11750 11751 11752 11753 11754 11755 11756 11757 11758 11759 11760 11761 11762 11763 11764 11765 11766 11767 11768 11769 11770 11771 11772 11773 11774 11775 11776 11777 11778 11779 11780 11781 11782 11783 11784 11785 11786 11787 11788 11789 11790 11791 11792 11793 11794 11795 11796 11797 11798 11799 11800 11801 11802 11803 11804 11805 11806 11807 11808 11809 11810 11811 11812 11813 11814 11815 11816 11817 11818 11819 11820 11821 11822 11823 11824 11825 11826 11827 11828 11829 11830 11831 11832 11833 11834 11835 11836 11837 11838 11839 11840 11841 11842 11843 11844 11845 11846 11847 11848 11849 11850 11851 11852 11853 11854 11855 11856 11857 11858 11859 11860 11861 11862 11863 11864 11865 11866 11867 11868 11869 11870 11871 11872 11873 11874 11875 11876 11877 11878 11879 11880 11881 11882 11883 11884 11885 11886 11887 11888 11889 11890 11891 11892 11893 11894 11895 11896 11897 11898 11899 11900 11901 11902 11903 11904 11905 11906 11907 11908 11909 11910 11911 11912 11913 11914 11915 11916 11917 11918 11919 11920 11921 11922 11923 11924 11925 11926 11927 11928 11929 11930 11931 11932 11933 11934 11935 11936 11937 11938 11939 11940 11941 11942 11943 11944 11945 11946 11947 11948 11949 11950 11951 11952 11953 11954 11955 11956 11957 11958 11959 11960 11961 11962 11963 11964 11965 11966 11967 11968 11969 11970 11971 11972 11973 11974 11975 11976 11977 11978 11979 11980 11981 11982 11983 11984 11985 11986 11987 11988 11989 11990 11991 11992 11993 11994 11995 11996 11997 11998 11999 12000 12001 12002 12003 12004 12005 12006 12007 12008 12009 12010 12011 12012 12013 12014 12015 12016 12017 12018 12019 12020 12021 12022 12023 12024 12025 12026 12027 12028 12029 12030 12031 12032 12033 12034 12035 12036 12037 12038 12039 12040 12041 12042 12043 12044 12045 12046 12047 12048 12049 12050 12051 12052 12053 12054 12055 12056 12057 12058 12059 12060 12061 12062 12063 12064 12065 12066 12067 12068 12069 12070 12071 12072 12073 12074 12075 12076 12077 12078 12079 12080 12081 12082 12083 12084 12085 12086 12087 12088 12089 12090 12091 12092 12093 12094 12095 12096 12097 12098 12099 12100 12101 12102 12103 12104 12105 12106 12107 12108 12109 12110 12111 12112 12113 12114 12115 12116 12117 12118 12119 12120 12121 12122 12123 12124 12125 12126 12127 12128 12129 12130 12131 12132 12133 12134 12135 12136 12137 12138 12139 12140 12141 12142 12143 12144 12145 12146 12147 12148 12149 12150 12151 12152 12153 12154 12155 12156 12157 12158 12159 12160 12161 12162 12163 12164 12165 12166 12167 12168 12169 12170 12171 12172 12173 12174 12175 12176 12177 12178 12179 12180 12181 12182 12183 12184 12185 12186 12187 12188 12189 12190 12191 12192 12193 12194 12195 12196 12197 12198 12199 12200 12201 12202 12203 12204 12205 12206 12207 12208 12209 12210 12211 12212 12213 12214 12215 12216 12217 12218 12219 12220 12221 12222 12223 12224 12225 12226 12227 12228 12229 12230 12231 12232 12233 12234 12235 12236 12237 12238 12239 12240 12241 12242 12243 12244 12245 12246 12247 12248 12249 12250 12251 12252 12253 12254 12255 12256 12257 12258 12259 12260 12261 12262 12263 12264 12265 12266 12267 12268 12269 12270 12271 12272 12273 12274 12275 12276 12277 12278 12279 12280 12281 12282 12283 12284 12285 12286 12287 12288 12289 12290 12291 12292 12293 12294 12295 12296 12297 12298 12299 12300 12301 12302 12303 12304 12305 12306 12307 12308 12309 12310 12311 12312 12313 12314 12315 12316 12317 12318 12319 12320 12321 12322 12323 12324 12325 12326 12327 12328 12329 12330 12331 12332 12333 12334 12335 12336 12337 12338 12339 12340 12341 12342 12343 12344 12345 12346 12347 12348 12349 12350 12351 12352 12353 12354 12355 12356 12357 12358 12359 12360 12361 12362 12363 12364 12365 12366 12367 12368 12369 12370 12371 12372 12373 12374 12375 12376 12377 12378 12379 12380 12381 12382 12383 12384 12385 12386 12387 12388 12389 12390 12391 12392 12393 12394 12395 12396 12397 12398 12399 12400 12401 12402 12403 12404 12405 12406 12407 12408 12409 12410 12411 12412 12413 12414 12415 12416 12417 12418 12419 12420 12421 12422 12423 12424 12425 12426 12427 12428 12429 12430 12431 12432 12433 12434 12435 12436 12437 12438 12439 12440 12441 12442 12443 12444 12445 12446 12447 12448 12449 12450 12451 12452 12453 12454 12455 12456 12457 12458 12459 12460 12461 12462 12463 12464 12465 12466 12467 12468 12469 12470 12471 12472 12473 12474 12475 12476 12477 12478 12479 12480 12481 12482 12483 12484 12485 12486 12487 12488 12489 12490 12491 12492 12493 12494 12495 12496 12497 12498 12499 12500 12501 12502 12503 12504 12505 12506 12507 12508 12509 12510 12511 12512 12513 12514 12515 12516 12517 12518 12519 12520 12521 12522 12523 12524 12525 12526 12527 12528 12529 12530 12531 12532 12533 12534 12535 12536 12537 12538 12539 12540 12541 12542 12543 12544 12545 12546 12547 12548 12549 12550 12551 12552 12553 12554 12555 12556 12557 12558 12559 12560 12561 12562 12563 12564 12565 12566 12567 12568 12569 12570 12571 12572 12573 12574 12575 12576 12577 12578 12579 12580 12581 12582 12583 12584 12585 12586 12587 12588 12589 12590 12591 12592 12593 12594 12595 12596 12597 12598 12599 12600 12601 12602 12603 12604 12605 12606 12607 12608 12609 12610 12611 12612 12613 12614 12615 12616 12617 12618 12619 12620 12621 12622 12623 12624 12625 12626 12627 12628 12629 12630 12631 12632 12633 12634 12635 12636 12637 12638 12639 12640 12641 12642 12643 12644 12645 12646 12647 12648 12649 12650 12651 12652 12653 12654 12655 12656 12657 12658 12659 12660 12661 12662 12663 12664 12665 12666 12667 12668 12669 12670 12671 12672 12673 12674 12675 12676 12677 12678 12679 12680 12681 12682 12683 12684 12685 12686 12687 12688 12689 12690 12691 12692 12693 12694 12695 12696 12697 12698 12699 12700 12701 12702 12703 12704 12705 12706 12707 12708 12709 12710 12711 12712 12713 12714 12715 12716 12717 12718 12719 12720 12721 12722 12723 12724 12725 12726 12727 12728 12729 12730 12731 12732 12733 12734 12735 12736 12737 12738 12739 12740 12741 12742 12743 12744 12745 12746 12747 12748 12749 12750 12751 12752 12753 12754 12755 12756 12757 12758 12759 12760 12761 12762 12763 12764 12765 12766 12767 12768 12769 12770 12771 12772 12773 12774 12775 12776 12777 12778 12779 12780 12781 12782 12783 12784 12785 12786 12787 12788 12789 12790 12791 12792 12793 12794 12795 12796 12797 12798 12799 12800 12801 12802 12803 12804 12805 12806 12807 12808 12809 12810 12811 12812 12813 12814 12815 12816 12817 12818 12819 12820 12821 12822 12823 12824 12825 12826 12827 12828 12829 12830 12831 12832 12833 12834 12835 12836 12837 12838 12839 12840 12841 12842 12843 12844 12845 12846 12847 12848 12849 12850 12851 12852 12853 12854 12855 12856 12857 12858 12859 12860 12861 12862 12863 12864 12865 12866 12867 12868 12869 12870 12871 12872 12873 12874 12875 12876 12877 12878 12879 12880 12881 12882 12883 12884 12885 12886 12887 12888 12889 12890 12891 12892 12893 12894 12895 12896 12897 12898 12899 12900 12901 12902 12903 12904 12905 12906 12907 12908 12909 12910 12911 12912 12913 12914 12915 12916 12917 12918 12919 12920 12921 12922 12923 12924 12925 12926 12927 12928 12929 12930 12931 12932 12933 12934 12935 12936 12937 12938 12939 12940 12941 12942 12943 12944 12945 12946 12947 12948 12949 12950 12951 12952 12953 12954 12955 12956 12957 12958 12959 12960 12961 12962 12963 12964 12965 12966 12967 12968 12969 12970 12971 12972 12973 12974 12975 12976 12977 12978 12979 12980 12981 12982 12983 12984 12985 12986 12987 12988 12989 12990 12991 12992 12993 12994 12995 12996 12997 12998 12999 13000 13001 13002 13003 13004 13005 13006 13007 13008 13009 13010 13011 13012 13013 13014 13015 13016 13017 13018 13019 13020 13021 13022 13023 13024 13025 13026 13027 13028 13029 13030 13031 13032 13033 13034 13035 13036 13037 13038 13039 13040 13041 13042 13043 13044 13045 13046 13047 13048 13049 13050 13051 13052 13053 13054 13055 13056 13057 13058 13059 13060 13061 13062 13063 13064 13065 13066 13067 13068 13069 13070 13071 13072 13073 13074 13075 13076 13077 13078 13079 13080 13081 13082 13083 13084 13085 13086 13087 13088 13089 13090 13091 13092 13093 13094 13095 13096 13097 13098 13099 13100 13101 13102 13103 13104 13105 13106 13107 13108 13109 13110 13111 13112 13113 13114 13115 13116 13117 13118 13119 13120 13121 13122 13123 13124 13125 13126 13127 13128 13129 13130 13131 13132 13133 13134 13135 13136 13137 13138 13139 13140 13141 13142 13143 13144 13145 13146 13147 13148 13149 13150 13151 13152 13153 13154 13155 13156 13157 13158 13159 13160 13161 13162 13163 13164 13165 13166 13167 13168 13169 13170 13171 13172 13173 13174 13175 13176 13177 13178 13179 13180 13181 13182 13183 13184 13185 13186 13187 13188 13189 13190 13191 13192 13193 13194 13195 13196 13197 13198 13199 13200 13201 13202 13203 13204 13205 13206 13207 13208 13209 13210 13211 13212 13213 13214 13215 13216 13217 13218 13219 13220 13221 13222 13223 13224 13225 13226 13227 13228 13229 13230 13231 13232 13233 13234 13235 13236 13237 13238 13239 13240 13241 13242 13243 13244 13245 13246 13247 13248 13249 13250 13251 13252 13253 13254 13255 13256 13257 13258 13259 13260 13261 13262 13263 13264 13265 13266 13267 13268 13269 13270 13271 13272 13273 13274 13275 13276 13277 13278 13279 13280 13281 13282 13283 13284 13285 13286 13287 13288 13289 13290 13291 13292 13293 13294 13295 13296 13297 13298 13299 13300 13301 13302 13303 13304 13305 13306 13307 13308 13309 13310 13311 13312 13313 13314 13315 13316 13317 13318 13319 13320 13321 13322 13323 13324 13325 13326 13327 13328 13329 13330 13331 13332 13333 13334 13335 13336 13337 13338 13339 13340 13341 13342 13343 13344 13345 13346 13347 13348 13349 13350 13351 13352 13353 13354 13355 13356 13357 13358 13359 13360 13361 13362 13363 13364 13365 13366 13367 13368 13369 13370 13371 13372 13373 13374 13375 13376 13377 13378 13379 13380 13381 13382 13383 13384 13385 13386 13387 13388 13389 13390 13391 13392 13393 13394 13395 13396 13397 13398 13399 13400 13401 13402 13403 13404 13405 13406 13407 13408 13409 13410 13411 13412 13413 13414 13415 13416 13417 13418 13419 13420 13421 13422 13423 13424 13425 13426 13427 13428 13429 13430 13431 13432 13433 13434 13435 13436 13437 13438 13439 13440 13441 13442 13443 13444 13445 13446 13447 13448 13449 13450 13451 13452 13453 13454 13455 13456 13457 13458 13459 13460 13461 13462 13463 13464 13465 13466 13467 13468 13469 13470 13471 13472 13473 13474 13475 13476 13477 13478 13479 13480 13481 13482 13483 13484 13485 13486 13487 13488 13489 13490 13491 13492 13493 13494 13495 13496 13497 13498 13499 13500 13501 13502 13503 13504 13505 13506 13507 13508 13509 13510 13511 13512 13513 13514 13515 13516 13517 13518 13519 13520 13521 13522 13523 13524 13525 13526 13527 13528 13529 13530 13531 13532 13533 13534 13535 13536 13537 13538 13539 13540 13541 13542 13543 13544 13545 13546 13547 13548 13549 13550 13551 13552 13553 13554 13555 13556 13557 13558 13559 13560 13561 13562 13563 13564 13565 13566 13567 13568 13569 13570 13571 13572 13573 13574 13575 13576 13577 13578 13579 13580 13581 13582 13583 13584 13585 13586 13587 13588 13589 13590 13591 13592 13593 13594 13595 13596 13597 13598 13599 13600 13601 13602 13603 13604 13605 13606 13607 13608 13609 13610 13611 13612 13613 13614 13615 13616 13617 13618 13619 13620 13621 13622 13623 13624 13625 13626 13627 13628 13629 13630 13631 13632 13633 13634 13635 13636 13637 13638 13639 13640 13641 13642 13643 13644 13645 13646 13647 13648 13649 13650 13651 13652 13653 13654 13655 13656 13657 13658 13659 13660 13661 13662 13663 13664 13665 13666 13667 13668 13669 13670 13671 13672 13673 13674 13675 13676 13677 13678 13679 13680 13681 13682 13683 13684 13685 13686 13687 13688 13689 13690 13691 13692 13693 13694 13695 13696 13697 13698 13699 13700 13701 13702 13703 13704 13705 13706 13707 13708 13709 13710 13711 13712 13713 13714 13715 13716 13717 13718 13719 13720 13721 13722 13723 13724 13725 13726 13727 13728 13729 13730 13731 13732 13733 13734 13735 13736 13737 13738 13739 13740 13741 13742 13743 13744 13745 13746 13747 13748 13749 13750 13751 13752 13753 13754 13755 13756 13757 13758 13759 13760 13761 13762 13763 13764 13765 13766 13767 13768 13769 13770 13771 13772 13773 13774 13775 13776 13777 13778 13779 13780 13781 13782 13783 13784 13785 13786 13787 13788 13789 13790 13791 13792 13793 13794 13795 13796 13797 13798 13799 13800 13801 13802 13803 13804 13805 13806 13807 13808 13809 13810 13811 13812 13813 13814 13815 13816 13817 13818 13819 13820 13821 13822 13823 13824 13825 13826 13827 13828 13829 13830 13831 13832 13833 13834 13835 13836 13837 13838 13839 13840 13841 13842 13843 13844 13845 13846 13847 13848 13849 13850 13851 13852 13853 13854 13855 13856 13857 13858 13859 13860 13861 13862 13863 13864 13865 13866 13867 13868 13869 13870 13871 13872 13873 13874 13875 13876 13877 13878 13879 13880 13881 13882 13883 13884 13885 13886 13887 13888 13889 13890 13891 13892 13893 13894 13895 13896 13897 13898 13899 13900 13901 13902 13903 13904 13905 13906 13907 13908 13909 13910 13911 13912 13913 13914 13915 13916 13917 13918 13919 13920 13921 13922 13923 13924 13925 13926 13927 13928 13929 13930 13931 13932 13933 13934 13935 13936 13937 13938 13939 13940 13941 13942 13943 13944 13945 13946 13947 13948 13949 13950 13951 13952 13953 13954 13955 13956 13957 13958 13959 13960 13961 13962 13963 13964 13965 13966 13967 13968 13969 13970 13971 13972 13973 13974 13975 13976 13977 13978 13979 13980 13981 13982 13983 13984 13985 13986 13987 13988 13989 13990 13991 13992 13993 13994 13995 13996 13997 13998 13999 14000 14001 14002 14003 14004 14005 14006 14007 14008 14009 14010 14011 14012 14013 14014 14015 14016 14017 14018 14019 14020 14021 14022 14023 14024 14025 14026 14027 14028 14029 14030 14031 14032 14033 14034 14035 14036 14037 14038 14039 14040 14041 14042 14043 14044 14045 14046 14047 14048 14049 14050 14051 14052 14053 14054 14055 14056 14057 14058 14059 14060 14061 14062 14063 14064 14065 14066 14067 14068 14069 14070 14071 14072 14073 14074 14075 14076 14077 14078 14079 14080 14081 14082 14083 14084 14085 14086 14087 14088 14089 14090 14091 14092 14093 14094 14095 14096 14097 14098 14099 14100 14101 14102 14103 14104 14105 14106 14107 14108 14109 14110 14111 14112 14113 14114 14115 14116 14117 14118 14119 14120 14121 14122 14123 14124 14125 14126 14127 14128 14129 14130 14131 14132 14133 14134 14135 14136 14137 14138 14139 14140 14141 14142 14143 14144 14145 14146 14147 14148 14149 14150 14151 14152 14153 14154 14155 14156 14157 14158 14159 14160 14161 14162 14163 14164 14165 14166 14167 14168 14169 14170 14171 14172 14173 14174 14175 14176 14177 14178 14179 14180 14181 14182 14183 14184 14185 14186 14187 14188 14189 14190 14191 14192 14193 14194 14195 14196 14197 14198 14199 14200 14201 14202 14203 14204 14205 14206 14207 14208 14209 14210 14211 14212 14213 14214 14215 14216 14217 14218 14219 14220 14221 14222 14223 14224 14225 14226 14227 14228 14229 14230 14231 14232 14233 14234 14235 14236 14237 14238 14239 14240 14241 14242 14243 14244 14245 14246 14247 14248 14249 14250 14251 14252 14253 14254 14255 14256 14257 14258 14259 14260 14261 14262 14263 14264 14265 14266 14267 14268 14269 14270 14271 14272 14273 14274 14275 14276 14277 14278 14279 14280 14281 14282 14283 14284 14285 14286 14287 14288 14289 14290 14291 14292 14293 14294 14295 14296 14297 14298 14299 14300 14301 14302 14303 14304 14305 14306 14307 14308 14309 14310 14311 14312 14313 14314 14315 14316 14317 14318 14319 14320 14321 14322 14323 14324 14325 14326 14327 14328 14329 14330 14331 14332 14333 14334 14335 14336 14337 14338 14339 14340 14341 14342 14343 14344 14345 14346 14347 14348 14349 14350 14351 14352 14353 14354 14355 14356 14357 14358 14359 14360 14361 14362 14363 14364 14365 14366 14367 14368 14369 14370 14371 14372 14373 14374 14375 14376 14377 14378 14379 14380 14381 14382 14383 14384 14385 14386 14387 14388 14389 14390 14391 14392 14393 14394 14395 14396 14397 14398 14399 14400 14401 14402 14403 14404 14405 14406 14407 14408 14409 14410 14411 14412 14413 14414 14415 14416 14417 14418 14419 14420 14421 14422 14423 14424 14425 14426 14427 14428 14429 14430 14431 14432 14433 14434 14435 14436 14437 14438 14439 14440 14441 14442 14443 14444 14445 14446 14447 14448 14449 14450 14451 14452 14453 14454 14455 14456 14457 14458 14459 14460 14461 14462 14463 14464 14465 14466 14467 14468 14469 14470 14471 14472 14473 14474 14475 14476 14477 14478 14479 14480 14481 14482 14483 14484 14485 14486 14487 14488 14489 14490 14491 14492 14493 14494 14495 14496 14497 14498 14499 14500 14501 14502 14503 14504 14505 14506 14507 14508 14509 14510 14511 14512 14513 14514 14515 14516 14517 14518 14519 14520 14521 14522 14523 14524 14525 14526 14527 14528 14529 14530 14531 14532 14533 14534 14535 14536 14537 14538 14539 14540 14541 14542 14543 14544 14545 14546 14547 14548 14549 14550 14551 14552 14553 14554 14555 14556 14557 14558 14559 14560 14561 14562 14563 14564 14565 14566 14567 14568 14569 14570 14571 14572 14573 14574 14575 14576 14577 14578 14579 14580 14581 14582 14583 14584 14585 14586 14587 14588 14589 14590 14591 14592 14593 14594 14595 14596 14597 14598 14599 14600 14601 14602 14603 14604 14605 14606 14607 14608 14609 14610 14611 14612 14613 14614 14615 14616 14617 14618 14619 14620 14621 14622 14623 14624 14625 14626 14627 14628 14629 14630 14631 14632 14633 14634 14635 14636 14637 14638 14639 14640 14641 14642 14643 14644 14645 14646 14647 14648 14649 14650 14651 14652 14653 14654 14655 14656 14657 14658 14659 14660 14661 14662 14663 14664 14665 14666 14667 14668 14669 14670 14671 14672 14673 14674 14675 14676 14677 14678 14679 14680 14681 14682 14683 14684 14685 14686 14687 14688 14689 14690 14691 14692 14693 14694 14695 14696 14697 14698 14699 14700 14701 14702 14703 14704 14705 14706 14707 14708 14709 14710 14711 14712 14713 14714 14715 14716 14717 14718 14719 14720 14721 14722 14723 14724 14725 14726 14727 14728 14729 14730 14731 14732 14733 14734 14735 14736 14737 14738 14739 14740 14741 14742 14743 14744 14745 14746 14747 14748 14749 14750 14751 14752 14753 14754 14755 14756 14757 14758 14759 14760 14761 14762 14763 14764 14765 14766 14767 14768 14769 14770 14771 14772 14773 14774 14775 14776 14777 14778 14779 14780 14781 14782 14783 14784 14785 14786 14787 14788 14789 14790 14791 14792 14793 14794 14795 14796 14797 14798 14799 14800 14801 14802 14803 14804 14805 14806 14807 14808 14809 14810 14811 14812 14813 14814 14815 14816 14817 14818 14819 14820 14821 14822 14823 14824 14825 14826 14827 14828 14829 14830 14831 14832 14833 14834 14835 14836 14837 14838 14839 14840 14841 14842 14843 14844 14845 14846 14847 14848 14849 14850 14851 14852 14853 14854 14855 14856 14857 14858 14859 14860 14861 14862 14863 14864 14865 14866 14867 14868 14869 14870 14871 14872 14873 14874 14875 14876 14877 14878 14879 14880 14881 14882 14883 14884 14885 14886 14887 14888 14889 14890 14891 14892 14893 14894 14895 14896 14897 14898 14899 14900 14901 14902 14903 14904 14905 14906 14907 14908 14909 14910 14911 14912 14913 14914 14915 14916 14917 14918 14919 14920 14921 14922 14923 14924 14925 14926 14927 14928 14929 14930 14931 14932 14933 14934 14935 14936 14937 14938 14939 14940 14941 14942 14943 14944 14945 14946 14947 14948 14949 14950 14951 14952 14953 14954 14955 14956 14957 14958 14959 14960 14961 14962 14963 14964 14965 14966 14967 14968 14969 14970 14971 14972 14973 14974 14975 14976 14977 14978 14979 14980 14981 14982 14983 14984 14985 14986 14987 14988 14989 14990 14991 14992 14993 14994 14995 14996 14997 14998 14999 15000 15001 15002 15003 15004 15005 15006 15007 15008 15009 15010 15011 15012 15013 15014 15015 15016 15017 15018 15019 15020 15021 15022 15023 15024 15025 15026 15027 15028 15029 15030 15031 15032 15033 15034 15035 15036 15037 15038 15039 15040 15041 15042 15043 15044 15045 15046 15047 15048 15049 15050 15051 15052 15053 15054 15055 15056 15057 15058 15059 15060 15061 15062 15063 15064 15065 15066 15067 15068 15069 15070 15071 15072 15073 15074 15075 15076 15077 15078 15079 15080 15081 15082 15083 15084 15085 15086 15087 15088 15089 15090 15091 15092 15093 15094 15095 15096 15097 15098 15099 15100 15101 15102 15103 15104 15105 15106 15107 15108 15109 15110 15111 15112 15113 15114 15115 15116 15117 15118 15119 15120 15121 15122 15123 15124 15125 15126 15127 15128 15129 15130 15131 15132 15133 15134 15135 15136 15137 15138 15139 15140 15141 15142 15143 15144 15145 15146 15147 15148 15149 15150 15151 15152 15153 15154 15155 15156 15157 15158 15159 15160 15161 15162 15163 15164 15165 15166 15167 15168 15169 15170 15171 15172 15173 15174 15175 15176 15177 15178 15179 15180 15181 15182 15183 15184 15185 15186 15187 15188 15189 15190 15191 15192 15193 15194 15195 15196 15197 15198 15199 15200 15201 15202 15203 15204 15205 15206 15207 15208 15209 15210 15211 15212 15213 15214 15215 15216 15217 15218 15219 15220 15221 15222 15223 15224 15225 15226 15227 15228 15229 15230 15231 15232 15233 15234 15235 15236 15237 15238 15239 15240 15241 15242 15243 15244 15245 15246 15247 15248 15249 15250 15251 15252 15253 15254 15255 15256 15257 15258 15259 15260 15261 15262 15263 15264 15265 15266 15267 15268 15269 15270 15271 15272 15273 15274 15275 15276 15277 15278 15279 15280 15281 15282 15283 15284 15285 15286 15287 15288 15289 15290 15291 15292 15293 15294 15295 15296 15297 15298 15299 15300 15301 15302 15303 15304 15305 15306 15307 15308 15309 15310 15311 15312 15313 15314 15315 15316 15317 15318 15319 15320 15321 15322 15323 15324 15325 15326 15327 15328 15329 15330 15331 15332 15333 15334 15335 15336 15337 15338 15339 15340 15341 15342 15343 15344 15345 15346 15347 15348 15349 15350 15351 15352 15353 15354 15355 15356 15357 15358 15359 15360 15361 15362 15363 15364 15365 15366 15367 15368 15369 15370 15371 15372 15373 15374 15375 15376 15377 15378 15379 15380 15381 15382 15383 15384 15385 15386 15387 15388 15389 15390 15391 15392 15393 15394 15395 15396 15397 15398 15399 15400 15401 15402 15403 15404 15405 15406 15407 15408 15409 15410 15411 15412 15413 15414 15415 15416 15417 15418 15419 15420 15421 15422 15423 15424 15425 15426 15427 15428 15429 15430 15431 15432 15433 15434 15435 15436 15437 15438 15439 15440 15441 15442 15443 15444 15445 15446 15447 15448 15449 15450 15451 15452 15453 15454 15455 15456 15457 15458 15459 15460 15461 15462 15463 15464 15465 15466 15467 15468 15469 15470 15471 15472 15473 15474 15475 15476 15477 15478 15479 15480 15481 15482 15483 15484 15485 15486 15487 15488 15489 15490 15491 15492 15493 15494 15495 15496 15497 15498 15499 15500 15501 15502 15503 15504 15505 15506 15507 15508 15509 15510 15511 15512 15513 15514 15515 15516 15517 15518 15519 15520 15521 15522 15523 15524 15525 15526 15527 15528 15529 15530 15531 15532 15533 15534 15535 15536 15537 15538 15539 15540 15541 15542 15543 15544 15545 15546 15547 15548 15549 15550 15551 15552 15553 15554 15555 15556 15557 15558 15559 15560 15561 15562 15563 15564 15565 15566 15567 15568 15569 15570 15571 15572 15573 15574 15575 15576 15577 15578 15579 15580 15581 15582 15583 15584 15585 15586 15587 15588 15589 15590 15591 15592 15593 15594 15595 15596 15597 15598 15599 15600 15601 15602 15603 15604 15605 15606 15607 15608 15609 15610 15611 15612 15613 15614 15615 15616 15617 15618 15619 15620 15621 15622 15623 15624 15625 15626 15627 15628 15629 15630 15631 15632 15633 15634 15635 15636 15637 15638 15639 15640 15641 15642 15643 15644 15645 15646 15647 15648 15649 15650 15651 15652 15653 15654 15655 15656 15657 15658 15659 15660 15661 15662 15663 15664 15665 15666 15667 15668 15669 15670 15671 15672 15673 15674 15675 15676 15677 15678 15679 15680 15681 15682 15683 15684 15685 15686 15687 15688 15689 15690 15691 15692 15693 15694 15695 15696 15697 15698 15699 15700 15701 15702 15703 15704 15705 15706 15707 15708 15709 15710 15711 15712 15713 15714 15715 15716 15717 15718 15719 15720 15721 15722 15723 15724 15725 15726 15727 15728 15729 15730 15731 15732 15733 15734 15735 15736 15737 15738 15739 15740 15741 15742 15743 15744 15745 15746 15747 15748 15749 15750 15751 15752 15753 15754 15755 15756 15757 15758 15759 15760 15761 15762 15763 15764 15765 15766 15767 15768 15769 15770 15771 15772 15773 15774 15775 15776 15777 15778 15779 15780 15781 15782 15783 15784 15785 15786 15787 15788 15789 15790 15791 15792 15793 15794 15795 15796 15797 15798 15799 15800 15801 15802 15803 15804 15805 15806 15807 15808 15809 15810 15811 15812 15813 15814 15815 15816 15817 15818 15819 15820 15821 15822 15823 15824 15825 15826 15827 15828 15829 15830 15831 15832 15833 15834 15835 15836 15837 15838 15839 15840 15841 15842 15843 15844 15845 15846 15847 15848 15849 15850 15851 15852 15853 15854 15855 15856 15857 15858 15859 15860 15861 15862 15863 15864 15865 15866 15867 15868 15869 15870 15871 15872 15873 15874 15875 15876 15877 15878 15879 15880 15881 15882 15883 15884 15885 15886 15887 15888 15889 15890 15891 15892 15893 15894 15895 15896 15897 15898 15899 15900 15901 15902 15903 15904 15905 15906 15907 15908 15909 15910 15911 15912 15913 15914 15915 15916 15917 15918 15919 15920 15921 15922 15923 15924 15925 15926 15927 15928 15929 15930 15931 15932 15933 15934 15935 15936 15937 15938 15939 15940 15941 15942 15943 15944 15945 15946 15947 15948 15949 15950 15951 15952 15953 15954 15955 15956 15957 15958 15959 15960 15961 15962 15963 15964 15965 15966 15967 15968 15969 15970 15971 15972 15973 15974 15975 15976 15977 15978 15979 15980 15981 15982 15983 15984 15985 15986 15987 15988 15989 15990 15991 15992 15993 15994 15995 15996 15997 15998 15999 16000 16001 16002 16003 16004 16005 16006 16007 16008 16009 16010 16011 16012 16013 16014 16015 16016 16017 16018 16019 16020 16021 16022 16023 16024 16025 16026 16027 16028 16029 16030 16031 16032 16033 16034 16035 16036 16037 16038 16039 16040 16041 16042 16043 16044 16045 16046 16047 16048 16049 16050 16051 16052 16053 16054 16055 16056 16057 16058 16059 16060 16061 16062 16063 16064 16065 16066 16067 16068 16069 16070 16071 16072 16073 16074 16075 16076 16077 16078 16079 16080 16081 16082 16083 16084 16085 16086 16087 16088 16089 16090 16091 16092 16093 16094 16095 16096 16097 16098 16099 16100 16101 16102 16103 16104 16105 16106 16107 16108 16109 16110 16111 16112 16113 16114 16115 16116 16117 16118 16119 16120 16121 16122 16123 16124 16125 16126 16127 16128 16129 16130 16131 16132 16133 16134 16135 16136 16137 16138 16139 16140 16141 16142 16143 16144 16145 16146 16147 16148 16149 16150 16151 16152 16153 16154 16155 16156 16157 16158 16159 16160 16161 16162 16163 16164 16165 16166 16167 16168 16169 16170 16171 16172 16173 16174 16175 16176 16177 16178 16179 16180 16181 16182 16183 16184 16185 16186 16187 16188 16189 16190 16191 16192 16193 16194 16195 16196 16197 16198 16199 16200 16201 16202 16203 16204 16205 16206 16207 16208 16209 16210 16211 16212 16213 16214 16215 16216 16217 16218 16219 16220 16221 16222 16223 16224 16225 16226 16227 16228 16229 16230 16231 16232 16233 16234 16235 16236 16237 16238 16239 16240 16241 16242 16243 16244 16245 16246 16247 16248 16249 16250 16251 16252 16253 16254 16255 16256 16257 16258 16259 16260 16261 16262 16263 16264 16265 16266 16267 16268 16269 16270 16271 16272 16273 16274 16275 16276 16277 16278 16279 16280 16281 16282 16283 16284 16285 16286 16287 16288 16289 16290 16291 16292 16293 16294 16295 16296 16297 16298 16299 16300 16301 16302 16303 16304 16305 16306 16307 16308 16309 16310 16311 16312 16313 16314 16315 16316 16317 16318 16319 16320 16321 16322 16323 16324 16325 16326 16327 16328 16329 16330 16331 16332 16333 16334 16335 16336 16337 16338 16339 16340 16341 16342 16343 16344 16345 16346 16347 16348 16349 16350 16351 16352 16353 16354 16355 16356 16357 16358 16359 16360 16361 16362 16363 16364 16365 16366 16367 16368 16369 16370 16371 16372 16373 16374 16375 16376 16377 16378 16379 16380 16381 16382 16383 16384 16385 16386 16387 16388 16389 16390 16391 16392 16393 16394 16395 16396 16397 16398 16399 16400 16401 16402 16403 16404 16405 16406 16407 16408 16409 16410 16411 16412 16413 16414 16415 16416 16417 16418 16419 16420 16421 16422 16423 16424 16425 16426 16427 16428 16429 16430 16431 16432 16433 16434 16435 16436 16437 16438 16439 16440 16441 16442 16443 16444 16445 16446 16447 16448 16449 16450 16451 16452 16453 16454 16455 16456 16457 16458 16459 16460 16461 16462 16463 16464 16465 16466 16467 16468 16469 16470 16471 16472 16473 16474 16475 16476 16477 16478 16479 16480 16481 16482 16483 16484 16485 16486 16487 16488 16489 16490 16491 16492 16493 16494 16495 16496 16497 16498 16499 16500 16501 16502 16503 16504 16505 16506 16507 16508 16509 16510 16511 16512 16513 16514 16515 16516 16517 16518 16519 16520 16521 16522 16523 16524 16525 16526 16527 16528 16529 16530 16531 16532 16533 16534 16535 16536 16537 16538 16539 16540 16541 16542 16543 16544 16545 16546 16547 16548 16549 16550 16551 16552 16553 16554 16555 16556 16557 16558 16559 16560 16561 16562 16563 16564 16565 16566 16567 16568 16569 16570 16571 16572 16573 16574 16575 16576 16577 16578 16579 16580 16581 16582 16583 16584 16585 16586 16587 16588 16589 16590 16591 16592 16593 16594 16595 16596 16597 16598 16599 16600 16601 16602 16603 16604 16605 16606 16607 16608 16609 16610 16611 16612 16613 16614 16615 16616 16617 16618 16619 16620 16621 16622 16623 16624 16625 16626 16627 16628 16629 16630 16631 16632 16633 16634 16635 16636 16637 16638 16639 16640 16641 16642 16643 16644 16645 16646 16647 16648 16649 16650 16651 16652 16653 16654 16655 16656 16657 16658 16659 16660 16661 16662 16663 16664 16665 16666 16667 16668 16669 16670 16671 16672 16673 16674 16675 16676 16677 16678 16679 16680 16681 16682 16683 16684 16685 16686 16687 16688 16689 16690 16691 16692 16693 16694 16695 16696 16697 16698 16699 16700 16701 16702 16703 16704 16705 16706 16707 16708 16709 16710 16711 16712 16713 16714 16715 16716 16717 16718 16719 16720 16721 16722 16723 16724 16725 16726 16727 16728 16729 16730 16731 16732 16733 16734 16735 16736 16737 16738 16739 16740 16741 16742 16743 16744 16745 16746 16747 16748 16749 16750 16751 16752 16753 16754 16755 16756 16757 16758 16759 16760 16761 16762 16763 16764 16765 16766 16767 16768 16769 16770 16771 16772 16773 16774 16775 16776 16777 16778 16779 16780 16781 16782 16783 16784 16785 16786 16787 16788 16789 16790 16791 16792 16793 16794 16795 16796 16797 16798 16799 16800 16801 16802 16803 16804 16805 16806 16807 16808 16809 16810 16811 16812 16813 16814 16815 16816 16817 16818 16819 16820 16821 16822 16823 16824 16825 16826 16827 16828 16829 16830 16831 16832 16833 16834 16835 16836 16837 16838 16839 16840 16841 16842 16843 16844 16845 16846 16847 16848 16849 16850 16851 16852 16853 16854 16855 16856 16857 16858 16859 16860 16861 16862 16863 16864 16865 16866 16867 16868 16869 16870 16871 16872 16873 16874 16875 16876 16877 16878 16879 16880 16881 16882 16883 16884 16885 16886 16887 16888 16889 16890 16891 16892 16893 16894 16895 16896 16897 16898 16899 16900 16901 16902 16903 16904 16905 16906 16907 16908 16909 16910 16911 16912 16913 16914 16915 16916 16917 16918 16919 16920 16921 16922 16923 16924 16925 16926 16927 16928 16929 16930 16931 16932 16933 16934 16935 16936 16937 16938 16939 16940 16941 16942 16943 16944 16945 16946 16947 16948 16949 16950 16951 16952 16953 16954 16955 16956 16957 16958 16959 16960 16961 16962 16963 16964 16965 16966 16967 16968 16969 16970 16971 16972 16973 16974 16975 16976 16977 16978 16979 16980 16981 16982 16983 16984 16985 16986 16987 16988 16989 16990 16991 16992 16993 16994 16995 16996 16997 16998 16999 17000 17001 17002 17003 17004 17005 17006 17007 17008 17009 17010 17011 17012 17013 17014 17015 17016 17017 17018 17019 17020 17021 17022 17023 17024 17025 17026 17027 17028 17029 17030 17031 17032 17033 17034 17035 17036 17037 17038 17039 17040 17041 17042 17043 17044 17045 17046 17047 17048 17049 17050 17051 17052 17053 17054 17055 17056 17057 17058 17059 17060 17061 17062 17063 17064 17065 17066 17067 17068 17069 17070 17071 17072 17073 17074 17075 17076 17077 17078 17079 17080 17081 17082 17083 17084 17085 17086 17087 17088 17089 17090 17091 17092 17093 17094 17095 17096 17097 17098 17099 17100 17101 17102 17103 17104 17105 17106 17107 17108 17109 17110 17111 17112 17113 17114 17115 17116 17117 17118 17119 17120 17121 17122 17123 17124 17125 17126 17127 17128 17129 17130 17131 17132 17133 17134 17135 17136 17137 17138 17139 17140 17141 17142 17143 17144 17145 17146 17147 17148 17149 17150 17151 17152 17153 17154 17155 17156 17157 17158 17159 17160 17161 17162 17163 17164 17165 17166 17167 17168 17169 17170 17171 17172 17173 17174 17175 17176 17177 17178 17179 17180 17181 17182 17183 17184 17185 17186 17187 17188 17189 17190 17191 17192 17193 17194 17195 17196 17197 17198 17199 17200 17201 17202 17203 17204 17205 17206 17207 17208 17209 17210 17211 17212 17213 17214 17215 17216 17217 17218 17219 17220 17221 17222 17223 17224 17225 17226 17227 17228 17229 17230 17231 17232 17233 17234 17235 17236 17237 17238 17239 17240 17241 17242 17243 17244 17245 17246 17247 17248 17249 17250 17251 17252 17253 17254 17255 17256 17257 17258 17259 17260 17261 17262 17263 17264 17265 17266 17267 17268 17269 17270 17271 17272 17273 17274 17275 17276 17277 17278 17279 17280 17281 17282 17283 17284 17285 17286 17287 17288 17289 17290 17291 17292 17293 17294 17295 17296 17297 17298 17299 17300 17301 17302 17303 17304 17305 17306 17307 17308 17309 17310 17311 17312 17313 17314 17315 17316 17317 17318 17319 17320 17321 17322 17323 17324 17325 17326 17327 17328 17329 17330 17331 17332 17333 17334 17335 17336 17337 17338 17339 17340 17341 17342 17343 17344 17345 17346 17347 17348 17349 17350 17351 17352 17353 17354 17355 17356 17357 17358 17359 17360 17361 17362 17363 17364 17365 17366 17367 17368 17369 17370 17371 17372 17373 17374 17375 17376 17377 17378 17379 17380 17381 17382 17383 17384 17385 17386 17387 17388 17389 17390 17391 17392 17393 17394 17395 17396 17397 17398 17399 17400 17401 17402 17403 17404 17405 17406 17407 17408 17409 17410 17411 17412 17413 17414 17415 17416 17417 17418 17419 17420 17421 17422 17423 17424 17425 17426 17427 17428 17429 17430 17431 17432 17433 17434 17435 17436 17437 17438 17439 17440 17441 17442 17443 17444 17445 17446 17447 17448 17449 17450 17451 17452 17453 17454 17455 17456 17457 17458 17459 17460 17461 17462 17463 17464 17465 17466 17467 17468 17469 17470 17471 17472 17473 17474 17475 17476 17477 17478 17479 17480 17481 17482 17483 17484 17485 17486 17487 17488 17489 17490 17491 17492 17493 17494 17495 17496 17497 17498 17499 17500 17501 17502 17503 17504 17505 17506 17507 17508 17509 17510 17511 17512 17513 17514 17515 17516 17517 17518 17519 17520 17521 17522 17523 17524 17525 17526 17527 17528 17529 17530 17531 17532 17533 17534 17535 17536 17537 17538 17539 17540 17541 17542 17543 17544 17545 17546 17547 17548 17549 17550 17551 17552 17553 17554 17555 17556 17557 17558 17559 17560 17561 17562 17563 17564 17565 17566 17567 17568 17569 17570 17571 17572 17573 17574 17575 17576 17577 17578 17579 17580 17581 17582 17583 17584 17585 17586 17587 17588 17589 17590 17591 17592 17593 17594 17595 17596 17597 17598 17599 17600 17601 17602 17603 17604 17605 17606 17607 17608 17609 17610 17611 17612 17613 17614 17615 17616 17617 17618 17619 17620 17621 17622 17623 17624 17625 17626 17627 17628 17629 17630 17631 17632 17633 17634 17635 17636 17637 17638 17639 17640 17641 17642 17643 17644 17645 17646 17647 17648 17649 17650 17651 17652 17653 17654 17655 17656 17657 17658 17659 17660 17661 17662 17663 17664 17665 17666 17667 17668 17669 17670 17671 17672 17673 17674 17675 17676 17677 17678 17679 17680 17681 17682 17683 17684 17685 17686 17687 17688 17689 17690 17691 17692 17693 17694 17695 17696 17697 17698 17699 17700 17701 17702 17703 17704 17705 17706 17707 17708 17709 17710 17711 17712 17713 17714 17715 17716 17717 17718 17719 17720 17721 17722 17723 17724 17725 17726 17727 17728 17729 17730 17731 17732 17733 17734 17735 17736 17737 17738 17739 17740 17741 17742 17743 17744 17745 17746 17747 17748 17749 17750 17751 17752 17753 17754 17755 17756 17757 17758 17759 17760 17761 17762 17763 17764 17765 17766 17767 17768 17769 17770 17771 17772 17773 17774 17775 17776 17777 17778 17779 17780 17781 17782 17783 17784 17785 17786 17787 17788 17789 17790 17791 17792 17793 17794 17795 17796 17797 17798 17799 17800 17801 17802 17803 17804 17805 17806 17807 17808 17809 17810 17811 17812 17813 17814 17815 17816 17817 17818 17819 17820 17821 17822 17823 17824 17825 17826 17827 17828 17829 17830 17831 17832 17833 17834 17835 17836 17837 17838 17839 17840 17841 17842 17843 17844 17845 17846 17847 17848 17849 17850 17851 17852 17853 17854 17855 17856 17857 17858 17859 17860 17861 17862 17863 17864 17865 17866 17867 17868 17869 17870 17871 17872 17873 17874 17875 17876 17877 17878 17879 17880 17881 17882 17883 17884 17885 17886 17887 17888 17889 17890 17891 17892 17893 17894 17895 17896 17897 17898 17899 17900 17901 17902 17903 17904 17905 17906 17907 17908 17909 17910 17911 17912 17913 17914 17915 17916 17917 17918 17919 17920 17921 17922 17923 17924 17925 17926 17927 17928 17929 17930 17931 17932 17933 17934 17935 17936 17937 17938 17939 17940 17941 17942 17943 17944 17945 17946 17947 17948 17949 17950 17951 17952 17953 17954 17955 17956 17957 17958 17959 17960 17961 17962 17963 17964 17965 17966 17967 17968 17969 17970 17971 17972 17973 17974 17975 17976 17977 17978 17979 17980 17981 17982 17983 17984 17985 17986 17987 17988 17989 17990 17991 17992 17993 17994 17995 17996 17997 17998 17999 18000 18001 18002 18003 18004 18005 18006 18007 18008 18009 18010 18011 18012 18013 18014 18015 18016 18017 18018 18019 18020 18021 18022 18023 18024 18025 18026 18027 18028 18029 18030 18031 18032 18033 18034 18035 18036 18037 18038 18039 18040 18041 18042 18043 18044 18045 18046 18047 18048 18049 18050 18051 18052 18053 18054 18055 18056 18057 18058 18059 18060 18061 18062 18063 18064 18065 18066 18067 18068 18069 18070 18071 18072 18073 18074 18075 18076 18077 18078 18079 18080 18081 18082 18083 18084 18085 18086 18087 18088 18089 18090 18091 18092 18093 18094 18095 18096 18097 18098 18099 18100 18101 18102 18103 18104 18105 18106 18107 18108 18109 18110 18111 18112 18113 18114 18115 18116 18117 18118 18119 18120 18121 18122 18123 18124 18125 18126 18127 18128 18129 18130 18131 18132 18133 18134 18135 18136 18137 18138 18139 18140 18141 18142 18143 18144 18145 18146 18147 18148 18149 18150 18151 18152 18153 18154 18155 18156 18157 18158 18159 18160 18161 18162 18163 18164 18165 18166 18167 18168 18169 18170 18171 18172 18173 18174 18175 18176 18177 18178 18179 18180 18181 18182 18183 18184 18185 18186 18187 18188 18189 18190 18191 18192 18193 18194 18195 18196 18197 18198 18199 18200 18201 18202 18203 18204 18205 18206 18207 18208 18209 18210 18211 18212 18213 18214 18215 18216 18217 18218 18219 18220 18221 18222 18223 18224 18225 18226 18227 18228 18229 18230 18231 18232 18233 18234 18235 18236 18237 18238 18239 18240 18241 18242 18243 18244 18245 18246 18247 18248 18249 18250 18251 18252 18253 18254 18255 18256 18257 18258 18259 18260 18261 18262 18263 18264 18265 18266 18267 18268 18269 18270 18271 18272 18273 18274 18275 18276 18277 18278 18279 18280 18281 18282 18283 18284 18285 18286 18287 18288 18289 18290 18291 18292 18293 18294 18295 18296 18297 18298 18299 18300 18301 18302 18303 18304 18305 18306 18307 18308 18309 18310 18311 18312 18313 18314 18315 18316 18317 18318 18319 18320 18321 18322 18323 18324 18325 18326 18327 18328 18329 18330 18331 18332 18333 18334 18335 18336 18337 18338 18339 18340 18341 18342 18343 18344 18345 18346 18347 18348 18349 18350 18351 18352 18353 18354 18355 18356 18357 18358 18359 18360 18361 18362 18363 18364 18365 18366 18367 18368 18369 18370 18371 18372 18373 18374 18375 18376 18377 18378 18379 18380 18381 18382 18383 18384 18385 18386 18387 18388 18389 18390 18391 18392 18393 18394 18395 18396 18397 18398 18399 18400 18401 18402 18403 18404 18405 18406 18407 18408 18409 18410 18411 18412 18413 18414 18415 18416 18417 18418 18419 18420 18421 18422 18423 18424 18425 18426 18427 18428 18429 18430 18431 18432 18433 18434 18435 18436 18437 18438 18439 18440 18441 18442 18443 18444 18445 18446 18447 18448 18449 18450 18451 18452 18453 18454 18455 18456 18457 18458 18459 18460 18461 18462 18463 18464 18465 18466 18467 18468 18469 18470 18471 18472 18473 18474 18475 18476 18477 18478 18479 18480 18481 18482 18483 18484 18485 18486 18487 18488 18489 18490 18491 18492 18493 18494 18495 18496 18497 18498 18499 18500 18501 18502 18503 18504 18505 18506 18507 18508 18509 18510 18511 18512 18513 18514 18515 18516 18517 18518 18519 18520 18521 18522 18523 18524 18525 18526 18527 18528 18529 18530 18531 18532 18533 18534 18535 18536 18537 18538 18539 18540 18541 18542 18543 18544 18545 18546 18547 18548 18549 18550 18551 18552 18553 18554 18555 18556 18557 18558 18559 18560 18561 18562 18563 18564 18565 18566 18567 18568 18569 18570 18571 18572 18573 18574 18575 18576 18577 18578 18579 18580 18581 18582 18583 18584 18585 18586 18587 18588 18589 18590 18591 18592 18593 18594 18595 18596 18597 18598 18599 18600 18601 18602 18603 18604 18605 18606 18607 18608 18609 18610 18611 18612 18613 18614 18615 18616 18617 18618 18619 18620 18621 18622 18623 18624 18625 18626 18627 18628 18629 18630 18631 18632 18633 18634 18635 18636 18637 18638 18639 18640 18641 18642 18643 18644 18645 18646 18647 18648 18649 18650 18651 18652 18653 18654 18655 18656 18657 18658 18659 18660 18661 18662 18663 18664 18665 18666 18667 18668 18669 18670 18671 18672 18673 18674 18675 18676 18677 18678 18679 18680 18681 18682 18683 18684 18685 18686 18687 18688 18689 18690 18691 18692 18693 18694 18695 18696 18697 18698 18699 18700 18701 18702 18703 18704 18705 18706 18707 18708 18709 18710 18711 18712 18713 18714 18715 18716 18717 18718 18719 18720 18721 18722 18723 18724 18725 18726 18727 18728 18729 18730 18731 18732 18733 18734 18735 18736 18737 18738 18739 18740 18741 18742 18743 18744 18745 18746 18747 18748 18749 18750 18751 18752 18753 18754 18755 18756 18757 18758 18759 18760 18761 18762 18763 18764 18765 18766 18767 18768 18769 18770 18771 18772 18773 18774 18775 18776 18777 18778 18779 18780 18781 18782 18783 18784 18785 18786 18787 18788 18789 18790 18791 18792 18793 18794 18795 18796 18797 18798 18799 18800 18801 18802 18803 18804 18805 18806 18807 18808 18809 18810 18811 18812 18813 18814 18815 18816 18817 18818 18819 18820 18821 18822 18823 18824 18825 18826 18827 18828 18829 18830 18831 18832 18833 18834 18835 18836 18837 18838 18839 18840 18841 18842 18843 18844 18845 18846 18847 18848 18849 18850 18851 18852 18853 18854 18855 18856 18857 18858 18859 18860 18861 18862 18863 18864 18865 18866 18867 18868 18869 18870 18871 18872 18873 18874 18875 18876 18877 18878 18879 18880 18881 18882 18883 18884 18885 18886 18887 18888 18889 18890 18891 18892 18893 18894 18895 18896 18897 18898 18899 18900 18901 18902 18903 18904 18905 18906 18907 18908 18909 18910 18911 18912 18913 18914 18915 18916 18917 18918 18919 18920 18921 18922 18923 18924 18925 18926 18927 18928 18929 18930 18931 18932 18933 18934 18935 18936 18937 18938 18939 18940 18941 18942 18943 18944 18945 18946 18947 18948 18949 18950 18951 18952 18953 18954 18955 18956 18957 18958 18959 18960 18961 18962 18963 18964 18965 18966 18967 18968 18969 18970 18971 18972 18973 18974 18975 18976 18977 18978 18979 18980 18981 18982 18983 18984 18985 18986 18987 18988 18989 18990 18991 18992 18993 18994 18995 18996 18997 18998 18999 19000 19001 19002 19003 19004 19005 19006 19007 19008 19009 19010 19011 19012 19013 19014 19015 19016 19017 19018 19019 19020 19021 19022 19023 19024 19025 19026 19027 19028 19029 19030 19031 19032 19033 19034 19035 19036 19037 19038 19039 19040 19041 19042 19043 19044 19045 19046 19047 19048 19049 19050 19051 19052 19053 19054 19055 19056 19057 19058 19059 19060 19061 19062 19063 19064 19065 19066 19067 19068 19069 19070 19071 19072 19073 19074 19075 19076 19077 19078 19079 19080 19081 19082 19083 19084 19085 19086 19087 19088 19089 19090 19091 19092 19093 19094 19095 19096 19097 19098 19099 19100 19101 19102 19103 19104 19105 19106 19107 19108 19109 19110 19111 19112 19113 19114 19115 19116 19117 19118 19119 19120 19121 19122 19123 19124 19125 19126 19127 19128 19129 19130 19131 19132 19133 19134 19135 19136 19137 19138 19139 19140 19141 19142 19143 19144 19145 19146 19147 19148 19149 19150 19151 19152 19153 19154 19155 19156 19157 19158 19159 19160 19161 19162 19163 19164 19165 19166 19167 19168 19169 19170 19171 19172 19173 19174 19175 19176 19177 19178 19179 19180 19181 19182 19183 19184 19185 19186 19187 19188 19189 19190 19191 19192 19193 19194 19195 19196 19197 19198 19199 19200 19201 19202 19203 19204 19205 19206 19207 19208 19209 19210 19211 19212 19213 19214 19215 19216 19217 19218 19219 19220 19221 19222 19223 19224 19225 19226 19227 19228 19229 19230 19231 19232 19233 19234 19235 19236 19237 19238 19239 19240 19241 19242 19243 19244 19245 19246 19247 19248 19249 19250 19251 19252 19253 19254 19255 19256 19257 19258 19259 19260 19261 19262 19263 19264 19265 19266 19267 19268 19269 19270 19271 19272 19273 19274 19275 19276 19277 19278 19279 19280 19281 19282 19283 19284 19285 19286 19287 19288 19289 19290 19291 19292 19293 19294 19295 19296 19297 19298 19299 19300 19301 19302 19303 19304 19305 19306 19307 19308 19309 19310 19311 19312 19313 19314 19315 19316 19317 19318 19319 19320 19321 19322 19323 19324 19325 19326 19327 19328 19329 19330 19331 19332 19333 19334 19335 19336 19337 19338 19339 19340 19341 19342 19343 19344 19345 19346 19347 19348 19349 19350 19351 19352 19353 19354 19355 19356 19357 19358 19359 19360 19361 19362 19363 19364 19365 19366 19367 19368 19369 19370 19371 19372 19373 19374 19375 19376 19377 19378 19379 19380 19381 19382 19383 19384 19385 19386 19387 19388 19389 19390 19391 19392 19393 19394 19395 19396 19397 19398 19399 19400 19401 19402 19403 19404 19405 19406 19407 19408 19409 19410 19411 19412 19413 19414 19415 19416 19417 19418 19419 19420 19421 19422 19423 19424 19425 19426 19427 19428 19429 19430 19431 19432 19433 19434 19435 19436 19437 19438 19439 19440 19441 19442 19443 19444 19445 19446 19447 19448 19449 19450 19451 19452 19453 19454 19455 19456 19457 19458 19459 19460 19461 19462 19463 19464 19465 19466 19467 19468 19469 19470 19471 19472 19473 19474 19475 19476 19477 19478 19479 19480 19481 19482 19483 19484 19485 19486 19487 19488 19489 19490 19491 19492 19493 19494 19495 19496 19497 19498 19499 19500 19501 19502 19503 19504 19505 19506 19507 19508 19509 19510 19511 19512 19513 19514 19515 19516 19517 19518 19519 19520 19521 19522 19523 19524 19525 19526 19527 19528 19529 19530 19531 19532 19533 19534 19535 19536 19537 19538 19539 19540 19541 19542 19543 19544 19545 19546 19547 19548 19549 19550 19551 19552 19553 19554 19555 19556 19557 19558 19559 19560 19561 19562 19563 19564 19565 19566 19567 19568 19569 19570 19571 19572 19573 19574 19575 19576 19577 19578 19579 19580 19581 19582 19583 19584 19585 19586 19587 19588 19589 19590 19591 19592 19593 19594 19595 19596 19597 19598 19599 19600 19601 19602 19603 19604 19605 19606 19607 19608 19609 19610 19611 19612 19613 19614 19615 19616 19617 19618 19619 19620 19621 19622 19623 19624 19625 19626 19627 19628 19629 19630 19631 19632 19633 19634 19635 19636 19637 19638 19639 19640 19641 19642 19643 19644 19645 19646 19647 19648 19649 19650 19651 19652 19653 19654 19655 19656 19657 19658 19659 19660 19661 19662 19663 19664 19665 19666 19667 19668 19669 19670 19671 19672 19673 19674 19675 19676 19677 19678 19679 19680 19681 19682 19683 19684 19685 19686 19687 19688 19689 19690 19691 19692 19693 19694 19695 19696 19697 19698 19699 19700 19701 19702 19703 19704 19705 19706 19707 19708 19709 19710 19711 19712 19713 19714 19715 19716 19717 19718 19719 19720 19721 19722 19723 19724 19725 19726 19727 19728 19729 19730 19731 19732 19733 19734 19735 19736 19737 19738 19739 19740 19741 19742 19743 19744 19745 19746 19747 19748 19749 19750 19751 19752 19753 19754 19755 19756 19757 19758 19759 19760 19761 19762 19763 19764 19765 19766 19767 19768 19769 19770 19771 19772 19773 19774 19775 19776 19777 19778 19779 19780 19781 19782 19783 19784 19785 19786 19787 19788 19789 19790 19791 19792 19793 19794 19795 19796 19797 19798 19799 19800 19801 19802 19803 19804 19805 19806 19807 19808 19809 19810 19811 19812 19813 19814 19815 19816 19817 19818 19819 19820 19821 19822 19823 19824 19825 19826 19827 19828 19829 19830 19831 19832 19833 19834 19835 19836 19837 19838 19839 19840 19841 19842 19843 19844 19845 19846 19847 19848 19849 19850 19851 19852 19853 19854 19855 19856 19857 19858 19859 19860 19861 19862 19863 19864 19865 19866 19867 19868 19869 19870 19871 19872 19873 19874 19875 19876 19877 19878 19879 19880 19881 19882 19883 19884 19885 19886 19887 19888 19889 19890 19891 19892 19893 19894 19895 19896 19897 19898 19899 19900 19901 19902 19903 19904 19905 19906 19907 19908 19909 19910 19911 19912 19913 19914 19915 19916 19917 19918 19919 19920 19921 19922 19923 19924 19925 19926 19927 19928 19929 19930 19931 19932 19933 19934 19935 19936 19937 19938 19939 19940 19941 19942 19943 19944 19945 19946 19947 19948 19949 19950 19951 19952 19953 19954 19955 19956 19957 19958 19959 19960 19961 19962 19963 19964 19965 19966 19967 19968 19969 19970 19971 19972 19973 19974 19975 19976 19977 19978 19979 19980 19981 19982 19983 19984 19985 19986 19987 19988 19989 19990 19991 19992 19993 19994 19995 19996 19997 19998 19999 20000 20001 20002 20003 20004 20005 20006 20007 20008 20009 20010 20011 20012 20013 20014 20015 20016 20017 20018 20019 20020 20021 20022 20023 20024 20025 20026 20027 20028 20029 20030 20031 20032 20033 20034 20035 20036 20037 20038 20039 20040 20041 20042 20043 20044 20045 20046 20047 20048 20049 20050 20051 20052 20053 20054 20055 20056 20057 20058 20059 20060 20061 20062 20063 20064 20065 20066 20067 20068 20069 20070 20071 20072 20073 20074 20075 20076 20077 20078 20079 20080 20081 20082 20083 20084 20085 20086 20087 20088 20089 20090 20091 20092 20093 20094 20095 20096 20097 20098 20099 20100 20101 20102 20103 20104 20105 20106 20107 20108 20109 20110 20111 20112 20113 20114 20115 20116 20117 20118 20119 20120 20121 20122 20123 20124 20125 20126 20127 20128 20129 20130 20131 20132 20133 20134 20135 20136 20137 20138 20139 20140 20141 20142 20143 20144 20145 20146 20147 20148 20149 20150 20151 20152 20153 20154 20155 20156 20157 20158 20159 20160 20161 20162 20163 20164 20165 20166 20167 20168 20169 20170 20171 20172 20173 20174 20175 20176 20177 20178 20179 20180 20181 20182 20183 20184 20185 20186 20187 20188 20189 20190 20191 20192 20193 20194 20195 20196 20197 20198 20199 20200 20201 20202 20203 20204 20205 20206 20207 20208 20209 20210 20211 20212 20213 20214 20215 20216 20217 20218 20219 20220 20221 20222 20223 20224 20225 20226 20227 20228 20229 20230 20231 20232 20233 20234 20235 20236 20237 20238 20239 20240 20241 20242 20243 20244 20245 20246 20247 20248 20249 20250 20251 20252 20253 20254 20255 20256 20257 20258 20259 20260 20261 20262 20263 20264 20265 20266 20267 20268 20269 20270 20271 20272 20273 20274 20275 20276 20277 20278 20279 20280 20281 20282 20283 20284 20285 20286 20287 20288 20289 20290 20291 20292 20293 20294 20295 20296 20297 20298 20299 20300 20301 20302 20303 20304 20305 20306 20307 20308 20309 20310 20311 20312 20313 20314 20315 20316 20317 20318 20319 20320 20321 20322 20323 20324 20325 20326 20327 20328 20329 20330 20331 20332 20333 20334 20335 20336 20337 20338 20339 20340 20341 20342 20343 20344 20345 20346 20347 20348 20349 20350 20351 20352 20353 20354 20355 20356 20357 20358 20359 20360 20361 20362 20363 20364 20365 20366 20367 20368 20369 20370 20371 20372 20373 20374 20375 20376 20377 20378 20379 20380 20381 20382 20383 20384 20385 20386 20387 20388 20389 20390 20391 20392 20393 20394 20395 20396 20397 20398 20399 20400 20401 20402 20403 20404 20405 20406 20407 20408 20409 20410 20411 20412 20413 20414 20415 20416 20417 20418 20419 20420 20421 20422 20423 20424 20425 20426 20427 20428 20429 20430 20431 20432 20433 20434 20435 20436 20437 20438 20439 20440 20441 20442 20443 20444 20445 20446 20447 20448 20449 20450 20451 20452 20453 20454 20455 20456 20457 20458 20459 20460 20461 20462 20463 20464 20465 20466 20467 20468 20469 20470 20471 20472 20473 20474 20475 20476 20477 20478 20479 20480 20481 20482 20483 20484 20485 20486 20487 20488 20489 20490 20491 20492 20493 20494 20495 20496 20497 20498 20499 20500 20501 20502 20503 20504 20505 20506 20507 20508 20509 20510 20511 20512 20513 20514 20515 20516 20517 20518 20519 20520 20521 20522 20523 20524 20525 20526 20527 20528 20529 20530 20531 20532 20533 20534 20535 20536 20537 20538 20539 20540 20541 20542 20543 20544 20545 20546 20547 20548 20549 20550 20551 20552 20553 20554 20555 20556 20557 20558 20559 20560 20561 20562 20563 20564 20565 20566 20567 20568 20569 20570 20571 20572 20573 20574 20575 20576 20577 20578 20579 20580 20581 20582 20583 20584 20585 20586 20587 20588 20589 20590 20591 20592 20593 20594 20595 20596 20597 20598 20599 20600 20601 20602 20603 20604 20605 20606 20607 20608 20609 20610 20611 20612 20613 20614 20615 20616 20617 20618 20619 20620 20621 20622 20623 20624 20625 20626 20627 20628 20629 20630 20631 20632 20633 20634 20635 20636 20637 20638 20639 20640 20641 20642 20643 20644 20645 20646 20647 20648 20649 20650 20651 20652 20653 20654 20655 20656 20657 20658 20659 20660 20661 20662 20663 20664 20665 20666 20667 20668 20669 20670 20671 20672 20673 20674 20675 20676 20677 20678 20679 20680 20681 20682 20683 20684 20685 20686 20687 20688 20689 20690 20691 20692 20693 20694 20695 20696 20697 20698 20699 20700 20701 20702 20703 20704 20705 20706 20707 20708 20709 20710 20711 20712 20713 20714 20715 20716 20717 20718 20719 20720 20721 20722 20723 20724 20725 20726 20727 20728 20729 20730 20731 20732 20733 20734 20735 20736 20737 20738 20739 20740 20741 20742 20743 20744 20745 20746 20747 20748 20749 20750 20751 20752 20753 20754 20755 20756 20757 20758 20759 20760 20761 20762 20763 20764 20765 20766 20767 20768 20769 20770 20771 20772 20773 20774 20775 20776 20777 20778 20779 20780 20781 20782 20783 20784 20785 20786 20787 20788 20789 20790 20791 20792 20793 20794 20795 20796 20797 20798 20799 20800 20801 20802 20803 20804 20805 20806 20807 20808 20809 20810 20811 20812 20813 20814 20815 20816 20817 20818 20819 20820 20821 20822 20823 20824 20825 20826 20827 20828 20829 20830 20831 20832 20833 20834 20835 20836 20837 20838 20839 20840 20841 20842 20843 20844 20845 20846 20847 20848 20849 20850 20851 20852 20853 20854 20855 20856 20857 20858 20859 20860 20861 20862 20863 20864 20865 20866 20867 20868 20869 20870 20871 20872 20873 20874 20875 20876 20877 20878 20879 20880 20881 20882 20883 20884 20885 20886 20887 20888 20889 20890 20891 20892 20893 20894 20895 20896 20897 20898 20899 20900 20901 20902 20903 20904 20905 20906 20907 20908 20909 20910 20911 20912 20913 20914 20915 20916 20917 20918 20919 20920 20921 20922 20923 20924 20925 20926 20927 20928 20929 20930 20931 20932 20933 20934 20935 20936 20937 20938 20939 20940 20941 20942 20943 20944 20945 20946 20947 20948 20949 20950 20951 20952 20953 20954 20955 20956 20957 20958 20959 20960 20961 20962 20963 20964 20965 20966 20967 20968 20969 20970 20971 20972 20973 20974 20975 20976 20977 20978 20979 20980 20981 20982 20983 20984 20985 20986 20987 20988 20989 20990 20991 20992 20993 20994 20995 20996 20997 20998 20999 21000 21001 21002 21003 21004 21005 21006 21007 21008 21009 21010 21011 21012 21013 21014 21015 21016 21017 21018 21019 21020 21021 21022 21023 21024 21025 21026 21027 21028 21029 21030 21031 21032 21033 21034 21035 21036 21037 21038 21039 21040 21041 21042 21043 21044 21045 21046 21047 21048 21049 21050 21051 21052 21053 21054 21055 21056 21057 21058 21059 21060 21061 21062 21063 21064 21065 21066 21067 21068 21069 21070 21071 21072 21073 21074 21075 21076 21077 21078 21079 21080 21081 21082 21083 21084 21085 21086 21087 21088 21089 21090 21091 21092 21093 21094 21095 21096 21097 21098 21099 21100 21101 21102 21103 21104 21105 21106 21107 21108 21109 21110 21111 21112 21113 21114 21115 21116 21117 21118 21119 21120 21121 21122 21123 21124 21125 21126 21127 21128 21129 21130 21131 21132 21133 21134 21135 21136 21137 21138 21139 21140 21141 21142 21143 21144 21145 21146 21147 21148 21149 21150 21151 21152 21153 21154 21155 21156 21157 21158 21159 21160 21161 21162 21163 21164 21165 21166 21167 21168 21169 21170 21171 21172 21173 21174 21175 21176 21177 21178 21179 21180 21181 21182 21183 21184 21185 21186 21187 21188 21189 21190 21191 21192 21193 21194 21195 21196 21197 21198 21199 21200 21201 21202 21203 21204 21205 21206 21207 21208 21209 21210 21211 21212 21213 21214 21215 21216 21217 21218 21219 21220 21221 21222 21223 21224 21225 21226 21227 21228 21229 21230 21231 21232 21233 21234 21235 21236 21237 21238 21239 21240 21241 21242 21243 21244 21245 21246 21247 21248 21249 21250 21251 21252 21253 21254 21255 21256 21257 21258 21259 21260 21261 21262 21263 21264 21265 21266 21267 21268 21269 21270 21271 21272 21273 21274 21275 21276 21277 21278 21279 21280 21281 21282 21283 21284 21285 21286 21287 21288 21289 21290 21291 21292 21293 21294 21295 21296 21297 21298 21299 21300 21301 21302 21303 21304 21305 21306 21307 21308 21309 21310 21311 21312 21313 21314 21315 21316 21317 21318 21319 21320 21321 21322 21323 21324 21325 21326 21327 21328 21329 21330 21331 21332 21333 21334 21335 21336 21337 21338 21339 21340 21341 21342 21343 21344 21345 21346 21347 21348 21349 21350 21351 21352 21353 21354 21355 21356 21357 21358 21359 21360 21361 21362 21363 21364 21365 21366 21367 21368 21369 21370 21371 21372 21373 21374 21375 21376 21377 21378 21379 21380 21381 21382 21383 21384 21385 21386 21387 21388 21389 21390 21391 21392 21393 21394 21395 21396 21397 21398 21399 21400 21401 21402 21403 21404 21405 21406 21407 21408 21409 21410 21411 21412 21413 21414 21415 21416 21417 21418 21419 21420 21421 21422 21423 21424 21425 21426 21427 21428 21429 21430 21431 21432 21433 21434 21435 21436 21437 21438 21439 21440 21441 21442 21443 21444 21445 21446 21447 21448 21449 21450 21451 21452 21453 21454 21455 21456 21457 21458 21459 21460 21461 21462 21463 21464 21465 21466 21467 21468 21469 21470 21471 21472 21473 21474 21475 21476 21477 21478 21479 21480 21481 21482 21483 21484 21485 21486 21487 21488 21489 21490 21491 21492 21493 21494 21495 21496 21497 21498 21499 21500 21501 21502 21503 21504 21505 21506 21507 21508 21509 21510 21511 21512 21513 21514 21515 21516 21517 21518 21519 21520 21521 21522 21523 21524 21525 21526 21527 21528 21529 21530 21531 21532 21533 21534 21535 21536 21537 21538 21539 21540 21541 21542 21543 21544 21545 21546 21547 21548 21549 21550 21551 21552 21553 21554 21555 21556 21557 21558 21559 21560 21561 21562 21563 21564 21565 21566 21567 21568 21569 21570 21571 21572 21573 21574 21575 21576 21577 21578 21579 21580 21581 21582 21583 21584 21585 21586 21587 21588 21589 21590 21591 21592 21593 21594 21595 21596 21597 21598 21599 21600 21601 21602 21603 21604 21605 21606 21607 21608 21609 21610 21611 21612 21613 21614 21615 21616 21617 21618 21619 21620 21621 21622 21623 21624 21625 21626 21627 21628 21629 21630 21631 21632 21633 21634 21635 21636 21637 21638 21639 21640 21641 21642 21643 21644 21645 21646 21647 21648 21649 21650 21651 21652 21653 21654 21655 21656 21657 21658 21659 21660 21661 21662 21663 21664 21665 21666 21667 21668 21669 21670 21671 21672 21673 21674 21675 21676 21677 21678 21679 21680 21681 21682 21683 21684 21685 21686 21687 21688 21689 21690 21691 21692 21693 21694 21695 21696 21697 21698 21699 21700 21701 21702 21703 21704 21705 21706 21707 21708 21709 21710 21711 21712 21713 21714 21715 21716 21717 21718 21719 21720 21721 21722 21723 21724 21725 21726 21727 21728 21729 21730 21731 21732 21733 21734 21735 21736 21737 21738 21739 21740 21741 21742 21743 21744 21745 21746 21747 21748 21749 21750 21751 21752 21753 21754 21755 21756 21757 21758 21759 21760 21761 21762 21763 21764 21765 21766 21767 21768 21769 21770 21771 21772 21773 21774 21775 21776 21777 21778 21779 21780 21781 21782 21783 21784 21785 21786 21787 21788 21789 21790 21791 21792 21793 21794 21795 21796 21797 21798 21799 21800 21801 21802 21803 21804 21805 21806 21807 21808 21809 21810 21811 21812 21813 21814 21815 21816 21817 21818 21819 21820 21821 21822 21823 21824 21825 21826 21827 21828 21829 21830 21831 21832 21833 21834 21835 21836 21837 21838 21839 21840 21841 21842 21843 21844 21845 21846 21847 21848 21849 21850 21851 21852 21853 21854 21855 21856 21857 21858 21859 21860 21861 21862 21863 21864 21865 21866 21867 21868 21869 21870 21871 21872 21873 21874 21875 21876 21877 21878 21879 21880 21881 21882 21883 21884 21885 21886 21887 21888 21889 21890 21891 21892 21893 21894 21895 21896 21897 21898 21899 21900 21901 21902 21903 21904 21905 21906 21907 21908 21909 21910 21911 21912 21913 21914 21915 21916 21917 21918 21919 21920 21921 21922 21923 21924 21925 21926 21927 21928 21929 21930 21931 21932 21933 21934 21935 21936 21937 21938 21939 21940 21941 21942 21943 21944 21945 21946 21947 21948 21949 21950 21951 21952 21953 21954 21955 21956 21957 21958 21959 21960 21961 21962 21963 21964 21965 21966 21967 21968 21969 21970 21971 21972 21973 21974 21975 21976 21977 21978 21979 21980 21981 21982 21983 21984 21985 21986 21987 21988 21989 21990 21991 21992 21993 21994 21995 21996 21997 21998 21999 22000 22001 22002 22003 22004 22005 22006 22007 22008 22009 22010 22011 22012 22013 22014 22015 22016 22017 22018 22019 22020 22021 22022 22023 22024 22025 22026 22027 22028 22029 22030 22031 22032 22033 22034 22035 22036 22037 22038 22039 22040 22041 22042 22043 22044 22045 22046 22047 22048 22049 22050 22051 22052 22053 22054 22055 22056 22057 22058 22059 22060 22061 22062 22063 22064 22065 22066 22067 22068 22069 22070 22071 22072 22073 22074 22075 22076 22077 22078 22079 22080 22081 22082 22083 22084 22085 22086 22087 22088 22089 22090 22091 22092 22093 22094 22095 22096 22097 22098 22099 22100 22101 22102 22103 22104 22105 22106 22107 22108 22109 22110 22111 22112 22113 22114 22115 22116 22117 22118 22119 22120 22121 22122 22123 22124 22125 22126 22127 22128 22129 22130 22131 22132 22133 22134 22135 22136 22137 22138 22139 22140 22141 22142 22143 22144 22145 22146 22147 22148 22149 22150 22151 22152 22153 22154 22155 22156 22157 22158 22159 22160 22161 22162 22163 22164 22165 22166 22167 22168 22169 22170 22171 22172 22173 22174 22175 22176 22177 22178 22179 22180 22181 22182 22183 22184 22185 22186 22187 22188 22189 22190 22191 22192 22193 22194 22195 22196 22197 22198 22199 22200 22201 22202 22203 22204 22205 22206 22207 22208 22209 22210 22211 22212 22213 22214 22215 22216 22217 22218 22219 22220 22221 22222 22223 22224 22225 22226 22227 22228 22229 22230 22231 22232 22233 22234 22235 22236 22237 22238 22239 22240 22241 22242 22243 22244 22245 22246 22247 22248 22249 22250 22251 22252 22253 22254 22255 22256 22257 22258 22259 22260 22261 22262 22263 22264 22265 22266 22267 22268 22269 22270 22271 22272 22273 22274 22275 22276 22277 22278 22279 22280 22281 22282 22283 22284 22285 22286 22287 22288 22289 22290 22291 22292 22293 22294 22295 22296 22297 22298 22299 22300 22301 22302 22303 22304 22305 22306 22307 22308 22309 22310 22311 22312 22313 22314 22315 22316 22317 22318 22319 22320 22321 22322 22323 22324 22325 22326 22327 22328 22329 22330 22331 22332 22333 22334 22335 22336 22337 22338 22339 22340 22341 22342 22343 22344 22345 22346 22347 22348 22349 22350 22351 22352 22353 22354 22355 22356 22357 22358 22359 22360 22361 22362 22363 22364 22365 22366 22367 22368 22369 22370 22371 22372 22373 22374 22375 22376 22377 22378 22379 22380 22381 22382 22383 22384 22385 22386 22387 22388 22389 22390 22391 22392 22393 22394 22395 22396 22397 22398 22399 22400 22401 22402 22403 22404 22405 22406 22407 22408 22409 22410 22411 22412 22413 22414 22415 22416 22417 22418 22419 22420 22421 22422 22423 22424 22425 22426 22427 22428 22429 22430 22431 22432 22433 22434 22435 22436 22437 22438 22439 22440 22441 22442 22443 22444 22445 22446 22447 22448 22449 22450 22451 22452 22453 22454 22455 22456 22457 22458 22459 22460 22461 22462 22463 22464 22465 22466 22467 22468 22469 22470 22471 22472 22473 22474 22475 22476 22477 22478 22479 22480 22481 22482 22483 22484 22485 22486 22487 22488 22489 22490 22491 22492 22493 22494 22495 22496 22497 22498 22499 22500 22501 22502 22503 22504 22505 22506 22507 22508 22509 22510 22511 22512 22513 22514 22515 22516 22517 22518 22519 22520 22521 22522 22523 22524 22525 22526 22527 22528 22529 22530 22531 22532 22533 22534 22535 22536 22537 22538 22539 22540 22541 22542 22543 22544 22545 22546 22547 22548 22549 22550 22551 22552 22553 22554 22555 22556 22557 22558 22559 22560 22561 22562 22563 22564 22565 22566 22567 22568 22569 22570 22571 22572 22573 22574 22575 22576 22577 22578 22579 22580 22581 22582 22583 22584 22585 22586 22587 22588 22589 22590 22591 22592 22593 22594 22595 22596 22597 22598 22599 22600 22601 22602 22603 22604 22605 22606 22607 22608 22609 22610 22611 22612 22613 22614 22615 22616 22617 22618 22619 22620 22621 22622 22623 22624 22625 22626 22627 22628 22629 22630 22631 22632 22633 22634 22635 22636 22637 22638 22639 22640 22641 22642 22643 22644 22645 22646 22647 22648 22649 22650 22651 22652 22653 22654 22655 22656 22657 22658 22659 22660 22661 22662 22663 22664 22665 22666 22667 22668 22669 22670 22671 22672 22673 22674 22675 22676 22677 22678 22679 22680 22681 22682 22683 22684 22685 22686 22687 22688 22689 22690 22691 22692 22693 22694 22695 22696 22697 22698 22699 22700 22701 22702 22703 22704 22705 22706 22707 22708 22709 22710 22711 22712 22713 22714 22715 22716 22717 22718 22719 22720 22721 22722 22723 22724 22725 22726 22727 22728 22729 22730 22731 22732 22733 22734 22735 22736 22737 22738 22739 22740 22741 22742 22743 22744 22745 22746 22747 22748 22749 22750 22751 22752 22753 22754 22755 22756 22757 22758 22759 22760 22761 22762 22763 22764 22765 22766 22767 22768 22769 22770 22771 22772 22773 22774 22775 22776 22777 22778 22779 22780 22781 22782 22783 22784 22785 22786 22787 22788 22789 22790 22791 22792 22793 22794 22795 22796 22797 22798 22799 22800 22801 22802 22803 22804 22805 22806 22807 22808 22809 22810 22811 22812 22813 22814 22815 22816 22817 22818 22819 22820 22821 22822 22823 22824 22825 22826 22827 22828 22829 22830 22831 22832 22833 22834 22835 22836 22837 22838 22839 22840 22841 22842 22843 22844 22845 22846 22847 22848 22849 22850 22851 22852 22853 22854 22855 22856 22857 22858 22859 22860 22861 22862 22863 22864 22865 22866 22867 22868 22869 22870 22871 22872 22873 22874 22875 22876 22877 22878 22879 22880 22881 22882 22883 22884 22885 22886 22887 22888 22889 22890 22891 22892 22893 22894 22895 22896 22897 22898 22899 22900 22901 22902 22903 22904 22905 22906 22907 22908 22909 22910 22911 22912 22913 22914 22915 22916 22917 22918 22919 22920 22921 22922 22923 22924 22925 22926 22927 22928 22929 22930 22931 22932 22933 22934 22935 22936 22937 22938 22939 22940 22941 22942 22943 22944 22945 22946 22947 22948 22949 22950 22951 22952 22953 22954 22955 22956 22957 22958 22959 22960 22961 22962 22963 22964 22965 22966 22967 22968 22969 22970 22971 22972 22973 22974 22975 22976 22977 22978 22979 22980 22981 22982 22983 22984 22985 22986 22987 22988 22989 22990 22991 22992 22993 22994 22995 22996 22997 22998 22999 23000 23001 23002 23003 23004 23005 23006 23007 23008 23009 23010 23011 23012 23013 23014 23015 23016 23017 23018 23019 23020 23021 23022 23023 23024 23025 23026 23027 23028 23029 23030 23031 23032 23033 23034 23035 23036 23037 23038 23039 23040 23041 23042 23043 23044 23045 23046 23047 23048 23049 23050 23051 23052 23053 23054 23055 23056 23057 23058 23059 23060 23061 23062 23063 23064 23065 23066 23067 23068 23069 23070 23071 23072 23073 23074 23075 23076 23077 23078 23079 23080 23081 23082 23083 23084 23085 23086 23087 23088 23089 23090 23091 23092 23093 23094 23095 23096 23097 23098 23099 23100 23101 23102 23103 23104 23105 23106 23107 23108 23109 23110 23111 23112 23113 23114 23115 23116 23117 23118 23119 23120 23121 23122 23123 23124 23125 23126 23127 23128 23129 23130 23131 23132 23133 23134 23135 23136 23137 23138 23139 23140 23141 23142 23143 23144 23145 23146 23147 23148 23149 23150 23151 23152 23153 23154 23155 23156 23157 23158 23159 23160 23161 23162 23163 23164 23165 23166 23167 23168 23169 23170 23171 23172 23173 23174 23175 23176 23177 23178 23179 23180 23181 23182 23183 23184 23185 23186 23187 23188 23189 23190 23191 23192 23193 23194 23195 23196 23197 23198 23199 23200 23201 23202 23203 23204 23205 23206 23207 23208 23209 23210 23211 23212 23213 23214 23215 23216 23217 23218 23219 23220 23221 23222 23223 23224 23225 23226 23227 23228 23229 23230 23231 23232 23233 23234 23235 23236 23237 23238 23239 23240 23241 23242 23243 23244 23245 23246 23247 23248 23249 23250 23251 23252 23253 23254 23255 23256 23257 23258 23259 23260 23261 23262 23263 23264 23265 23266 23267 23268 23269 23270 23271 23272 23273 23274 23275 23276 23277 23278 23279 23280 23281 23282 23283 23284 23285 23286 23287 23288 23289 23290 23291 23292 23293 23294 23295 23296 23297 23298 23299 23300 23301 23302 23303 23304 23305 23306 23307 23308 23309 23310 23311 23312 23313 23314 23315 23316 23317 23318 23319 23320 23321 23322 23323 23324 23325 23326 23327 23328 23329 23330 23331 23332 23333 23334 23335 23336 23337 23338 23339 23340 23341 23342 23343 23344 23345 23346 23347 23348 23349 23350 23351 23352 23353 23354 23355 23356 23357 23358 23359 23360 23361 23362 23363 23364 23365 23366 23367 23368 23369 23370 23371 23372 23373 23374 23375 23376 23377 23378 23379 23380 23381 23382 23383 23384 23385 23386 23387 23388 23389 23390 23391 23392 23393 23394 23395 23396 23397 23398 23399 23400 23401 23402 23403 23404 23405 23406 23407 23408 23409 23410 23411 23412 23413 23414 23415 23416 23417 23418 23419 23420 23421 23422 23423 23424 23425 23426 23427 23428 23429 23430 23431 23432 23433 23434 23435 23436 23437 23438 23439 23440 23441 23442 23443 23444 23445 23446 23447 23448 23449 23450 23451 23452 23453 23454 23455 23456 23457 23458 23459 23460 23461 23462 23463 23464 23465 23466 23467 23468 23469 23470 23471 23472 23473 23474 23475 23476 23477 23478 23479 23480 23481 23482 23483 23484 23485 23486 23487 23488 23489 23490 23491 23492 23493 23494 23495 23496 23497 23498 23499 23500 23501 23502 23503 23504 23505 23506 23507 23508 23509 23510 23511 23512 23513 23514 23515 23516 23517 23518 23519 23520 23521 23522 23523 23524 23525 23526 23527 23528 23529 23530 23531 23532 23533 23534 23535 23536 23537 23538 23539 23540 23541 23542 23543 23544 23545 23546 23547 23548 23549 23550 23551 23552 23553 23554 23555 23556 23557 23558 23559 23560 23561 23562 23563 23564 23565 23566 23567 23568 23569 23570 23571 23572 23573 23574 23575 23576 23577 23578 23579 23580 23581 23582 23583 23584 23585 23586 23587 23588 23589 23590 23591 23592 23593 23594 23595 23596 23597 23598 23599 23600 23601 23602 23603 23604 23605 23606 23607 23608 23609 23610 23611 23612 23613 23614 23615 23616 23617 23618 23619 23620 23621 23622 23623 23624 23625 23626 23627 23628 23629 23630 23631 23632 23633 23634 23635 23636 23637 23638 23639 23640 23641 23642 23643 23644 23645 23646 23647 23648 23649 23650 23651 23652 23653 23654 23655 23656 23657 23658 23659 23660 23661 23662 23663 23664 23665 23666 23667 23668 23669 23670 23671 23672 23673 23674 23675 23676 23677 23678 23679 23680 23681 23682 23683 23684 23685 23686 23687 23688 23689 23690 23691 23692 23693 23694 23695 23696 23697 23698 23699 23700 23701 23702 23703 23704 23705 23706 23707 23708 23709 23710 23711 23712 23713 23714 23715 23716 23717 23718 23719 23720 23721 23722 23723 23724 23725 23726 23727 23728 23729 23730 23731 23732 23733 23734 23735 23736 23737 23738 23739 23740 23741 23742 23743 23744 23745 23746 23747 23748 23749 23750 23751 23752 23753 23754 23755 23756 23757 23758 23759 23760 23761 23762 23763 23764 23765 23766 23767 23768 23769 23770 23771 23772 23773 23774 23775 23776 23777 23778 23779 23780 23781 23782 23783 23784 23785 23786 23787 23788 23789 23790 23791 23792 23793 23794 23795 23796 23797 23798 23799 23800 23801 23802 23803 23804 23805 23806 23807 23808 23809 23810 23811 23812 23813 23814 23815 23816 23817 23818 23819 23820 23821 23822 23823 23824 23825 23826 23827 23828 23829 23830 23831 23832 23833 23834 23835 23836 23837 23838 23839 23840 23841 23842 23843 23844 23845 23846 23847 23848 23849 23850 23851 23852 23853 23854 23855 23856 23857 23858 23859 23860 23861 23862 23863 23864 23865 23866 23867 23868 23869 23870 23871 23872 23873 23874 23875 23876 23877 23878 23879 23880 23881 23882 23883 23884 23885 23886 23887 23888 23889 23890 23891 23892 23893 23894 23895 23896 23897 23898 23899 23900 23901 23902 23903 23904 23905 23906 23907 23908 23909 23910 23911 23912 23913 23914 23915 23916 23917 23918 23919 23920 23921 23922 23923 23924 23925 23926 23927 23928 23929 23930 23931 23932 23933 23934 23935 23936 23937 23938 23939 23940 23941 23942 23943 23944 23945 23946 23947 23948 23949 23950 23951 23952 23953 23954 23955 23956 23957 23958 23959 23960 23961 23962 23963 23964 23965 23966 23967 23968 23969 23970 23971 23972 23973 23974 23975 23976 23977 23978 23979 23980 23981 23982 23983 23984 23985 23986 23987 23988 23989 23990 23991 23992 23993 23994 23995 23996 23997 23998 23999 24000 24001 24002 24003 24004 24005 24006 24007 24008 24009 24010 24011 24012 24013 24014 24015 24016 24017 24018 24019 24020 24021 24022 24023 24024 24025 24026 24027 24028 24029 24030 24031 24032 24033 24034 24035 24036 24037 24038 24039 24040 24041 24042 24043 24044 24045 24046 24047 24048 24049 24050 24051 24052 24053 24054 24055 24056 24057 24058 24059 24060 24061 24062 24063 24064 24065 24066 24067 24068 24069 24070 24071 24072 24073 24074 24075 24076 24077 24078 24079 24080 24081 24082 24083 24084 24085 24086 24087 24088 24089 24090 24091 24092 24093 24094 24095 24096 24097 24098 24099 24100 24101 24102 24103 24104 24105 24106 24107 24108 24109 24110 24111 24112 24113 24114 24115 24116 24117 24118 24119 24120 24121 24122 24123 24124 24125 24126 24127 24128 24129 24130 24131 24132 24133 24134 24135 24136 24137 24138 24139 24140 24141 24142 24143 24144 24145 24146 24147 24148 24149 24150 24151 24152 24153 24154 24155 24156 24157 24158 24159 24160 24161 24162 24163 24164 24165 24166 24167 24168 24169 24170 24171 24172 24173 24174 24175 24176 24177 24178 24179 24180 24181 24182 24183 24184 24185 24186 24187 24188 24189 24190 24191 24192 24193 24194 24195 24196 24197 24198 24199 24200 24201 24202 24203 24204 24205 24206 24207 24208 24209 24210 24211 24212 24213 24214 24215 24216 24217 24218 24219 24220 24221 24222 24223 24224 24225 24226 24227 24228 24229 24230 24231 24232 24233 24234 24235 24236 24237 24238 24239 24240 24241 24242 24243 24244 24245 24246 24247 24248 24249 24250 24251 24252 24253 24254 24255 24256 24257 24258 24259 24260 24261 24262 24263 24264 24265 24266 24267 24268 24269 24270 24271 24272 24273 24274 24275 24276 24277 24278 24279 24280 24281 24282 24283 24284 24285 24286 24287 24288 24289 24290 24291 24292 24293 24294 24295 24296 24297 24298 24299 24300 24301 24302 24303 24304 24305 24306 24307 24308 24309 24310 24311 24312 24313 24314 24315 24316 24317 24318 24319 24320 24321 24322 24323 24324 24325 24326 24327 24328 24329 24330 24331 24332 24333 24334 24335 24336 24337 24338 24339 24340 24341 24342 24343 24344 24345 24346 24347 24348 24349 24350 24351 24352 24353 24354 24355 24356 24357 24358 24359 24360 24361 24362 24363 24364 24365 24366 24367 24368 24369 24370 24371 24372 24373 24374 24375 24376 24377 24378 24379 24380 24381 24382 24383 24384 24385 24386 24387 24388 24389 24390 24391 24392 24393 24394 24395 24396 24397 24398 24399 24400 24401 24402 24403 24404 24405 24406 24407 24408 24409 24410 24411 24412 24413 24414 24415 24416 24417 24418 24419 24420 24421 24422 24423 24424 24425 24426 24427 24428 24429 24430 24431 24432 24433 24434 24435 24436 24437 24438 24439 24440 24441 24442 24443 24444 24445 24446 24447 24448 24449 24450 24451 24452 24453 24454 24455 24456 24457 24458 24459 24460 24461 24462 24463 24464 24465 24466 24467 24468 24469 24470 24471 24472 24473 24474 24475 24476 24477 24478 24479 24480 24481 24482 24483 24484 24485 24486 24487 24488 24489 24490 24491 24492 24493 24494 24495 24496 24497 24498 24499 24500 24501 24502 24503 24504 24505 24506 24507 24508 24509 24510 24511 24512 24513 24514 24515 24516 24517 24518 24519 24520 24521 24522 24523 24524 24525 24526 24527 24528 24529 24530 24531 24532 24533 24534 24535 24536 24537 24538 24539 24540 24541 24542 24543 24544 24545 24546 24547 24548 24549 24550 24551 24552 24553 24554 24555 24556 24557 24558 24559 24560 24561 24562 24563 24564 24565 24566 24567 24568 24569 24570 24571 24572 24573 24574 24575 24576 24577 24578 24579 24580 24581 24582 24583 24584 24585 24586 24587 24588 24589 24590 24591 24592 24593 24594 24595 24596 24597 24598 24599 24600 24601 24602 24603 24604 24605 24606 24607 24608 24609 24610 24611 24612 24613 24614 24615 24616 24617 24618 24619 24620 24621 24622 24623 24624 24625 24626 24627 24628 24629 24630 24631 24632 24633 24634 24635 24636 24637 24638 24639 24640 24641 24642 24643 24644 24645 24646 24647 24648 24649 24650 24651 24652 24653 24654 24655 24656 24657 24658 24659 24660 24661 24662 24663 24664 24665 24666 24667 24668 24669 24670 24671 24672 24673 24674 24675 24676 24677 24678 24679 24680 24681 24682 24683 24684 24685 24686 24687 24688 24689 24690 24691 24692 24693 24694 24695 24696 24697 24698 24699 24700 24701 24702 24703 24704 24705 24706 24707 24708 24709 24710 24711 24712 24713 24714 24715 24716 24717 24718 24719 24720 24721 24722 24723 24724 24725 24726 24727 24728 24729 24730 24731 24732 24733 24734 24735 24736 24737 24738 24739 24740 24741 24742 24743 24744 24745 24746 24747 24748 24749 24750 24751 24752 24753 24754 24755 24756 24757 24758 24759 24760 24761 24762 24763 24764 24765 24766 24767 24768 24769 24770 24771 24772 24773 24774 24775 24776 24777 24778 24779 24780 24781 24782 24783 24784 24785 24786 24787 24788 24789 24790 24791 24792 24793 24794 24795 24796 24797 24798 24799 24800 24801 24802 24803 24804 24805 24806 24807 24808 24809 24810 24811 24812 24813 24814 24815 24816 24817 24818 24819 24820 24821 24822 24823 24824 24825 24826 24827 24828 24829 24830 24831 24832 24833 24834 24835 24836 24837 24838 24839 24840 24841 24842 24843 24844 24845 24846 24847 24848 24849 24850 24851 24852 24853 24854 24855 24856 24857 24858 24859 24860 24861 24862 24863 24864 24865 24866 24867 24868 24869 24870 24871 24872 24873 24874 24875 24876 24877 24878 24879 24880 24881 24882 24883 24884 24885 24886 24887 24888 24889 24890 24891 24892 24893 24894 24895 24896 24897 24898 24899 24900 24901 24902 24903 24904 24905 24906 24907 24908 24909 24910 24911 24912 24913 24914 24915 24916 24917 24918 24919 24920 24921 24922 24923 24924 24925 24926 24927 24928 24929 24930 24931 24932 24933 24934 24935 24936 24937 24938 24939 24940 24941 24942 24943 24944 24945 24946 24947 24948 24949 24950 24951 24952 24953 24954 24955 24956 24957 24958 24959 24960 24961 24962 24963 24964 24965 24966 24967 24968 24969 24970 24971 24972 24973 24974 24975 24976 24977 24978 24979 24980 24981 24982 24983 24984 24985 24986 24987 24988 24989 24990 24991 24992 24993 24994 24995 24996 24997 24998 24999 25000 25001 25002 25003 25004 25005 25006 25007 25008 25009 25010 25011 25012 25013 25014 25015 25016 25017 25018 25019 25020 25021 25022 25023 25024 25025 25026 25027 25028 25029 25030 25031 25032 25033 25034 25035 25036 25037 25038 25039 25040 25041 25042 25043 25044 25045 25046 25047 25048 25049 25050 25051 25052 25053 25054 25055 25056 25057 25058 25059 25060 25061 25062 25063 25064 25065 25066 25067 25068 25069 25070 25071 25072 25073 25074 25075 25076 25077 25078 25079 25080 25081 25082 25083 25084 25085 25086 25087 25088 25089 25090 25091 25092 25093 25094 25095 25096 25097 25098 25099 25100 25101 25102 25103 25104 25105 25106 25107 25108 25109 25110 25111 25112 25113 25114 25115 25116 25117 25118 25119 25120 25121 25122 25123 25124 25125 25126 25127 25128 25129 25130 25131 25132 25133 25134 25135 25136 25137 25138 25139 25140 25141 25142 25143 25144 25145 25146 25147 25148 25149 25150 25151 25152 25153 25154 25155 25156 25157 25158 25159 25160 25161 25162 25163 25164 25165 25166 25167 25168 25169 25170 25171 25172 25173 25174 25175 25176 25177 25178 25179 25180 25181 25182 25183 25184 25185 25186 25187 25188 25189 25190 25191 25192 25193 25194 25195 25196 25197 25198 25199 25200 25201 25202 25203 25204 25205 25206 25207 25208 25209 25210 25211 25212 25213 25214 25215 25216 25217 25218 25219 25220 25221 25222 25223 25224 25225 25226 25227 25228 25229 25230 25231 25232 25233 25234 25235 25236 25237 25238 25239 25240 25241 25242 25243 25244 25245 25246 25247 25248 25249 25250 25251 25252 25253 25254 25255 25256 25257 25258 25259 25260 25261 25262 25263 25264 25265 25266 25267 25268 25269 25270 25271 25272 25273 25274 25275 25276 25277 25278 25279 25280 25281 25282 25283 25284 25285 25286 25287 25288 25289 25290 25291 25292 25293 25294 25295 25296 25297 25298 25299 25300 25301 25302 25303 25304 25305 25306 25307 25308 25309 25310 25311 25312 25313 25314 25315 25316 25317 25318 25319 25320 25321 25322 25323 25324 25325 25326 25327 25328 25329 25330 25331 25332 25333 25334 25335 25336 25337 25338 25339 25340 25341 25342 25343 25344 25345 25346 25347 25348 25349 25350 25351 25352 25353 25354 25355 25356 25357 25358 25359 25360 25361 25362 25363 25364 25365 25366 25367 25368 25369 25370 25371 25372 25373 25374 25375 25376 25377 25378 25379 25380 25381 25382 25383 25384 25385 25386 25387 25388 25389 25390 25391 25392 25393 25394 25395 25396 25397 25398 25399 25400 25401 25402 25403 25404 25405 25406 25407 25408 25409 25410 25411 25412 25413 25414 25415 25416 25417 25418 25419 25420 25421 25422 25423 25424 25425 25426 25427 25428 25429 25430 25431 25432 25433 25434 25435 25436 25437 25438 25439 25440 25441 25442 25443 25444 25445 25446 25447 25448 25449 25450 25451 25452 25453 25454 25455 25456 25457 25458 25459 25460 25461 25462 25463 25464 25465 25466 25467 25468 25469 25470 25471 25472 25473 25474 25475 25476 25477 25478 25479 25480 25481 25482 25483 25484 25485 25486 25487 25488 25489 25490 25491 25492 25493 25494 25495 25496 25497 25498 25499 25500 25501 25502 25503 25504 25505 25506 25507 25508 25509 25510 25511 25512 25513 25514 25515 25516 25517 25518 25519 25520 25521 25522 25523 25524 25525 25526 25527 25528 25529 25530 25531 25532 25533 25534 25535 25536 25537 25538 25539 25540 25541 25542 25543 25544 25545 25546 25547 25548 25549 25550 25551 25552 25553 25554 25555 25556 25557 25558 25559 25560 25561 25562 25563 25564 25565 25566 25567 25568 25569 25570 25571 25572 25573 25574 25575 25576 25577 25578 25579 25580 25581 25582 25583 25584 25585 25586 25587 25588 25589 25590 25591 25592 25593 25594 25595 25596 25597 25598 25599 25600 25601 25602 25603 25604 25605 25606 25607 25608 25609 25610 25611 25612 25613 25614 25615 25616 25617 25618 25619 25620 25621 25622 25623 25624 25625 25626 25627 25628 25629 25630 25631 25632 25633 25634 25635 25636 25637 25638 25639 25640 25641 25642 25643 25644 25645 25646 25647 25648 25649 25650 25651 25652 25653 25654 25655 25656 25657 25658 25659 25660 25661 25662 25663 25664 25665 25666 25667 25668 25669 25670 25671 25672 25673 25674 25675 25676 25677 25678 25679 25680 25681 25682 25683 25684 25685 25686 25687 25688 25689 25690 25691 25692 25693 25694 25695 25696 25697 25698 25699 25700 25701 25702 25703 25704 25705 25706 25707 25708 25709 25710 25711 25712 25713 25714 25715 25716 25717 25718 25719 25720 25721 25722 25723 25724 25725 25726 25727 25728 25729 25730 25731 25732 25733 25734 25735 25736 25737 25738 25739 25740 25741 25742 25743 25744 25745 25746 25747 25748 25749 25750 25751 25752 25753 25754 25755 25756 25757 25758 25759 25760 25761 25762 25763 25764 25765 25766 25767 25768 25769 25770 25771 25772 25773 25774 25775 25776 25777 25778 25779 25780 25781 25782 25783 25784 25785 25786 25787 25788 25789 25790 25791 25792 25793 25794 25795 25796 25797 25798 25799 25800 25801 25802 25803 25804 25805 25806 25807 25808 25809 25810 25811 25812 25813 25814 25815 25816 25817 25818 25819 25820 25821 25822 25823 25824 25825 25826 25827 25828 25829 25830 25831 25832 25833 25834 25835 25836 25837 25838 25839 25840 25841 25842 25843 25844 25845 25846 25847 25848 25849 25850 25851 25852 25853 25854 25855 25856 25857 25858 25859 25860 25861 25862 25863 25864 25865 25866 25867 25868 25869 25870 25871 25872 25873 25874 25875 25876 25877 25878 25879 25880 25881 25882 25883 25884 25885 25886 25887 25888 25889 25890 25891 25892 25893 25894 25895 25896 25897 25898 25899 25900 25901 25902 25903 25904 25905 25906 25907 25908 25909 25910 25911 25912 25913 25914 25915 25916 25917 25918 25919 25920 25921 25922 25923 25924 25925 25926 25927 25928 25929 25930 25931 25932 25933 25934 25935 25936 25937 25938 25939 25940 25941 25942 25943 25944 25945 25946 25947 25948 25949 25950 25951 25952 25953 25954 25955 25956 25957 25958 25959 25960 25961 25962 25963 25964 25965 25966 25967 25968 25969 25970 25971 25972 25973 25974 25975 25976 25977 25978 25979 25980 25981 25982 25983 25984 25985 25986 25987 25988 25989 25990 25991 25992 25993 25994 25995 25996 25997 25998 25999 26000 26001 26002 26003 26004 26005 26006 26007 26008 26009 26010 26011 26012 26013 26014 26015 26016 26017 26018 26019 26020 26021 26022 26023 26024 26025 26026 26027 26028 26029 26030 26031 26032 26033 26034 26035 26036 26037 26038 26039 26040 26041 26042 26043 26044 26045 26046 26047 26048 26049 26050 26051 26052 26053 26054 26055 26056 26057 26058 26059 26060 26061 26062 26063 26064 26065 26066 26067 26068 26069 26070 26071 26072 26073 26074 26075 26076 26077 26078 26079 26080 26081 26082 26083 26084 26085 26086 26087 26088 26089 26090 26091 26092 26093 26094 26095 26096 26097 26098 26099 26100 26101 26102 26103 26104 26105 26106 26107 26108 26109 26110 26111 26112 26113 26114 26115 26116 26117 26118 26119 26120 26121 26122 26123 26124 26125 26126 26127 26128 26129 26130 26131 26132 26133 26134 26135 26136 26137 26138 26139 26140 26141 26142 26143 26144 26145 26146 26147 26148 26149 26150 26151 26152 26153 26154 26155 26156 26157 26158 26159 26160 26161 26162 26163 26164 26165 26166 26167 26168 26169 26170 26171 26172 26173 26174 26175 26176 26177 26178 26179 26180 26181 26182 26183 26184 26185 26186 26187 26188 26189 26190 26191 26192 26193 26194 26195 26196 26197 26198 26199 26200 26201 26202 26203 26204 26205 26206 26207 26208 26209 26210 26211 26212 26213 26214 26215 26216 26217 26218 26219 26220 26221 26222 26223 26224 26225 26226 26227 26228 26229 26230 26231 26232 26233 26234 26235 26236 26237 26238 26239 26240 26241 26242 26243 26244 26245 26246 26247 26248 26249 26250 26251 26252 26253 26254 26255 26256 26257 26258 26259 26260 26261 26262 26263 26264 26265 26266 26267 26268 26269 26270 26271 26272 26273 26274 26275 26276 26277 26278 26279 26280 26281 26282 26283 26284 26285 26286 26287 26288 26289 26290 26291 26292 26293 26294 26295 26296 26297 26298 26299 26300 26301 26302 26303 26304 26305 26306 26307 26308 26309 26310 26311 26312 26313 26314 26315 26316 26317 26318 26319 26320 26321 26322 26323 26324 26325 26326 26327 26328 26329 26330 26331 26332 26333 26334 26335 26336 26337 26338 26339 26340 26341 26342 26343 26344 26345 26346 26347 26348 26349 26350 26351 26352 26353 26354 26355 26356 26357 26358 26359 26360 26361 26362 26363 26364 26365 26366 26367 26368 26369 26370 26371 26372 26373 26374 26375 26376 26377 26378 26379 26380 26381 26382 26383 26384 26385 26386 26387 26388 26389 26390 26391 26392 26393 26394 26395 26396 26397 26398 26399 26400 26401 26402 26403 26404 26405 26406 26407 26408 26409 26410 26411 26412 26413 26414 26415 26416 26417 26418 26419 26420 26421 26422 26423 26424 26425 26426 26427 26428 26429 26430 26431 26432 26433 26434 26435 26436 26437 26438 26439 26440 26441 26442 26443 26444 26445 26446 26447 26448 26449 26450 26451 26452 26453 26454 26455 26456 26457 26458 26459 26460 26461 26462 26463 26464 26465 26466 26467 26468 26469 26470 26471 26472 26473 26474 26475 26476 26477 26478 26479 26480 26481 26482 26483 26484 26485 26486 26487 26488 26489 26490 26491 26492 26493 26494 26495 26496 26497 26498 26499 26500 26501 26502 26503 26504 26505 26506 26507 26508 26509 26510 26511 26512 26513 26514 26515 26516 26517 26518 26519 26520 26521 26522 26523 26524 26525 26526 26527 26528 26529 26530 26531 26532 26533 26534 26535 26536 26537 26538 26539 26540 26541 26542 26543 26544 26545 26546 26547 26548 26549 26550 26551 26552 26553 26554 26555 26556 26557 26558 26559 26560 26561 26562 26563 26564 26565 26566 26567 26568 26569 26570 26571 26572 26573 26574 26575 26576 26577 26578 26579 26580 26581 26582 26583 26584 26585 26586 26587 26588 26589 26590 26591 26592 26593 26594 26595 26596 26597 26598 26599 26600 26601 26602 26603 26604 26605 26606 26607 26608 26609 26610 26611 26612 26613 26614 26615 26616 26617 26618 26619 26620 26621 26622 26623 26624 26625 26626 26627 26628 26629 26630 26631 26632 26633 26634 26635 26636 26637 26638 26639 26640 26641 26642 26643 26644 26645 26646 26647 26648 26649 26650 26651 26652 26653 26654 26655 26656 26657 26658 26659 26660 26661 26662 26663 26664 26665 26666 26667 26668 26669 26670 26671 26672 26673 26674 26675 26676 26677 26678 26679 26680 26681 26682 26683 26684 26685 26686 26687 26688 26689 26690 26691 26692 26693 26694 26695 26696 26697 26698 26699 26700 26701 26702 26703 26704 26705 26706 26707 26708 26709 26710 26711 26712 26713 26714 26715 26716 26717 26718 26719 26720 26721 26722 26723 26724 26725 26726 26727 26728 26729 26730 26731 26732 26733 26734 26735 26736 26737 26738 26739 26740 26741 26742 26743 26744 26745 26746 26747 26748 26749 26750 26751 26752 26753 26754 26755 26756 26757 26758 26759 26760 26761 26762 26763 26764 26765 26766 26767 26768 26769 26770 26771 26772 26773 26774 26775 26776 26777 26778 26779 26780 26781 26782 26783 26784 26785 26786 26787 26788 26789 26790 26791 26792 26793 26794 26795 26796 26797 26798 26799 26800 26801 26802 26803 26804 26805 26806 26807 26808 26809 26810 26811 26812 26813 26814 26815 26816 26817 26818 26819 26820 26821 26822 26823 26824 26825 26826 26827 26828 26829 26830 26831 26832 26833 26834 26835 26836 26837 26838 26839 26840 26841 26842 26843 26844 26845 26846 26847 26848 26849 26850 26851 26852 26853 26854 26855 26856 26857 26858 26859 26860 26861 26862 26863 26864 26865 26866 26867 26868 26869 26870 26871 26872 26873 26874 26875 26876 26877 26878 26879 26880 26881 26882 26883 26884 26885 26886 26887 26888 26889 26890 26891 26892 26893 26894 26895 26896 26897 26898 26899 26900 26901 26902 26903 26904 26905 26906 26907 26908 26909 26910 26911 26912 26913 26914 26915 26916 26917 26918 26919 26920 26921 26922 26923 26924 26925 26926 26927 26928 26929 26930 26931 26932 26933 26934 26935 26936 26937 26938 26939 26940 26941 26942 26943 26944 26945 26946 26947 26948 26949 26950 26951 26952 26953 26954 26955 26956 26957 26958 26959 26960 26961 26962 26963 26964 26965 26966 26967 26968 26969 26970 26971 26972 26973 26974 26975 26976 26977 26978 26979 26980 26981 26982 26983 26984 26985 26986 26987 26988 26989 26990 26991 26992 26993 26994 26995 26996 26997 26998 26999 27000 27001 27002 27003 27004 27005 27006 27007 27008 27009 27010 27011 27012 27013 27014 27015 27016 27017 27018 27019 27020 27021 27022 27023 27024 27025 27026 27027 27028 27029 27030 27031 27032 27033 27034 27035 27036 27037 27038 27039 27040 27041 27042 27043 27044 27045 27046 27047 27048 27049 27050 27051 27052 27053 27054 27055 27056 27057 27058 27059 27060 27061 27062 27063 27064 27065 27066 27067 27068 27069 27070 27071 27072 27073 27074 27075 27076 27077 27078 27079 27080 27081 27082 27083 27084 27085 27086 27087 27088 27089 27090 27091 27092 27093 27094 27095 27096 27097 27098 27099 27100 27101 27102 27103 27104 27105 27106 27107 27108 27109 27110 27111 27112 27113 27114 27115 27116 27117 27118 27119 27120 27121 27122 27123 27124 27125 27126 27127 27128 27129 27130 27131 27132 27133 27134 27135 27136 27137 27138 27139 27140 27141 27142 27143 27144 27145 27146 27147 27148 27149 27150 27151 27152 27153 27154 27155 27156 27157 27158 27159 27160 27161 27162 27163 27164 27165 27166 27167 27168 27169 27170 27171 27172 27173 27174 27175 27176 27177 27178 27179 27180 27181 27182 27183 27184 27185 27186 27187 27188 27189 27190 27191 27192 27193 27194 27195 27196 27197 27198 27199 27200 27201 27202 27203 27204 27205 27206 27207 27208 27209 27210 27211 27212 27213 27214 27215 27216 27217 27218 27219 27220 27221 27222 27223 27224 27225 27226 27227 27228 27229 27230 27231 27232 27233 27234 27235 27236 27237 27238 27239 27240 27241 27242 27243 27244 27245 27246 27247 27248 27249 27250 27251 27252 27253 27254 27255 27256 27257 27258 27259 27260 27261 27262 27263 27264 27265 27266 27267 27268 27269 27270 27271 27272 27273 27274 27275 27276 27277 27278 27279 27280 27281 27282 27283 27284 27285 27286 27287 27288 27289 27290 27291 27292 27293 27294 27295 27296 27297 27298 27299 27300 27301 27302 27303 27304 27305 27306 27307 27308 27309 27310 27311 27312 27313 27314 27315 27316 27317 27318 27319 27320 27321 27322 27323 27324 27325 27326 27327 27328 27329 27330 27331 27332 27333 27334 27335 27336 27337 27338 27339 27340 27341 27342 27343 27344 27345 27346 27347 27348 27349 27350 27351 27352 27353 27354 27355 27356 27357 27358 27359 27360 27361 27362 27363 27364 27365 27366 27367 27368 27369 27370 27371 27372 27373 27374 27375 27376 27377 27378 27379 27380 27381 27382 27383 27384 27385 27386 27387 27388 27389 27390 27391 27392 27393 27394 27395 27396 27397 27398 27399 27400 27401 27402 27403 27404 27405 27406 27407 27408 27409 27410 27411 27412 27413 27414 27415 27416 27417 27418 27419 27420 27421 27422 27423 27424 27425 27426 27427 27428 27429 27430 27431 27432 27433 27434 27435 27436 27437 27438 27439 27440 27441 27442 27443 27444 27445 27446 27447 27448 27449 27450 27451 27452 27453 27454 27455 27456 27457 27458 27459 27460 27461 27462 27463 27464 27465 27466 27467 27468 27469 27470 27471 27472 27473 27474 27475 27476 27477 27478 27479 27480 27481 27482 27483 27484 27485 27486 27487 27488 27489 27490 27491 27492 27493 27494 27495 27496 27497 27498 27499 27500 27501 27502 27503 27504 27505 27506 27507 27508 27509 27510 27511 27512 27513 27514 27515 27516 27517 27518 27519 27520 27521 27522 27523 27524 27525 27526 27527 27528 27529 27530 27531 27532 27533 27534 27535 27536 27537 27538 27539 27540 27541 27542 27543 27544 27545 27546 27547 27548 27549 27550 27551 27552 27553 27554 27555 27556 27557 27558 27559 27560 27561 27562 27563 27564 27565 27566 27567 27568 27569 27570 27571 27572 27573 27574 27575 27576 27577 27578 27579 27580 27581 27582 27583 27584 27585 27586 27587 27588 27589 27590 27591 27592 27593 27594 27595 27596 27597 27598 27599 27600 27601 27602 27603 27604 27605 27606 27607 27608 27609 27610 27611 27612 27613 27614 27615 27616 27617 27618 27619 27620 27621 27622 27623 27624 27625 27626 27627 27628 27629 27630 27631 27632 27633 27634 27635 27636 27637 27638 27639 27640 27641 27642 27643 27644 27645 27646 27647 27648 27649 27650 27651 27652 27653 27654 27655 27656 27657 27658 27659 27660 27661 27662 27663 27664 27665 27666 27667 27668 27669 27670 27671 27672 27673 27674 27675 27676 27677 27678 27679 27680 27681 27682 27683 27684 27685 27686 27687 27688 27689 27690 27691 27692 27693 27694 27695 27696 27697 27698 27699 27700 27701 27702 27703 27704 27705 27706 27707 27708 27709 27710 27711 27712 27713 27714 27715 27716 27717 27718 27719 27720 27721 27722 27723 27724 27725 27726 27727 27728 27729 27730 27731 27732 27733 27734 27735 27736 27737 27738 27739 27740 27741 27742 27743 27744 27745 27746 27747 27748 27749 27750 27751 27752 27753 27754 27755 27756 27757 27758 27759 27760 27761 27762 27763 27764 27765 27766 27767 27768 27769 27770 27771 27772 27773 27774 27775 27776 27777 27778 27779 27780 27781 27782 27783 27784 27785 27786 27787 27788 27789 27790 27791 27792 27793 27794 27795 27796 27797 27798 27799 27800 27801 27802 27803 27804 27805 27806 27807 27808 27809 27810 27811 27812 27813 27814 27815 27816 27817 27818 27819 27820 27821 27822 27823 27824 27825 27826 27827 27828 27829 27830 27831 27832 27833 27834 27835 27836 27837 27838 27839 27840 27841 27842 27843 27844 27845 27846 27847 27848 27849 27850 27851 27852 27853 27854 27855 27856 27857 27858 27859 27860 27861 27862 27863 27864 27865 27866 27867 27868 27869 27870 27871 27872 27873 27874 27875 27876 27877 27878 27879 27880 27881 27882 27883 27884 27885 27886 27887 27888 27889 27890 27891 27892 27893 27894 27895 27896 27897 27898 27899 27900 27901 27902 27903 27904 27905 27906 27907 27908 27909 27910 27911 27912 27913 27914 27915 27916 27917 27918 27919 27920 27921 27922 27923 27924 27925 27926 27927 27928 27929 27930 27931 27932 27933 27934 27935 27936 27937 27938 27939 27940 27941 27942 27943 27944 27945 27946 27947 27948 27949 27950 27951 27952 27953 27954 27955 27956 27957 27958 27959 27960 27961 27962 27963 27964 27965 27966 27967 27968 27969 27970 27971 27972 27973 27974 27975 27976 27977 27978 27979 27980 27981 27982 27983 27984 27985 27986 27987 27988 27989 27990 27991 27992 27993 27994 27995 27996 27997 27998 27999 28000 28001 28002 28003 28004 28005 28006 28007 28008 28009 28010 28011 28012 28013 28014 28015 28016 28017 28018 28019 28020 28021 28022 28023 28024 28025 28026 28027 28028 28029 28030 28031 28032 28033 28034 28035 28036 28037 28038 28039 28040 28041 28042 28043 28044 28045 28046 28047 28048 28049 28050 28051 28052 28053 28054 28055 28056 28057 28058 28059 28060 28061 28062 28063 28064 28065 28066 28067 28068 28069 28070 28071 28072 28073 28074 28075 28076 28077 28078 28079 28080 28081 28082 28083 28084 28085 28086 28087 28088 28089 28090 28091 28092 28093 28094 28095 28096 28097 28098 28099 28100 28101 28102 28103 28104 28105 28106 28107 28108 28109 28110 28111 28112 28113 28114 28115 28116 28117 28118 28119 28120 28121 28122 28123 28124 28125 28126 28127 28128 28129 28130 28131 28132 28133 28134 28135 28136 28137 28138 28139 28140 28141 28142 28143 28144 28145 28146 28147 28148 28149 28150 28151 28152 28153 28154 28155 28156 28157 28158 28159 28160 28161 28162 28163 28164 28165 28166 28167 28168 28169 28170 28171 28172 28173 28174 28175 28176 28177 28178 28179 28180 28181 28182 28183 28184 28185 28186 28187 28188 28189 28190 28191 28192 28193 28194 28195 28196 28197 28198 28199 28200 28201 28202 28203 28204 28205 28206 28207 28208 28209 28210 28211 28212 28213 28214 28215 28216 28217 28218 28219 28220 28221 28222 28223 28224 28225 28226 28227 28228 28229 28230 28231 28232 28233 28234 28235 28236 28237 28238 28239 28240 28241 28242 28243 28244 28245 28246 28247 28248 28249 28250 28251 28252 28253 28254 28255 28256 28257 28258 28259 28260 28261 28262 28263 28264 28265 28266 28267 28268 28269 28270 28271 28272 28273 28274 28275 28276 28277 28278 28279 28280 28281 28282 28283 28284 28285 28286 28287 28288 28289 28290 28291 28292 28293 28294 28295 28296 28297 28298 28299 28300 28301 28302 28303 28304 28305 28306 28307 28308 28309 28310 28311 28312 28313 28314 28315 28316 28317 28318 28319 28320 28321 28322 28323 28324 28325 28326 28327 28328 28329 28330 28331 28332 28333 28334 28335 28336 28337 28338 28339 28340 28341 28342 28343 28344 28345 28346 28347 28348 28349 28350 28351 28352 28353 28354 28355 28356 28357 28358 28359 28360 28361 28362 28363 28364 28365 28366 28367 28368 28369 28370 28371 28372 28373 28374 28375 28376 28377 28378 28379 28380 28381 28382 28383 28384 28385 28386 28387 28388 28389 28390 28391 28392 28393 28394 28395 28396 28397 28398 28399 28400 28401 28402 28403 28404 28405 28406 28407 28408 28409 28410 28411 28412 28413 28414 28415 28416 28417 28418 28419 28420 28421 28422 28423 28424 28425 28426 28427 28428 28429 28430 28431 28432 28433 28434 28435 28436 28437 28438 28439 28440 28441 28442 28443 28444 28445 28446 28447 28448 28449 28450 28451 28452 28453 28454 28455 28456 28457 28458 28459 28460 28461 28462 28463 28464 28465 28466 28467 28468 28469 28470 28471 28472 28473 28474 28475 28476 28477 28478 28479 28480 28481 28482 28483 28484 28485 28486 28487 28488 28489 28490 28491 28492 28493 28494 28495 28496 28497 28498 28499 28500 28501 28502 28503 28504 28505 28506 28507 28508 28509 28510 28511 28512 28513 28514 28515 28516 28517 28518 28519 28520 28521 28522 28523 28524 28525 28526 28527 28528 28529 28530 28531 28532 28533 28534 28535 28536 28537 28538 28539 28540 28541 28542 28543 28544 28545 28546 28547 28548 28549 28550 28551 28552 28553 28554 28555 28556 28557 28558 28559 28560 28561 28562 28563 28564 28565 28566 28567 28568 28569 28570 28571 28572 28573 28574 28575 28576 28577 28578 28579 28580 28581 28582 28583 28584 28585 28586 28587 28588 28589 28590 28591 28592 28593 28594 28595 28596 28597 28598 28599 28600 28601 28602 28603 28604 28605 28606 28607 28608 28609 28610 28611 28612 28613 28614 28615 28616 28617 28618 28619 28620 28621 28622 28623 28624 28625 28626 28627 28628 28629 28630 28631 28632 28633 28634 28635 28636 28637 28638 28639 28640 28641 28642 28643 28644 28645 28646 28647 28648 28649 28650 28651 28652 28653 28654 28655 28656 28657 28658 28659 28660 28661 28662 28663 28664 28665 28666 28667 28668 28669 28670 28671 28672 28673 28674 28675 28676 28677 28678 28679 28680 28681 28682 28683 28684 28685 28686 28687 28688 28689 28690 28691 28692 28693 28694 28695 28696 28697 28698 28699 28700 28701 28702 28703 28704 28705 28706 28707 28708 28709 28710 28711 28712 28713 28714 28715 28716 28717 28718 28719 28720 28721 28722 28723 28724 28725 28726 28727 28728 28729 28730 28731 28732 28733 28734 28735 28736 28737 28738 28739 28740 28741 28742 28743 28744 28745 28746 28747 28748 28749 28750 28751 28752 28753 28754 28755 28756 28757 28758 28759 28760 28761 28762 28763 28764 28765 28766 28767 28768 28769 28770 28771 28772 28773 28774 28775 28776 28777 28778 28779 28780 28781 28782 28783 28784 28785 28786 28787 28788 28789 28790 28791 28792 28793 28794 28795 28796 28797 28798 28799 28800 28801 28802 28803 28804 28805 28806 28807 28808 28809 28810 28811 28812 28813 28814 28815 28816 28817 28818 28819 28820 28821 28822 28823 28824 28825 28826 28827 28828 28829 28830 28831 28832 28833 28834 28835 28836 28837 28838 28839 28840 28841 28842 28843 28844 28845 28846 28847 28848 28849 28850 28851 28852 28853 28854 28855 28856 28857 28858 28859 28860 28861 28862 28863 28864 28865 28866 28867 28868 28869 28870 28871 28872 28873 28874 28875 28876 28877 28878 28879 28880 28881 28882 28883 28884 28885 28886 28887 28888 28889 28890 28891 28892 28893 28894 28895 28896 28897 28898 28899 28900 28901 28902 28903 28904 28905 28906 28907 28908 28909 28910 28911 28912 28913 28914 28915 28916 28917 28918 28919 28920 28921 28922 28923 28924 28925 28926 28927 28928 28929 28930 28931 28932 28933 28934 28935 28936 28937 28938 28939 28940 28941 28942 28943 28944 28945 28946 28947 28948 28949 28950 28951 28952 28953 28954 28955 28956 28957 28958 28959 28960 28961 28962 28963 28964 28965 28966 28967 28968 28969 28970 28971 28972 28973 28974 28975 28976 28977 28978 28979 28980 28981 28982 28983 28984 28985 28986 28987 28988 28989 28990 28991 28992 28993 28994 28995 28996 28997 28998 28999 29000 29001 29002 29003 29004 29005 29006 29007 29008 29009 29010 29011 29012 29013 29014 29015 29016 29017 29018 29019 29020 29021 29022 29023 29024 29025 29026 29027 29028 29029 29030 29031 29032 29033 29034 29035 29036 29037 29038 29039 29040 29041 29042 29043 29044 29045 29046 29047 29048 29049 29050 29051 29052 29053 29054 29055 29056 29057 29058 29059 29060 29061 29062 29063 29064 29065 29066 29067 29068 29069 29070 29071 29072 29073 29074 29075 29076 29077 29078 29079 29080 29081 29082 29083 29084 29085 29086 29087 29088 29089 29090 29091 29092 29093 29094 29095 29096 29097 29098 29099 29100 29101 29102 29103 29104 29105 29106 29107 29108 29109 29110 29111 29112 29113 29114 29115 29116 29117 29118 29119 29120 29121 29122 29123 29124 29125 29126 29127 29128 29129 29130 29131 29132 29133 29134 29135 29136 29137 29138 29139 29140 29141 29142 29143 29144 29145 29146 29147 29148 29149 29150 29151 29152 29153 29154 29155 29156 29157 29158 29159 29160 29161 29162 29163 29164 29165 29166 29167 29168 29169 29170 29171 29172 29173 29174 29175 29176 29177 29178 29179 29180 29181 29182 29183 29184 29185 29186 29187 29188 29189 29190 29191 29192 29193 29194 29195 29196 29197 29198 29199 29200 29201 29202 29203 29204 29205 29206 29207 29208 29209 29210 29211 29212 29213 29214 29215 29216 29217 29218 29219 29220 29221 29222 29223 29224 29225 29226 29227 29228 29229 29230 29231 29232 29233 29234 29235 29236 29237 29238 29239 29240 29241 29242 29243 29244 29245 29246 29247 29248 29249 29250 29251 29252 29253 29254 29255 29256 29257 29258 29259 29260 29261 29262 29263 29264 29265 29266 29267 29268 29269 29270 29271 29272 29273 29274 29275 29276 29277 29278 29279 29280 29281 29282 29283 29284 29285 29286 29287 29288 29289 29290 29291 29292 29293 29294 29295 29296 29297 29298 29299 29300 29301 29302 29303 29304 29305 29306 29307 29308 29309 29310 29311 29312 29313 29314 29315 29316 29317 29318 29319 29320 29321 29322 29323 29324 29325 29326 29327 29328 29329 29330 29331 29332 29333 29334 29335 29336 29337 29338 29339 29340 29341 29342 29343 29344 29345 29346 29347 29348 29349 29350 29351 29352 29353 29354 29355 29356 29357 29358 29359 29360 29361 29362 29363 29364 29365 29366 29367 29368 29369 29370 29371 29372 29373 29374 29375 29376 29377 29378 29379 29380 29381 29382 29383 29384 29385 29386 29387 29388 29389 29390 29391 29392 29393 29394 29395 29396 29397 29398 29399 29400 29401 29402 29403 29404 29405 29406 29407 29408 29409 29410 29411 29412 29413 29414 29415 29416 29417 29418 29419 29420 29421 29422 29423 29424 29425 29426 29427 29428 29429 29430 29431 29432 29433 29434 29435 29436 29437 29438 29439 29440 29441 29442 29443 29444 29445 29446 29447 29448 29449 29450 29451 29452 29453 29454 29455 29456 29457 29458 29459 29460 29461 29462 29463 29464 29465 29466 29467 29468 29469 29470 29471 29472 29473 29474 29475 29476 29477 29478 29479 29480 29481 29482 29483 29484 29485 29486 29487 29488 29489 29490 29491 29492 29493 29494 29495 29496 29497 29498 29499 29500 29501 29502 29503 29504 29505 29506 29507 29508 29509 29510 29511 29512 29513 29514 29515 29516 29517 29518 29519 29520 29521 29522 29523 29524 29525 29526 29527 29528 29529 29530 29531 29532 29533 29534 29535 29536 29537 29538 29539 29540 29541 29542 29543 29544 29545 29546 29547 29548 29549 29550 29551 29552 29553 29554 29555 29556 29557 29558 29559 29560 29561 29562 29563 29564 29565 29566 29567 29568 29569 29570 29571 29572 29573 29574 29575 29576 29577 29578 29579 29580 29581 29582 29583 29584 29585 29586 29587 29588 29589 29590 29591 29592 29593 29594 29595 29596 29597 29598 29599 29600 29601 29602 29603 29604 29605 29606 29607 29608 29609 29610 29611 29612 29613 29614 29615 29616 29617 29618 29619 29620 29621 29622 29623 29624 29625 29626 29627 29628 29629 29630 29631 29632 29633 29634 29635 29636 29637 29638 29639 29640 29641 29642 29643 29644 29645 29646 29647 29648 29649 29650 29651 29652 29653 29654 29655 29656 29657 29658 29659 29660 29661 29662 29663 29664 29665 29666 29667 29668 29669 29670 29671 29672 29673 29674 29675 29676 29677 29678 29679 29680 29681 29682 29683 29684 29685 29686 29687 29688 29689 29690 29691 29692 29693 29694 29695 29696 29697 29698 29699 29700 29701 29702 29703 29704 29705 29706 29707 29708 29709 29710 29711 29712 29713 29714 29715 29716 29717 29718 29719 29720 29721 29722 29723 29724 29725 29726 29727 29728 29729 29730 29731 29732 29733 29734 29735 29736 29737 29738 29739 29740 29741 29742 29743 29744 29745 29746 29747 29748 29749 29750 29751 29752 29753 29754 29755 29756 29757 29758 29759 29760 29761 29762 29763 29764 29765 29766 29767 29768 29769 29770 29771 29772 29773 29774 29775 29776 29777 29778 29779 29780 29781 29782 29783 29784 29785 29786 29787 29788 29789 29790 29791 29792 29793 29794 29795 29796 29797 29798 29799 29800 29801 29802 29803 29804 29805 29806 29807 29808 29809 29810 29811 29812 29813 29814 29815 29816 29817 29818 29819 29820 29821 29822 29823 29824 29825 29826 29827 29828 29829 29830 29831 29832 29833 29834 29835 29836 29837 29838 29839 29840 29841 29842 29843 29844 29845 29846 29847 29848 29849 29850 29851 29852 29853 29854 29855 29856 29857 29858 29859 29860 29861 29862 29863 29864 29865 29866 29867 29868 29869 29870 29871 29872 29873 29874 29875 29876 29877 29878 29879 29880 29881 29882 29883 29884 29885 29886 29887 29888 29889 29890 29891 29892 29893 29894 29895 29896 29897 29898 29899 29900 29901 29902 29903 29904 29905 29906 29907 29908 29909 29910 29911 29912 29913 29914 29915 29916 29917 29918 29919 29920 29921 29922 29923 29924 29925 29926 29927 29928 29929 29930 29931 29932 29933 29934 29935 29936 29937 29938 29939 29940 29941 29942 29943 29944 29945 29946 29947 29948 29949 29950 29951 29952 29953 29954 29955 29956 29957 29958 29959 29960 29961 29962 29963 29964 29965 29966 29967 29968 29969 29970 29971 29972 29973 29974 29975 29976 29977 29978 29979 29980 29981 29982 29983 29984 29985 29986 29987 29988 29989 29990 29991 29992 29993 29994 29995 29996 29997 29998 29999 30000 30001 30002 30003 30004 30005 30006 30007 30008 30009 30010 30011 30012 30013 30014 30015 30016 30017 30018 30019 30020 30021 30022 30023 30024 30025 30026 30027 30028 30029 30030 30031 30032 30033 30034 30035 30036 30037 30038 30039 30040 30041 30042 30043 30044 30045 30046 30047 30048 30049 30050 30051 30052 30053 30054 30055 30056 30057 30058 30059 30060 30061 30062 30063 30064 30065 30066 30067 30068 30069 30070 30071 30072 30073 30074 30075 30076 30077 30078 30079 30080 30081 30082 30083 30084 30085 30086 30087 30088 30089 30090 30091 30092 30093 30094 30095 30096 30097 30098 30099 30100 30101 30102 30103 30104 30105 30106 30107 30108 30109 30110 30111 30112 30113 30114 30115 30116 30117 30118 30119 30120 30121 30122 30123 30124 30125 30126 30127 30128 30129 30130 30131 30132 30133 30134 30135 30136 30137 30138 30139 30140 30141 30142 30143 30144 30145 30146 30147 30148 30149 30150 30151 30152 30153 30154 30155 30156 30157 30158 30159 30160 30161 30162 30163 30164 30165 30166 30167 30168 30169 30170 30171 30172 30173 30174 30175 30176 30177 30178 30179 30180 30181 30182 30183 30184 30185 30186 30187 30188 30189 30190 30191 30192 30193 30194 30195 30196 30197 30198 30199 30200 30201 30202 30203 30204 30205 30206 30207 30208 30209 30210 30211 30212 30213 30214 30215 30216 30217 30218 30219 30220 30221 30222 30223 30224 30225 30226 30227 30228 30229 30230 30231 30232 30233 30234 30235 30236 30237 30238 30239 30240 30241 30242 30243 30244 30245 30246 30247 30248 30249 30250 30251 30252 30253 30254 30255 30256 30257 30258 30259 30260 30261 30262 30263 30264 30265 30266 30267 30268 30269 30270 30271 30272 30273 30274 30275 30276 30277 30278 30279 30280 30281 30282 30283 30284 30285 30286 30287 30288 30289 30290 30291 30292 30293 30294 30295 30296 30297 30298 30299 30300 30301 30302 30303 30304 30305 30306 30307 30308 30309 30310 30311 30312 30313 30314 30315 30316 30317 30318 30319 30320 30321 30322 30323 30324 30325 30326 30327 30328 30329 30330 30331 30332 30333 30334 30335 30336 30337 30338 30339 30340 30341 30342 30343 30344 30345 30346 30347 30348 30349 30350 30351 30352 30353 30354 30355 30356 30357 30358 30359 30360 30361 30362 30363 30364 30365 30366 30367 30368 30369 30370 30371 30372 30373 30374 30375 30376 30377 30378 30379 30380 30381 30382 30383 30384 30385 30386 30387 30388 30389 30390 30391 30392 30393 30394 30395 30396 30397 30398 30399 30400 30401 30402 30403 30404 30405 30406 30407 30408 30409 30410 30411 30412 30413 30414 30415 30416 30417 30418 30419 30420 30421 30422 30423 30424 30425 30426 30427 30428 30429 30430 30431 30432 30433 30434 30435 30436 30437 30438 30439 30440 30441 30442 30443 30444 30445 30446 30447 30448 30449 30450 30451 30452 30453 30454 30455 30456 30457 30458 30459 30460 30461 30462 30463 30464 30465 30466 30467 30468 30469 30470 30471 30472 30473 30474 30475 30476 30477 30478 30479 30480 30481 30482 30483 30484 30485 30486 30487 30488 30489 30490 30491 30492 30493 30494 30495 30496 30497 30498 30499 30500 30501 30502 30503 30504 30505 30506 30507 30508 30509 30510 30511 30512 30513 30514 30515 30516 30517 30518 30519 30520 30521 30522 30523 30524 30525 30526 30527 30528 30529 30530 30531 30532 30533 30534 30535 30536 30537 30538 30539 30540 30541 30542 30543 30544 30545 30546 30547 30548 30549 30550 30551 30552 30553 30554 30555 30556 30557 30558 30559 30560 30561 30562 30563 30564 30565 30566 30567 30568 30569 30570 30571 30572 30573 30574 30575 30576 30577 30578 30579 30580 30581 30582 30583 30584 30585 30586 30587 30588 30589 30590 30591 30592 30593 30594 30595 30596 30597 30598 30599 30600 30601 30602 30603 30604 30605 30606 30607 30608 30609 30610 30611 30612 30613 30614 30615 30616 30617 30618 30619 30620 30621 30622 30623 30624 30625 30626 30627 30628 30629 30630 30631 30632 30633 30634 30635 30636 30637 30638 30639 30640 30641 30642 30643 30644 30645 30646 30647 30648 30649 30650 30651 30652 30653 30654 30655 30656 30657 30658 30659 30660 30661 30662 30663 30664 30665 30666 30667 30668 30669 30670 30671 30672 30673 30674 30675 30676 30677 30678 30679 30680 30681 30682 30683 30684 30685 30686 30687 30688 30689 30690 30691 30692 30693 30694 30695 30696 30697 30698 30699 30700 30701 30702 30703 30704 30705 30706 30707 30708 30709 30710 30711 30712 30713 30714 30715 30716 30717 30718 30719 30720 30721 30722 30723 30724 30725 30726 30727 30728 30729 30730 30731 30732 30733 30734 30735 30736 30737 30738 30739 30740 30741 30742 30743 30744 30745 30746 30747 30748 30749 30750 30751 30752 30753 30754 30755 30756 30757 30758 30759 30760 30761 30762 30763 30764 30765 30766 30767 30768 30769 30770 30771 30772 30773 30774 30775 30776 30777 30778 30779 30780 30781 30782 30783 30784 30785 30786 30787 30788 30789 30790 30791 30792 30793 30794 30795 30796 30797 30798 30799 30800 30801 30802 30803 30804 30805 30806 30807 30808 30809 30810 30811 30812 30813 30814 30815 30816 30817 30818 30819 30820 30821 30822 30823 30824 30825 30826 30827 30828 30829 30830 30831 30832 30833 30834 30835 30836 30837 30838 30839 30840 30841 30842 30843 30844 30845 30846 30847 30848 30849 30850 30851 30852 30853 30854 30855 30856 30857 30858 30859 30860 30861 30862 30863 30864 30865 30866 30867 30868 30869 30870 30871 30872 30873 30874 30875 30876 30877 30878 30879 30880 30881 30882 30883 30884 30885 30886 30887 30888 30889 30890 30891 30892 30893 30894 30895 30896 30897 30898 30899 30900 30901 30902 30903 30904 30905 30906 30907 30908 30909 30910 30911 30912 30913 30914 30915 30916 30917 30918 30919 30920 30921 30922 30923 30924 30925 30926 30927 30928 30929 30930 30931 30932 30933 30934 30935 30936 30937 30938 30939 30940 30941 30942 30943 30944 30945 30946 30947 30948 30949 30950 30951 30952 30953 30954 30955 30956 30957 30958 30959 30960 30961 30962 30963 30964 30965 30966 30967 30968 30969 30970 30971 30972 30973 30974 30975 30976 30977 30978 30979 30980 30981 30982 30983 30984 30985 30986 30987 30988 30989 30990 30991 30992 30993 30994 30995 30996 30997 30998 30999 31000 31001 31002 31003 31004 31005 31006 31007 31008 31009 31010 31011 31012 31013 31014 31015 31016 31017 31018 31019 31020 31021 31022 31023 31024 31025 31026 31027 31028 31029 31030 31031 31032 31033 31034 31035 31036 31037 31038 31039 31040 31041 31042 31043 31044 31045 31046 31047 31048 31049 31050 31051 31052 31053 31054 31055 31056 31057 31058 31059 31060 31061 31062 31063 31064 31065 31066 31067 31068 31069 31070 31071 31072 31073 31074 31075 31076 31077 31078 31079 31080 31081 31082 31083 31084 31085 31086 31087 31088 31089 31090 31091 31092 31093 31094 31095 31096 31097 31098 31099 31100 31101 31102 31103 31104 31105 31106 31107 31108 31109 31110 31111 31112 31113 31114 31115 31116 31117 31118 31119 31120 31121 31122 31123 31124 31125 31126 31127 31128 31129 31130 31131 31132 31133 31134 31135 31136 31137 31138 31139 31140 31141 31142 31143 31144 31145 31146 31147 31148 31149 31150 31151 31152 31153 31154 31155 31156 31157 31158 31159 31160 31161 31162 31163 31164 31165 31166 31167 31168 31169 31170 31171 31172 31173 31174 31175 31176 31177 31178 31179 31180 31181 31182 31183 31184 31185 31186 31187 31188 31189 31190 31191 31192 31193 31194 31195 31196 31197 31198 31199 31200 31201 31202 31203 31204 31205 31206 31207 31208 31209 31210 31211 31212 31213 31214 31215 31216 31217 31218 31219 31220 31221 31222 31223 31224 31225 31226 31227 31228 31229 31230 31231 31232 31233 31234 31235 31236 31237 31238 31239 31240 31241 31242 31243 31244 31245 31246 31247 31248 31249 31250 31251 31252 31253 31254 31255 31256 31257 31258 31259 31260 31261 31262 31263 31264 31265 31266 31267 31268 31269 31270 31271 31272 31273 31274 31275 31276 31277 31278 31279 31280 31281 31282 31283 31284 31285 31286 31287 31288 31289 31290 31291 31292 31293 31294 31295 31296 31297 31298 
</DataArray>
<DataArray type="UInt32" Name="offsets" format="ascii">
2 5 8 11 14 17 20 23 26 29 32 35 38 40 43 45 48 51 54 56 59 61 64 67 70 73 76 79 82 85 88 91 94 96 99 102 104 106 109 112 115 118 121 124 127 130 133 136 139 142 144 147 150 153 156 159 162 165 168 171 174 177 180 182 184 187 189 192 194 196 199 202 205 208 211 213 216 219 222 225 228 231 233 236 238 241 244 247 250 253 256 258 260 263 266 268 271 273 276 279 282 284 287 289 292 295 298 301 304 307 309 312 315 317 320 323 326 329 332 335 338 341 344 347 350 353 356 359 362 364 367 370 373 376 379 382 385 388 391 394 397 400 403 406 408 411 414 417 420 423 426 428 431 434 437 440 443 446 449 451 454 457 459 462 465 468 471 474 477 480 483 486 488 491 494 496 499 502 504 507 510 513 516 519 522 525 528 530 532 535 537 540 543 545 548 551 554 557 560 563 566 569 571 574 577 580 582 585 588 591 594 597 600 603 605 608 610 612 615 617 619 622 625 627 630 633 636 639 642 645 648 651 654 657 659 662 665 668 671 674 677 680 683 685 687 690 693 696 699 702 705 707 710 713 715 718 721 724 726 729 732 735 738 741 744 747 750 753 756 759 762 765 768 771 774 777 780 783 786 789 791 794 797 800 803 806 809 812 815 818 821 824 827 830 833 836 839 842 845 847 850 853 856 859 861 864 867 870 873 876 879 882 885 888 891 894 897 900 903 905 908 911 914 917 920 923 926 929 932 935 938 941 944 947 950 953 956 959 962 965 968 971 974 977 980 983 986 989 992 995 998 1001 1004 1007 1009 1012 1015 1018 1021 1024 1027 1029 1032 1035 1038 1041 1044 1047 1050 1053 1056 1059 1062 1065 1068 1071 1074 1076 1079 1082 1085 1088 1090 1093 1096 1098 1101 1103 1106 1109 1112 1115 1118 1120 1123 1126 1129 1132 1135 1138 1141 1143 1146 1149 1151 1154 1157 1160 1162 1165 1168 1171 1174 1176 1179 1182 1185 1188 1191 1194 1197 1200 1203 1206 1209 1212 1215 1218 1221 1224 1227 1230 1233 1236 1239 1242 1245 1248 1251 1254 1257 1260 1263 1266 1269 1272 1275 1278 1281 1284 1287 1290 1293 1296 1299 1302 1305 1308 1311 1314 1317 1320 1323 1326 1329 1331 1334 1337 1340 1343 1345 1348 1351 1354 1357 1360 1363 1366 1369 1372 1375 1378 1381 1384 1387 1390 1393 1396 1399 1402 1405 1408 1411 1414 1417 1420 1422 1425 1428 1431 1434 1436 1439 1442 1445 1447 1450 1453 1456 1459 1462 1465 1468 1471 1474 1477 1480 1483 1485 1488 1491 1494 1497 1500 1503 1506 1509 1512 1514 1517 1520 1523 1526 1529 1532 1535 1538 1541 1544 1547 1549 1552 1555 1557 1560 1563 1566 1569 1572 1575 1578 1581 1584 1587 1590 1593 1595 1598 1601 1603 1606 1609 1612 1614 1617 1620 1623 1626 1628 1631 1634 1637 1639 1642 1645 1648 1651 1654 1657 1660 1663 1666 1669 1672 1675 1678 1681 1684 1687 1690 1693 1695 1698 1701 1704 1707 1710 1713 1716 1719 1722 1725 1728 1731 1734 1737 1740 1743 1746 1749 1752 1755 1758 1761 1764 1767 1770 1773 1776 1779 1781 1784 1787 1789 1792 1795 1798 1800 1803 1806 1809 1812 1815 1818 1821 1824 1827 1830 1833 1836 1839 1842 1845 1848 1851 1854 1856 1859 1862 1865 1868 1871 1874 1877 1880 1883 1886 1889 1892 1895 1898 1901 1904 1907 1909 1912 1915 1918 1921 1924 1927 1929 1932 1935 1938 1941 1944 1947 1950 1953 1956 1959 1962 1965 1968 1971 1974 1977 1980 1983 1986 1989 1992 1995 1998 2001 2004 2007 2010 2013 2016 2019 2022 2025 2028 2031 2034 2037 2040 2043 2046 2049 2052 2055 2058 2061 2064 2067 2070 2073 2076 2079 2082 2085 2088 2091 2094 2097 2100 2103 2106 2109 2112 2115 2118 2121 2124 2127 2130 2133 2136 2139 2142 2145 2148 2151 2153 2156 2159 2162 2165 2168 2170 2173 2176 2178 2181 2184 2187 2190 2193 2196 2199 2202 2205 2208 2211 2214 2216 2219 2222 2225 2228 2231 2234 2236 2239 2242 2245 2247 2250 2253 2255 2258 2261 2264 2267 2269 2272 2275 2277 2280 2283 2286 2289 2292 2295 2298 2301 2303 2306 2308 2311 2314 2317 2319 2321 2324 2327 2330 2333 2336 2339 2342 2345 2348 2351 2354 2356 2359 2362 2365 2367 2370 2373 2375 2378 2381 2384 2387 2390 2393 2396 2399 2402 2404 2407 2410 2413 2416 2419 2422 2425 2428 2431 2434 2437 2440 2442 2445 2447 2450 2453 2456 2459 2462 2465 2468 2471 2474 2477 2480 2483 2486 2489 2492 2495 2498 2501 2504 2506 2509 2512 2514 2517 2520 2523 2526 2529 2532 2534 2537 2540 2543 2545 2548 2550 2552 2555 2558 2561 2564 2567 2570 2572 2574 2576 2578 2581 2583 2586 2589 2592 2595 2598 2600 2603 2606 2608 2611 2614 2616 2619 2622 2625 2628 2631 2634 2637 2640 2643 2646 2649 2652 2655 2658 2661 2664 2667 2669 2672 2675 2678 2681 2684 2687 2690 2692 2695 2698 2701 2704 2707 2710 2713 2716 2719 2722 2725 2728 2731 2734 2737 2740 2743 2746 2749 2752 2754 2757 2760 2763 2765 2768 2770 2773 2776 2778 2781 2784 2787 2790 2793 2796 2799 2802 2805 2808 2811 2813 2816 2819 2822 2825 2828 2831 2834 2837 2840 2843 2845 2848 2851 2854 2857 2860 2863 2866 2869 2872 2875 2877 2880 2883 2885 2888 2891 2894 2897 2900 2903 2906 2909 2912 2915 2918 2921 2924 2927 2930 2933 2936 2939 2942 2944 2946 2949 2951 2954 2957 2959 2961 2963 2966 2968 2971 2974 2977 2980 2983 2985 2988 2991 2994 2997 3000 3003 3006 3009 3012 3015 3018 3021 3024 3027 3030 3033 3036 3039 3042 3045 3048 3051 3053 3056 3059 3061 3064 3067 3070 3073 3076 3079 3082 3085 3087 3090 3093 3096 3098 3101 3104 3107 3110 3113 3115 3118 3121 3124 3126 3129 3132 3135 3137 3140 3142 3144 3147 3150 3153 3156 3158 3161 3164 3166 3169 3172 3175 3178 3180 3182 3185 3188 3190 3192 3195 3198 3201 3204 3206 3209 3212 3215 3218 3221 3224 3227 3230 3233 3236 3239 3242 3245 3248 3251 3254 3257 3260 3263 3265 3268 3270 3273 3276 3279 3282 3285 3288 3291 3294 3296 3298 3301 3304 3307 3309 3311 3314 3316 3319 3321 3324 3327 3330 3333 3335 3338 3341 3344 3347 3350 3353 3356 3359 3362 3365 3368 3370 3373 3376 3379 3382 3385 3388 3391 3394 3396 3399 3402 3405 3408 3411 3414 3417 3420 3423 3426 3429 3432 3434 3437 3440 3443 3446 3449 3452 3455 3458 3461 3464 3467 3470 3473 3476 3478 3481 3484 3487 3490 3493 3496 3499 3502 3505 3508 3511 3514 3517 3520 3523 3525 3528 3531 3534 3537 3540 3543 3546 3549 3552 3555 3558 3561 3564 3567 3570 3573 3575 3577 3580 3583 3586 3588 3591 3594 3596 3599 3602 3605 3608 3610 3612 3614 3617 3620 3623 3626 3629 3632 3635 3638 3641 3643 3646 3649 3652 3655 3657 3660 3663 3666 3669 3672 3674 3677 3680 3683 3686 3689 3692 3695 3698 3701 3704 3707 3710 3713 3716 3719 3722 3725 3728 3730 3733 3736 3739 3742 3745 3748 3750 3752 3755 3758 3761 3764 3767 3770 3773 3776 3778 3780 3782 3785 3788 3791 3794 3797 3800 3803 3806 3809 3812 3815 3818 3821 3824 3827 3830 3833 3836 3839 3842 3844 3847 3850 3853 3856 3859 3862 3864 3867 3870 3873 3876 3879 3881 3884 3887 3890 3893 3896 3899 3902 3905 3908 3911 3914 3917 3920 3923 3926 3929 3931 3934 3937 3940 3942 3945 3948 3951 3954 3957 3960 3963 3966 3968 3971 3974 3977 3979 3982 3985 3988 3991 3994 3997 4000 4003 4006 4009 4012 4014 4017 4020 4023 4025 4028 4031 4034 4037 4040 4043 4046 4049 4052 4055 4058 4061 4064 4067 4070 4072 4075 4077 4080 4083 4086 4089 4092 4095 4097 4100 4103 4106 4109 4112 4115 4118 4121 4123 4126 4128 4131 4134 4137 4140 4143 4146 4149 4152 4155 4158 4161 4163 4166 4169 4172 4175 4178 4181 4184 4187 4190 4192 4195 4198 4201 4204 4206 4209 4212 4214 4217 4220 4223 4226 4229 4232 4235 4238 4240 4242 4245 4248 4250 4253 4256 4259 4262 4265 4268 4271 4274 4277 4280 4283 4286 4289 4292 4295 4298 4301 4304 4307 4310 4313 4316 4319 4322 4325 4328 4331 4334 4336 4339 4342 4345 4348 4350 4353 4356 4359 4362 4365 4368 4371 4374 4376 4379 4382 4385 4388 4391 4394 4397 4400 4403 4406 4409 4412 4415 4418 4421 4424 4427 4430 4433 4435 4438 4441 4444 4446 4449 4452 4455 4458 4461 4464 4467 4470 4473 4476 4479 4482 4485 4488 4491 4494 4497 4500 4503 4506 4508 4511 4514 4517 4520 4522 4525 4528 4531 4534 4537 4540 4543 4545 4548 4551 4554 4556 4559 4562 4565 4567 4570 4573 4576 4579 4582 4585 4588 4591 4593 4596 4599 4602 4605 4608 4611 4614 4617 4620 4622 4625 4628 4630 4632 4634 4637 4639 4642 4645 4648 4651 4654 4656 4659 4661 4663 4666 4668 4671 4674 4677 4680 4683 4686 4689 4692 4694 4697 4700 4703 4706 4708 4711 4714 4717 4719 4721 4724 4727 4729 4731 4734 4737 4740 4743 4746 4748 4751 4753 4756 4759 4762 4765 4768 4771 4773 4775 4778 4780 4783 4786 4789 4792 4795 4798 4801 4804 4806 4809 4812 4815 4818 4820 4823 4825 4828 4830 4833 4836 4839 4842 4845 4848 4851 4854 4857 4860 4863 4866 4869 4872 4875 4878 4881 4884 4887 4890 4893 4895 4898 4900 4903 4906 4909 4912 4915 4918 4920 4923 4926 4929 4932 4935 4938 4941 4944 4947 4950 4953 4955 4958 4961 4964 4967 4970 4973 4976 4979 4982 4985 4988 4991 4994 4997 5000 5003 5006 5009 5012 5015 5017 5020 5023 5026 5029 5032 5035 5038 5040 5042 5045 5048 5051 5054 5057 5060 5063 5066 5069 5072 5075 5078 5081 5083 5086 5089 5092 5094 5097 5100 5103 5106 5109 5112 5115 5118 5121 5124 5127 5130 5133 5136 5139 5141 5144 5147 5150 5153 5156 5159 5162 5165 5168 5170 5173 5175 5178 5181 5184 5187 5189 5192 5194 5196 5199 5201 5204 5207 5210 5212 5215 5218 5221 5224 5227 5230 5233 5236 5239 5242 5245 5248 5251 5253 5256 5259 5262 5265 5267 5270 5273 5276 5279 5282 5285 5288 5290 5293 5296 5299 5301 5304 5306 5309 5312 5314 5317 5320 5323 5326 5329 5332 5335 5338 5341 5343 5346 5349 5352 5355 5358 5361 5364 5367 5370 5373 5376 5379 5382 5385 5388 5390 5393 5396 5399 5401 5403 5406 5408 5411 5413 5416 5418 5421 5424 5427 5430 5433 5436 5439 5441 5444 5447 5450 5453 5456 5459 5462 5465 5468 5471 5474 5477 5480 5483 5486 5489 5492 5495 5498 5501 5504 5507 5510 5513 5516 5519 5522 5525 5528 5531 5534 5537 5540 5543 5546 5549 5552 5555 5558 5561 5564 5567 5570 5573 5576 5579 5582 5585 5588 5591 5594 5597 5600 5603 5606 5609 5611 5614 5617 5620 5623 5626 5629 5632 5634 5637 5640 5643 5646 5649 5652 5655 5658 5661 5664 5667 5670 5672 5675 5678 5681 5684 5687 5690 5693 5695 5698 5701 5704 5707 5710 5713 5716 5719 5722 5724 5727 5730 5733 5735 5738 5741 5744 5747 5750 5753 5756 5759 5762 5765 5768 5771 5774 5777 5780 5783 5786 5789 5792 5795 5798 5801 5804 5807 5810 5813 5816 5818 5821 5824 5827 5830 5833 5835 5838 5841 5844 5846 5849 5852 5854 5857 5860 5862 5865 5868 5871 5874 5877 5879 5882 5885 5887 5890 5893 5896 5899 5902 5905 5908 5910 5913 5915 5918 5921 5923 5926 5929 5932 5935 5938 5941 5943 5946 5949 5952 5955 5958 5961 5963 5966 5969 5972 5975 5978 5981 5984 5987 5990 5993 5996 5999 6001 6004 6007 6010 6012 6015 6018 6021 6024 6027 6030 6033 6036 6039 6042 6045 6048 6051 6053 6056 6059 6062 6065 6067 6070 6073 6076 6079 6082 6085 6088 6091 6093 6096 6099 6102 6105 6108 6111 6114 6117 6120 6123 6126 6129 6132 6135 6138 6141 6144 6147 6150 6153 6156 6159 6162 6165 6168 6171 6174 6177 6179 6182 6185 6187 6189 6192 6195 6198 6200 6202 6205 6208 6211 6214 6217 6220 6223 6226 6229 6232 6235 6237 6240 6243 6246 6249 6252 6255 6258 6261 6264 6267 6270 6273 6276 6279 6282 6285 6288 6291 6294 6296 6299 6302 6304 6307 6310 6313 6316 6319 6322 6325 6328 6331 6334 6337 6339 6342 6345 6347 6350 6353 6356 6358 6361 6364 6367 6370 6373 6376 6379 6382 6385 6388 6391 6394 6397 6400 6403 6406 6409 6412 6415 6418 6421 6424 6427 6430 6433 6436 6439 6442 6445 6448 6451 6454 6457 6460 6463 6466 6469 6472 6475 6478 6481 6484 6487 6490 6492 6495 6498 6501 6503 6506 6509 6512 6515 6517 6520 6523 6525 6528 6531 6533 6536 6539 6542 6545 6547 6549 6552 6555 6558 6561 6564 6567 6570 6573 6576 6579 6581 6584 6586 6589 6592 6595 6598 6601 6604 6606 6609 6612 6614 6617 6620 6623 6625 6628 6631 6633 6636 6639 6642 6644 6647 6650 6653 6656 6659 6662 6665 6668 6671 6674 6677 6680 6683 6686 6689 6692 6695 6698 6701 6704 6707 6710 6713 6716 6719 6722 6725 6728 6731 6734 6737 6739 6742 6745 6748 6751 6754 6756 6759 6762 6765 6768 6771 6774 6777 6779 6782 6785 6788 6790 6793 6796 6799 6802 6805 6808 6811 6814 6817 6820 6822 6825 6828 6830 6833 6836 6839 6842 6845 6847 6850 6853 6855 6858 6860 6863 6866 6869 6872 6875 6878 6881 6884 6887 6890 6893 6896 6899 6902 6905 6908 6911 6914 6917 6920 6923 6926 6929 6932 6935 6938 6941 6943 6946 6948 6951 6954 6957 6960 6963 6966 6969 6972 6975 6978 6980 6983 6986 6989 6992 6995 6998 7001 7004 7007 7010 7013 7016 7019 7022 7024 7027 7030 7033 7036 7039 7042 7044 7047 7050 7053 7056 7059 7062 7065 7068 7071 7074 7077 7080 7083 7086 7089 7091 7094 7097 7100 7103 7106 7109 7111 7114 7117 7120 7123 7126 7129 7132 7135 7138 7141 7143 7146 7149 7152 7154 7157 7160 7163 7166 7168 7171 7174 7177 7180 7182 7185 7188 7191 7194 7197 7200 7203 7206 7209 7212 7214 7217 7220 7223 7226 7229 7231 7234 7237 7240 7243 7246 7249 7252 7255 7258 7261 7264 7267 7269 7272 7275 7277 7280 7283 7286 7289 7292 7295 7298 7301 7304 7307 7310 7313 7316 7319 7322 7325 7328 7331 7334 7337 7340 7343 7346 7349 7352 7355 7358 7361 7364 7367 7370 7373 7376 7379 7382 7385 7388 7391 7394 7397 7400 7403 7406 7409 7412 7415 7418 7421 7424 7427 7429 7431 7434 7437 7440 7443 7446 7449 7452 7455 7458 7461 7464 7467 7470 7473 7475 7478 7481 7484 7487 7490 7493 7495 7498 7501 7504 7507 7510 7513 7515 7518 7521 7524 7527 7530 7533 7536 7539 7542 7545 7548 7550 7553 7556 7559 7562 7564 7567 7570 7573 7575 7577 7580 7583 7585 7588 7591 7593 7596 7599 7602 7605 7607 7610 7613 7616 7619 7622 7624 7627 7629 7632 7635 7637 7640 7643 7645 7648 7651 7654 7657 7660 7663 7666 7669 7672 7675 7677 7680 7683 7686 7689 7692 7694 7697 7700 7702 7705 7707 7709 7712 7715 7718 7721 7723 7726 7729 7732 7735 7738 7740 7742 7745 7748 7751 7754 7757 7760 7762 7765 7768 7770 7773 7775 7778 7781 7783 7786 7789 7792 7795 7797 7799 7802 7805 7808 7811 7814 7817 7820 7823 7826 7829 7832 7835 7838 7841 7844 7847 7850 7853 7856 7859 7862 7865 7868 7871 7874 7877 7880 7883 7886 7889 7892 7895 7897 7899 7902 7904 7907 7910 7913 7916 7919 7922 7924 7927 7930 7933 7936 7939 7941 7944 7947 7950 7953 7956 7959 7962 7965 7967 7970 7973 7976 7978 7981 7984 7987 7990 7993 7996 7999 8002 8005 8008 8010 8013 8016 8018 8021 8024 8027 8030 8033 8036 8039 8042 8045 8047 8050 8053 8056 8059 8061 8064 8067 8070 8073 8076 8079 8081 8084 8087 8090 8093 8096 8099 8102 8104 8107 8110 8113 8116 8119 8122 8125 8128 8131 8134 8137 8140 8143 8146 8149 8152 8155 8158 8161 8164 8167 8170 8173 8176 8179 8181 8184 8187 8190 8193 8195 8198 8200 8203 8206 8209 8212 8215 8218 8220 8223 8226 8228 8231 8234 8237 8240 8243 8246 8249 8252 8255 8258 8260 8263 8266 8269 8272 8275 8278 8281 8284 8286 8289 8292 8295 8298 8300 8303 8306 8309 8312 8315 8318 8321 8324 8327 8329 8332 8335 8337 8340 8343 8346 8349 8352 8354 8356 8359 8362 8365 8368 8371 8374 8377 8380 8383 8386 8389 8392 8395 8397 8400 8402 8404 8407 8410 8413 8416 8419 8422 8425 8428 8431 8434 8437 8440 8443 8445 8448 8451 8454 8456 8458 8461 8464 8467 8470 8473 8476 8479 8482 8485 8487 8490 8493 8496 8499 8502 8505 8508 8511 8513 8516 8518 8521 8523 8525 8528 8531 8533 8535 8538 8541 8544 8547 8550 8553 8556 8559 8562 8565 8567 8570 8572 8575 8578 8581 8583 8586 8588 8590 8592 8595 8598 8600 8603 8606 8609 8612 8615 8618 8621 8624 8627 8629 8632 8635 8638 8641 8644 8647 8650 8653 8656 8659 8662 8665 8668 8671 8674 8676 8679 8682 8685 8688 8690 8692 8694 8697 8700 8703 8706 8708 8711 8714 8717 8720 8723 8726 8728 8731 8734 8737 8740 8743 8746 8749 8752 8755 8758 8761 8764 8767 8770 8773 8776 8779 8782 8785 8788 8791 8794 8797 8800 8803 8806 8809 8812 8815 8817 8820 8823 8826 8829 8832 8835 8838 8841 8844 8847 8850 8853 8855 8858 8861 8864 8867 8870 8873 8875 8878 8881 8884 8887 8890 8893 8895 8898 8901 8904 8907 8910 8913 8916 8919 8922 8925 8927 8930 8933 8936 8938 8941 8943 8946 8949 8952 8955 8958 8961 8964 8967 8970 8973 8976 8979 8982 8985 8988 8991 8994 8997 9000 9003 9006 9009 9012 9014 9016 9019 9022 9025 9028 9031 9034 9036 9039 9042 9045 9048 9051 9054 9057 9060 9063 9066 9069 9072 9075 9078 9081 9084 9087 9090 9093 9096 9099 9102 9105 9108 9111 9114 9117 9120 9123 9126 9129 9132 9135 9137 9140 9143 9145 9147 9150 9153 9155 9158 9161 9164 9167 9170 9173 9176 9179 9181 9184 9187 9190 9193 9196 9199 9202 9205 9208 9211 9214 9217 9220 9223 9226 9228 9231 9234 9237 9240 9243 9246 9249 9252 9255 9258 9261 9264 9267 9270 9272 9275 9278 9281 9284 9286 9289 9291 9293 9296 9299 9301 9304 9307 9309 9312 9315 9318 9321 9323 9326 9329 9332 9335 9338 9340 9343 9346 9348 9351 9354 9357 9360 9363 9366 9369 9372 9375 9377 9380 9383 9386 9388 9391 9394 9397 9400 9403 9406 9409 9412 9415 9418 9421 9424 9427 9430 9433 9436 9439 9442 9445 9448 9451 9454 9457 9460 9463 9466 9469 9472 9475 9478 9481 9484 9487 9490 9492 9495 9498 9500 9503 9506 9509 9512 9515 9518 9521 9524 9526 9529 9532 9535 9538 9541 9544 9547 9550 9553 9555 9558 9561 9564 9567 9569 9572 9575 9578 9581 9584 9587 9590 9593 9596 9599 9602 9605 9608 9611 9614 9617 9620 9623 9626 9629 9631 9634 9636 9639 9642 9645 9648 9651 9653 9656 9659 9662 9665 9668 9671 9674 9677 9680 9682 9685 9688 9691 9694 9697 9700 9703 9706 9709 9712 9715 9718 9721 9724 9726 9729 9732 9735 9738 9740 9743 9746 9749 9751 9754 9757 9760 9763 9766 9769 9772 9774 9777 9780 9783 9785 9788 9791 9794 9796 9799 9801 9804 9807 9810 9813 9816 9819 9822 9825 9827 9830 9833 9835 9838 9841 9844 9846 9849 9851 9854 9857 9860 9862 9865 9868 9871 9873 9876 9879 9881 9884 9886 9889 9892 9894 9897 9900 9902 9905 9908 9911 9914 9917 9920 9923 9926 9929 9932 9935 9938 9941 9944 9947 9950 9953 9956 9958 9961 9964 9967 9970 9973 9975 9978 9981 9983 9986 9989 9992 9995 9998 10000 10003 10006 10009 10012 10015 10017 10020 10023 10026 10029 10032 10035 10038 10041 10043 10046 10049 10051 10054 10056 10059 10062 10065 10067 10070 10073 10076 10079 10082 10085 10087 10090 10093 10095 10098 10101 10104 10107 10109 10112 10115 10118 10120 10122 10125 10128 10131 10134 10137 10140 10142 10144 10147 10150 10153 10156 10158 10161 10164 10167 10169 10172 10175 10178 10181 10184 10187 10190 10193 10196 10199 10202 10205 10208 10211 10214 10217 10220 10223 10226 10229 10232 10235 10238 10241 10244 10247 10250 10253 10256 10259 10262 10265 10268 10271 10274 10277 10280 10283 10286 10289 10292 10295 10298 10301 10304 10307 10310 10313 10316 10319 10322 10325 10328 10331 10334 10337 10340 10343 10346 10349 10352 10355 10358 10361 10364 10366 10369 10372 10375 10377 10380 10383 10386 10389 10392 10395 10398 10401 10404 10407 10410 10412 10415 10417 10420 10423 10426 10429 10432 10435 10438 10440 10443 10446 10449 10452 10455 10458 10461 10464 10467 10470 10473 10476 10479 10482 10485 10488 10490 10493 10496 10498 10501 10504 10507 10509 10512 10515 10518 10521 10524 10526 10529 10532 10535 10538 10541 10544 10547 10550 10553 10556 10558 10561 10563 10566 10569 10572 10575 10578 10581 10584 10587 10590 10593 10596 10599 10602 10605 10608 10611 10614 10616 10619 10622 10625 10628 10631 10634 10637 10640 10643 10646 10649 10652 10654 10657 10660 10663 10666 10668 10671 10674 10676 10679 10681 10684 10687 10690 10692 10695 10698 10701 10704 10707 10710 10712 10715 10718 10721 10724 10727 10730 10733 10736 10739 10742 10745 10748 10750 10753 10756 10759 10762 10765 10768 10771 10774 10777 10780 10783 10786 10789 10792 10795 10798 10800 10803 10806 10809 10812 10815 10817 10819 10822 10825 10827 10830 10833 10836 10839 10842 10845 10848 10851 10854 10857 10860 10863 10866 10869 10872 10875 10878 10881 10884 10886 10889 10892 10895 10898 10901 10904 10907 10910 10913 10916 10918 10921 10924 10927 10930 10933 10936 10938 10941 10944 10946 10949 10952 10955 10958 10961 10964 10967 10970 10973 10976 10979 10982 10985 10988 10991 10994 10997 11000 11003 11006 11008 11011 11014 11017 11020 11023 11026 11028 11031 11034 11037 11040 11043 11045 11048 11051 11053 11056 11058 11061 11063 11066 11068 11071 11074 11077 11080 11082 11085 11088 11091 11094 11097 11099 11102 11105 11108 11111 11113 11116 11119 11122 11125 11128 11130 11133 11136 11138 11141 11144 11147 11150 11152 11155 11158 11161 11164 11166 11169 11172 11175 11178 11181 11184 11187 11190 11193 11196 11199 11202 11205 11208 11211 11214 11217 11220 11223 11226 11229 11231 11234 11237 11240 11243 11246 11249 11252 11255 11257 11260 11263 11266 11268 11271 11274 11277 11280 11283 11285 11288 11291 11294 11297 11300 11302 11305 11308 11311 11314 11317 11320 11322 11325 11328 11331 11334 11337 11340 11343 11346 11349 11352 11355 11358 11361 11364 11367 11370 11373 11376 11379 11382 11385 11388 11391 11393 11395 11398 11401 11404 11407 11410 11413 11415 11418 11421 11424 11427 11429 11432 11435 11438 11440 11443 11446 11449 11452 11455 11457 11459 11462 11465 11468 11470 11473 11476 11478 11481 11484 11487 11490 11493 11496 11499 11502 11505 11508 11510 11512 11515 11518 11521 11524 11527 11530 11533 11536 11539 11542 11545 11548 11551 11554 11557 11560 11563 11566 11569 11572 11575 11578 11580 11583 11585 11588 11591 11594 11597 11599 11602 11605 11608 11611 11614 11617 11620 11623 11626 11628 11631 11634 11636 11639 11642 11645 11648 11651 11654 11657 11660 11663 11666 11669 11672 11675 11678 11681 11684 11687 11690 11693 11696 11699 11702 11705 11708 11711 11714 11717 11720 11723 11726 11729 11731 11734 11737 11740 11742 11745 11748 11751 11754 11756 11759 11762 11765 11768 11770 11773 11776 11779 11782 11785 11788 11791 11794 11797 11800 11803 11806 11809 11812 11815 11817 11820 11823 11826 11829 11832 11835 11838 11841 11844 11847 11850 11853 11856 11859 11862 11865 11868 11871 11874 11877 11880 11882 11885 11888 11890 11893 11896 11899 11901 11904 11906 11909 11912 11915 11918 11921 11923 11926 11929 11932 11935 11938 11941 11944 11947 11950 11953 11956 11959 11962 11965 11968 11971 11974 11977 11980 11982 11985 11987 11990 11992 11995 11998 12001 12004 12007 12010 12013 12016 12019 12021 12024 12027 12029 12032 12035 12038 12041 12044 12047 12050 12053 12056 12059 12062 12065 12068 12071 12074 12077 12080 12083 12086 12089 12092 12095 12098 12101 12104 12107 12110 12113 12116 12119 12122 12125 12128 12131 12134 12137 12140 12143 12146 12148 12151 12154 12157 12160 12163 12166 12169 12172 12175 12177 12179 12182 12185 12188 12191 12194 12197 12200 12203 12206 12209 12212 12215 12218 12221 12224 12227 12230 12233 12235 12238 12241 12244 12247 12250 12253 12256 12259 12262 12265 12268 12271 12274 12277 12280 12283 12286 12289 12292 12295 12298 12301 12304 12307 12310 12313 12316 12319 12322 12325 12328 12331 12334 12337 12340 12343 12346 12349 12352 12355 12358 12361 12364 12367 12370 12373 12376 12378 12381 12383 12386 12388 12391 12394 12397 12399 12402 12405 12407 12410 12412 12415 12418 12421 12424 12427 12429 12432 12435 12438 12440 12443 12445 12448 12451 12454 12456 12459 12461 12464 12467 12470 12473 12475 12478 12481 12484 12487 12490 12493 12496 12498 12501 12504 12507 12510 12513 12515 12518 12521 12523 12526 12529 12532 12535 12538 12541 12544 12547 12550 12553 12556 12559 12562 12565 12568 12571 12574 12577 12580 12583 12586 12589 12592 12595 12598 12601 12604 12607 12610 12613 12616 12618 12621 12624 12627 12630 12633 12636 12639 12642 12645 12648 12651 12654 12657 12660 12663 12666 12669 12672 12675 12678 12681 12684 12687 12690 12693 12696 12699 12702 12704 12707 12710 12713 12715 12718 12721 12724 12727 12730 12733 12736 12739 12742 12745 12748 12751 12754 12757 12760 12763 12766 12769 12772 12775 12778 12781 12784 12786 12789 12792 12795 12798 12801 12804 12807 12810 12813 12816 12819 12821 12824 12827 12830 12833 12836 12838 12841 12844 12847 12850 12853 12856 12859 12861 12864 12867 12870 12873 12876 12879 12881 12884 12887 12890 12893 12895 12897 12900 12902 12905 12908 12911 12914 12917 12919 12922 12925 12928 12931 12934 12937 12940 12942 12945 12948 12951 12954 12956 12959 12962 12965 12968 12971 12974 12977 12980 12982 12985 12988 12991 12994 12997 13000 13002 13005 13008 13011 13014 13017 13020 13023 13025 13028 13031 13034 13037 13040 13042 13045 13048 13051 13054 13057 13060 13063 13066 13069 13072 13075 13078 13080 13083 13086 13089 13092 13095 13098 13101 13104 13106 13109 13112 13115 13118 13121 13124 13127 13129 13132 13135 13138 13141 13143 13146 13149 13152 13155 13158 13161 13164 13166 13169 13172 13174 13177 13180 13183 13186 13189 13191 13194 13197 13200 13202 13204 13207 13210 13213 13216 13219 13221 13224 13227 13230 13233 13236 13239 13242 13245 13247 13250 13253 13255 13258 13261 13264 13267 13270 13273 13276 13279 13282 13285 13288 13290 13293 13295 13298 13301 13304 13307 13309 13312 13315 13318 13321 13324 13327 13330 13333 13336 13338 13341 13344 13347 13350 13352 13355 13358 13361 13364 13366 13369 13372 13375 13378 13380 13383 13386 13389 13392 13395 13398 13401 13404 13407 13410 13413 13416 13419 13422 13425 13428 13431 13434 13437 13440 13443 13446 13448 13451 13454 13457 13460 13463 13465 13468 13471 13474 13476 13479 13482 13484 13487 13490 13493 13496 13499 13502 13505 13508 13511 13514 13517 13520 13523 13525 13528 13531 13533 13536 13539 13542 13544 13547 13550 13552 13555 13557 13560 13563 13566 13568 13571 13574 13577 13580 13582 13585 13588 13591 13594 13597 13600 13602 13605 13608 13611 13614 13617 13620 13623 13626 13629 13632 13634 13637 13640 13642 13645 13647 13649 13652 13654 13656 13659 13662 13665 13667 13670 13673 13676 13679 13682 13685 13688 13691 13694 13697 13700 13703 13706 13709 13712 13715 13718 13721 13724 13726 13729 13732 13735 13738 13741 13744 13747 13750 13753 13756 13759 13762 13764 13767 13770 13773 13775 13778 13781 13784 13787 13790 13793 13796 13799 13802 13805 13808 13811 13814 13817 13820 13823 13826 13829 13832 13835 13838 13841 13844 13847 13850 13853 13856 13859 13862 13865 13868 13871 13874 13877 13880 13883 13886 13889 13892 13895 13898 13901 13904 13907 13910 13912 13915 13918 13920 13923 13926 13929 13931 13934 13936 13939 13942 13945 13948 13951 13954 13957 13960 13963 13966 13969 13972 13975 13978 13981 13984 13986 13989 13991 13994 13997 14000 14003 14006 14009 14012 14015 14018 14021 14024 14026 14029 14031 14034 14036 14039 14041 14044 14046 14048 14051 14054 14057 14060 14062 14065 14068 14071 14074 14076 14079 14081 14083 14086 14088 14091 14093 14096 14099 14102 14105 14108 14111 14114 14117 14120 14123 14126 14129 14132 14135 14138 14140 14143 14146 14148 14151 14154 14156 14159 14162 14165 14167 14170 14173 14176 14178 14181 14184 14187 14190 14193 14196 14199 14202 14205 14208 14211 14214 14217 14220 14223 14226 14229 14232 14235 14237 14240 14243 14246 14249 14252 14255 14258 14261 14264 14267 14270 14273 14276 14279 14282 14285 14287 14290 14293 14296 14299 14301 14303 14306 14309 14312 14315 14318 14321 14324 14326 14328 14331 14334 14337 14340 14343 14346 14349 14352 14355 14358 14361 14364 14367 14370 14373 14376 14379 14382 14385 14387 14390 14393 14396 14398 14401 14404 14407 14410 14412 14415 14418 14420 14423 14426 14428 14431 14434 14437 14440 14443 14446 14449 14452 14454 14457 14460 14463 14466 14469 14472 14475 14478 14481 14483 14486 14489 14492 14494 14497 14500 14503 14506 14509 14512 14515 14518 14521 14524 14527 14530 14533 14536 14539 14542 14545 14548 14551 14554 14557 14560 14563 14566 14569 14572 14575 14578 14580 14582 14585 14588 14591 14594 14597 14600 14602 14605 14608 14611 14614 14617 14619 14622 14625 14628 14631 14633 14636 14639 14642 14644 14647 14650 14653 14656 14659 14661 14664 14667 14670 14672 14675 14678 14681 14684 14687 14690 14693 14696 14699 14702 14705 14708 14711 14714 14717 14720 14723 14725 14728 14731 14734 14736 14739 14742 14745 14748 14751 14754 14757 14760 14763 14765 14768 14771 14774 14776 14779 14782 14785 14788 14791 14794 14796 14799 14802 14805 14808 14811 14814 14817 14820 14823 14825 14828 14831 14834 14837 14839 14842 14845 14848 14851 14854 14856 14859 14862 14864 14867 14870 14873 14876 14879 14882 14885 14888 14891 14894 14897 14900 14903 14906 14909 14912 14915 14918 14921 14924 14926 14929 14932 14935 14938 14941 14944 14947 14950 14953 14955 14958 14961 14963 14966 14969 14972 14974 14977 14980 14983 14986 14989 14992 14995 14998 15000 15003 15006 15009 15012 15015 15017 15020 15023 15026 15029 15032 15034 15037 15039 15042 15045 15048 15051 15053 15056 15059 15061 15064 15066 15069 15071 15074 15077 15080 15083 15086 15088 15091 15093 15095 15098 15101 15103 15106 15109 15112 15114 15117 15120 15123 15126 15129 15132 15135 15137 15139 15142 15145 15148 15151 15154 15157 15160 15162 15165 15168 15171 15173 15176 15179 15182 15185 15188 15191 15194 15197 15199 15202 15205 15207 15210 15213 15216 15219 15222 15225 15227 15230 15233 15236 15239 15242 15245 15248 15251 15253 15256 15258 15261 15263 15266 15269 15271 15273 15276 15279 15281 15284 15286 15288 15291 15294 15297 15299 15302 15304 15307 15310 15313 15315 15317 15319 15322 15325 15327 15329 15332 15334 15337 15339 15342 15345 15348 15350 15353 15356 15359 15362 15365 15367 15370 15373 15376 15378 15381 15384 15386 15388 15391 15394 15397 15400 15403 15406 15408 15411 15414 15417 15420 15422 15425 15428 15431 15434 15437 15440 15443 15446 15449 15452 15454 15457 15459 15461 15464 15467 15469 15472 15474 15476 15479 15482 15484 15487 15489 15491 15494 15497 15500 15503 15506 15509 15512 15514 15517 15520 15523 15525 15528 15531 15534 15537 15540 15543 15546 15549 15552 15555 15558 15560 15563 15566 15568 15571 15574 15577 15580 15583 15585 15588 15591 15594 15596 15599 15602 15604 15607 15610 15613 15615 15618 15621 15624 15627 15630 15632 15635 15638 15641 15644 15646 15648 15651 15653 15656 15658 15661 15663 15665 15668 15671 15674 15677 15680 15682 15684 15687 15689 15691 15694 15696 15699 15702 15705 15707 15709 15712 15714 15717 15720 15722 15725 15728 15731 15734 15736 15739 15741 15744 15747 15750 15752 15755 15758 15760 15763 15766 15769 15772 15774 15777 15780 15783 15786 15788 15791 15794 15797 15800 15803 15806 15809 15812 15815 15818 15821 15824 15826 15829 15832 15835 15838 15841 15844 15847 15850 15853 15855 15858 15861 15864 15866 15869 15872 15875 15878 15881 15884 15887 15890 15893 15896 15899 15902 15905 15908 15911 15914 15917 15920 15923 15926 15929 15932 15935 15938 15941 15944 15947 15950 15953 15956 15959 15962 15965 15968 15971 15974 15977 15980 15983 15986 15989 15992 15995 15998 16001 16004 16007 16010 16013 16016 16019 16022 16025 16028 16031 16034 16037 16040 16043 16045 16048 16051 16054 16057 16060 16063 16066 16069 16071 16074 16077 16080 16083 16086 16089 16091 16094 16097 16100 16102 16105 16108 16111 16114 16117 16120 16123 16125 16128 16131 16134 16137 16140 16142 16144 16147 16150 16153 16155 16158 16160 16163 16165 16168 16171 16174 16177 16180 16183 16185 16187 16190 16193 16196 16199 16202 16205 16207 16210 16213 16216 16219 16222 16225 16228 16231 16233 16235 16238 16241 16244 16246 16248 16251 16254 16257 16260 16263 16265 16268 16271 16274 16277 16280 16283 16286 16289 16292 16294 16297 16300 16303 16305 16308 16311 16314 16317 16320 16322 16325 16328 16331 16334 16337 16340 16343 16346 16349 16352 16355 16358 16361 16364 16367 16369 16372 16375 16378 16380 16383 16385 16388 16391 16394 16397 16400 16403 16406 16409 16412 16415 16418 16421 16424 16427 16430 16433 16436 16439 16442 16445 16448 16451 16454 16457 16459 16462 16464 16467 16470 16473 16476 16479 16482 16485 16487 16490 16493 16496 16499 16502 16505 16508 16510 16513 16515 16518 16521 16524 16527 16530 16533 16536 16539 16542 16545 16548 16551 16554 16556 16559 16562 16564 16566 16569 16572 16575 16578 16581 16584 16587 16590 16593 16596 16599 16602 16605 16608 16610 16613 16616 16619 16622 16625 16627 16630 16632 16635 16638 16641 16644 16647 16650 16653 16656 16659 16662 16665 16668 16671 16674 16677 16680 16683 16686 16689 16692 16694 16696 16699 16702 16705 16708 16711 16714 16717 16720 16723 16726 16729 16732 16735 16737 16740 16743 16746 16749 16752 16755 16758 16761 16764 16767 16770 16773 16776 16779 16782 16785 16788 16791 16794 16797 16800 16803 16806 16809 16812 16815 16818 16821 16824 16827 16830 16833 16836 16839 16842 16845 16848 16851 16854 16856 16859 16862 16864 16867 16870 16873 16876 16879 16882 16885 16888 16891 16894 16897 16899 16902 16905 16908 16911 16914 16917 16920 16923 16926 16928 16931 16934 16936 16939 16942 16945 16948 16951 16954 16956 16959 16962 16965 16968 16971 16974 16977 16980 16983 16986 16989 16992 16995 16998 17001 17004 17007 17010 17013 17016 17019 17022 17025 17028 17031 17034 17037 17040 17043 17046 17049 17052 17055 17058 17061 17063 17065 17068 17071 17074 17077 17080 17082 17085 17088 17091 17094 17097 17100 17103 17106 17109 17112 17115 17118 17121 17123 17126 17129 17132 17135 17138 17141 17144 17147 17149 17152 17155 17158 17161 17164 17167 17170 17173 17176 17179 17182 17185 17188 17191 17194 17197 17200 17203 17206 17209 17212 17215 17218 17221 17224 17227 17230 17233 17236 17239 17242 17245 17248 17251 17254 17257 17260 17263 17266 17269 17272 17275 17278 17281 17284 17287 17290 17293 17296 17299 17302 17305 17308 17311 17314 17317 17320 17323 17326 17329 17332 17335 17338 17341 17344 17347 17350 17353 17355 17357 17360 17363 17366 17369 17372 17375 17378 17381 17384 17387 17390 17393 17396 17399 17402 17405 17407 17410 17413 17415 17418 17420 17423 17425 17428 17431 17433 17436 17439 17442 17445 17448 17451 17454 17456 17459 17462 17465 17468 17471 17474 17477 17480 17483 17486 17489 17492 17494 17497 17500 17503 17506 17509 17512 17515 17518 17521 17524 17527 17530 17533 17536 17538 17541 17544 17547 17550 17553 17556 17559 17562 17565 17568 17571 17574 17577 17580 17583 17586 17589 17592 17595 17598 17601 17604 17607 17610 17613 17616 17619 17622 17625 17628 17631 17634 17637 17640 17643 17646 17649 17652 17655 17658 17661 17664 17667 17670 17673 17676 17679 17682 17685 17688 17691 17694 17697 17700 17703 17706 17709 17712 17715 17718 17721 17724 17727 17730 17733 17736 17739 17742 17745 17748 17751 17754 17757 17760 17763 17766 17769 17772 17775 17778 17781 17784 17787 17790 17793 17796 17799 17802 17805 17808 17810 17813 17815 17818 17821 17824 17827 17830 17833 17836 17839 17842 17845 17848 17851 17854 17857 17860 17863 17865 17867 17870 17873 17876 17879 17882 17885 17888 17891 17894 17897 17900 17903 17906 17909 17912 17915 17918 17921 17924 17927 17930 17933 17936 17939 17942 17945 17948 17951 17954 17957 17960 17963 17966 17969 17972 17975 17978 17981 17984 17986 17989 17992 17995 17998 18000 18003 18006 18009 18012 18015 18018 18021 18024 18027 18029 18032 18034 18037 18040 18043 18046 18049 18052 18055 18057 18060 18063 18066 18069 18072 18075 18078 18081 18084 18087 18090 18093 18096 18099 18101 18104 18107 18110 18113 18115 18118 18121 18124 18127 18130 18133 18136 18139 18142 18145 18148 18151 18154 18156 18159 18162 18165 18167 18170 18173 18176 18179 18182 18185 18188 18191 18194 18197 18200 18203 18206 18209 18212 18215 18218 18221 18224 18227 18230 18233 18236 18238 18241 18244 18247 18250 18252 18255 18258 18261 18264 18267 18270 18272 18275 18278 18281 18284 18286 18289 18292 18295 18298 18301 18304 18306 18309 18312 18315 18318 18321 18323 18326 18329 18331 18333 18336 18339 18342 18345 18347 18350 18353 18356 18359 18362 18365 18368 18371 18374 18376 18379 18382 18384 18387 18390 18393 18396 18399 18402 18405 18408 18411 18414 18417 18420 18423 18426 18428 18431 18434 18437 18440 18443 18445 18448 18451 18454 18457 18459 18462 18465 18468 18471 18474 18477 18480 18483 18486 18489 18492 18495 18498 18501 18503 18506 18509 18512 18515 18518 18520 18523 18526 18529 18532 18535 18538 18540 18543 18546 18549 18552 18555 18558 18561 18564 18567 18570 18573 18576 18579 18581 18584 18587 18590 18593 18596 18599 18601 18604 18607 18609 18612 18615 18618 18621 18624 18627 18630 18633 18636 18639 18642 18644 18647 18650 18653 18656 18659 18662 18665 18668 18671 18674 18677 18679 18682 18684 18687 18690 18693 18696 18699 18701 18703 18706 18709 18711 18713 18716 18719 18721 18724 18727 18730 18733 18735 18738 18741 18744 18747 18750 18753 18755 18758 18761 18763 18766 18769 18772 18775 18778 18781 18784 18786 18789 18792 18795 18798 18801 18804 18806 18809 18812 18815 18818 18821 18824 18827 18830 18833 18836 18839 18842 18845 18848 18851 18854 18857 18859 18862 18865 18868 18870 18873 18876 18879 18882 18885 18888 18891 18894 18897 18900 18903 18906 18909 18912 18915 18918 18921 18924 18927 18930 18933 18935 18938 18941 18944 18947 18949 18952 18954 18957 18960 18962 18965 18968 18970 18973 18976 18979 18982 18985 18987 18990 18993 18996 18998 19001 19004 19006 19009 19012 19015 19018 19020 19023 19026 19029 19032 19034 19037 19040 19043 19046 19049 19052 19055 19058 19061 19064 19067 19070 19073 19076 19079 19082 19085 19088 19091 19093 19096 19099 19102 19105 19108 19111 19113 19116 19119 19122 19125 19128 19130 19133 19136 19139 19141 19144 19147 19149 19152 19155 19158 19161 19164 19167 19170 19173 19176 19179 19182 19185 19188 19190 19193 19195 19198 19201 19204 19207 19210 19213 19216 19219 19222 19225 19228 19231 19234 19237 19240 19243 19245 19248 19251 19254 19256 19259 19262 19265 19268 19271 19274 19277 19280 19283 19286 19289 19292 19295 19298 19301 19304 19307 19310 19313 19316 19319 19322 19325 19328 19331 19334 19337 19340 19343 19346 19348 19351 19354 19356 19359 19362 19365 19368 19371 19374 19377 19380 19383 19386 19389 19392 19395 19398 19400 19403 19406 19409 19412 19415 19417 19420 19423 19426 19429 19432 19435 19438 19441 19444 19446 19449 19452 19455 19458 19461 19464 19467 19470 19473 19476 19479 19482 19485 19488 19491 19494 19497 19500 19503 19506 19509 19511 19514 19516 19519 19521 19524 19527 19530 19533 19536 19539 19542 19545 19548 19550 19553 19556 19559 19562 19565 19568 19571 19574 19577 19580 19583 19586 19589 19592 19595 19598 19600 19602 19605 19608 19611 19614 19617 19620 19623 19625 19628 19631 19634 19637 19640 19643 19646 19649 19652 19655 19658 19661 19664 19667 19670 19673 19676 19678 19680 19683 19686 19689 19692 19695 19698 19701 19704 19707 19710 19713 19716 19719 19722 19725 19728 19731 19734 19737 19740 19743 19746 19749 19752 19755 19758 19761 19764 19767 19770 19773 19776 19779 19782 19785 19788 19791 19794 19797 19800 19803 19806 19808 19811 19814 19817 19820 19823 19826 19829 19832 19835 19838 19841 19844 19847 19850 19853 19856 19859 19862 19865 19867 19870 19873 19876 19879 19882 19885 19888 19891 19893 19896 19899 19902 19905 19908 19911 19913 19915 19918 19920 19923 19926 19928 19931 19934 19937 19939 19942 19944 19947 19950 19952 19955 19958 19960 19963 19966 19969 19972 19975 19978 19981 19984 19987 19990 19993 19995 19998 20001 20004 20007 20009 20012 20015 20018 20021 20024 20027 20030 20033 20036 20039 20041 20044 20047 20049 20052 20055 20058 20061 20064 20067 20070 20073 20076 20079 20082 20085 20088 20091 20094 20097 20100 20103 20106 20109 20112 20114 20117 20120 20122 20125 20128 20131 20134 20137 20140 20143 20146 20148 20150 20153 20156 20159 20162 20165 20167 20170 20173 20176 20178 20181 20184 20187 20190 20192 20195 20198 20201 20204 20207 20210 20213 20216 20219 20222 20225 20228 20231 20234 20237 20240 20243 20246 20249 20252 20255 20258 20261 20264 20267 20270 20273 20276 20279 20282 20285 20288 20291 20294 20296 20298 20301 20304 20307 20310 20313 20315 20318 20321 20324 20327 20329 20332 20335 20338 20341 20344 20347 20350 20353 20355 20358 20361 20364 20367 20370 20372 20375 20378 20381 20383 20386 20389 20392 20395 20398 20401 20404 20407 20410 20413 20416 20419 20421 20423 20426 20429 20432 20435 20437 20439 20442 20444 20446 20449 20451 20454 20456 20459 20462 20464 20466 20469 20472 20475 20478 20480 20482 20485 20488 20490 20492 20495 20498 20500 20503 20506 20508 20511 20514 20517 20520 20523 20526 20529 20532 20535 20538 20541 20544 20547 20550 20553 20556 20559 20562 20565 20568 20571 20573 20576 20579 20582 20584 20587 20590 20592 20595 20598 20601 20603 20606 20608 20610 20613 20615 20618 20621 20624 20627 20630 20632 20634 20637 20640 20642 20645 20648 20651 20653 20656 20659 20662 20665 20668 20671 20674 20677 20679 20682 20685 20687 20690 20693 20696 20699 20701 20703 20706 20708 20711 20714 20717 20720 20722 20725 20728 20731 20734 20737 20740 20743 20745 20748 20751 20754 20757 20760 20763 20765 20768 20771 20774 20777 20780 20783 20786 20789 20792 20795 20798 20801 20804 20806 20808 20810 20812 20815 20818 20820 20822 20825 20828 20831 20834 20837 20839 20841 20844 20846 20849 20851 20854 20856 20859 20862 20864 20867 20870 20872 20875 20877 20879 20882 20885 20888 20891 20894 20897 20900 20903 20906 20909 20911 20914 20917 20919 20922 20925 20928 20931 20934 20937 20940 20943 20946 20949 20952 20955 20958 20961 20963 20966 20969 20972 20974 20977 20980 20982 20985 20988 20991 20994 20996 20999 21002 21005 21008 21010 21013 21016 21019 21021 21024 21027 21030 21033 21036 21038 21041 21044 21047 21050 21053 21056 21058 21061 21063 21066 21069 21072 21075 21078 21081 21084 21087 21090 21093 21096 21099 21102 21105 21107 21110 21113 21115 21118 21120 21122 21125 21128 21131 21134 21137 21140 21142 21145 21148 21150 21153 21156 21159 21161 21163 21166 21168 21171 21174 21177 21180 21183 21185 21188 21191 21194 21196 21199 21202 21205 21208 21211 21214 21217 21219 21222 21225 21228 21231 21234 21237 21239 21242 21245 21248 21251 21254 21257 21259 21262 21265 21268 21271 21274 21277 21280 21283 21286 21289 21291 21294 21297 21300 21303 21306 21309 21312 21315 21318 21321 21324 21327 21330 21333 21336 21338 21340 21343 21346 21349 21352 21355 21358 21361 21364 21367 21369 21372 21375 21378 21381 21384 21387 21390 21393 21395 21398 21401 21403 21406 21408 21411 21414 21417 21419 21422 21424 21427 21430 21433 21435 21438 21440 21443 21446 21449 21451 21453 21456 21458 21461 21464 21467 21470 21473 21476 21479 21482 21485 21488 21491 21493 21495 21498 21500 21503 21506 21509 21511 21513 21516 21518 21521 21524 21527 21530 21532 21534 21537 21539 21542 21545 21548 21551 21554 21557 21559 21562 21564 21567 21570 21573 21576 21578 21580 21583 21586 21588 21591 21594 21596 21599 21602 21604 21607 21610 21612 21614 21617 21620 21622 21625 21627 21629 21632 21635 21637 21640 21643 21646 21649 21652 21655 21657 21659 21661 21664 21667 21670 21672 21675 21677 21680 21683 21686 21689 21691 21693 21696 21698 21700 21702 21705 21708 21711 21714 21717 21720 21723 21726 21729 21732 21735 21738 21741 21744 21747 21750 21753 21756 21759 21762 21765 21768 21771 21774 21777 21780 21782 21785 21788 21791 21793 21796 21799 21802 21805 21808 21811 21814 21817 21820 21823 21826 21828 21831 21834 21837 21840 21843 21845 21848 21850 21853 21856 21858 21861 21864 21867 21870 21873 21875 21877 21880 21883 21886 21889 21892 21894 21897 21900 21902 21905 21908 21911 21914 21917 21920 21923 21926 21929 21932 21935 21938 21941 21944 21947 21950 21953 21956 21959 21962 21964 21967 21970 21973 21976 21979 21982 21985 21988 21991 21994 21997 21999 22001 22004 22007 22010 22013 22016 22019 22022 22025 22028 22030 22033 22036 22039 22042 22045 22048 22051 22053 22056 22059 22062 22065 22068 22071 22074 22077 22080 22083 22086 22089 22091 22094 22096 22099 22102 22105 22108 22111 22114 22117 22120 22123 22125 22128 22130 22133 22136 22139 22142 22145 22148 22151 22154 22157 22159 22161 22164 22167 22170 22173 22176 22179 22182 22185 22188 22191 22194 22197 22200 22203 22206 22209 22212 22215 22218 22221 22224 22227 22230 22233 22236 22239 22242 22245 22248 22251 22254 22257 22260 22262 22265 22268 22271 22274 22277 22280 22283 22286 22289 22292 22295 22298 22301 22303 22306 22309 22312 22315 22318 22321 22324 22327 22330 22333 22336 22339 22342 22345 22348 22351 22354 22357 22360 22363 22366 22369 22372 22374 22376 22379 22382 22385 22388 22391 22394 22397 22400 22403 22406 22409 22412 22415 22418 22421 22423 22426 22429 22432 22435 22438 22441 22444 22447 22450 22453 22456 22459 22462 22465 22468 22471 22474 22476 22479 22482 22485 22488 22490 22493 22496 22499 22502 22505 22508 22511 22514 22517 22520 22523 22525 22527 22530 22533 22536 22539 22542 22545 22548 22551 22554 22557 22560 22563 22566 22569 22572 22575 22578 22581 22584 22586 22589 22592 22595 22597 22600 22603 22606 22608 22610 22613 22616 22618 22620 22623 22625 22628 22631 22634 22636 22639 22642 22644 22646 22649 22652 22654 22657 22660 22662 22664 22667 22670 22673 22676 22678 22681 22684 22687 22689 22691 22694 22697 22700 22703 22706 22709 22712 22715 22717 22720 22723 22725 22728 22731 22734 22737 22739 22742 22745 22748 22751 22754 22756 22759 22762 22764 22767 22770 22773 22776 22779 22781 22784 22787 22790 22793 22795 22798 22801 22803 22806 22808 22811 22814 22817 22820 22823 22826 22829 22831 22834 22837 22840 22842 22845 22848 22850 22853 22856 22859 22862 22865 22868 22871 22874 22877 22880 22883 22886 22889 22892 22895 22898 22900 22903 22905 22908 22911 22914 22917 22920 22923 22926 22929 22932 22934 22937 22940 22943 22945 22947 22949 22952 22955 22958 22960 22962 22965 22967 22970 22972 22974 22977 22980 22983 22985 22988 22990 22993 22996 22999 23002 23005 23008 23011 23014 23017 23020 23022 23025 23028 23031 23033 23036 23039 23042 23044 23047 23050 23053 23056 23059 23062 23065 23068 23071 23074 23077 23080 23083 23086 23089 23092 23095 23098 23101 23103 23106 23109 23112 23115 23117 23120 23122 23125 23128 23131 23134 23137 23140 23143 23146 23149 23152 23155 23157 23160 23162 23165 23168 23170 23173 23175 23177 23179 23182 23185 23188 23190 23193 23196 23199 23201 23203 23206 23209 23212 23215 23218 23221 23223 23226 23229 23232 23235 23238 23241 23244 23247 23250 23252 23255 23258 23260 23263 23266 23269 23271 23274 23277 23280 23283 23286 23289 23292 23295 23298 23301 23304 23307 23310 23313 23316 23319 23322 23324 23327 23330 23333 23336 23339 23342 23344 23346 23349 23352 23355 23357 23360 23363 23366 23369 23372 23375 23378 23380 23383 23386 23389 23392 23395 23398 23401 23404 23407 23410 23413 23416 23419 23421 23424 23427 23430 23433 23436 23439 23442 23445 23448 23451 23454 23457 23460 23463 23466 23469 23472 23475 23477 23480 23483 23486 23489 23492 23494 23497 23500 23503 23506 23509 23512 23515 23518 23520 23523 23526 23529 23532 23535 23538 23541 23544 23547 23550 23553 23556 23559 23562 23565 23568 23571 23574 23577 23580 23583 23585 23587 23590 23593 23595 23598 23600 23603 23606 23609 23612 23615 23618 23621 23624 23626 23629 23632 23635 23638 23640 23643 23646 23649 23652 23654 23657 23660 23663 23665 23668 23670 23673 23676 23679 23681 23683 23686 23688 23691 23693 23695 23698 23701 23704 23707 23710 23712 23715 23718 23721 23723 23726 23729 23732 23735 23737 23740 23743 23746 23749 23752 23755 23758 23761 23764 23767 23770 23773 23776 23779 23782 23785 23788 23791 23793 23796 23799 23802 23805 23808 23810 23813 23816 23819 23822 23824 23827 23830 23833 23836 23839 23842 23844 23847 23850 23853 23856 23859 23862 23865 23868 23871 23874 23877 23880 23883 23886 23889 23892 23895 23898 23901 23904 23907 23910 23913 23916 23918 23921 23924 23927 23929 23932 23935 23937 23940 23943 23945 23948 23951 23954 23956 23959 23962 23964 23967 23969 23972 23975 23977 23980 23983 23986 23989 23992 23995 23998 24001 24004 24007 24010 24013 24016 24019 24022 24024 24027 24030 24032 24035 24037 24040 24043 24046 24049 24052 24055 24058 24060 24063 24066 24068 24071 24073 24076 24079 24082 24084 24087 24090 24093 24096 24098 24101 24104 24106 24109 24112 24114 24117 24120 24122 24125 24128 24131 24134 24137 24140 24143 24146 24149 24151 24154 24157 24159 24162 24164 24166 24168 24171 24174 24177 24180 24183 24186 24189 24191 24194 24196 24199 24201 24203 24206 24209 24212 24215 24218 24221 24224 24227 24230 24233 24236 24238 24241 24244 24247 24250 24253 24256 24259 24262 24265 24268 24271 24274 24277 24280 24283 24286 24289 24292 24295 24298 24301 24304 24307 24310 24313 24316 24319 24322 24324 24327 24330 24333 24336 24339 24342 24344 24347 24350 24353 24356 24359 24362 24365 24368 24371 24374 24377 24380 24383 24386 24389 24392 24394 24397 24400 24403 24406 24409 24412 24415 24418 24421 24424 24427 24430 24433 24436 24439 24442 24445 24448 24451 24454 24457 24460 24463 24465 24467 24470 24473 24476 24479 24482 24485 24488 24490 24493 24496 24499 24501 24503 24506 24509 24511 24514 24517 24520 24523 24526 24529 24532 24535 24538 24541 24544 24547 24550 24552 24555 24558 24561 24564 24567 24570 24573 24576 24579 24582 24585 24588 24591 24594 24597 24600 24603 24606 24609 24612 24615 24618 24620 24623 24626 24629 24631 24634 24637 24640 24643 24646 24649 24652 24655 24658 24661 24664 24667 24670 24673 24676 24679 24682 24685 24688 24691 24694 24697 24699 24702 24705 24708 24711 24714 24717 24720 24723 24726 24729 24732 24735 24738 24741 24744 24747 24750 24753 24756 24759 24762 24765 24768 24770 24773 24776 24779 24782 24785 24788 24791 24794 24797 24800 24803 24806 24809 24812 24815 24818 24821 24824 24827 24829 24832 24835 24838 24841 24844 24847 24850 24853 24856 24859 24862 24865 24868 24871 24874 24877 24880 24883 24886 24889 24892 24895 24898 24901 24904 24907 24910 24913 24916 24919 24922 24925 24928 24931 24934 24937 24940 24943 24946 24949 24951 24954 24957 24960 24963 24966 24969 24972 24974 24977 24980 24982 24985 24988 24990 24993 24996 24999 25002 25005 25008 25011 25014 25017 25020 25023 25026 25029 25032 25035 25038 25041 25044 25047 25050 25053 25056 25059 25062 25065 25068 25071 25074 25077 25080 25082 25085 25088 25091 25094 25096 25099 25102 25105 25108 25111 25114 25117 25120 25122 25125 25128 25131 25134 25137 25140 25143 25146 25149 25152 25155 25158 25161 25164 25167 25170 25173 25176 25178 25180 25183 25185 25188 25190 25193 25196 25199 25201 25204 25207 25210 25213 25216 25219 25221 25224 25227 25230 25232 25235 25238 25241 25244 25246 25249 25252 25255 25257 25260 25263 25266 25269 25272 25274 25277 25280 25282 25285 25288 25291 25294 25297 25300 25303 25306 25309 25312 25315 25318 25321 25324 25327 25330 25333 25336 25338 25341 25344 25347 25350 25353 25356 25359 25362 25365 25368 25371 25374 25377 25379 25382 25384 25387 25390 25393 25395 25398 25400 25403 25406 25409 25412 25415 25418 25421 25424 25427 25430 25433 25436 25439 25442 25445 25447 25450 25453 25455 25458 25461 25464 25467 25470 25473 25476 25479 25482 25485 25488 25491 25494 25497 25500 25503 25506 25509 25512 25515 25518 25521 25524 25527 25530 25533 25536 25539 25542 25545 25548 25551 25554 25556 25559 25562 25565 25568 25571 25574 25577 25580 25583 25586 25589 25592 25595 25598 25601 25604 25607 25610 25613 25616 25619 25622 25625 25628 25631 25634 25637 25640 25643 25646 25649 25652 25655 25658 25661 25664 25667 25670 25673 25676 25679 25682 25685 25688 25691 25694 25697 25700 25703 25705 25708 25711 25714 25717 25720 25722 25725 25727 25730 25733 25736 25739 25742 25745 25748 25751 25754 25757 25760 25763 25766 25769 25772 25775 25777 25780 25783 25786 25789 25792 25795 25798 25801 25804 25807 25810 25813 25816 25819 25822 25825 25828 25831 25834 25836 25839 25842 25845 25848 25851 25853 25856 25859 25862 25865 25867 25870 25873 25876 25879 25882 25885 25888 25891 25894 25897 25900 25903 25906 25909 25912 25915 25918 25921 25924 25927 25930 25933 25936 25939 25942 25945 25948 25951 25954 25957 25960 25963 25966 25969 25972 25975 25978 25981 25984 25986 25989 25992 25995 25998 26001 26004 26007 26010 26013 26016 26019 26022 26025 26028 26031 26034 26037 26040 26043 26046 26049 26052 26055 26058 26061 26064 26067 26070 26072 26075 26077 26080 26082 26085 26088 26091 26094 26097 26099 26101 26104 26106 26109 26112 26114 26117 26120 26122 26125 26128 26130 26133 26136 26139 26142 26145 26148 26151 26154 26157 26160 26163 26166 26169 26172 26175 26178 26181 26183 26186 26189 26192 26195 26198 26200 26203 26206 26209 26212 26215 26218 26221 26224 26227 26230 26233 26235 26238 26241 26243 26246 26249 26252 26255 26258 26261 26264 26266 26269 26272 26275 26278 26281 26284 26287 26290 26292 26295 26298 26301 26303 26306 26308 26311 26314 26317 26320 26323 26326 26329 26332 26335 26338 26341 26344 26347 26350 26353 26356 26359 26362 26365 26368 26371 26374 26377 26380 26383 26385 26388 26391 26394 26396 26399 26402 26405 26408 26411 26414 26417 26420 26423 26425 26428 26431 26434 26437 26440 26443 26446 26448 26451 26454 26457 26460 26463 26466 26469 26472 26475 26478 26481 26484 26487 26490 26493 26496 26499 26502 26505 26508 26511 26514 26517 26520 26523 26526 26529 26532 26535 26538 26541 26544 26547 26550 26553 26555 26558 26561 26564 26567 26570 26573 26576 26579 26582 26585 26588 26591 26594 26597 26600 26603 26606 26609 26612 26615 26618 26621 26624 26627 26630 26633 26636 26639 26642 26645 26648 26651 26654 26657 26660 26663 26666 26669 26672 26675 26678 26681 26684 26687 26690 26693 26696 26699 26702 26705 26707 26710 26713 26716 26719 26722 26724 26727 26730 26733 26736 26739 26742 26745 26747 26750 26753 26756 26759 26762 26765 26768 26771 26773 26776 26778 26781 26784 26787 26790 26792 26795 26798 26800 26803 26806 26809 26811 26813 26816 26819 26822 26824 26826 26829 26831 26834 26837 26840 26843 26846 26849 26852 26855 26858 26861 26864 26867 26870 26873 26876 26879 26882 26885 26888 26891 26894 26897 26900 26902 26904 26907 26909 26912 26915 26918 26921 26924 26926 26929 26932 26935 26938 26940 26943 26946 26949 26951 26954 26956 26959 26962 26965 26968 26971 26974 26977 26980 26983 26986 26989 26992 26995 26998 27001 27004 27007 27010 27013 27016 27019 27022 27025 27028 27031 27033 27036 27039 27042 27045 27048 27051 27054 27057 27060 27063 27065 27068 27071 27074 27077 27080 27083 27086 27089 27091 27093 27096 27099 27102 27105 27108 27111 27114 27117 27120 27123 27126 27129 27132 27135 27138 27141 27144 27146 27149 27152 27154 27156 27159 27162 27165 27168 27171 27173 27176 27179 27182 27185 27188 27191 27194 27197 27200 27202 27205 27208 27211 27213 27216 27219 27222 27225 27228 27230 27233 27235 27238 27240 27242 27245 27248 27250 27253 27256 27259 27262 27265 27267 27270 27273 27276 27279 27282 27284 27286 27289 27292 27295 27298 27300 27303 27306 27309 27312 27315 27318 27320 27323 27326 27329 27332 27335 27338 27341 27344 27347 27350 27353 27356 27359 27362 27365 27368 27371 27374 27377 27380 27383 27386 27389 27392 27395 27398 27401 27404 27407 27410 27413 27416 27419 27422 27425 27428 27431 27434 27437 27440 27443 27446 27449 27452 27455 27458 27461 27464 27467 27470 27473 27476 27479 27481 27484 27487 27489 27492 27495 27497 27500 27502 27505 27508 27511 27514 27517 27520 27523 27526 27529 27531 27534 27537 27539 27542 27545 27548 27551 27554 27557 27560 27563 27566 27569 27571 27574 27577 27580 27583 27585 27588 27591 27594 27596 27599 27602 27605 27608 27610 27613 27616 27619 27622 27625 27628 27631 27634 27637 27639 27642 27645 27648 27651 27653 27656 27659 27662 27665 27668 27671 27674 27677 27680 27683 27686 27689 27692 27695 27698 27701 27704 27707 27710 27713 27716 27719 27722 27724 27727 27730 27733 27736 27739 27742 27745 27748 27751 27753 27756 27759 27762 27765 27768 27771 27773 27776 27779 27782 27785 27788 27791 27794 27797 27800 27803 27806 27809 27812 27815 27818 27821 27824 27827 27830 27833 27836 27839 27842 27845 27848 27851 27854 27857 27860 27863 27866 27869 27871 27874 27877 27880 27882 27885 27888 27890 27892 27895 27898 27901 27904 27907 27910 27913 27916 27919 27921 27924 27927 27930 27932 27934 27937 27940 27942 27945 27948 27951 27953 27955 27957 27960 27963 27966 27969 27972 27975 27978 27981 27984 27987 27990 27993 27996 27999 28002 28005 28008 28011 28014 28017 28020 28023 28026 28029 28032 28035 28037 28040 28043 28045 28048 28051 28053 28056 28059 28062 28065 28068 28071 28074 28076 28079 28082 28085 28088 28091 28094 28097 28100 28103 28106 28109 28112 28115 28117 28120 28123 28125 28128 28131 28134 28137 28140 28143 28146 28149 28151 28154 28157 28160 28163 28166 28169 28172 28175 28178 28181 28184 28187 28190 28193 28196 28199 28202 28205 28208 28211 28214 28217 28220 28223 28226 28229 28232 28235 28238 28241 28244 28247 28250 28253 28256 28259 28262 28265 28268 28271 28274 28277 28280 28283 28286 28289 28292 28295 28297 28300 28303 28306 28309 28312 28315 28318 28321 28324 28327 28330 28333 28336 28339 28342 28344 28347 28350 28353 28356 28359 28361 28364 28367 28370 28373 28376 28379 28382 28384 28387 28390 28393 28396 28398 28401 28404 28407 28410 28413 28416 28419 28422 28425 28428 28430 28433 28436 28438 28441 28444 28447 28450 28453 28456 28459 28462 28464 28466 28469 28472 28475 28477 28480 28483 28486 28489 28492 28495 28498 28501 28504 28507 28509 28512 28515 28518 28520 28523 28526 28529 28531 28534 28537 28540 28543 28546 28549 28552 28555 28558 28561 28563 28566 28569 28572 28575 28578 28581 28583 28586 28589 28591 28594 28597 28600 28603 28606 28609 28612 28615 28618 28621 28624 28627 28630 28632 28635 28638 28640 28643 28646 28649 28651 28653 28656 28659 28662 28665 28668 28671 28673 28676 28679 28682 28685 28688 28691 28694 28697 28700 28703 28705 28708 28711 28714 28717 28720 28723 28726 28729 28732 28734 28737 28740 28742 28745 28748 28751 28754 28757 28760 28762 28765 28768 28771 28774 28777 28780 28783 28786 28789 28792 28795 28798 28801 28804 28806 28809 28812 28815 28818 28821 28823 28826 28829 28831 28834 28837 28840 28843 28846 28849 28852 28855 28858 28861 28864 28866 28869 28872 28875 28878 28881 28883 28886 28888 28891 28893 28896 28899 28901 28904 28907 28910 28913 28915 28918 28920 28923 28925 28927 28930 28933 28935 28938 28941 28943 28946 28949 28952 28955 28958 28961 28964 28967 28970 28973 28976 28979 28982 28985 28987 28990 28993 28996 28999 29002 29004 29007 29010 29013 29016 29019 29022 29025 29028 29030 29033 29036 29039 29042 29045 29048 29051 29054 29057 29060 29063 29065 29068 29071 29074 29077 29080 29082 29085 29088 29091 29094 29097 29100 29102 29105 29108 29111 29114 29117 29119 29121 29124 29127 29130 29132 29135 29138 29141 29144 29147 29150 29153 29156 29159 29162 29165 29168 29171 29174 29177 29180 29183 29186 29189 29192 29195 29198 29201 29203 29206 29209 29212 29215 29217 29219 29222 29224 29227 29230 29233 29236 29239 29242 29244 29247 29250 29253 29255 29258 29261 29264 29267 29270 29273 29276 29278 29281 29284 29287 29289 29292 29295 29298 29301 29303 29306 29309 29311 29314 29317 29320 29322 29325 29328 29330 29333 29336 29338 29340 29342 29345 29347 29349 29352 29355 29357 29360 29363 29365 29368 29371 29374 29377 29380 29383 29386 29388 29391 29394 29396 29399 29402 29405 29408 29411 29414 29417 29420 29423 29426 29429 29432 29435 29438 29441 29444 29447 29450 29453 29455 29457 29460 29463 29466 29469 29472 29475 29478 29481 29484 29487 29490 29493 29496 29499 29502 29505 29508 29511 29514 29517 29520 29523 29526 29529 29532 29535 29538 29541 29544 29547 29550 29553 29556 29559 29562 29565 29568 29571 29574 29577 29580 29583 29586 29589 29592 29595 29598 29601 29604 29607 29610 29613 29616 29619 29622 29624 29627 29630 29633 29636 29639 29642 29645 29648 29651 29654 29657 29660 29663 29666 29669 29672 29675 29678 29681 29684 29687 29690 29693 29696 29698 29701 29704 29707 29710 29713 29716 29719 29722 29725 29728 29731 29734 29737 29740 29743 29746 29749 29752 29755 29758 29761 29764 29767 29770 29773 29776 29779 29782 29785 29788 29791 29794 29797 29800 29803 29806 29809 29812 29815 29818 29820 29823 29825 29828 29831 29834 29837 29839 29842 29845 29848 29850 29853 29856 29859 29862 29865 29868 29871 29874 29877 29880 29883 29886 29889 29892 29895 29897 29900 29903 29906 29909 29912 29915 29918 29921 29924 29927 29930 29932 29935 29938 29941 29943 29946 29949 29952 29955 29958 29961 29964 29967 29970 29972 29975 29977 29980 29983 29985 29988 29991 29994 29997 30000 30003 30006 30009 30012 30015 30018 30020 30023 30026 30029 30032 30035 30038 30041 30044 30047 30050 30053 30056 30059 30062 30065 30068 30071 30074 30077 30080 30083 30086 30089 30092 30094 30097 30100 30103 30106 30109 30112 30115 30118 30121 30124 30127 30129 30132 30135 30138 30140 30142 30145 30148 30151 30154 30157 30160 30163 30166 30169 30172 30174 30177 30180 30183 30186 30188 30191 30193 30196 30199 30202 30205 30207 30210 30213 30215 30218 30221 30224 30227 30230 30232 30235 30238 30241 30244 30247 30250 30253 30256 30259 30262 30265 30268 30271 30274 30277 30280 30283 30286 30289 30292 30295 30298 30301 30304 30307 30310 30313 30315 30318 30321 30323 30326 30329 30332 30335 30337 30340 30343 30346 30349 30352 30354 30357 30360 30363 30366 30369 30372 30375 30378 30381 30384 30387 30390 30392 30395 30398 30401 30404 30407 30410 30413 30416 30419 30421 30424 30427 30430 30433 30436 30439 30442 30445 30448 30451 30454 30457 30460 30463 30466 30469 30471 30474 30477 30480 30483 30486 30489 30492 30494 30496 30499 30502 30504 30507 30510 30513 30516 30519 30522 30525 30528 30531 30534 30537 30540 30543 30545 30548 30551 30554 30557 30560 30562 30564 30567 30570 30573 30576 30579 30582 30585 30588 30591 30594 30597 30600 30603 30606 30609 30612 30615 30618 30621 30624 30627 30630 30633 30636 30639 30642 30645 30648 30651 30654 30657 30660 30663 30666 30669 30672 30675 30678 30681 30684 30687 30690 30693 30696 30699 30702 30705 30708 30711 30714 30717 30720 30723 30726 30729 30732 30735 30738 30741 30744 30747 30750 30753 30756 30759 30761 30764 30766 30769 30772 30775 30778 30781 30784 30787 30790 30793 30796 30799 30802 30805 30808 30811 30814 30817 30820 30823 30826 30829 30832 30835 30838 30841 30844 30847 30850 30853 30856 30859 30862 30865 30868 30871 30874 30877 30880 30883 30886 30889 30892 30895 30898 30901 30904 30907 30910 30913 30916 30919 30922 30925 30927 30930 30933 30935 30938 30941 30944 30947 30950 30953 30956 30959 30962 30965 30968 30971 30974 30977 30980 30983 30985 30988 30991 30994 30997 31000 31003 31006 31009 31012 31015 31018 31021 31024 31027 31030 31033 31036 31039 31042 31045 31048 31051 31054 31057 31060 31063 31066 31069 31072 31075 31078 31081 31084 31087 31090 31092 31095 31098 31101 31104 31107 31110 31113 31116 31119 31122 31124 31127 31130 31133 31136 31139 31142 31145 31148 31151 31154 31157 31160 31163 31166 31169 31172 31175 31178 31181 31184 31187 31190 31193 31196 31199 31202 31205 31208 31210 31213 31216 31219 31222 31225 31228 31230 31233 31236 31239 31242 31245 31248 31251 31254 31257 31260 31263 31266 31269 31272 31275 31278 31281 31284 31287 31290 31293 31296 31299 
</DataArray>
<DataArray type="UInt32" Name="types" format="ascii">
3 5 5 5 5 5 5 5 5 5 5 5 5 3 5 3 5 5 5 3 5 3 5 5 5 5 5 5 5 5 5 5 5 3 5 5 3 3 5 5 5 5 5 5 5 5 5 5 5 5 3 5 5 5 5 5 5 5 5 5 5 5 5 3 3 5 3 5 3 3 5 5 5 5 5 3 5 5 5 5 5 5 3 5 3 5 5 5 5 5 5 3 3 5 5 3 5 3 5 5 5 3 5 3 5 5 5 5 5 5 3 5 5 3 5 5 5 5 5 5 5 5 5 5 5 5 5 5 5 3 5 5 5 5 5 5 5 5 5 5 5 5 5 5 3 5 5 5 5 5 5 3 5 5 5 5 5 5 5 3 5 5 3 5 5 5 5 5 5 5 5 5 3 5 5 3 5 5 3 5 5 5 5 5 5 5 5 3 3 5 3 5 5 3 5 5 5 5 5 5 5 5 3 5 5 5 3 5 5 5 5 5 5 5 3 5 3 3 5 3 3 5 5 3 5 5 5 5 5 5 5 5 5 5 3 5 5 5 5 5 5 5 5 3 3 5 5 5 5 5 5 3 5 5 3 5 5 5 3 5 5 5 5 5 5 5 5 5 5 5 5 5 5 5 5 5 5 5 5 5 3 5 5 5 5 5 5 5 5 5 5 5 5 5 5 5 5 5 5 3 5 5 5 5 3 5 5 5 5 5 5 5 5 5 5 5 5 5 5 3 5 5 5 5 5 5 5 5 5 5 5 5 5 5 5 5 5 5 5 5 5 5 5 5 5 5 5 5 5 5 5 5 5 5 3 5 5 5 5 5 5 3 5 5 5 5 5 5 5 5 5 5 5 5 5 5 5 3 5 5 5 5 3 5 5 3 5 3 5 5 5 5 5 3 5 5 5 5 5 5 5 3 5 5 3 5 5 5 3 5 5 5 5 3 5 5 5 5 5 5 5 5 5 5 5 5 5 5 5 5 5 5 5 5 5 5 5 5 5 5 5 5 5 5 5 5 5 5 5 5 5 5 5 5 5 5 5 5 5 5 5 5 5 5 5 3 5 5 5 5 3 5 5 5 5 5 5 5 5 5 5 5 5 5 5 5 5 5 5 5 5 5 5 5 5 5 3 5 5 5 5 3 5 5 5 3 5 5 5 5 5 5 5 5 5 5 5 5 3 5 5 5 5 5 5 5 5 5 3 5 5 5 5 5 5 5 5 5 5 5 3 5 5 3 5 5 5 5 5 5 5 5 5 5 5 5 3 5 5 3 5 5 5 3 5 5 5 5 3 5 5 5 3 5 5 5 5 5 5 5 5 5 5 5 5 5 5 5 5 5 5 3 5 5 5 5 5 5 5 5 5 5 5 5 5 5 5 5 5 5 5 5 5 5 5 5 5 5 5 5 3 5 5 3 5 5 5 3 5 5 5 5 5 5 5 5 5 5 5 5 5 5 5 5 5 5 3 5 5 5 5 5 5 5 5 5 5 5 5 5 5 5 5 5 3 5 5 5 5 5 5 3 5 5 5 5 5 5 5 5 5 5 5 5 5 5 5 5 5 5 5 5 5 5 5 5 5 5 5 5 5 5 5 5 5 5 5 5 5 5 5 5 5 5 5 5 5 5 5 5 5 5 5 5 5 5 5 5 5 5 5 5 5 5 5 5 5 5 5 5 5 5 5 5 5 5 3 5 5 5 5 5 3 5 5 3 5 5 5 5 5 5 5 5 5 5 5 5 3 5 5 5 5 5 5 3 5 5 5 3 5 5 3 5 5 5 5 3 5 5 3 5 5 5 5 5 5 5 5 3 5 3 5 5 5 3 3 5 5 5 5 5 5 5 5 5 5 5 3 5 5 5 3 5 5 3 5 5 5 5 5 5 5 5 5 3 5 5 5 5 5 5 5 5 5 5 5 5 3 5 3 5 5 5 5 5 5 5 5 5 5 5 5 5 5 5 5 5 5 5 3 5 5 3 5 5 5 5 5 5 3 5 5 5 3 5 3 3 5 5 5 5 5 5 3 3 3 3 5 3 5 5 5 5 5 3 5 5 3 5 5 3 5 5 5 5 5 5 5 5 5 5 5 5 5 5 5 5 5 3 5 5 5 5 5 5 5 3 5 5 5 5 5 5 5 5 5 5 5 5 5 5 5 5 5 5 5 5 3 5 5 5 3 5 3 5 5 3 5 5 5 5 5 5 5 5 5 5 5 3 5 5 5 5 5 5 5 5 5 5 3 5 5 5 5 5 5 5 5 5 5 3 5 5 3 5 5 5 5 5 5 5 5 5 5 5 5 5 5 5 5 5 5 5 3 3 5 3 5 5 3 3 3 5 3 5 5 5 5 5 3 5 5 5 5 5 5 5 5 5 5 5 5 5 5 5 5 5 5 5 5 5 5 3 5 5 3 5 5 5 5 5 5 5 5 3 5 5 5 3 5 5 5 5 5 3 5 5 5 3 5 5 5 3 5 3 3 5 5 5 5 3 5 5 3 5 5 5 5 3 3 5 5 3 3 5 5 5 5 3 5 5 5 5 5 5 5 5 5 5 5 5 5 5 5 5 5 5 5 3 5 3 5 5 5 5 5 5 5 5 3 3 5 5 5 3 3 5 3 5 3 5 5 5 5 3 5 5 5 5 5 5 5 5 5 5 5 3 5 5 5 5 5 5 5 5 3 5 5 5 5 5 5 5 5 5 5 5 5 3 5 5 5 5 5 5 5 5 5 5 5 5 5 5 3 5 5 5 5 5 5 5 5 5 5 5 5 5 5 5 3 5 5 5 5 5 5 5 5 5 5 5 5 5 5 5 5 3 3 5 5 5 3 5 5 3 5 5 5 5 3 3 3 5 5 5 5 5 5 5 5 5 3 5 5 5 5 3 5 5 5 5 5 3 5 5 5 5 5 5 5 5 5 5 5 5 5 5 5 5 5 5 3 5 5 5 5 5 5 3 3 5 5 5 5 5 5 5 5 3 3 3 5 5 5 5 5 5 5 5 5 5 5 5 5 5 5 5 5 5 5 5 3 5 5 5 5 5 5 3 5 5 5 5 5 3 5 5 5 5 5 5 5 5 5 5 5 5 5 5 5 5 3 5 5 5 3 5 5 5 5 5 5 5 5 3 5 5 5 3 5 5 5 5 5 5 5 5 5 5 5 3 5 5 5 3 5 5 5 5 5 5 5 5 5 5 5 5 5 5 5 3 5 3 5 5 5 5 5 5 3 5 5 5 5 5 5 5 5 3 5 3 5 5 5 5 5 5 5 5 5 5 5 3 5 5 5 5 5 5 5 5 5 3 5 5 5 5 3 5 5 3 5 5 5 5 5 5 5 5 3 3 5 5 3 5 5 5 5 5 5 5 5 5 5 5 5 5 5 5 5 5 5 5 5 5 5 5 5 5 5 5 5 3 5 5 5 5 3 5 5 5 5 5 5 5 5 3 5 5 5 5 5 5 5 5 5 5 5 5 5 5 5 5 5 5 5 3 5 5 5 3 5 5 5 5 5 5 5 5 5 5 5 5 5 5 5 5 5 5 5 5 3 5 5 5 5 3 5 5 5 5 5 5 5 3 5 5 5 3 5 5 5 3 5 5 5 5 5 5 5 5 3 5 5 5 5 5 5 5 5 5 3 5 5 3 3 3 5 3 5 5 5 5 5 3 5 3 3 5 3 5 5 5 5 5 5 5 5 3 5 5 5 5 3 5 5 5 3 3 5 5 3 3 5 5 5 5 5 3 5 3 5 5 5 5 5 5 3 3 5 3 5 5 5 5 5 5 5 5 3 5 5 5 5 3 5 3 5 3 5 5 5 5 5 5 5 5 5 5 5 5 5 5 5 5 5 5 5 5 5 3 5 3 5 5 5 5 5 5 3 5 5 5 5 5 5 5 5 5 5 5 3 5 5 5 5 5 5 5 5 5 5 5 5 5 5 5 5 5 5 5 5 3 5 5 5 5 5 5 5 3 3 5 5 5 5 5 5 5 5 5 5 5 5 5 3 5 5 5 3 5 5 5 5 5 5 5 5 5 5 5 5 5 5 5 3 5 5 5 5 5 5 5 5 5 3 5 3 5 5 5 5 3 5 3 3 5 3 5 5 5 3 5 5 5 5 5 5 5 5 5 5 5 5 5 3 5 5 5 5 3 5 5 5 5 5 5 5 3 5 5 5 3 5 3 5 5 3 5 5 5 5 5 5 5 5 5 3 5 5 5 5 5 5 5 5 5 5 5 5 5 5 5 3 5 5 5 3 3 5 3 5 3 5 3 5 5 5 5 5 5 5 3 5 5 5 5 5 5 5 5 5 5 5 5 5 5 5 5 5 5 5 5 5 5 5 5 5 5 5 5 5 5 5 5 5 5 5 5 5 5 5 5 5 5 5 5 5 5 5 5 5 5 5 5 5 5 5 5 3 5 5 5 5 5 5 5 3 5 5 5 5 5 5 5 5 5 5 5 5 3 5 5 5 5 5 5 5 3 5 5 5 5 5 5 5 5 5 3 5 5 5 3 5 5 5 5 5 5 5 5 5 5 5 5 5 5 5 5 5 5 5 5 5 5 5 5 5 5 5 3 5 5 5 5 5 3 5 5 5 3 5 5 3 5 5 3 5 5 5 5 5 3 5 5 3 5 5 5 5 5 5 5 3 5 3 5 5 3 5 5 5 5 5 5 3 5 5 5 5 5 5 3 5 5 5 5 5 5 5 5 5 5 5 5 3 5 5 5 3 5 5 5 5 5 5 5 5 5 5 5 5 5 3 5 5 5 5 3 5 5 5 5 5 5 5 5 3 5 5 5 5 5 5 5 5 5 5 5 5 5 5 5 5 5 5 5 5 5 5 5 5 5 5 5 5 3 5 5 3 3 5 5 5 3 3 5 5 5 5 5 5 5 5 5 5 5 3 5 5 5 5 5 5 5 5 5 5 5 5 5 5 5 5 5 5 5 3 5 5 3 5 5 5 5 5 5 5 5 5 5 5 3 5 5 3 5 5 5 3 5 5 5 5 5 5 5 5 5 5 5 5 5 5 5 5 5 5 5 5 5 5 5 5 5 5 5 5 5 5 5 5 5 5 5 5 5 5 5 5 5 5 5 5 3 5 5 5 3 5 5 5 5 3 5 5 3 5 5 3 5 5 5 5 3 3 5 5 5 5 5 5 5 5 5 5 3 5 3 5 5 5 5 5 5 3 5 5 3 5 5 5 3 5 5 3 5 5 5 3 5 5 5 5 5 5 5 5 5 5 5 5 5 5 5 5 5 5 5 5 5 5 5 5 5 5 5 5 5 5 5 3 5 5 5 5 5 3 5 5 5 5 5 5 5 3 5 5 5 3 5 5 5 5 5 5 5 5 5 5 3 5 5 3 5 5 5 5 5 3 5 5 3 5 3 5 5 5 5 5 5 5 5 5 5 5 5 5 5 5 5 5 5 5 5 5 5 5 5 5 5 5 3 5 3 5 5 5 5 5 5 5 5 5 5 3 5 5 5 5 5 5 5 5 5 5 5 5 5 5 3 5 5 5 5 5 5 3 5 5 5 5 5 5 5 5 5 5 5 5 5 5 5 3 5 5 5 5 5 5 3 5 5 5 5 5 5 5 5 5 5 3 5 5 5 3 5 5 5 5 3 5 5 5 5 3 5 5 5 5 5 5 5 5 5 5 3 5 5 5 5 5 3 5 5 5 5 5 5 5 5 5 5 5 5 3 5 5 3 5 5 5 5 5 5 5 5 5 5 5 5 5 5 5 5 5 5 5 5 5 5 5 5 5 5 5 5 5 5 5 5 5 5 5 5 5 5 5 5 5 5 5 5 5 5 5 5 5 5 3 3 5 5 5 5 5 5 5 5 5 5 5 5 5 5 3 5 5 5 5 5 5 3 5 5 5 5 5 5 3 5 5 5 5 5 5 5 5 5 5 5 3 5 5 5 5 3 5 5 5 3 3 5 5 3 5 5 3 5 5 5 5 3 5 5 5 5 5 3 5 3 5 5 3 5 5 3 5 5 5 5 5 5 5 5 5 5 3 5 5 5 5 5 3 5 5 3 5 3 3 5 5 5 5 3 5 5 5 5 5 3 3 5 5 5 5 5 5 3 5 5 3 5 3 5 5 3 5 5 5 5 3 3 5 5 5 5 5 5 5 5 5 5 5 5 5 5 5 5 5 5 5 5 5 5 5 5 5 5 5 5 5 5 5 5 3 3 5 3 5 5 5 5 5 5 3 5 5 5 5 5 3 5 5 5 5 5 5 5 5 3 5 5 5 3 5 5 5 5 5 5 5 5 5 5 3 5 5 3 5 5 5 5 5 5 5 5 5 3 5 5 5 5 3 5 5 5 5 5 5 3 5 5 5 5 5 5 5 3 5 5 5 5 5 5 5 5 5 5 5 5 5 5 5 5 5 5 5 5 5 5 5 5 5 3 5 5 5 5 3 5 3 5 5 5 5 5 5 3 5 5 3 5 5 5 5 5 5 5 5 5 5 3 5 5 5 5 5 5 5 5 3 5 5 5 5 3 5 5 5 5 5 5 5 5 5 3 5 5 3 5 5 5 5 5 3 3 5 5 5 5 5 5 5 5 5 5 5 5 5 3 5 3 3 5 5 5 5 5 5 5 5 5 5 5 5 5 3 5 5 5 3 3 5 5 5 5 5 5 5 5 5 3 5 5 5 5 5 5 5 5 3 5 3 5 3 3 5 5 3 3 5 5 5 5 5 5 5 5 5 5 3 5 3 5 5 5 3 5 3 3 3 5 5 3 5 5 5 5 5 5 5 5 5 3 5 5 5 5 5 5 5 5 5 5 5 5 5 5 5 3 5 5 5 5 3 3 3 5 5 5 5 3 5 5 5 5 5 5 3 5 5 5 5 5 5 5 5 5 5 5 5 5 5 5 5 5 5 5 5 5 5 5 5 5 5 5 5 5 3 5 5 5 5 5 5 5 5 5 5 5 5 3 5 5 5 5 5 5 3 5 5 5 5 5 5 3 5 5 5 5 5 5 5 5 5 5 3 5 5 5 3 5 3 5 5 5 5 5 5 5 5 5 5 5 5 5 5 5 5 5 5 5 5 5 5 5 3 3 5 5 5 5 5 5 3 5 5 5 5 5 5 5 5 5 5 5 5 5 5 5 5 5 5 5 5 5 5 5 5 5 5 5 5 5 5 5 5 5 3 5 5 3 3 5 5 3 5 5 5 5 5 5 5 5 3 5 5 5 5 5 5 5 5 5 5 5 5 5 5 5 3 5 5 5 5 5 5 5 5 5 5 5 5 5 5 3 5 5 5 5 3 5 3 3 5 5 3 5 5 3 5 5 5 5 3 5 5 5 5 5 3 5 5 3 5 5 5 5 5 5 5 5 5 3 5 5 5 3 5 5 5 5 5 5 5 5 5 5 5 5 5 5 5 5 5 5 5 5 5 5 5 5 5 5 5 5 5 5 5 5 5 5 3 5 5 3 5 5 5 5 5 5 5 5 3 5 5 5 5 5 5 5 5 5 3 5 5 5 5 3 5 5 5 5 5 5 5 5 5 5 5 5 5 5 5 5 5 5 5 5 3 5 3 5 5 5 5 5 3 5 5 5 5 5 5 5 5 5 3 5 5 5 5 5 5 5 5 5 5 5 5 5 5 3 5 5 5 5 3 5 5 5 3 5 5 5 5 5 5 5 3 5 5 5 3 5 5 5 3 5 3 5 5 5 5 5 5 5 5 3 5 5 3 5 5 5 3 5 3 5 5 5 3 5 5 5 3 5 5 3 5 3 5 5 3 5 5 3 5 5 5 5 5 5 5 5 5 5 5 5 5 5 5 5 5 5 3 5 5 5 5 5 3 5 5 3 5 5 5 5 5 3 5 5 5 5 5 3 5 5 5 5 5 5 5 5 3 5 5 3 5 3 5 5 5 3 5 5 5 5 5 5 3 5 5 3 5 5 5 5 3 5 5 5 3 3 5 5 5 5 5 5 3 3 5 5 5 5 3 5 5 5 3 5 5 5 5 5 5 5 5 5 5 5 5 5 5 5 5 5 5 5 5 5 5 5 5 5 5 5 5 5 5 5 5 5 5 5 5 5 5 5 5 5 5 5 5 5 5 5 5 5 5 5 5 5 5 5 5 5 5 5 5 5 5 5 5 5 3 5 5 5 3 5 5 5 5 5 5 5 5 5 5 5 3 5 3 5 5 5 5 5 5 5 3 5 5 5 5 5 5 5 5 5 5 5 5 5 5 5 5 3 5 5 3 5 5 5 3 5 5 5 5 5 3 5 5 5 5 5 5 5 5 5 5 3 5 3 5 5 5 5 5 5 5 5 5 5 5 5 5 5 5 5 5 3 5 5 5 5 5 5 5 5 5 5 5 5 3 5 5 5 5 3 5 5 3 5 3 5 5 5 3 5 5 5 5 5 5 3 5 5 5 5 5 5 5 5 5 5 5 5 3 5 5 5 5 5 5 5 5 5 5 5 5 5 5 5 5 3 5 5 5 5 5 3 3 5 5 3 5 5 5 5 5 5 5 5 5 5 5 5 5 5 5 5 5 5 5 3 5 5 5 5 5 5 5 5 5 5 3 5 5 5 5 5 5 3 5 5 3 5 5 5 5 5 5 5 5 5 5 5 5 5 5 5 5 5 5 5 5 3 5 5 5 5 5 5 3 5 5 5 5 5 3 5 5 3 5 3 5 3 5 3 5 5 5 5 3 5 5 5 5 5 3 5 5 5 5 3 5 5 5 5 5 3 5 5 3 5 5 5 5 3 5 5 5 5 3 5 5 5 5 5 5 5 5 5 5 5 5 5 5 5 5 5 5 5 5 5 3 5 5 5 5 5 5 5 5 3 5 5 5 3 5 5 5 5 5 3 5 5 5 5 5 3 5 5 5 5 5 5 3 5 5 5 5 5 5 5 5 5 5 5 5 5 5 5 5 5 5 5 5 5 5 5 3 3 5 5 5 5 5 5 3 5 5 5 5 3 5 5 5 3 5 5 5 5 5 3 3 5 5 5 3 5 5 3 5 5 5 5 5 5 5 5 5 5 3 3 5 5 5 5 5 5 5 5 5 5 5 5 5 5 5 5 5 5 5 5 5 5 3 5 3 5 5 5 5 3 5 5 5 5 5 5 5 5 5 3 5 5 3 5 5 5 5 5 5 5 5 5 5 5 5 5 5 5 5 5 5 5 5 5 5 5 5 5 5 5 5 5 5 5 3 5 5 5 3 5 5 5 5 3 5 5 5 5 3 5 5 5 5 5 5 5 5 5 5 5 5 5 5 5 3 5 5 5 5 5 5 5 5 5 5 5 5 5 5 5 5 5 5 5 5 5 3 5 5 3 5 5 5 3 5 3 5 5 5 5 5 3 5 5 5 5 5 5 5 5 5 5 5 5 5 5 5 5 5 5 5 3 5 3 5 3 5 5 5 5 5 5 5 5 5 3 5 5 3 5 5 5 5 5 5 5 5 5 5 5 5 5 5 5 5 5 5 5 5 5 5 5 5 5 5 5 5 5 5 5 5 5 5 5 5 5 5 5 3 5 5 5 5 5 5 5 5 5 3 3 5 5 5 5 5 5 5 5 5 5 5 5 5 5 5 5 5 5 3 5 5 5 5 5 5 5 5 5 5 5 5 5 5 5 5 5 5 5 5 5 5 5 5 5 5 5 5 5 5 5 5 5 5 5 5 5 5 5 5 5 5 5 5 5 5 5 3 5 3 5 3 5 5 5 3 5 5 3 5 3 5 5 5 5 5 3 5 5 5 3 5 3 5 5 5 3 5 3 5 5 5 5 3 5 5 5 5 5 5 5 3 5 5 5 5 5 3 5 5 3 5 5 5 5 5 5 5 5 5 5 5 5 5 5 5 5 5 5 5 5 5 5 5 5 5 5 5 5 5 5 5 3 5 5 5 5 5 5 5 5 5 5 5 5 5 5 5 5 5 5 5 5 5 5 5 5 5 5 5 5 3 5 5 5 3 5 5 5 5 5 5 5 5 5 5 5 5 5 5 5 5 5 5 5 5 5 5 5 3 5 5 5 5 5 5 5 5 5 5 5 3 5 5 5 5 5 3 5 5 5 5 5 5 5 3 5 5 5 5 5 5 3 5 5 5 5 3 3 5 3 5 5 5 5 5 3 5 5 5 5 5 5 5 3 5 5 5 5 3 5 5 5 5 5 5 5 5 3 5 5 5 5 5 5 3 5 5 5 5 5 5 5 3 5 5 5 5 5 3 5 5 5 5 5 5 5 5 5 5 5 5 3 5 5 5 5 5 5 5 5 3 5 5 5 5 5 5 5 3 5 5 5 5 3 5 5 5 5 5 5 5 3 5 5 3 5 5 5 5 5 3 5 5 5 3 3 5 5 5 5 5 3 5 5 5 5 5 5 5 5 3 5 5 3 5 5 5 5 5 5 5 5 5 5 5 3 5 3 5 5 5 5 3 5 5 5 5 5 5 5 5 5 3 5 5 5 5 3 5 5 5 5 3 5 5 5 5 3 5 5 5 5 5 5 5 5 5 5 5 5 5 5 5 5 5 5 5 5 5 5 3 5 5 5 5 5 3 5 5 5 3 5 5 3 5 5 5 5 5 5 5 5 5 5 5 5 5 3 5 5 3 5 5 5 3 5 5 3 5 3 5 5 5 3 5 5 5 5 3 5 5 5 5 5 5 3 5 5 5 5 5 5 5 5 5 5 3 5 5 3 5 3 3 5 3 3 5 5 5 3 5 5 5 5 5 5 5 5 5 5 5 5 5 5 5 5 5 5 5 3 5 5 5 5 5 5 5 5 5 5 5 5 3 5 5 5 3 5 5 5 5 5 5 5 5 5 5 5 5 5 5 5 5 5 5 5 5 5 5 5 5 5 5 5 5 5 5 5 5 5 5 5 5 5 5 5 5 5 5 5 5 5 3 5 5 3 5 5 5 3 5 3 5 5 5 5 5 5 5 5 5 5 5 5 5 5 5 5 3 5 3 5 5 5 5 5 5 5 5 5 5 5 3 5 3 5 3 5 3 5 3 3 5 5 5 5 3 5 5 5 5 3 5 3 3 5 3 5 3 5 5 5 5 5 5 5 5 5 5 5 5 5 5 5 3 5 5 3 5 5 3 5 5 5 3 5 5 5 3 5 5 5 5 5 5 5 5 5 5 5 5 5 5 5 5 5 5 5 3 5 5 5 5 5 5 5 5 5 5 5 5 5 5 5 5 3 5 5 5 5 3 3 5 5 5 5 5 5 5 3 3 5 5 5 5 5 5 5 5 5 5 5 5 5 5 5 5 5 5 5 3 5 5 5 3 5 5 5 5 3 5 5 3 5 5 3 5 5 5 5 5 5 5 5 3 5 5 5 5 5 5 5 5 5 3 5 5 5 3 5 5 5 5 5 5 5 5 5 5 5 5 5 5 5 5 5 5 5 5 5 5 5 5 5 5 5 5 3 3 5 5 5 5 5 5 3 5 5 5 5 5 3 5 5 5 5 3 5 5 5 3 5 5 5 5 5 3 5 5 5 3 5 5 5 5 5 5 5 5 5 5 5 5 5 5 5 5 5 3 5 5 5 3 5 5 5 5 5 5 5 5 5 3 5 5 5 3 5 5 5 5 5 5 3 5 5 5 5 5 5 5 5 5 3 5 5 5 5 3 5 5 5 5 5 3 5 5 3 5 5 5 5 5 5 5 5 5 5 5 5 5 5 5 5 5 5 5 5 3 5 5 5 5 5 5 5 5 5 3 5 5 3 5 5 5 3 5 5 5 5 5 5 5 5 3 5 5 5 5 5 3 5 5 5 5 5 3 5 3 5 5 5 5 3 5 5 3 5 3 5 3 5 5 5 5 5 3 5 3 3 5 5 3 5 5 5 3 5 5 5 5 5 5 5 3 3 5 5 5 5 5 5 5 3 5 5 5 3 5 5 5 5 5 5 5 5 3 5 5 3 5 5 5 5 5 5 3 5 5 5 5 5 5 5 5 3 5 3 5 3 5 5 3 3 5 5 3 5 3 3 5 5 5 3 5 3 5 5 5 3 3 3 5 5 3 3 5 3 5 3 5 5 5 3 5 5 5 5 5 3 5 5 5 3 5 5 3 3 5 5 5 5 5 5 3 5 5 5 5 3 5 5 5 5 5 5 5 5 5 5 3 5 3 3 5 5 3 5 3 3 5 5 3 5 3 3 5 5 5 5 5 5 5 3 5 5 5 3 5 5 5 5 5 5 5 5 5 5 5 3 5 5 3 5 5 5 5 5 3 5 5 5 3 5 5 3 5 5 5 3 5 5 5 5 5 3 5 5 5 5 3 3 5 3 5 3 5 3 3 5 5 5 5 5 3 3 5 3 3 5 3 5 5 5 3 3 5 3 5 5 3 5 5 5 5 3 5 3 5 5 5 3 5 5 3 5 5 5 5 3 5 5 5 5 3 5 5 5 5 5 5 5 5 5 5 5 5 3 5 5 5 5 5 5 5 5 5 3 5 5 5 3 5 5 5 5 5 5 5 5 5 5 5 5 5 5 5 5 5 5 5 5 5 5 5 5 5 5 5 5 5 5 5 5 5 5 5 5 5 5 5 5 5 5 5 5 5 5 5 5 5 5 5 5 5 5 5 5 5 5 5 3 5 5 5 5 5 5 5 5 3 5 5 5 5 5 5 3 5 5 5 3 5 5 5 5 5 5 5 3 5 5 5 5 5 3 3 5 5 5 3 5 3 5 3 5 5 5 5 5 5 3 3 5 5 5 5 5 5 3 5 5 5 5 5 5 5 5 3 3 5 5 5 3 3 5 5 5 5 5 3 5 5 5 5 5 5 5 5 5 3 5 5 5 3 5 5 5 5 5 3 5 5 5 5 5 5 5 5 5 5 5 5 5 5 5 3 5 5 5 3 5 3 5 5 5 5 5 5 5 5 5 5 5 5 5 5 5 5 5 5 5 5 5 5 5 5 3 5 3 5 5 5 5 5 5 5 3 5 5 5 5 5 5 5 3 5 3 5 5 5 5 5 5 5 5 5 5 5 5 5 3 5 5 3 3 5 5 5 5 5 5 5 5 5 5 5 5 5 5 3 5 5 5 5 5 3 5 3 5 5 5 5 5 5 5 5 5 5 5 5 5 5 5 5 5 5 5 5 3 3 5 5 5 5 5 5 5 5 5 5 5 5 5 3 5 5 5 5 5 5 5 5 5 5 5 5 5 5 5 5 5 5 5 5 5 5 5 5 5 5 5 5 5 5 5 5 5 5 5 5 5 5 5 3 5 5 3 5 5 5 5 5 5 5 5 5 5 5 3 5 5 5 5 5 5 5 5 5 3 5 5 3 5 5 5 5 5 5 3 5 5 5 5 5 5 5 5 5 5 5 5 5 5 5 5 5 5 5 5 5 5 5 5 5 5 5 5 5 5 5 5 5 5 5 3 3 5 5 5 5 5 3 5 5 5 5 5 5 5 5 5 5 5 5 5 3 5 5 5 5 5 5 5 5 3 5 5 5 5 5 5 5 5 5 5 5 5 5 5 5 5 5 5 5 5 5 5 5 5 5 5 5 5 5 5 5 5 5 5 5 5 5 5 5 5 5 5 5 5 5 5 5 5 5 5 5 5 5 5 5 5 5 5 5 5 5 5 5 5 5 5 5 5 3 3 5 5 5 5 5 5 5 5 5 5 5 5 5 5 5 5 3 5 5 3 5 3 5 3 5 5 3 5 5 5 5 5 5 5 3 5 5 5 5 5 5 5 5 5 5 5 5 3 5 5 5 5 5 5 5 5 5 5 5 5 5 5 3 5 5 5 5 5 5 5 5 5 5 5 5 5 5 5 5 5 5 5 5 5 5 5 5 5 5 5 5 5 5 5 5 5 5 5 5 5 5 5 5 5 5 5 5 5 5 5 5 5 5 5 5 5 5 5 5 5 5 5 5 5 5 5 5 5 5 5 5 5 5 5 5 5 5 5 5 5 5 5 5 5 5 5 5 5 5 5 5 5 5 3 5 3 5 5 5 5 5 5 5 5 5 5 5 5 5 5 5 5 3 3 5 5 5 5 5 5 5 5 5 5 5 5 5 5 5 5 5 5 5 5 5 5 5 5 5 5 5 5 5 5 5 5 5 5 5 5 5 5 5 3 5 5 5 5 3 5 5 5 5 5 5 5 5 5 3 5 3 5 5 5 5 5 5 5 3 5 5 5 5 5 5 5 5 5 5 5 5 5 5 3 5 5 5 5 3 5 5 5 5 5 5 5 5 5 5 5 5 5 3 5 5 5 3 5 5 5 5 5 5 5 5 5 5 5 5 5 5 5 5 5 5 5 5 5 5 5 3 5 5 5 5 3 5 5 5 5 5 5 3 5 5 5 5 3 5 5 5 5 5 5 3 5 5 5 5 5 3 5 5 3 3 5 5 5 5 3 5 5 5 5 5 5 5 5 5 3 5 5 3 5 5 5 5 5 5 5 5 5 5 5 5 5 5 3 5 5 5 5 5 3 5 5 5 5 3 5 5 5 5 5 5 5 5 5 5 5 5 5 5 3 5 5 5 5 5 3 5 5 5 5 5 5 3 5 5 5 5 5 5 5 5 5 5 5 5 5 3 5 5 5 5 5 5 3 5 5 3 5 5 5 5 5 5 5 5 5 5 5 3 5 5 5 5 5 5 5 5 5 5 5 3 5 3 5 5 5 5 5 3 3 5 5 3 3 5 5 3 5 5 5 5 3 5 5 5 5 5 5 3 5 5 3 5 5 5 5 5 5 5 3 5 5 5 5 5 5 3 5 5 5 5 5 5 5 5 5 5 5 5 5 5 5 5 5 3 5 5 5 3 5 5 5 5 5 5 5 5 5 5 5 5 5 5 5 5 5 5 5 5 5 3 5 5 5 5 3 5 3 5 5 3 5 5 3 5 5 5 5 5 3 5 5 5 3 5 5 3 5 5 5 5 3 5 5 5 5 3 5 5 5 5 5 5 5 5 5 5 5 5 5 5 5 5 5 5 5 3 5 5 5 5 5 5 3 5 5 5 5 5 3 5 5 5 3 5 5 3 5 5 5 5 5 5 5 5 5 5 5 5 5 3 5 3 5 5 5 5 5 5 5 5 5 5 5 5 5 5 5 5 3 5 5 5 3 5 5 5 5 5 5 5 5 5 5 5 5 5 5 5 5 5 5 5 5 5 5 5 5 5 5 5 5 5 5 3 5 5 3 5 5 5 5 5 5 5 5 5 5 5 5 5 5 3 5 5 5 5 5 3 5 5 5 5 5 5 5 5 5 3 5 5 5 5 5 5 5 5 5 5 5 5 5 5 5 5 5 5 5 5 5 3 5 3 5 3 5 5 5 5 5 5 5 5 5 3 5 5 5 5 5 5 5 5 5 5 5 5 5 5 5 5 3 3 5 5 5 5 5 5 5 3 5 5 5 5 5 5 5 5 5 5 5 5 5 5 5 5 5 3 3 5 5 5 5 5 5 5 5 5 5 5 5 5 5 5 5 5 5 5 5 5 5 5 5 5 5 5 5 5 5 5 5 5 5 5 5 5 5 5 5 5 5 3 5 5 5 5 5 5 5 5 5 5 5 5 5 5 5 5 5 5 5 3 5 5 5 5 5 5 5 5 3 5 5 5 5 5 5 3 3 5 3 5 5 3 5 5 5 3 5 3 5 5 3 5 5 3 5 5 5 5 5 5 5 5 5 5 5 3 5 5 5 5 3 5 5 5 5 5 5 5 5 5 5 3 5 5 3 5 5 5 5 5 5 5 5 5 5 5 5 5 5 5 5 5 5 5 5 5 3 5 5 3 5 5 5 5 5 5 5 5 3 3 5 5 5 5 5 3 5 5 5 3 5 5 5 5 3 5 5 5 5 5 5 5 5 5 5 5 5 5 5 5 5 5 5 5 5 5 5 5 5 5 5 5 5 5 5 5 5 5 5 3 3 5 5 5 5 5 3 5 5 5 5 3 5 5 5 5 5 5 5 5 3 5 5 5 5 5 3 5 5 5 3 5 5 5 5 5 5 5 5 5 5 5 5 3 3 5 5 5 5 3 3 5 3 3 5 3 5 3 5 5 3 3 5 5 5 5 3 3 5 5 3 3 5 5 3 5 5 3 5 5 5 5 5 5 5 5 5 5 5 5 5 5 5 5 5 5 5 5 5 3 5 5 5 3 5 5 3 5 5 5 3 5 3 3 5 3 5 5 5 5 5 3 3 5 5 3 5 5 5 3 5 5 5 5 5 5 5 5 3 5 5 3 5 5 5 5 3 3 5 3 5 5 5 5 3 5 5 5 5 5 5 5 3 5 5 5 5 5 5 3 5 5 5 5 5 5 5 5 5 5 5 5 5 3 3 3 3 5 5 3 3 5 5 5 5 5 3 3 5 3 5 3 5 3 5 5 3 5 5 3 5 3 3 5 5 5 5 5 5 5 5 5 5 3 5 5 3 5 5 5 5 5 5 5 5 5 5 5 5 5 5 3 5 5 5 3 5 5 3 5 5 5 5 3 5 5 5 5 3 5 5 5 3 5 5 5 5 5 3 5 5 5 5 5 5 3 5 3 5 5 5 5 5 5 5 5 5 5 5 5 5 5 3 5 5 3 5 3 3 5 5 5 5 5 5 3 5 5 3 5 5 5 3 3 5 3 5 5 5 5 5 3 5 5 5 3 5 5 5 5 5 5 5 3 5 5 5 5 5 5 3 5 5 5 5 5 5 3 5 5 5 5 5 5 5 5 5 5 3 5 5 5 5 5 5 5 5 5 5 5 5 5 5 5 3 3 5 5 5 5 5 5 5 5 5 3 5 5 5 5 5 5 5 5 3 5 5 3 5 3 5 5 5 3 5 3 5 5 5 3 5 3 5 5 5 3 3 5 3 5 5 5 5 5 5 5 5 5 5 5 3 3 5 3 5 5 5 3 3 5 3 5 5 5 5 3 3 5 3 5 5 5 5 5 5 3 5 3 5 5 5 5 3 3 5 5 3 5 5 3 5 5 3 5 5 3 3 5 5 3 5 3 3 5 5 3 5 5 5 5 5 5 3 3 3 5 5 5 3 5 3 5 5 5 5 3 3 5 3 3 3 5 5 5 5 5 5 5 5 5 5 5 5 5 5 5 5 5 5 5 5 5 5 5 5 5 5 3 5 5 5 3 5 5 5 5 5 5 5 5 5 5 5 3 5 5 5 5 5 3 5 3 5 5 3 5 5 5 5 5 3 3 5 5 5 5 5 3 5 5 3 5 5 5 5 5 5 5 5 5 5 5 5 5 5 5 5 5 5 5 5 3 5 5 5 5 5 5 5 5 5 5 5 3 3 5 5 5 5 5 5 5 5 5 3 5 5 5 5 5 5 5 3 5 5 5 5 5 5 5 5 5 5 5 5 3 5 3 5 5 5 5 5 5 5 5 5 3 5 3 5 5 5 5 5 5 5 5 5 3 3 5 5 5 5 5 5 5 5 5 5 5 5 5 5 5 5 5 5 5 5 5 5 5 5 5 5 5 5 5 5 5 5 5 3 5 5 5 5 5 5 5 5 5 5 5 5 5 3 5 5 5 5 5 5 5 5 5 5 5 5 5 5 5 5 5 5 5 5 5 5 5 3 3 5 5 5 5 5 5 5 5 5 5 5 5 5 5 5 3 5 5 5 5 5 5 5 5 5 5 5 5 5 5 5 5 5 3 5 5 5 5 3 5 5 5 5 5 5 5 5 5 5 5 3 3 5 5 5 5 5 5 5 5 5 5 5 5 5 5 5 5 5 5 5 3 5 5 5 3 5 5 5 3 3 5 5 3 3 5 3 5 5 5 3 5 5 3 3 5 5 3 5 5 3 3 5 5 5 5 3 5 5 5 3 3 5 5 5 5 5 5 5 5 3 5 5 3 5 5 5 5 3 5 5 5 5 5 3 5 5 3 5 5 5 5 5 3 5 5 5 5 3 5 5 3 5 3 5 5 5 5 5 5 5 3 5 5 5 3 5 5 3 5 5 5 5 5 5 5 5 5 5 5 5 5 5 5 5 3 5 3 5 5 5 5 5 5 5 5 5 3 5 5 5 3 3 3 5 5 5 3 3 5 3 5 3 3 5 5 5 3 5 3 5 5 5 5 5 5 5 5 5 5 3 5 5 5 3 5 5 5 3 5 5 5 5 5 5 5 5 5 5 5 5 5 5 5 5 5 5 5 3 5 5 5 5 3 5 3 5 5 5 5 5 5 5 5 5 5 5 3 5 3 5 5 3 5 3 3 3 5 5 5 3 5 5 5 3 3 5 5 5 5 5 5 3 5 5 5 5 5 5 5 5 5 3 5 5 3 5 5 5 3 5 5 5 5 5 5 5 5 5 5 5 5 5 5 5 5 5 3 5 5 5 5 5 5 3 3 5 5 5 3 5 5 5 5 5 5 5 3 5 5 5 5 5 5 5 5 5 5 5 5 5 3 5 5 5 5 5 5 5 5 5 5 5 5 5 5 5 5 5 5 3 5 5 5 5 5 3 5 5 5 5 5 5 5 5 3 5 5 5 5 5 5 5 5 5 5 5 5 5 5 5 5 5 5 5 5 5 3 3 5 5 3 5 3 5 5 5 5 5 5 5 5 3 5 5 5 5 3 5 5 5 5 3 5 5 5 3 5 3 5 5 5 3 3 5 3 5 3 3 5 5 5 5 5 3 5 5 5 3 5 5 5 5 3 5 5 5 5 5 5 5 5 5 5 5 5 5 5 5 5 5 5 3 5 5 5 5 5 3 5 5 5 5 3 5 5 5 5 5 5 3 5 5 5 5 5 5 5 5 5 5 5 5 5 5 5 5 5 5 5 5 5 5 5 5 3 5 5 5 3 5 5 3 5 5 3 5 5 5 3 5 5 3 5 3 5 5 3 5 5 5 5 5 5 5 5 5 5 5 5 5 5 5 3 5 5 3 5 3 5 5 5 5 5 5 5 3 5 5 3 5 3 5 5 5 3 5 5 5 5 3 5 5 3 5 5 3 5 5 3 5 5 5 5 5 5 5 5 5 3 5 5 3 5 3 3 3 5 5 5 5 5 5 5 3 5 3 5 3 3 5 5 5 5 5 5 5 5 5 5 5 3 5 5 5 5 5 5 5 5 5 5 5 5 5 5 5 5 5 5 5 5 5 5 5 5 5 5 5 5 3 5 5 5 5 5 5 3 5 5 5 5 5 5 5 5 5 5 5 5 5 5 5 5 3 5 5 5 5 5 5 5 5 5 5 5 5 5 5 5 5 5 5 5 5 5 5 5 3 3 5 5 5 5 5 5 5 3 5 5 5 3 3 5 5 3 5 5 5 5 5 5 5 5 5 5 5 5 5 3 5 5 5 5 5 5 5 5 5 5 5 5 5 5 5 5 5 5 5 5 5 5 3 5 5 5 3 5 5 5 5 5 5 5 5 5 5 5 5 5 5 5 5 5 5 5 5 5 5 3 5 5 5 5 5 5 5 5 5 5 5 5 5 5 5 5 5 5 5 5 5 5 5 3 5 5 5 5 5 5 5 5 5 5 5 5 5 5 5 5 5 5 5 3 5 5 5 5 5 5 5 5 5 5 5 5 5 5 5 5 5 5 5 5 5 5 5 5 5 5 5 5 5 5 5 5 5 5 5 5 5 5 5 5 3 5 5 5 5 5 5 5 3 5 5 3 5 5 3 5 5 5 5 5 5 5 5 5 5 5 5 5 5 5 5 5 5 5 5 5 5 5 5 5 5 5 5 5 5 3 5 5 5 5 3 5 5 5 5 5 5 5 5 3 5 5 5 5 5 5 5 5 5 5 5 5 5 5 5 5 5 5 3 3 5 3 5 3 5 5 5 3 5 5 5 5 5 5 3 5 5 5 3 5 5 5 5 3 5 5 5 3 5 5 5 5 5 3 5 5 3 5 5 5 5 5 5 5 5 5 5 5 5 5 5 5 5 5 5 3 5 5 5 5 5 5 5 5 5 5 5 5 5 3 5 3 5 5 5 3 5 3 5 5 5 5 5 5 5 5 5 5 5 5 5 5 5 3 5 5 3 5 5 5 5 5 5 5 5 5 5 5 5 5 5 5 5 5 5 5 5 5 5 5 5 5 5 5 5 5 5 5 5 5 3 5 5 5 5 5 5 5 5 5 5 5 5 5 5 5 5 5 5 5 5 5 5 5 5 5 5 5 5 5 5 5 5 5 5 5 5 5 5 5 5 5 5 5 5 5 5 5 5 5 3 5 5 5 5 5 3 5 3 5 5 5 5 5 5 5 5 5 5 5 5 5 5 5 5 3 5 5 5 5 5 5 5 5 5 5 5 5 5 5 5 5 5 5 5 3 5 5 5 5 5 3 5 5 5 5 3 5 5 5 5 5 5 5 5 5 5 5 5 5 5 5 5 5 5 5 5 5 5 5 5 5 5 5 5 5 5 5 5 5 5 5 5 5 5 5 3 5 5 5 5 5 5 5 5 5 5 5 5 5 5 5 5 5 5 5 5 5 5 5 5 5 5 5 5 3 5 3 5 3 5 5 5 5 5 3 3 5 3 5 5 3 5 5 3 5 5 3 5 5 5 5 5 5 5 5 5 5 5 5 5 5 5 5 5 3 5 5 5 5 5 3 5 5 5 5 5 5 5 5 5 5 5 3 5 5 3 5 5 5 5 5 5 5 3 5 5 5 5 5 5 5 5 3 5 5 5 3 5 3 5 5 5 5 5 5 5 5 5 5 5 5 5 5 5 5 5 5 5 5 5 5 5 5 5 3 5 5 5 3 5 5 5 5 5 5 5 5 5 3 5 5 5 5 5 5 5 3 5 5 5 5 5 5 5 5 5 5 5 5 5 5 5 5 5 5 5 5 5 5 5 5 5 5 5 5 5 5 5 5 5 5 5 3 5 5 5 5 5 5 5 5 5 5 5 5 5 5 5 5 5 5 5 5 5 5 5 5 5 5 5 5 5 5 5 5 5 5 5 5 5 5 5 5 5 5 5 5 5 5 5 5 5 5 3 5 5 5 5 5 3 5 5 5 5 5 5 5 3 5 5 5 5 5 5 5 5 3 5 3 5 5 5 5 3 5 5 3 5 5 5 3 3 5 5 5 3 3 5 3 5 5 5 5 5 5 5 5 5 5 5 5 5 5 5 5 5 5 5 5 5 5 5 3 3 5 3 5 5 5 5 5 3 5 5 5 5 3 5 5 5 3 5 3 5 5 5 5 5 5 5 5 5 5 5 5 5 5 5 5 5 5 5 5 5 5 5 5 5 3 5 5 5 5 5 5 5 5 5 5 3 5 5 5 5 5 5 5 5 3 3 5 5 5 5 5 5 5 5 5 5 5 5 5 5 5 5 5 3 5 5 3 3 5 5 5 5 5 3 5 5 5 5 5 5 5 5 5 3 5 5 5 3 5 5 5 5 5 3 5 3 5 3 3 5 5 3 5 5 5 5 5 3 5 5 5 5 5 3 3 5 5 5 5 3 5 5 5 5 5 5 3 5 5 5 5 5 5 5 5 5 5 5 5 5 5 5 5 5 5 5 5 5 5 5 5 5 5 5 5 5 5 5 5 5 5 5 5 5 5 5 5 5 5 5 5 5 5 5 5 5 5 5 5 5 3 5 5 3 5 5 3 5 3 5 5 5 5 5 5 5 5 5 3 5 5 3 5 5 5 5 5 5 5 5 5 5 3 5 5 5 5 3 5 5 5 3 5 5 5 5 3 5 5 5 5 5 5 5 5 5 3 5 5 5 5 3 5 5 5 5 5 5 5 5 5 5 5 5 5 5 5 5 5 5 5 5 5 5 5 3 5 5 5 5 5 5 5 5 5 3 5 5 5 5 5 5 3 5 5 5 5 5 5 5 5 5 5 5 5 5 5 5 5 5 5 5 5 5 5 5 5 5 5 5 5 5 5 5 5 3 5 5 5 3 5 5 3 3 5 5 5 5 5 5 5 5 5 3 5 5 5 3 3 5 5 3 5 5 5 3 3 3 5 5 5 5 5 5 5 5 5 5 5 5 5 5 5 5 5 5 5 5 5 5 5 5 5 5 3 5 5 3 5 5 3 5 5 5 5 5 5 5 3 5 5 5 5 5 5 5 5 5 5 5 5 5 3 5 5 3 5 5 5 5 5 5 5 5 3 5 5 5 5 5 5 5 5 5 5 5 5 5 5 5 5 5 5 5 5 5 5 5 5 5 5 5 5 5 5 5 5 5 5 5 5 5 5 5 5 5 5 5 5 5 5 5 5 3 5 5 5 5 5 5 5 5 5 5 5 5 5 5 5 3 5 5 5 5 5 3 5 5 5 5 5 5 5 3 5 5 5 5 3 5 5 5 5 5 5 5 5 5 5 3 5 5 3 5 5 5 5 5 5 5 5 3 3 5 5 5 3 5 5 5 5 5 5 5 5 5 5 3 5 5 5 3 5 5 5 3 5 5 5 5 5 5 5 5 5 5 3 5 5 5 5 5 5 3 5 5 3 5 5 5 5 5 5 5 5 5 5 5 5 5 3 5 5 3 5 5 5 3 3 5 5 5 5 5 5 3 5 5 5 5 5 5 5 5 5 5 3 5 5 5 5 5 5 5 5 5 3 5 5 3 5 5 5 5 5 5 3 5 5 5 5 5 5 5 5 5 5 5 5 5 5 3 5 5 5 5 5 3 5 5 3 5 5 5 5 5 5 5 5 5 5 5 3 5 5 5 5 5 3 5 3 5 3 5 5 3 5 5 5 5 3 5 3 5 3 3 5 5 3 5 5 3 5 5 5 5 5 5 5 5 5 5 5 5 5 5 3 5 5 5 5 5 3 5 5 5 5 5 5 5 5 3 5 5 5 5 5 5 5 5 5 5 5 3 5 5 5 5 5 3 5 5 5 5 5 5 3 5 5 5 5 5 3 3 5 5 5 3 5 5 5 5 5 5 5 5 5 5 5 5 5 5 5 5 5 5 5 5 5 5 5 3 5 5 5 5 3 3 5 3 5 5 5 5 5 5 3 5 5 5 3 5 5 5 5 5 5 5 3 5 5 5 3 5 5 5 5 3 5 5 3 5 5 5 3 5 5 3 5 5 3 3 3 5 3 3 5 5 3 5 5 3 5 5 5 5 5 5 5 3 5 5 3 5 5 5 5 5 5 5 5 5 5 5 5 5 5 5 5 5 5 5 3 3 5 5 5 5 5 5 5 5 5 5 5 5 5 5 5 5 5 5 5 5 5 5 5 5 5 5 5 5 5 5 5 5 5 5 5 5 5 5 5 5 5 5 5 5 5 5 5 5 5 5 5 5 5 5 5 3 5 5 5 5 5 5 5 5 5 5 5 5 5 5 5 5 5 5 5 5 5 5 5 5 3 5 5 5 5 5 5 5 5 5 5 5 5 5 5 5 5 5 5 5 5 5 5 5 5 5 5 5 5 5 5 5 5 5 5 5 5 5 5 5 5 3 5 3 5 5 5 5 3 5 5 5 3 5 5 5 5 5 5 5 5 5 5 5 5 5 5 5 3 5 5 5 5 5 5 5 5 5 5 5 3 5 5 5 3 5 5 5 5 5 5 5 5 5 3 5 3 5 5 3 5 5 5 5 5 5 5 5 5 5 5 3 5 5 5 5 5 5 5 5 5 5 5 5 5 5 5 5 5 5 5 5 5 5 5 5 3 5 5 5 5 5 5 5 5 5 5 5 3 5 5 5 3 3 5 5 5 5 5 5 5 5 5 5 3 5 5 5 5 3 5 3 5 5 5 5 3 5 5 3 5 5 5 5 5 3 5 5 5 5 5 5 5 5 5 5 5 5 5 5 5 5 5 5 5 5 5 5 5 5 5 5 5 3 5 5 3 5 5 5 5 3 5 5 5 5 5 3 5 5 5 5 5 5 5 5 5 5 5 5 3 5 5 5 5 5 5 5 5 5 3 5 5 5 5 5 5 5 5 5 5 5 5 5 5 5 5 3 5 5 5 5 5 5 5 3 3 5 5 3 5 5 5 5 5 5 5 5 5 5 5 5 5 3 5 5 5 5 5 3 3 5 5 5 5 5 5 5 5 5 5 5 5 5 5 5 5 5 5 5 5 5 5 5 5 5 5 5 5 5 5 5 5 5 5 5 5 5 5 5 5 5 5 5 5 5 5 5 5 5 5 5 5 5 5 5 5 5 5 5 5 5 5 5 5 5 3 5 3 5 5 5 5 5 5 5 5 5 5 5 5 5 5 5 5 5 5 5 5 5 5 5 5 5 5 5 5 5 5 5 5 5 5 5 5 5 5 5 5 5 5 5 5 5 5 5 5 5 5 5 5 5 3 5 5 3 5 5 5 5 5 5 5 5 5 5 5 5 5 5 5 5 3 5 5 5 5 5 5 5 5 5 5 5 5 5 5 5 5 5 5 5 5 5 5 5 5 5 5 5 5 5 5 5 5 5 5 5 3 5 5 5 5 5 5 5 5 5 5 3 5 5 5 5 5 5 5 5 5 5 5 5 5 5 5 5 5 5 5 5 5 5 5 5 5 5 5 5 3 5 5 5 5 5 5 3 5 5 5 5 5 5 5 5 5 5 5 5 5 5 5 5 5 5 5 5 5 5 5 
</DataArray>
</Cells>
<PointData Scalars="" Vectors="displacement," Tensors="">
<DataArray type="Float64" Name="displacement" NumberOfComponents="3" format="ascii">
0.015000053672371557 0.014937056488560399 0 0.014935533603368741 0.014944899275856202 0 0.014999953918852775 0.014939071231154698 0 0.014999887943637028 0.01499875332826041 0 0.014132909192289491 0.015000487731468139 0 0.014999953918852775 0.014939071231154698 0 0.014132909192289491 0.015000487731468139 0 0.014336309339011999 0.015430556393296324 0 0.015614578183540057 0.014410005763804619 0 0.014999981607082902 0.014098873830209678 0 0.015647189281247809 0.013683202092379096 0 0.014999994988767133 0.014937083654121946 0 0.015614578183540057 0.014410005763804619 0 0.014999981607082902 0.014098873830209678 0 0.014999981607082902 0.014098873830209678 0 0.015647189281247809 0.013683202092379096 0 0.014999973409812692 0.01326063011665027 0 0.015614578183540057 0.014410005763804619 0 0.015647189281247809 0.013683202092379096 0 0.016215789142534905 0.013894495616909676 0 0.015647189281247809 0.013683202092379096 0 0.014999973409812692 0.01326063011665027 0 0.0157783170818936 0.013065167942283911 0 0.016263922877036319 0.01336981327744676 0 0.016823162604301299 0.013393597709527451 0 0.016377805209837969 0.012857040209892083 0 0.016263922877036319 0.01336981327744676 0 0.016215789142534905 0.013894495616909676 0 0.016823162604301299 0.013393597709527451 0 0.015647189281247809 0.013683202092379096 0 0.016263922877036319 0.01336981327744676 0 0.0157783170818936 0.013065167942283911 0 0.015647189281247809 0.013683202092379096 0 0.016263922877036319 0.01336981327744676 0 0.016215789142534905 0.013894495616909676 0 0.013947355248567411 0.015661386624548843 0 0.013885021891885934 0.015436822139068086 0 0.013683520573633147 0.015723258144831539 0 0.013739038792086277 0.015454981430572645 0 0.013168256144027382 0.01573238054792719 0 0.013947355248567411 0.015661386624548843 0 0.013683520573633147 0.015723258144831539 0 0.01367482030839891 0.015860080138859409 0 0.015293993715730795 0.014654580178381449 0 0.01424539015895469 0.015090947034150627 0 0.013041693352289352 0.015570816994642439 0 0.013528077796852127 0.01547769897322371 0 0.012991875605059378 0.015306938289602914 0 0.013041693352289352 0.015570816994642439 0 0.013528077796852127 0.01547769897322371 0 0.012997483975148201 0.015939370748901411 0 0.014336309339011999 0.015430556393296324 0 0.013947355248567411 0.015661386624548843 0 0.013885021891885934 0.015436822139068086 0 0.014935533603368741 0.014944899275856202 0 0.015293993715730795 0.014654580178381449 0 0.014132909192289491 0.015000487731468139 0 0.014336309339011999 0.015430556393296324 0 0.013885021891885934 0.015436822139068086 0 0.014132519107995409 0.015000051549789541 0 0.013739038792086277 0.015454981430572645 0 0.014132554901723347 0.015000042956179684 0 0.013528077796852127 0.01547769897322371 0 0.013281724023103731 0.014999790278368438 0 0.013528077796852127 0.01547769897322371 0 0.013281724023103731 0.014999790278368438 0 0.012991875605059378 0.015306938289602914 0 0.013281724023103731 0.014999790278368438 0 0.012991875605059378 0.015306938289602914 0 0.012432087581033329 0.015000162755177564 0 0.012991875605059378 0.015306938289602914 0 0.012432087581033329 0.015000162755177564 0 0.012696222227602444 0.015430276458980128 0 0.012432087581033329 0.015000162755177564 0 0.012696222227602444 0.015430276458980128 0 0.012437560845167757 0.015397966013751426 0 0.012696222227602444 0.015430276458980128 0 0.012437560845167757 0.015397966013751426 0 0.012592873774563329 0.015581268928575661 0 0.013041693352289352 0.015570816994642439 0 0.012991875605059378 0.015306938289602914 0 0.012696222227602444 0.015430276458980128 0 0.013041693352289352 0.015570816994642439 0 0.012696222227602444 0.015430276458980128 0 0.012817819562004205 0.01559036162184271 0 0.011593898281532551 0.014999996562967818 0 0.011764417064735966 0.015334255707869863 0 0.011098253329391905 0.015664812409565011 0 0.012432087581033329 0.015000162755177564 0 0.012302887468658142 0.015228374841459552 0 0.012437560845167757 0.015397966013751426 0 0.012431423500172284 0.014999999565167248 0 0.011593898281532551 0.014999996562967818 0 0.011764417064735966 0.015334255707869863 0 0.012431362608223225 0.015000069270680377 0 0.012045465604646272 0.015262412325014288 0 0.012302887468658142 0.015228374841459552 0 0.012437560845167757 0.015397966013751426 0 0.012260677428885253 0.015458625576197822 0 0.012302887468658142 0.015228374841459552 0 0.012260677428885253 0.015458625576197822 0 0.012047477133286948 0.015357825032577497 0 0.012194442126919631 0.015465541300002526 0 0.012184747425289558 0.015475641928797003 0 0.012045465604646272 0.015262412325014288 0 0.011529409500221457 0.015580298474286868 0 0.012260677428885253 0.015458625576197822 0 0.012226778641744098 0.015561658335417537 0 0.01212349883005206 0.015463601641094529 0 0.012260677428885253 0.015458625576197822 0 0.012226778641744098 0.015561658335417537 0 0.012379552385870454 0.015577934454513033 0 0.012437560845167757 0.015397966013751426 0 0.012260677428885253 0.015458625576197822 0 0.012379552385870454 0.015577934454513033 0 0.012437560845167757 0.015397966013751426 0 0.012379552385870454 0.015577934454513033 0 0.012592873774563329 0.015581268928575661 0 0.012379552385870454 0.015577934454513033 0 0.012522871152391006 0.015702502330062658 0 0.012592873774563329 0.015581268928575661 0 0.012379552385870454 0.015577934454513033 0 0.012522871152391006 0.015702502330062658 0 0.012300327651011222 0.015739874578938464 0 0.012522871152391006 0.015702502330062658 0 0.012300327651011222 0.015739874578938464 0 0.012583105008655806 0.015855687852087578 0 0.012226778641744098 0.015561658335417537 0 0.012379552385870454 0.015577934454513033 0 0.012300327651011222 0.015739874578938464 0 0.012226778641744098 0.015561658335417537 0 0.012300327651011222 0.015739874578938464 0 0.012080724015244033 0.015596174303783588 0 0.012742057254673816 0.015651041490832001 0 0.012906401286931631 0.015666541390400218 0 0.012753646782297907 0.015691175489344154 0 0.012742057254673816 0.015651041490832001 0 0.012906401286931631 0.015666541390400218 0 0.012817819562004205 0.01559036162184271 0 0.013041693352289352 0.015570816994642439 0 0.012906401286931631 0.015666541390400218 0 0.012817819562004205 0.01559036162184271 0 0.01303415809129343 0.015617910050537035 0 0.013168256144027382 0.01573238054792719 0 0.012696222227602444 0.015430276458980128 0 0.012817819562004205 0.01559036162184271 0 0.012592873774563329 0.015581268928575661 0 0.012742057254673816 0.015651041490832001 0 0.012817819562004205 0.01559036162184271 0 0.012592873774563329 0.015581268928575661 0 0.012742057254673816 0.015651041490832001 0 0.012592873774563329 0.015581268928575661 0 0.012648765742988068 0.015699344566498821 0 0.012648765742988068 0.015699344566498821 0 0.012715088183916239 0.015749104080744421 0 0.012753646782297907 0.015691175489344154 0 0.012522871152391006 0.015702502330062658 0 0.012638922752922109 0.015757955090356834 0 0.012583105008655806 0.015855687852087578 0 0.012742057254673816 0.015651041490832001 0 0.012648765742988068 0.015699344566498821 0 0.012753646782297907 0.015691175489344154 0 0.012522871152391006 0.015702502330062658 0 0.012592873774563329 0.015581268928575661 0 0.012648765742988068 0.015699344566498821 0 0.012522871152391006 0.015702502330062658 0 0.012648765742988068 0.015699344566498821 0 0.012638922752922109 0.015757955090356834 0 0.012648765742988068 0.015699344566498821 0 0.012638922752922109 0.015757955090356834 0 0.012715088183916239 0.015749104080744421 0 0.012638922752922109 0.015757955090356834 0 0.012715088183916239 0.015749104080744421 0 0.012714634207784063 0.015784210380968729 0 0.012906401286931631 0.015666541390400218 0 0.012715088183916239 0.015749104080744421 0 0.012753646782297907 0.015691175489344154 0 0.012715088183916239 0.015749104080744421 0 0.012864855458972927 0.015685802411235232 0 0.012714634207784063 0.015784210380968729 0 0.01424539015895469 0.015090947034150627 0 0.012350146433121519 0.01607359684860904 0 0.013168256144027382 0.01573238054792719 0 0.012678254165753342 0.015734772932838956 0 0.012878009624103013 0.015560895612377548 0 0.012715088183916239 0.015749104080744421 0 0.012864855458972927 0.015685802411235232 0 0.013168256144027382 0.01573238054792719 0 0.01424539015895469 0.015090947034150627 0 0.012871412334191507 0.015657459776198198 0 0.012714634207784063 0.015784210380968729 0 0.012843220401874455 0.015935194547252222 0 0.01424539015895469 0.015090947034150627 0 0.014661455649153781 0.012594286834306877 0 0.013000423804851616 0.012443946924008822 0 0.014661455649153781 0.012594286834306877 0 0.012638922752922109 0.015757955090356834 0 0.012714634207784063 0.015784210380968729 0 0.012583105008655806 0.015855687852087578 0 0.012714634207784063 0.015784210380968729 0 0.012583105008655806 0.015855687852087578 0 0.012843220401874455 0.015935194547252222 0 0.013945551817060744 0.0091203197023677109 0 0.013967172894280898 0.0090718020866621708 0 0.013942779208364633 0.0091307724353679939 0 0.013941824539011121 0.0091451961565284252 0 0.013945551817060744 0.0091203197023677109 0 0.013941966087205486 0.0091398296361872491 0 0.013941824539011121 0.0091451961565284252 0 0.013945551817060744 0.0091203197023677109 0 0.013967172894280898 0.0090718020866621708 0 0.014661455649153781 0.012594286834306877 0 0.015131978390812118 0.0099488177516008532 0 0.013945551817060744 0.0091203197023677109 0 0.013941966087205486 0.0091398296361872491 0 0.013942779208364633 0.0091307724353679939 0 0.016795133576024652 0.012414179310172822 0 0.016747582221918147 0.011997892372209563 0 0.016586900778991834 0.012133979824931669 0 0.016795133576024652 0.012414179310172822 0 0.016834996398426633 0.012014679049667441 0 0.016747582221918147 0.011997892372209563 0 0.014060867448488624 0.0092481212196189582 0 0.014016678500639396 0.0090993512023352617 0 0.014125671503760529 0.0089587608230049087 0 0.014060867448488624 0.0092481212196189582 0 0.01424042685165542 0.0092235991796104679 0 0.014125671503760529 0.0089587608230049087 0 0.014060867448488624 0.0092481212196189582 0 0.013941824539011121 0.0091451961565284252 0 0.014016678500639396 0.0090993512023352617 0 0.013241440010420153 0.01251619037990423 0 0.013000423804851616 0.012443946924008822 0 0.013941824539011121 0.0091451961565284252 0 0.014016678500639396 0.0090993512023352617 0 0.013967172894280898 0.0090718020866621708 0 0.014152951063420655 0.0085651477014081247 0 0.014523696384056338 0.0087502367882415482 0 0.014016678500639396 0.0090993512023352617 0 0.013967172894280898 0.0090718020866621708 0 0.014125671503760529 0.0089587608230049087 0 0.014736822435949974 0.0084365359917996669 0 0.01483166285296436 0.0083539112791634999 0 0.014775323448380489 0.0084608107421260004 0 0.014736822435949974 0.0084365359917996669 0 0.014744757911774674 0.008388203365407923 0 0.01483166285296436 0.0083539112791634999 0 0.015232939787816752 0.0081301476494892548 0 0.015372212426853143 0.008295995466775858 0 0.015083067219403015 0.008348136970643889 0 0.015232939787816752 0.0081301476494892548 0 0.01483166285296436 0.0083539112791634999 0 0.015083067219403015 0.008348136970643889 0 0.01483166285296436 0.0083539112791634999 0 0.014891762802201662 0.0084115016061375499 0 0.015083067219403015 0.008348136970643889 0 0.014845013146313361 0.0080768148564093634 0 0.014923021488188632 0.0083849508413483004 0 0.015131978390812118 0.0099488177516008532 0 0.01580832027654484 0.0097378110535074839 0 0.016842802277739759 0.012013999150392371 0 0.016747582221918147 0.011997892372209563 0 0.016879323854777733 0.011559830969950115 0 0.014720491590019411 0.0084331990652375 0 0.014729090181689273 0.008418450541290777 0 0.014723521143349273 0.0084233979060860508 0 0.015131978390812118 0.0099488177516008532 0 0.015907509654084863 0.010329658308032251 0 0.014736822435949974 0.0084365359917996669 0 0.014720491590019411 0.0084331990652375 0 0.014729090181689273 0.008418450541290777 0 0.014152951063420655 0.0085651477014081247 0 0.015131978390812118 0.0099488177516008532 0 0.014736822435949974 0.0084365359917996669 0 0.014744757911774674 0.008388203365407923 0 0.014729090181689273 0.008418450541290777 0 0.014744757911774674 0.008388203365407923 0 0.014729090181689273 0.008418450541290777 0 0.014723521143349273 0.0084233979060860508 0 0.015232939787816752 0.0081301476494892548 0 0.015687046754667065 0.0080971201240366761 0 0.015372212426853143 0.008295995466775858 0 0.014845013146313361 0.0080768148564093634 0 0.01580832027654484 0.0097378110535074839 0 0.016080350370391659 0.010545965462322594 0 0.015659987854365058 0.010579860565633703 0 0.015857514390900398 0.010297535415197836 0 0.01580832027654484 0.0097378110535074839 0 0.016135806351788708 0.011158171592143109 0 0.016879323854777733 0.011559830969950115 0 0.016323085610085188 0.011520735793274223 0 0.016453945023633416 0.011870998429879804 0 0.016747582221918147 0.011997892372209563 0 0.016879323854777733 0.011559830969950115 0 0.016453945023633416 0.011870998429879804 0 0.016453945023633416 0.011870998429879804 0 0.016586900778991834 0.012133979824931669 0 0.016341260153277564 0.012234541563708677 0 0.016747582221918147 0.011997892372209563 0 0.016453945023633416 0.011870998429879804 0 0.016586900778991834 0.012133979824931669 0 0.016453945023633416 0.011870998429879804 0 0.0159997082669656 0.011835827075187289 0 0.016341260153277564 0.012234541563708677 0 0.016323085610085188 0.011520735793274223 0 0.016453945023633416 0.011870998429879804 0 0.0159997082669656 0.011835827075187289 0 0.016135806351788708 0.011158171592143109 0 0.015498882850702765 0.011134295638278311 0 0.016323085610085188 0.011520735793274223 0 0.0159997082669656 0.011835827075187289 0 0.015741235986601296 0.011449174607234583 0 0.0159997082669656 0.011835827075187289 0 0.015741235986601296 0.011449174607234583 0 0.015405527355857656 0.011692876614859132 0 0.015498882850702765 0.011134295638278311 0 0.015106544462716183 0.01126095331486587 0 0.015741235986601296 0.011449174607234583 0 0.015090784178009185 0.011313592566185988 0 0.015405527355857656 0.011692876614859132 0 0.015395907749816485 0.01080935109901706 0 0.015090784178009185 0.011313592566185988 0 0.015234979002658753 0.010820099875247681 0 0.015090784178009185 0.011313592566185988 0 0.015405527355857656 0.011692876614859132 0 0.014999911482623751 0.011583949098042837 0 0.015405527355857656 0.011692876614859132 0 0.014999911482623751 0.011583949098042837 0 0.014999999013216395 0.012422488061949555 0 0.015405527355857656 0.011692876614859132 0 0.015567829903133011 0.012232775168350625 0 0.014999999013216395 0.012422488061949555 0 0.0159997082669656 0.011835827075187289 0 0.015405527355857656 0.011692876614859132 0 0.015567829903133011 0.012232775168350625 0 0.0159997082669656 0.011835827075187289 0 0.015567829903133011 0.012232775168350625 0 0.015951805364722984 0.012524684412512883 0 0.015567829903133011 0.012232775168350625 0 0.015461433132682011 0.012673055881243161 0 0.015951805364722984 0.012524684412512883 0 0.015567829903133011 0.012232775168350625 0 0.014999999013216395 0.012422488061949555 0 0.015461433132682011 0.012673055881243161 0 0.014999973409812692 0.01326063011665027 0 0.014999999013216395 0.012422488061949555 0 0.015461433132682011 0.012673055881243161 0 0.014999973409812692 0.01326063011665027 0 0.015461433132682011 0.012673055881243161 0 0.0157783170818936 0.013065167942283911 0 0.015461433132682011 0.012673055881243161 0 0.0157783170818936 0.013065167942283911 0 0.015951805364722984 0.012524684412512883 0 0.0157783170818936 0.013065167942283911 0 0.016377805209837969 0.012857040209892083 0 0.015951805364722984 0.012524684412512883 0 0.016263922877036319 0.01336981327744676 0 0.0157783170818936 0.013065167942283911 0 0.016377805209837969 0.012857040209892083 0 0.016823162604301299 0.013393597709527451 0 0.016897356385493043 0.012513006805141684 0 0.016377805209837969 0.012857040209892083 0 0.014661455649153781 0.012594286834306877 0 0.017096232916646952 0.01244954820999431 0 0.016897356385493043 0.012513006805141684 0 0.016377805209837969 0.012857040209892083 0 0.016341260153277564 0.012234541563708677 0 0.016795133576024652 0.012414179310172822 0 0.016586900778991834 0.012133979824931669 0 0.016341260153277564 0.012234541563708677 0 0.016377805209837969 0.012857040209892083 0 0.016341260153277564 0.012234541563708677 0 0.015951805364722984 0.012524684412512883 0 0.0159997082669656 0.011835827075187289 0 0.016341260153277564 0.012234541563708677 0 0.015951805364722984 0.012524684412512883 0 0.0071928065305582115 0.015313677982041963 0 0.0070318480928734705 0.015369003461928699 0 0.0070624158891428885 0.015239444094673755 0 0.0070318480928734705 0.015369003461928699 0 0.0067708494997673913 0.015388154475016489 0 0.0068921624780724916 0.015277658381820203 0 0.0070318480928734705 0.015369003461928699 0 0.0070624158891428885 0.015239444094673755 0 0.0068921624780724916 0.015277658381820203 0 0.0070318480928734705 0.015369003461928699 0 0.0069820639609914298 0.015548470127955799 0 0.0067708494997673913 0.015388154475016489 0 0.0071928065305582115 0.015313677982041963 0 0.0070318480928734705 0.015369003461928699 0 0.0072282058370717415 0.015481081296823946 0 0.0070318480928734705 0.015369003461928699 0 0.0072282058370717415 0.015481081296823946 0 0.0069820639609914298 0.015548470127955799 0 0.0072282058370717415 0.015481081296823946 0 0.0074121771373469331 0.015320256513902066 0 0.0076168620156071478 0.015570816223223052 0 0.0071928065305582115 0.015313677982041963 0 0.0074121771373469331 0.015320256513902066 0 0.0071951059855330721 0.01517808468450969 0 0.0071928065305582115 0.015313677982041963 0 0.0072282058370717415 0.015481081296823946 0 0.0074121771373469331 0.015320256513902066 0 0.0073415116176216381 0.015171390886815071 0 0.007296996643994553 0.015120355777266909 0 0.0075911316593580457 0.015135348395396448 0 0.0074223630648285839 0.015147403476372062 0 0.00706752354245525 0.015223395681939608 0 0.0071951059855330721 0.01517808468450969 0 0.0073415116176216381 0.015171390886815071 0 0.0075071002156884932 0.01522460809235991 0 0.0074121771373469331 0.015320256513902066 0 0.0071951059855330721 0.01517808468450969 0 0.0076018590013185528 0.015022376523988128 0 0.0071951059855330721 0.01517808468450969 0 0.0073415116176216381 0.015171390886815071 0 0.0072557725428098862 0.015151455126480806 0 0.0071951059855330721 0.01517808468450969 0 0.0072557725428098862 0.015151455126480806 0 0.0071918564253304253 0.015136102774463929 0 0.0073415116176216381 0.015171390886815071 0 0.0072557725428098862 0.015151455126480806 0 0.007296996643994553 0.015120355777266909 0 0.0072557725428098862 0.015151455126480806 0 0.0071918564253304253 0.015136102774463929 0 0.007296996643994553 0.015120355777266909 0 0.0071527631954990921 0.015136230175950139 0 0.0068281325180667082 0.015100753052728821 0 0.0071918564253304253 0.015136102774463929 0 0.0070399139461185326 0.015141294418949533 0 0.0067569498901794743 0.014921245677252559 0 0.0071951059855330721 0.01517808468450969 0 0.0071918564253304253 0.015136102774463929 0 0.0070399139461185326 0.015141294418949533 0 0.0071928065305582115 0.015313677982041963 0 0.0071951059855330721 0.01517808468450969 0 0.0070624158891428885 0.015239444094673755 0 0.0071951059855330721 0.01517808468450969 0 0.0070624158891428885 0.015239444094673755 0 0.0070399139461185326 0.015141294418949533 0 0.0070624158891428885 0.015239444094673755 0 0.0069146691165819655 0.015165272720457004 0 0.0070399139461185326 0.015141294418949533 0 0.0070624158891428885 0.015239444094673755 0 0.0069146691165819655 0.015165272720457004 0 0.0068921624780724916 0.015277658381820203 0 0.0071918564253304253 0.015136102774463929 0 0.0070780289874563026 0.015159303416896665 0 0.0069396873936556167 0.015278874606346193 0 0.0074446551201478766 0.015149178418377202 0 0.0071288822503740579 0.015166365203177771 0 0.0070780289874563026 0.015159303416896665 0 0.0072042440153077527 0.015054360365072111 0 0.0069351678848843532 0.015104910370200087 0 0.0071918564253304253 0.015136102774463929 0 0.0070780289874563026 0.015159303416896665 0 0.0072042440153077527 0.015054360365072111 0 0.0076757020241347762 0.015073310229492131 0 0.0078685597070848722 0.015267504755608735 0 0.0076195554200105594 0.015048254106413451 0 0.0082437602939649853 0.015000017868738971 0 0.0074062103507584231 0.014999962094909201 0 0.0076195554200105594 0.015048254106413451 0 0.0076921932763187924 0.015227449499722876 0 0.0073327061913775532 0.015253049637139341 0 0.0076195554200105594 0.015048254106413451 0 0.0082437602939649853 0.015000017868738971 0 0.0082860955559947262 0.015338244861891006 0 0.0082437602939649853 0.015000017868738971 0 0.0082860955559947262 0.015338244861891006 0 0.0087175463725283741 0.014999989961429266 0 0.0076195554200105594 0.015048254106413451 0 0.0076891044055468804 0.015191646595308899 0 0.0076921932763187924 0.015227449499722876 0 0.0076891044055468804 0.015191646595308899 0 0.0076543128992967073 0.015185747530684104 0 0.0076921932763187924 0.015227449499722876 0 0.0072042440153077527 0.015054360365072111 0 0.007296996643994553 0.015120355777266909 0 0.0075911316593580457 0.015135348395396448 0 0.0076891044055468804 0.015191646595308899 0 0.0076543128992967073 0.015185747530684104 0 0.0076408088941174197 0.015171777312476374 0 0.0076543128992967073 0.015185747530684104 0 0.0076921932763187924 0.015227449499722876 0 0.0075911316593580457 0.015135348395396448 0 0.0074446551201478766 0.015149178418377202 0 0.0075839316043489835 0.015142436930576951 0 0.0071918564253304253 0.015136102774463929 0 0.0072042440153077527 0.015054360365072111 0 0.007296996643994553 0.015120355777266909 0 0.0076543128992967073 0.015185747530684104 0 0.0076408088941174197 0.015171777312476374 0 0.0075911316593580457 0.015135348395396448 0 0.0078685597070848722 0.015267504755608735 0 0.0089101906147550335 0.015010232524304985 0 0.0076891044055468804 0.015191646595308899 0 0.0076408088941174197 0.015171777312476374 0 0.0076109914921203611 0.015146796692266616 0 0.0076408088941174197 0.015171777312476374 0 0.0076109914921203611 0.015146796692266616 0 0.0075911316593580457 0.015135348395396448 0 0.0087840847882100434 0.015271290015400452 0 0.0089101906147550335 0.015010232524304985 0 0.0082860955559947262 0.015338244861891006 0 0.0087175463725283741 0.014999989961429266 0 0.0089314175241016515 0.015622545862176171 0 0.0087175499331784197 0.015000001274281185 0 0.0090288841436843154 0.015255850048724767 0 0.0089473347266161539 0.015624710729749169 0 0.0090813283133305903 0.014999992292628805 0 0.0090288841436843154 0.015255850048724767 0 0.0093692239796538297 0.01538435985771773 0 0.0087175499331784197 0.015000001274281185 0 0.0090813283133305903 0.014999992292628805 0 0.0090288841436843154 0.015255850048724767 0 0.0090288841436843154 0.015255850048724767 0 0.0093692239796538297 0.01538435985771773 0 0.0089473347266161539 0.015624710729749169 0 0.0097712967048501596 0.013547499955783549 0 0.010029455726871273 0.014247268767782815 0 0.010450446092983895 0.013842684332655508 0 0.0076109914921203611 0.015146796692266616 0 0.0076874422396477592 0.0151559465882714 0 0.0075911316593580457 0.015135348395396448 0 0.0093692239796538297 0.01538435985771773 0 0.0089473347266161539 0.015624710729749169 0 0.0094170657206374426 0.01583144080172183 0 0.0089101906147550335 0.015010232524304985 0 0.010252731523873468 0.013003289691670533 0 0.0089101906147550335 0.015010232524304985 0 0.0098898523427845726 0.014808640878142662 0 0.013173574488711327 0.0090188533392702493 0 0.013321445825365362 0.0094663480358658583 0 0.013536442605710599 0.0091614674028149927 0 0.010252731523873468 0.013003289691670533 0 0.010473114483626192 0.010634586025342544 0 0.0073415116176216381 0.015171390886815071 0 0.0075911316593580457 0.015135348395396448 0 0.0075071002156884932 0.01522460809235991 0 0.0080761622630375219 0.014927947464641227 0 0.0076018590013185528 0.015022376523988128 0 0.0078603693221369151 0.015226213412552477 0 0.010252731523873468 0.013003289691670533 0 0.00706752354245525 0.015223395681939608 0 0.0076874422396477592 0.0151559465882714 0 0.0075911316593580457 0.015135348395396448 0 0.0075071002156884932 0.01522460809235991 0 0.0076018590013185528 0.015022376523988128 0 0.0078603693221369151 0.015226213412552477 0 0.0076225703572215375 0.015286642029422207 0 0.0078603693221369151 0.015226213412552477 0 0.00821253917242162 0.015295196213282992 0 0.0076168620156071478 0.015570816223223052 0 0.0074121771373469331 0.015320256513902066 0 0.0076018590013185528 0.015022376523988128 0 0.0076225703572215375 0.015286642029422207 0 0.0074121771373469331 0.015320256513902066 0 0.0076225703572215375 0.015286642029422207 0 0.0076168620156071478 0.015570816223223052 0 0.0078603693221369151 0.015226213412552477 0 0.0076225703572215375 0.015286642029422207 0 0.0076168620156071478 0.015570816223223052 0 0.0080761622630375219 0.014927947464641227 0 0.0078603693221369151 0.015226213412552477 0 0.00821253917242162 0.015295196213282992 0 0.0091989672527570919 0.0078363898608416575 0 0.0088375827837077654 0.0086357148672007097 0 0.0079114705506931667 0.0083791893572126731 0 0.010473114483626192 0.010634586025342544 0 0.0073364892798027416 0.012167869506825713 0 0.013741866266356794 0.0092316053339955729 0 0.013773935191691521 0.0094454757779872667 0 0.013929708639279994 0.0092317865183990811 0 0.013530009597059089 0.0093172984173516514 0 0.013741866266356794 0.0092316053339955729 0 0.013773935191691521 0.0094454757779872667 0 0.013321445825365362 0.0094663480358658583 0 0.013741866266356794 0.0092316053339955729 0 0.013536442605710599 0.0091614674028149927 0 0.010473114483626192 0.010634586025342544 0 0.014526343103096466 0.0088454769709992408 0 0.01402743804473933 0.0093601246204631817 0 0.014099396440624818 0.009217670233682581 0 0.014357729148679822 0.0093391640454846356 0 0.013773935191691521 0.0094454757779872667 0 0.01402743804473933 0.0093601246204631817 0 0.013929708639279994 0.0092317865183990811 0 0.013773935191691521 0.0094454757779872667 0 0.01402743804473933 0.0093601246204631817 0 0.013937955237384484 0.0094993282279045542 0 0.01402743804473933 0.0093601246204631817 0 0.014099396440624818 0.009217670233682581 0 0.013929708639279994 0.0092317865183990811 0 0.011936714968845795 0.013843546284936014 0 0.012347434404196396 0.014024655994036853 0 0.011391977628028653 0.014129164530338851 0 0.013929708639279994 0.0092317865183990811 0 0.014005386779928037 0.0090887383850421864 0 0.013875924791338421 0.008980269085162574 0 0.014099396440624818 0.009217670233682581 0 0.013929708639279994 0.0092317865183990811 0 0.014005386779928037 0.0090887383850421864 0 0.01191683301759299 0.013331048279370841 0 0.011158423780506696 0.015255274962050421 0 0.014099396440624818 0.009217670233682581 0 0.014005386779928037 0.0090887383850421864 0 0.014046350094191402 0.0090814245530560014 0 0.01312684345949143 0.012504297971459967 0 0.012758259583428491 0.012835159949640249 0 0.012758259583428491 0.012835159949640249 0 0.011158423780506696 0.015255274962050421 0 0.014005386779928037 0.0090887383850421864 0 0.014045417823012296 0.0090724400797627339 0 0.013875924791338421 0.008980269085162574 0 0.012758259583428491 0.012835159949640249 0 0.01191683301759299 0.013331048279370841 0 0.01191683301759299 0.013331048279370841 0 0.0098898523427845726 0.014808640878142662 0 0.010029455726871273 0.014247268767782815 0 0.011133697046492518 0.014143171908244247 0 0.010450446092983895 0.013842684332655508 0 0.013173574488711327 0.0090188533392702493 0 0.013875924791338421 0.008980269085162574 0 0.013536442605710599 0.0091614674028149927 0 0.010252731523873468 0.013003289691670533 0 0.01191683301759299 0.013331048279370841 0 0.013741866266356794 0.0092316053339955729 0 0.013875924791338421 0.008980269085162574 0 0.013536442605710599 0.0091614674028149927 0 0.013741866266356794 0.0092316053339955729 0 0.013929708639279994 0.0092317865183990811 0 0.013875924791338421 0.008980269085162574 0 0.0098889075149749123 0.016036292887302572 0 0.0094170657206374426 0.01583144080172183 0 0.0098320383925121352 0.015537167814663091 0 0.0093692239796538297 0.01538435985771773 0 0.0094170657206374426 0.01583144080172183 0 0.0098320383925121352 0.015537167814663091 0 0.0093692239796538297 0.01538435985771773 0 0.0098320383925121352 0.015537167814663091 0 0.009918860840277233 0.014999991977366236 0 0.0090813283133305903 0.014999992292628805 0 0.0093692239796538297 0.01538435985771773 0 0.009918860840277233 0.014999991977366236 0 0.0098320383925121352 0.015537167814663091 0 0.009918860840277233 0.014999991977366236 0 0.010391020894697662 0.015431250713485476 0 0.0098889075149749123 0.016036292887302572 0 0.0098320383925121352 0.015537167814663091 0 0.010439449558962605 0.015989755379624111 0 0.0098320383925121352 0.015537167814663091 0 0.010391020894697662 0.015431250713485476 0 0.010439449558962605 0.015989755379624111 0 0.010391020894697662 0.015431250713485476 0 0.011098253329391905 0.015664812409565011 0 0.010439449558962605 0.015989755379624111 0 0.011529409500221457 0.015580298474286868 0 0.011158423780506696 0.015255274962050421 0 0.010756375897305267 0.014999994250384808 0 0.010391020894697662 0.015431250713485476 0 0.011098253329391905 0.015664812409565011 0 0.009918860840277233 0.014999991977366236 0 0.010756375897305267 0.014999994250384808 0 0.010391020894697662 0.015431250713485476 0 0.011593898281532551 0.014999996562967818 0 0.010756375897305267 0.014999994250384808 0 0.011098253329391905 0.015664812409565011 0 0.012260677428885253 0.015458625576197822 0 0.012047477133286948 0.015357825032577497 0 0.011993220479550771 0.015498818361402251 0 0.012047477133286948 0.015357825032577497 0 0.011993220479550771 0.015498818361402251 0 0.011686370221623948 0.015518138709612713 0 0.01212349883005206 0.015463601641094529 0 0.012039270547524215 0.015505278492240159 0 0.012080724015244033 0.015596174303783588 0 0.012226778641744098 0.015561658335417537 0 0.01212349883005206 0.015463601641094529 0 0.012080724015244033 0.015596174303783588 0 0.014099396440624818 0.009217670233682581 0 0.014046350094191402 0.0090814245530560014 0 0.014338449340951916 0.0093140095962573229 0 0.012758259583428491 0.012835159949640249 0 0.013212151561807035 0.012378149873043942 0 0.012184747425289558 0.015475641928797003 0 0.011158423780506696 0.015255274962050421 0 0.011911903017193314 0.015479498475008849 0 0.012039270547524215 0.015505278492240159 0 0.012080724015244033 0.015596174303783588 0 0.01212349883005206 0.015463601641094529 0 0.012039270547524215 0.015505278492240159 0 0.011983494381191204 0.015459224621685004 0 0.011911903017193314 0.015479498475008849 0 0.012039270547524215 0.015505278492240159 0 0.011983494381191204 0.015459224621685004 0 0.014099396440624818 0.009217670233682581 0 0.014357729148679822 0.0093391640454846356 0 0.014338449340951916 0.0093140095962573229 0 0.014357729148679822 0.0093391640454846356 0 0.014338449340951916 0.0093140095962573229 0 0.01424042685165542 0.0092235991796104679 0 0.014060867448488624 0.0092481212196189582 0 0.014338449340951916 0.0093140095962573229 0 0.01424042685165542 0.0092235991796104679 0 0.013241440010420153 0.01251619037990423 0 0.013212151561807035 0.012378149873043942 0 0.01433456652882391 0.0090742521514930331 0 0.01424042685165542 0.0092235991796104679 0 0.014125671503760529 0.0089587608230049087 0 0.014357729148679822 0.0093391640454846356 0 0.01433456652882391 0.0090742521514930331 0 0.01424042685165542 0.0092235991796104679 0 0.01431550058027933 0.0093963015365111056 0 0.014624200762695834 0.0090935912369190242 0 0.014357729148679822 0.0093391640454846356 0 0.014091314446989035 0.0098322004066023361 0 0.014058287340978404 0.0095381562586086873 0 0.014357729148679822 0.0093391640454846356 0 0.014708571099820576 0.0087497067688961788 0 0.014828429755562674 0.0086358794245712332 0 0.014357729148679822 0.0093391640454846356 0 0.01433456652882391 0.0090742521514930331 0 0.014708571099820576 0.0087497067688961788 0 0.014701357414291252 0.008742655765597962 0 0.014523696384056338 0.0087502367882415482 0 0.01433456652882391 0.0090742521514930331 0 0.014708571099820576 0.0087497067688961788 0 0.014125671503760529 0.0089587608230049087 0 0.014708571099820576 0.0087497067688961788 0 0.014744842882987897 0.0085707641417234037 0 0.014775323448380489 0.0084608107421260004 0 0.014708571099820576 0.0087497067688961788 0 0.014756663810413991 0.0086290736910004037 0 0.014744842882987897 0.0085707641417234037 0 0.014756663810413991 0.0086290736910004037 0 0.01477584945231725 0.0085748076571265115 0 0.014744842882987897 0.0085707641417234037 0 0.01477584945231725 0.0085748076571265115 0 0.014744842882987897 0.0085707641417234037 0 0.014771028433363833 0.0085153056859596787 0 0.014744842882987897 0.0085707641417234037 0 0.014775323448380489 0.0084608107421260004 0 0.014763449330451159 0.0084837658157020761 0 0.014775323448380489 0.0084608107421260004 0 0.014789527788376869 0.0084229751962459996 0 0.014763449330451159 0.0084837658157020761 0 0.01483166285296436 0.0083539112791634999 0 0.014775323448380489 0.0084608107421260004 0 0.014789527788376869 0.0084229751962459996 0 0.01483166285296436 0.0083539112791634999 0 0.014807714070446286 0.0084207572379399447 0 0.014891762802201662 0.0084115016061375499 0 0.01483166285296436 0.0083539112791634999 0 0.014789527788376869 0.0084229751962459996 0 0.014807714070446286 0.0084207572379399447 0 0.014807714070446286 0.0084207572379399447 0 0.014776890301590828 0.0084418741563303534 0 0.014767253545635911 0.0084575280708401226 0 0.014789527788376869 0.0084229751962459996 0 0.014807714070446286 0.0084207572379399447 0 0.014776890301590828 0.0084418741563303534 0 0.014776890301590828 0.0084418741563303534 0 0.01477318892099779 0.0084701918433662694 0 0.014775626794778738 0.0084631898062085369 0 0.01477318892099779 0.0084701918433662694 0 0.01477767464163908 0.008486614565761991 0 0.014775626794778738 0.0084631898062085369 0 0.014789527788376869 0.0084229751962459996 0 0.01477318892099779 0.0084701918433662694 0 0.014763449330451159 0.0084837658157020761 0 0.014789527788376869 0.0084229751962459996 0 0.014776890301590828 0.0084418741563303534 0 0.01477318892099779 0.0084701918433662694 0 0.01477318892099779 0.0084701918433662694 0 0.014763449330451159 0.0084837658157020761 0 0.014771028433363833 0.0085153056859596787 0 0.014744842882987897 0.0085707641417234037 0 0.014763449330451159 0.0084837658157020761 0 0.014771028433363833 0.0085153056859596787 0 0.01477318892099779 0.0084701918433662694 0 0.014771028433363833 0.0085153056859596787 0 0.01477767464163908 0.008486614565761991 0 0.014788316065234905 0.0085131951424556075 0 0.014777959759184877 0.0084441313699627277 0 0.014828429755562674 0.0086358794245712332 0 0.01477584945231725 0.0085748076571265115 0 0.014771028433363833 0.0085153056859596787 0 0.014788316065234905 0.0085131951424556075 0 0.013202082329958143 0.009787674833971173 0 0.014624200762695834 0.0090935912369190242 0 0.014771028433363833 0.0085153056859596787 0 0.014788316065234905 0.0085131951424556075 0 0.01477767464163908 0.008486614565761991 0 0.014788316065234905 0.0085131951424556075 0 0.014778258169963797 0.0084574785144352609 0 0.014777959759184877 0.0084441313699627277 0 0.014778258169963797 0.0084574785144352609 0 0.014776737726376899 0.0084488955491494114 0 0.014772683166116097 0.0084491430906717367 0 0.014778258169963797 0.0084574785144352609 0 0.014777959759184877 0.0084441313699627277 0 0.014776737726376899 0.0084488955491494114 0 0.014777959759184877 0.0084441313699627277 0 0.014776737726376899 0.0084488955491494114 0 0.014772683166116097 0.0084491430906717367 0 0.014788316065234905 0.0085131951424556075 0 0.014778258169963797 0.0084574785144352609 0 0.014779088083505325 0.0084732709215167845 0 0.01477767464163908 0.008486614565761991 0 0.014779088083505325 0.0084732709215167845 0 0.014775626794778738 0.0084631898062085369 0 0.014788316065234905 0.0085131951424556075 0 0.01477767464163908 0.008486614565761991 0 0.014779088083505325 0.0084732709215167845 0 0.014778258169963797 0.0084574785144352609 0 0.014779088083505325 0.0084732709215167845 0 0.014774475452029713 0.0084529220890348557 0 0.014779088083505325 0.0084732709215167845 0 0.014775626794778738 0.0084631898062085369 0 0.014774475452029713 0.0084529220890348557 0 0.014777959759184877 0.0084441313699627277 0 0.014763770367726249 0.0084473782332357382 0 0.014695413015812602 0.0084635775412846559 0 0.014776890301590828 0.0084418741563303534 0 0.014775626794778738 0.0084631898062085369 0 0.014774475452029713 0.0084529220890348557 0 0.014776890301590828 0.0084418741563303534 0 0.014774475452029713 0.0084529220890348557 0 0.014763770367726249 0.0084473782332357382 0 0.014763770367726249 0.0084473782332357382 0 0.014695413015812602 0.0084635775412846559 0 0.014767253545635911 0.0084575280708401226 0 0.014774475452029713 0.0084529220890348557 0 0.014772683166116097 0.0084491430906717367 0 0.014763770367726249 0.0084473782332357382 0 0.014778258169963797 0.0084574785144352609 0 0.014774475452029713 0.0084529220890348557 0 0.014772683166116097 0.0084491430906717367 0 0.014777959759184877 0.0084441313699627277 0 0.014772683166116097 0.0084491430906717367 0 0.014763770367726249 0.0084473782332357382 0 0.014776890301590828 0.0084418741563303534 0 0.014763770367726249 0.0084473782332357382 0 0.014767253545635911 0.0084575280708401226 0 0.013202082329958143 0.009787674833971173 0 0.012067922937581707 0.0097667716073165448 0 0.0099905528999994185 0.010581965379796263 0 0.009471069493856666 0.011042521859902057 0 0.0093759528902507897 0.010820744772570171 0 0.009471069493856666 0.011042521859902057 0 0.0093759528902507897 0.010820744772570171 0 0.0092912879698779996 0.011026175841452525 0 0.0099905528999994185 0.010581965379796263 0 0.0093759528902507897 0.010820744772570171 0 0.0094932369484197442 0.010228315976271794 0 0.0099905528999994185 0.010581965379796263 0 0.0094932369484197442 0.010228315976271794 0 0.0096786301385853521 0.0092727913584642954 0 0.013202082329958143 0.009787674833971173 0 0.011586398269709702 0.0091953548919821177 0 0.0094932369484197442 0.010228315976271794 0 0.0096786301385853521 0.0092727913584642954 0 0.0089257666640031978 0.010199050083015998 0 0.013860354983365153 0.0102279672508056 0 0.013694399253152112 0.0097497211239919584 0 0.013885726128894178 0.009868862848334433 0 0.013694399253152112 0.0097497211239919584 0 0.013885726128894178 0.009868862848334433 0 0.013897956781393521 0.0096609958759455491 0 0.013860354983365153 0.0102279672508056 0 0.013885726128894178 0.009868862848334433 0 0.014091314446989035 0.0098322004066023361 0 0.01477584945231725 0.0085748076571265115 0 0.014788316065234905 0.0085131951424556075 0 0.014828429755562674 0.0086358794245712332 0 0.014756663810413991 0.0086290736910004037 0 0.01477584945231725 0.0085748076571265115 0 0.014828429755562674 0.0086358794245712332 0 0.014708571099820576 0.0087497067688961788 0 0.014756663810413991 0.0086290736910004037 0 0.014828429755562674 0.0086358794245712332 0 0.013885726128894178 0.009868862848334433 0 0.014091314446989035 0.0098322004066023361 0 0.013897956781393521 0.0096609958759455491 0 0.013897956781393521 0.0096609958759455491 0 0.014058287340978404 0.0095381562586086873 0 0.013937955237384484 0.0094993282279045542 0 0.01402743804473933 0.0093601246204631817 0 0.014357729148679822 0.0093391640454846356 0 0.014058287340978404 0.0095381562586086873 0 0.014091314446989035 0.0098322004066023361 0 0.013897956781393521 0.0096609958759455491 0 0.014058287340978404 0.0095381562586086873 0 0.01402743804473933 0.0093601246204631817 0 0.014058287340978404 0.0095381562586086873 0 0.013937955237384484 0.0094993282279045542 0 0.013773935191691521 0.0094454757779872667 0 0.013897956781393521 0.0096609958759455491 0 0.013937955237384484 0.0094993282279045542 0 0.013773935191691521 0.0094454757779872667 0 0.013694399253152112 0.0097497211239919584 0 0.013897956781393521 0.0096609958759455491 0 0.010473114483626192 0.010634586025342544 0 0.011586398269709702 0.0091953548919821177 0 0.013530009597059089 0.0093172984173516514 0 0.013773935191691521 0.0094454757779872667 0 0.013694399253152112 0.0097497211239919584 0 0.0096786301385853521 0.0092727913584642954 0 0.0088375827837077654 0.0086357148672007097 0 0.0086603820983336098 0.0092309945037999941 0 0.0091989672527570919 0.0078363898608416575 0 0.0096786301385853521 0.0092727913584642954 0 0.0088375827837077654 0.0086357148672007097 0 0.0088375827837077654 0.0086357148672007097 0 0.0079114705506931667 0.0083791893572126731 0 0.0086603820983336098 0.0092309945037999941 0 0.0079114705506931667 0.0083791893572126731 0 0.0079724717002645461 0.0097818000585709504 0 0.0086603820983336098 0.0092309945037999941 0 0.0079724717002645461 0.0097818000585709504 0 0.0086603820983336098 0.0092309945037999941 0 0.0089257666640031978 0.010199050083015998 0 0.0096786301385853521 0.0092727913584642954 0 0.0086603820983336098 0.0092309945037999941 0 0.0089257666640031978 0.010199050083015998 0 0.0093759528902507897 0.010820744772570171 0 0.0094932369484197442 0.010228315976271794 0 0.0089257666640031978 0.010199050083015998 0 0.0093759528902507897 0.010820744772570171 0 0.0089257666640031978 0.010199050083015998 0 0.0090366478730582161 0.0111873202520905 0 0.0093759528902507897 0.010820744772570171 0 0.0090366478730582161 0.0111873202520905 0 0.0092912879698779996 0.011026175841452525 0 0.0089257666640031978 0.010199050083015998 0 0.0090366478730582161 0.0111873202520905 0 0.007990019564671557 0.010691660586126821 0 0.0090366478730582161 0.0111873202520905 0 0.007990019564671557 0.010691660586126821 0 0.0076896040404784297 0.011693947990919237 0 0.0079724717002645461 0.0097818000585709504 0 0.007990019564671557 0.010691660586126821 0 0.0073097097922260167 0.010291281125534091 0 0.0079724717002645461 0.0097818000585709504 0 0.0089257666640031978 0.010199050083015998 0 0.007990019564671557 0.010691660586126821 0 0.007990019564671557 0.010691660586126821 0 0.0073097097922260167 0.010291281125534091 0 0.006920607808096977 0.011077987589483565 0 0.0073097097922260167 0.010291281125534091 0 0.0065715943714460146 0.010371257424171235 0 0.0070977334027290413 0.0095648531271244567 0 0.0073097097922260167 0.010291281125534091 0 0.006920607808096977 0.011077987589483565 0 0.0065715943714460146 0.010371257424171235 0 0.007990019564671557 0.010691660586126821 0 0.006920607808096977 0.011077987589483565 0 0.0076896040404784297 0.011693947990919237 0 0.006920607808096977 0.011077987589483565 0 0.0062532901713782257 0.011694990227984162 0 0.0069517741620430187 0.011824249000677084 0 0.006920607808096977 0.011077987589483565 0 0.0069517741620430187 0.011824249000677084 0 0.0076896040404784297 0.011693947990919237 0 0.006920607808096977 0.011077987589483565 0 0.0059087790922796824 0.011014631478801502 0 0.0065715943714460146 0.010371257424171235 0 0.006920607808096977 0.011077987589483565 0 0.0059087790922796824 0.011014631478801502 0 0.0062532901713782257 0.011694990227984162 0 0.0059087790922796824 0.011014631478801502 0 0.0062532901713782257 0.011694990227984162 0 0.005423360502417417 0.011685285009038197 0 0.0059087790922796824 0.011014631478801502 0 0.0059608942285872598 0.010373829697209474 0 0.00540583537970635 0.010636787080189591 0 0.0059087790922796824 0.011014631478801502 0 0.0065715943714460146 0.010371257424171235 0 0.0059608942285872598 0.010373829697209474 0 0.0065715943714460146 0.010371257424171235 0 0.0059608942285872598 0.010373829697209474 0 0.0062127553389288914 0.0097033380430251795 0 0.0059608942285872598 0.010373829697209474 0 0.0062127553389288914 0.0097033380430251795 0 0.0055851339745940174 0.010039073123886907 0 0.0062127553389288914 0.0097033380430251795 0 0.0065155264502864364 0.0089362354115838909 0 0.005025981384233354 0.0096158588499766374 0 0.0062127553389288914 0.0097033380430251795 0 0.0070977334027290413 0.0095648531271244567 0 0.0065155264502864364 0.0089362354115838909 0 0.0065715943714460146 0.010371257424171235 0 0.0062127553389288914 0.0097033380430251795 0 0.0070977334027290413 0.0095648531271244567 0 0.0079114705506931667 0.0083791893572126731 0 0.0079724717002645461 0.0097818000585709504 0 0.0070977334027290413 0.0095648531271244567 0 0.0079724717002645461 0.0097818000585709504 0 0.0073097097922260167 0.010291281125534091 0 0.0070977334027290413 0.0095648531271244567 0 0.0079114705506931667 0.0083791893572126731 0 0.0070977334027290413 0.0095648531271244567 0 0.0065155264502864364 0.0089362354115838909 0 0.0072282058370717415 0.015481081296823946 0 0.0076168620156071478 0.015570816223223052 0 0.007123966706329728 0.015779372397886144 0 0.0073364892798027416 0.012167869506825713 0 0.0070611271407024509 0.012405336982066278 0 0.0069820639609914298 0.015548470127955799 0 0.007123966706329728 0.015779372397886144 0 0.0067600417774402984 0.015687407868112156 0 0.0072282058370717415 0.015481081296823946 0 0.0069820639609914298 0.015548470127955799 0 0.007123966706329728 0.015779372397886144 0 0.0063516837396344981 0.013918111940559112 0 0.0054170981108546514 0.014618605419885907 0 0.0055797447185453371 0.013620754126590402 0 0.0063516837396344981 0.013918111940559112 0 0.0064790799947263269 0.014575649691899412 0 0.0054170981108546514 0.014618605419885907 0 0.011433169695465347 0.0086624191614757314 0 0.011314708202517721 0.008034068089910423 0 0.011194925135012211 0.0080875794775960505 0 0.0063516837396344981 0.013918111940559112 0 0.0071564585847982429 0.013680839706850021 0 0.0064790799947263269 0.014575649691899412 0 0.0092663622693819319 0.011184461134684871 0 0.0088460709552095999 0.011349695504996198 0 0.0063516837396344981 0.013918111940559112 0 0.0071564585847982429 0.013680839706850021 0 0.0069871122374664781 0.013019563291466122 0 0.0063516837396344981 0.013918111940559112 0 0.006135030432307861 0.013041840450111619 0 0.0069871122374664781 0.013019563291466122 0 0.0063516837396344981 0.013918111940559112 0 0.006135030432307861 0.013041840450111619 0 0.0055797447185453371 0.013620754126590402 0 0.006135030432307861 0.013041840450111619 0 0.0057131468166952146 0.012299555891820427 0 0.0066331666555041685 0.012335392301599015 0 0.006135030432307861 0.013041840450111619 0 0.0054028652544545336 0.012906531628118997 0 0.0055797447185453371 0.013620754126590402 0 0.006135030432307861 0.013041840450111619 0 0.0057131468166952146 0.012299555891820427 0 0.0054028652544545336 0.012906531628118997 0 0.0057131468166952146 0.012299555891820427 0 0.0062532901713782257 0.011694990227984162 0 0.0066331666555041685 0.012335392301599015 0 0.0062532901713782257 0.011694990227984162 0 0.0069517741620430187 0.011824249000677084 0 0.0066331666555041685 0.012335392301599015 0 0.0057131468166952146 0.012299555891820427 0 0.0062532901713782257 0.011694990227984162 0 0.005423360502417417 0.011685285009038197 0 0.0069517741620430187 0.011824249000677084 0 0.0072980512440186896 0.012307356544864194 0 0.0076896040404784297 0.011693947990919237 0 0.0069517741620430187 0.011824249000677084 0 0.0066331666555041685 0.012335392301599015 0 0.0072980512440186896 0.012307356544864194 0 0.0071564585847982429 0.013680839706850021 0 0.0069871122374664781 0.013019563291466122 0 0.0079893171147969681 0.012665237582458343 0 0.0072980512440186896 0.012307356544864194 0 0.0069871122374664781 0.013019563291466122 0 0.0079893171147969681 0.012665237582458343 0 0.006135030432307861 0.013041840450111619 0 0.0066331666555041685 0.012335392301599015 0 0.0069871122374664781 0.013019563291466122 0 0.0066331666555041685 0.012335392301599015 0 0.0072980512440186896 0.012307356544864194 0 0.0069871122374664781 0.013019563291466122 0 0.0092663622693819319 0.011184461134684871 0 0.0092251088288287948 0.01145429519955061 0 0.011433169695465347 0.0086624191614757314 0 0.010483916579167363 0.010418330108001021 0 0.009989159691536487 0.0098344706550786247 0 0.010483916579167363 0.010418330108001021 0 0.0096425029211912958 0.010623865242771967 0 0.009989159691536487 0.0098344706550786247 0 0.0090366478730582161 0.0111873202520905 0 0.010483916579167363 0.010418330108001021 0 0.0096425029211912958 0.010623865242771967 0 0.0090366478730582161 0.0111873202520905 0 0.0079893171147969681 0.012665237582458343 0 0.0076896040404784297 0.011693947990919237 0 0.0091236991497486691 0.011172930692880492 0 0.0092251088288287948 0.01145429519955061 0 0.0072980512440186896 0.012307356544864194 0 0.0079893171147969681 0.012665237582458343 0 0.0076896040404784297 0.011693947990919237 0 0.0090366478730582161 0.0111873202520905 0 0.0092912879698779996 0.011026175841452525 0 0.0096425029211912958 0.010623865242771967 0 0.009218772624499787 0.010091923682446172 0 0.011621832831835032 0.0092181330649101553 0 0.0092912879698779996 0.011026175841452525 0 0.0096425029211912958 0.010623865242771967 0 0.0092827464792731955 0.010749106743707448 0 0.011621832831835032 0.0092181330649101553 0 0.01085496664911669 0.0082029371926376632 0 0.012376650083139762 0.0068028633126821156 0 0.011956506959951535 0.0073764377867562552 0 0.012751766268096217 0.0073107683593965894 0 0.0088867546340256984 0.010541752516993366 0 0.009989159691536487 0.0098344706550786247 0 0.0099326318652967135 0.0090424940554935905 0 0.0096425029211912958 0.010623865242771967 0 0.0088867546340256984 0.010541752516993366 0 0.009989159691536487 0.0098344706550786247 0 0.011433169695465347 0.0086624191614757314 0 0.0099326318652967135 0.0090424940554935905 0 0.011314708202517721 0.008034068089910423 0 0.011433169695465347 0.0086624191614757314 0 0.009989159691536487 0.0098344706550786247 0 0.0099326318652967135 0.0090424940554935905 0 0.01085496664911669 0.0082029371926376632 0 0.011244418086776781 0.0080904025545488357 0 0.011956506959951535 0.0073764377867562552 0 0.011314708202517721 0.008034068089910423 0 0.012320148445913443 0.0081253525327537376 0 0.011956506959951535 0.0073764377867562552 0 0.012807575230924574 0.0077844982107070993 0 0.012320148445913443 0.0081253525327537376 0 0.012807575230924574 0.0077844982107070993 0 0.013255525480625243 0.0081307245922645575 0 0.012320148445913443 0.0081253525327537376 0 0.012807575230924574 0.0077844982107070993 0 0.013255525480625243 0.0081307245922645575 0 0.013347270363776918 0.007605598395765233 0 0.012807575230924574 0.0077844982107070993 0 0.013347270363776918 0.007605598395765233 0 0.012751766268096217 0.0073107683593965894 0 0.011956506959951535 0.0073764377867562552 0 0.012807575230924574 0.0077844982107070993 0 0.012751766268096217 0.0073107683593965894 0 0.012376650083139762 0.0068028633126821156 0 0.012751766268096217 0.0073107683593965894 0 0.013159114740641256 0.0069484916543971374 0 0.011621832831835032 0.0092181330649101553 0 0.014309134494010851 0.0076270053218520512 0 0.009471069493856666 0.011042521859902057 0 0.0092912879698779996 0.011026175841452525 0 0.0092827464792731955 0.010749106743707448 0 0.014695413015812602 0.0084635775412846559 0 0.014633981250059887 0.0085231618902974638 0 0.014736853263602405 0.008507520292607873 0 0.012067922937581707 0.0097667716073165448 0 0.011621832831835032 0.0092181330649101553 0 0.014695413015812602 0.0084635775412846559 0 0.014767253545635911 0.0084575280708401226 0 0.014736853263602405 0.008507520292607873 0 0.013347270363776918 0.007605598395765233 0 0.012751766268096217 0.0073107683593965894 0 0.013159114740641256 0.0069484916543971374 0 0.013347270363776918 0.007605598395765233 0 0.013159114740641256 0.0069484916543971374 0 0.013951938260321355 0.0072527535946855853 0 0.014309134494010851 0.0076270053218520512 0 0.014283502914410608 0.0078829995371379521 0 0.014807714070446286 0.0084207572379399447 0 0.014767253545635911 0.0084575280708401226 0 0.014800713015814903 0.0084939020494864577 0 0.014767253545635911 0.0084575280708401226 0 0.014736853263602405 0.008507520292607873 0 0.014800713015814903 0.0084939020494864577 0 0.014807714070446286 0.0084207572379399447 0 0.014800713015814903 0.0084939020494864577 0 0.014891762802201662 0.0084115016061375499 0 0.014800713015814903 0.0084939020494864577 0 0.014891762802201662 0.0084115016061375499 0 0.014954244000241841 0.0084970960783470727 0 0.014283502914410608 0.0078829995371379521 0 0.014803953761288504 0.0081083945476087931 0 0.013951938260321355 0.0072527535946855853 0 0.014105052894118694 0.0080463459593148896 0 0.01467582325089623 0.0076933867471340707 0 0.013347270363776918 0.007605598395765233 0 0.013951938260321355 0.0072527535946855853 0 0.014105052894118694 0.0080463459593148896 0 0.013255525480625243 0.0081307245922645575 0 0.014105052894118694 0.0080463459593148896 0 0.013837257620818255 0.0082639016581535409 0 0.013255525480625243 0.0081307245922645575 0 0.013347270363776918 0.007605598395765233 0 0.014105052894118694 0.0080463459593148896 0 0.014105052894118694 0.0080463459593148896 0 0.014263754396292806 0.0084788093572708122 0 0.013837257620818255 0.0082639016581535409 0 0.014105052894118694 0.0080463459593148896 0 0.014263754396292806 0.0084788093572708122 0 0.014751724297379035 0.0085135232625713209 0 0.013255525480625243 0.0081307245922645575 0 0.013837257620818255 0.0082639016581535409 0 0.013647334586646258 0.0085653973203313558 0 0.014263754396292806 0.0084788093572708122 0 0.013837257620818255 0.0082639016581535409 0 0.013647334586646258 0.0085653973203313558 0 0.014263754396292806 0.0084788093572708122 0 0.014258304057389573 0.0087347934510544432 0 0.014640435322936051 0.008540569515170484 0 0.014263754396292806 0.0084788093572708122 0 0.013647334586646258 0.0085653973203313558 0 0.014258304057389573 0.0087347934510544432 0 0.014258304057389573 0.0087347934510544432 0 0.013743605933559782 0.0092674374030021853 0 0.014476376394446572 0.0089944058699249207 0 0.013743605933559782 0.0092674374030021853 0 0.01368378427865281 0.0088616951566876361 0 0.013089710975949033 0.0089347530169426141 0 0.014258304057389573 0.0087347934510544432 0 0.013743605933559782 0.0092674374030021853 0 0.01368378427865281 0.0088616951566876361 0 0.013647334586646258 0.0085653973203313558 0 0.014258304057389573 0.0087347934510544432 0 0.01368378427865281 0.0088616951566876361 0 0.013647334586646258 0.0085653973203313558 0 0.01368378427865281 0.0088616951566876361 0 0.013089710975949033 0.0089347530169426141 0 0.013743605933559782 0.0092674374030021853 0 0.013089710975949033 0.0089347530169426141 0 0.01300350948900842 0.0094205430657571046 0 0.013089710975949033 0.0089347530169426141 0 0.012458469241641455 0.0091699108060715791 0 0.01300350948900842 0.0094205430657571046 0 0.012458469241641455 0.0091699108060715791 0 0.01300350948900842 0.0094205430657571046 0 0.012518069688299069 0.0095376670266899433 0 0.013089710975949033 0.0089347530169426141 0 0.012458469241641455 0.0091699108060715791 0 0.012531381548216394 0.0087757476324913861 0 0.013089710975949033 0.0089347530169426141 0 0.012531381548216394 0.0087757476324913861 0 0.012950153672725765 0.0084766143246479842 0 0.012531381548216394 0.0087757476324913861 0 0.012950153672725765 0.0084766143246479842 0 0.012180215032008463 0.0085100153044424826 0 0.013647334586646258 0.0085653973203313558 0 0.013089710975949033 0.0089347530169426141 0 0.012950153672725765 0.0084766143246479842 0 0.013255525480625243 0.0081307245922645575 0 0.013647334586646258 0.0085653973203313558 0 0.012950153672725765 0.0084766143246479842 0 0.013255525480625243 0.0081307245922645575 0 0.012950153672725765 0.0084766143246479842 0 0.012320148445913443 0.0081253525327537376 0 0.012950153672725765 0.0084766143246479842 0 0.012320148445913443 0.0081253525327537376 0 0.012180215032008463 0.0085100153044424826 0 0.011314708202517721 0.008034068089910423 0 0.012320148445913443 0.0081253525327537376 0 0.011591177302116347 0.0082832701427714567 0 0.012320148445913443 0.0081253525327537376 0 0.011591177302116347 0.0082832701427714567 0 0.012180215032008463 0.0085100153044424826 0 0.011591177302116347 0.0082832701427714567 0 0.011400918754357682 0.008479086102918967 0 0.011194925135012211 0.0080875794775960505 0 0.011314708202517721 0.008034068089910423 0 0.011591177302116347 0.0082832701427714567 0 0.011194925135012211 0.0080875794775960505 0 0.011591177302116347 0.0082832701427714567 0 0.011400918754357682 0.008479086102918967 0 0.012180215032008463 0.0085100153044424826 0 0.012531381548216394 0.0087757476324913861 0 0.012180215032008463 0.0085100153044424826 0 0.011979965539751799 0.0088038193273555984 0 0.011400918754357682 0.008479086102918967 0 0.012180215032008463 0.0085100153044424826 0 0.011979965539751799 0.0088038193273555984 0 0.012458469241641455 0.0091699108060715791 0 0.012531381548216394 0.0087757476324913861 0 0.011979965539751799 0.0088038193273555984 0 0.012458469241641455 0.0091699108060715791 0 0.011829380137503669 0.0091615888120518719 0 0.012022851612142524 0.0094994975683621082 0 0.012458469241641455 0.0091699108060715791 0 0.011979965539751799 0.0088038193273555984 0 0.011829380137503669 0.0091615888120518719 0 0.011829380137503669 0.0091615888120518719 0 0.011333236589921318 0.0091701634258810841 0 0.011593513958156797 0.0094202047024510727 0 0.011829380137503669 0.0091615888120518719 0 0.011593513958156797 0.0094202047024510727 0 0.012022851612142524 0.0094994975683621082 0 0.011829380137503669 0.0091615888120518719 0 0.011333236589921318 0.0091701634258810841 0 0.01138310606298017 0.0088244236203350226 0 0.011979965539751799 0.0088038193273555984 0 0.011829380137503669 0.0091615888120518719 0 0.01138310606298017 0.0088244236203350226 0 0.011400918754357682 0.008479086102918967 0 0.011979965539751799 0.0088038193273555984 0 0.01138310606298017 0.0088244236203350226 0 0.01138310606298017 0.0088244236203350226 0 0.010899495340987794 0.0087510193302861392 0 0.011038165034934037 0.0089614562346793051 0 0.011400918754357682 0.008479086102918967 0 0.01138310606298017 0.0088244236203350226 0 0.010899495340987794 0.0087510193302861392 0 0.011333236589921318 0.0091701634258810841 0 0.01138310606298017 0.0088244236203350226 0 0.011038165034934037 0.0089614562346793051 0 0.010899495340987794 0.0087510193302861392 0 0.011038165034934037 0.0089614562346793051 0 0.010565788707597832 0.0090333642685760975 0 0.011038165034934037 0.0089614562346793051 0 0.010869479651624154 0.0092364331062943852 0 0.010565788707597832 0.0090333642685760975 0 0.011333236589921318 0.0091701634258810841 0 0.011038165034934037 0.0089614562346793051 0 0.010869479651624154 0.0092364331062943852 0 0.011333236589921318 0.0091701634258810841 0 0.010869479651624154 0.0092364331062943852 0 0.011188285415493372 0.0095015806665148753 0 0.010899495340987794 0.0087510193302861392 0 0.010565788707597832 0.0090333642685760975 0 0.010183030939060903 0.008854738856101052 0 0.010565788707597832 0.0090333642685760975 0 0.01035339240346092 0.0092962945479787423 0 0.010085585190344566 0.0091193837413807502 0 0.010869479651624154 0.0092364331062943852 0 0.010565788707597832 0.0090333642685760975 0 0.01035339240346092 0.0092962945479787423 0 0.010565788707597832 0.0090333642685760975 0 0.010183030939060903 0.008854738856101052 0 0.010085585190344566 0.0091193837413807502 0 0.0083090007755363838 0.011915481802099654 0 0.0079443946299946611 0.012367220604002457 0 0.010899495340987794 0.0087510193302861392 0 0.010736732147311755 0.0084513610717920403 0 0.010183030939060903 0.008854738856101052 0 0.011400918754357682 0.008479086102918967 0 0.010899495340987794 0.0087510193302861392 0 0.010736732147311755 0.0084513610717920403 0 0.011400918754357682 0.008479086102918967 0 0.010736732147311755 0.0084513610717920403 0 0.011194925135012211 0.0080875794775960505 0 0.0059222417014387942 0.015356356090402959 0 0.0064790799947263269 0.014575649691899412 0 0.0054170981108546514 0.014618605419885907 0 0.0083090007755363838 0.011915481802099654 0 0.0088460709552095999 0.011349695504996198 0 0.015515647541192855 0.0097193139991822199 0 0.015693012501620408 0.0094309171498493365 0 0.015618191018179369 0.0093022236778961733 0 0.015693012501620408 0.0094309171498493365 0 0.015618191018179369 0.0093022236778961733 0 0.015727315469609187 0.0090664766045149957 0 0.015618191018179369 0.0093022236778961733 0 0.015727315469609187 0.0090664766045149957 0 0.015701502986532011 0.0090454709807700467 0 0.015515647541192855 0.0097193139991822199 0 0.015618191018179369 0.0093022236778961733 0 0.015359729603155589 0.0095712232611690103 0 0.015618191018179369 0.0093022236778961733 0 0.01558362240736476 0.0091867131380055506 0 0.015485249345453169 0.0092967937005538469 0 0.015618191018179369 0.0093022236778961733 0 0.015359729603155589 0.0095712232611690103 0 0.015485249345453169 0.0092967937005538469 0 0.015359729603155589 0.0095712232611690103 0 0.015000001287670159 0.0090698854776723979 0 0.015485249345453169 0.0092967937005538469 0 0.015359729603155589 0.0095712232611690103 0 0.01499981325660335 0.0099074039393836962 0 0.015000001287670159 0.0090698854776723979 0 0.015269870444375146 0.010052638766453815 0 0.01499981325660335 0.0099074039393836962 0 0.014999872835772927 0.010745433287624128 0 0.015359729603155589 0.0095712232611690103 0 0.015269870444375146 0.010052638766453815 0 0.01499981325660335 0.0099074039393836962 0 0.015515647541192855 0.0097193139991822199 0 0.015359729603155589 0.0095712232611690103 0 0.015269870444375146 0.010052638766453815 0 0.015515647541192855 0.0097193139991822199 0 0.015269870444375146 0.010052638766453815 0 0.0153741727333281 0.010373986581495921 0 0.015269870444375146 0.010052638766453815 0 0.0153741727333281 0.010373986581495921 0 0.014999872835772927 0.010745433287624128 0 0.0153741727333281 0.010373986581495921 0 0.014999872835772927 0.010745433287624128 0 0.015234979002658753 0.010820099875247681 0 0.015090784178009185 0.011313592566185988 0 0.014999911482623751 0.011583949098042837 0 0.014999872835772927 0.010745433287624128 0 0.015090784178009185 0.011313592566185988 0 0.014999872835772927 0.010745433287624128 0 0.015234979002658753 0.010820099875247681 0 0.015395907749816485 0.01080935109901706 0 0.0153741727333281 0.010373986581495921 0 0.015234979002658753 0.010820099875247681 0 0.015659987854365058 0.010579860565633703 0 0.015395907749816485 0.01080935109901706 0 0.015631576045371968 0.010055202588380096 0 0.015395907749816485 0.01080935109901706 0 0.0153741727333281 0.010373986581495921 0 0.015631576045371968 0.010055202588380096 0 0.015515647541192855 0.0097193139991822199 0 0.0153741727333281 0.010373986581495921 0 0.015631576045371968 0.010055202588380096 0 0.015515647541192855 0.0097193139991822199 0 0.015693012501620408 0.0094309171498493365 0 0.015631576045371968 0.010055202588380096 0 0.015693012501620408 0.0094309171498493365 0 0.015631576045371968 0.010055202588380096 0 0.016054613158379097 0.0099799400789448833 0 0.015659987854365058 0.010579860565633703 0 0.015631576045371968 0.010055202588380096 0 0.015857514390900398 0.010297535415197836 0 0.015631576045371968 0.010055202588380096 0 0.015857514390900398 0.010297535415197836 0 0.016054613158379097 0.0099799400789448833 0 0.015687046754667065 0.0080971201240366761 0 0.015714679989050948 0.0084184477676159039 0 0.015372212426853143 0.008295995466775858 0 0.01580832027654484 0.0097378110535074839 0 0.015883286938006721 0.0091260009095276724 0 0.016080350370391659 0.010545965462322594 0 0.015857514390900398 0.010297535415197836 0 0.016054613158379097 0.0099799400789448833 0 0.015714679989050948 0.0084184477676159039 0 0.015372212426853143 0.008295995466775858 0 0.015224780618177577 0.0084080528589810556 0 0.015714679989050948 0.0084184477676159039 0 0.015224780618177577 0.0084080528589810556 0 0.015819729316018646 0.0090490473451599693 0 0.015693012501620408 0.0094309171498493365 0 0.016054613158379097 0.0099799400789448833 0 0.015819729316018646 0.0090490473451599693 0 0.015883286938006721 0.0091260009095276724 0 0.015833676839406171 0.0091270077618313787 0 0.014891762802201662 0.0084115016061375499 0 0.015083067219403015 0.008348136970643889 0 0.014954244000241841 0.0084970960783470727 0 0.015372212426853143 0.008295995466775858 0 0.015083067219403015 0.008348136970643889 0 0.015224780618177577 0.0084080528589810556 0 0.015224780618177577 0.0084080528589810556 0 0.01467582325089623 0.0076933867471340707 0 0.014945680554562107 0.0083048541126105203 0 0.015146296969813953 0.0083370042156829666 0 0.014803953761288504 0.0081083945476087931 0 0.015083067219403015 0.008348136970643889 0 0.015224780618177577 0.0084080528589810556 0 0.014954244000241841 0.0084970960783470727 0 0.014105052894118694 0.0080463459593148896 0 0.01467582325089623 0.0076933867471340707 0 0.014945680554562107 0.0083048541126105203 0 0.015224780618177577 0.0084080528589810556 0 0.014945680554562107 0.0083048541126105203 0 0.015443181158149192 0.0087343328400617919 0 0.014945680554562107 0.0083048541126105203 0 0.015443181158149192 0.0087343328400617919 0 0.014751724297379035 0.0085135232625713209 0 0.015443181158149192 0.0087343328400617919 0 0.014751724297379035 0.0085135232625713209 0 0.015307702692906223 0.008763011960867326 0 0.014105052894118694 0.0080463459593148896 0 0.014945680554562107 0.0083048541126105203 0 0.014751724297379035 0.0085135232625713209 0 0.015819729316018646 0.0090490473451599693 0 0.015443181158149192 0.0087343328400617919 0 0.015727315469609187 0.0090664766045149957 0 0.015693012501620408 0.0094309171498493365 0 0.015819729316018646 0.0090490473451599693 0 0.015727315469609187 0.0090664766045149957 0 0.015224780618177577 0.0084080528589810556 0 0.015819729316018646 0.0090490473451599693 0 0.015443181158149192 0.0087343328400617919 0 0.015443181158149192 0.0087343328400617919 0 0.015727315469609187 0.0090664766045149957 0 0.01561344117882698 0.0089422920242675161 0 0.015443181158149192 0.0087343328400617919 0 0.015480464514171011 0.0088324754512090278 0 0.015307702692906223 0.008763011960867326 0 0.015443181158149192 0.0087343328400617919 0 0.01561344117882698 0.0089422920242675161 0 0.015480464514171011 0.0088324754512090278 0 0.015575968682134874 0.0088736835872726492 0 0.015569637667150112 0.0088831435318767731 0 0.01561344117882698 0.0089422920242675161 0 0.015537015257835868 0.0088786674116060841 0 0.015701502986532011 0.0090454709807700467 0 0.015727315469609187 0.0090664766045149957 0 0.01561344117882698 0.0089422920242675161 0 0.015701502986532011 0.0090454709807700467 0 0.01561344117882698 0.0089422920242675161 0 0.015480464514171011 0.0088324754512090278 0 0.015537015257835868 0.0088786674116060841 0 0.015480464514171011 0.0088324754512090278 0 0.015537015257835868 0.0088786674116060841 0 0.015307702692906223 0.008763011960867326 0 0.015537015257835868 0.0088786674116060841 0 0.015559227358744002 0.0086760703246160295 0 0.015664387059896524 0.0085172461919941732 0 0.015537015257835868 0.0088786674116060841 0 0.015474344201363826 0.0089287297734288954 0 0.015664387059896524 0.0085172461919941732 0 0.015537015257835868 0.0088786674116060841 0 0.015559227358744002 0.0086760703246160295 0 0.015504248133061661 0.0087007665887167476 0 0.014263754396292806 0.0084788093572708122 0 0.014751724297379035 0.0085135232625713209 0 0.014640435322936051 0.008540569515170484 0 0.014751724297379035 0.0085135232625713209 0 0.015307702692906223 0.008763011960867326 0 0.015474344201363826 0.0089287297734288954 0 0.014792592682201011 0.0085040426528673104 0 0.015184074697891859 0.0086728695912405823 0 0.015537015257835868 0.0088786674116060841 0 0.015307702692906223 0.008763011960867326 0 0.015474344201363826 0.0089287297734288954 0 0.014905942893023032 0.0084552785765804311 0 0.014640435322936051 0.008540569515170484 0 0.014952280706007185 0.0085382808831296619 0 0.014751724297379035 0.0085135232625713209 0 0.014905942893023032 0.0084552785765804311 0 0.014640435322936051 0.008540569515170484 0 0.014258304057389573 0.0087347934510544432 0 0.014640435322936051 0.008540569515170484 0 0.014903695437456451 0.0086662448774943654 0 0.014640435322936051 0.008540569515170484 0 0.014903695437456451 0.0086662448774943654 0 0.014952280706007185 0.0085382808831296619 0 0.014905942893023032 0.0084552785765804311 0 0.014952280706007185 0.0085382808831296619 0 0.015371252562548666 0.0084901459313753962 0 0.014903695437456451 0.0086662448774943654 0 0.014952280706007185 0.0085382808831296619 0 0.015371252562548666 0.0084901459313753962 0 0.014903695437456451 0.0086662448774943654 0 0.015491291167623645 0.0084795138056587421 0 0.01502874995384155 0.0089473531832602766 0 0.014258304057389573 0.0087347934510544432 0 0.014903695437456451 0.0086662448774943654 0 0.014476376394446572 0.0089944058699249207 0 0.014903695437456451 0.0086662448774943654 0 0.014476376394446572 0.0089944058699249207 0 0.01502874995384155 0.0089473531832602766 0 0.015559227358744002 0.0086760703246160295 0 0.015664387059896524 0.0085172461919941732 0 0.015543157682483598 0.0083985571922720395 0 0.015184074697891859 0.0086728695912405823 0 0.015516336760439743 0.0085008237244260133 0 0.014903695437456451 0.0086662448774943654 0 0.015371252562548666 0.0084901459313753962 0 0.015491291167623645 0.0084795138056587421 0 0.015371252562548666 0.0084901459313753962 0 0.015491291167623645 0.0084795138056587421 0 0.015627770605538428 0.008135221247233957 0 0.015516336760439743 0.0085008237244260133 0 0.015602006020885293 0.0081887156989836792 0 0.015664387059896524 0.0085172461919941732 0 0.015543157682483598 0.0083985571922720395 0 0.015627770605538428 0.008135221247233957 0 0.015456646032316907 0.0081781099957024019 0 0.015543157682483598 0.0083985571922720395 0 0.015627770605538428 0.008135221247233957 0 0.015456646032316907 0.0081781099957024019 0 0.015542882568770292 0.007819946019431279 0 0.015627770605538428 0.008135221247233957 0 0.015456646032316907 0.0081781099957024019 0 0.015542882568770292 0.007819946019431279 0 0.015318083207582864 0.0078336745959232852 0 0.015456646032316907 0.0081781099957024019 0 0.015091714404641073 0.0084000822328525269 0 0.015318083207582864 0.0078336745959232852 0 0.015456646032316907 0.0081781099957024019 0 0.015397636915233985 0.0085424408099980462 0 0.015091714404641073 0.0084000822328525269 0 0.015559227358744002 0.0086760703246160295 0 0.015543157682483598 0.0083985571922720395 0 0.015397636915233985 0.0085424408099980462 0 0.015456646032316907 0.0081781099957024019 0 0.015543157682483598 0.0083985571922720395 0 0.015397636915233985 0.0085424408099980462 0 0.015559227358744002 0.0086760703246160295 0 0.015397636915233985 0.0085424408099980462 0 0.015504248133061661 0.0087007665887167476 0 0.015397636915233985 0.0085424408099980462 0 0.015504248133061661 0.0087007665887167476 0 0.015213023396090848 0.0087272348049565081 0 0.015397636915233985 0.0085424408099980462 0 0.015213023396090848 0.0087272348049565081 0 0.015091714404641073 0.0084000822328525269 0 0.01558362240736476 0.0091867131380055506 0 0.015701502986532011 0.0090454709807700467 0 0.0154937443155269 0.0091022559896614796 0 0.015569637667150112 0.0088831435318767731 0 0.015488477571554372 0.008873092064708361 0 0.01558362240736476 0.0091867131380055506 0 0.015485249345453169 0.0092967937005538469 0 0.0154937443155269 0.0091022559896614796 0 0.015618191018179369 0.0093022236778961733 0 0.01558362240736476 0.0091867131380055506 0 0.015701502986532011 0.0090454709807700467 0 0.015000412277081964 0.0090696006746458519 0 0.015488477571554372 0.008873092064708361 0 0.015000000615632468 0.0090694788326664607 0 0.015864504098549486 0.0089713275108891377 0 0.015478159658936291 0.0087045788466264748 0 0.015000001287670159 0.0090698854776723979 0 0.015485249345453169 0.0092967937005538469 0 0.0154937443155269 0.0091022559896614796 0 0.015864504098549486 0.0089713275108891377 0 0.015478159658936291 0.0087045788466264748 0 0.015653283180576218 0.0082328602772331668 0 0.015488477571554372 0.008873092064708361 0 0.015376911928418252 0.008310523394766357 0 0.015000000615632468 0.0090694788326664607 0 0.015478159658936291 0.0087045788466264748 0 0.014999975377243112 0.0082471858384012258 0 0.014999975377243112 0.0082471858384012258 0 0.015653283180576218 0.0082328602772331668 0 0.015312759351326321 0.007926074867604143 0 0.015478159658936291 0.0087045788466264748 0 0.014999975377243112 0.0082471858384012258 0 0.015653283180576218 0.0082328602772331668 0 0.015091714404641073 0.0084000822328525269 0 0.014956033461572191 0.0078230751070466186 0 0.015318083207582864 0.0078336745959232852 0 0.015376911928418252 0.008310523394766357 0 0.015200435933721463 0.0076533966767663537 0 0.015653283180576218 0.0082328602772331668 0 0.015312759351326321 0.007926074867604143 0 0.015415632525414938 0.0074911082341342231 0 0.014999975377243112 0.0082471858384012258 0 0.015312759351326321 0.007926074867604143 0 0.015000007722980067 0.007424699945349807 0 0.015312759351326321 0.007926074867604143 0 0.015000007722980067 0.007424699945349807 0 0.015415632525414938 0.0074911082341342231 0 0.015200435933721463 0.0076533966767663537 0 0.015085863765562873 0.0069108313639568483 0 0.015000007722980067 0.007424699945349807 0 0.015415632525414938 0.0074911082341342231 0 0.015091385070260957 0.006825686443306501 0 0.014956033461572191 0.0078230751070466186 0 0.015229461427883522 0.0073133486123264082 0 0.015091385070260957 0.006825686443306501 0 0.014956033461572191 0.0078230751070466186 0 0.015229461427883522 0.0073133486123264082 0 0.015318083207582864 0.0078336745959232852 0 0.015229461427883522 0.0073133486123264082 0 0.015318083207582864 0.0078336745959232852 0 0.01548670208842612 0.0073097904815332517 0 0.015229461427883522 0.0073133486123264082 0 0.015270748833863411 0.0068619755764130781 0 0.01548670208842612 0.0073097904815332517 0 0.015229461427883522 0.0073133486123264082 0 0.015270748833863411 0.0068619755764130781 0 0.015091385070260957 0.006825686443306501 0 0.015000007722980067 0.007424699945349807 0 0.01499969012306775 0.0066028719190920774 0 0.015091385070260957 0.006825686443306501 0 0.015542882568770292 0.007819946019431279 0 0.015749905618204423 0.0075556955479000884 0 0.015627770605538428 0.008135221247233957 0 0.015542882568770292 0.007819946019431279 0 0.015318083207582864 0.0078336745959232852 0 0.01548670208842612 0.0073097904815332517 0 0.01548670208842612 0.0073097904815332517 0 0.015749905618204423 0.0075556955479000884 0 0.015732657134841822 0.0068486238126499524 0 0.015542882568770292 0.007819946019431279 0 0.01548670208842612 0.0073097904815332517 0 0.015749905618204423 0.0075556955479000884 0 0.015749905618204423 0.0075556955479000884 0 0.015732657134841822 0.0068486238126499524 0 0.016067789161799385 0.0069885856946773446 0 0.01548670208842612 0.0073097904815332517 0 0.015732657134841822 0.0068486238126499524 0 0.01544623458033134 0.0064847003692978912 0 0.015691780098390395 0.0062955555966271639 0 0.015558365813793672 0.00589488239465219 0 0.016026397040676869 0.0059973927169056926 0 0.015691780098390395 0.0062955555966271639 0 0.01544623458033134 0.0064847003692978912 0 0.015558365813793672 0.00589488239465219 0 0.015732657134841822 0.0068486238126499524 0 0.015691780098390395 0.0062955555966271639 0 0.01544623458033134 0.0064847003692978912 0 0.015732657134841822 0.0068486238126499524 0 0.016026397040676869 0.0059973927169056926 0 0.016067789161799385 0.0069885856946773446 0 0.015732657134841822 0.0068486238126499524 0 0.015691780098390395 0.0062955555966271639 0 0.016026397040676869 0.0059973927169056926 0 0.015829433162645457 0.008379183120435247 0 0.015709530622402844 0.0086465117690073326 0 0.015270748833863411 0.0068619755764130781 0 0.015091385070260957 0.006825686443306501 0 0.015168675725581209 0.0064238363174543107 0 0.01499969012306775 0.0066028719190920774 0 0.015168675725581209 0.0064238363174543107 0 0.014999821659412202 0.0057804424269137806 0 0.01499969012306775 0.0066028719190920774 0 0.015091385070260957 0.006825686443306501 0 0.015168675725581209 0.0064238363174543107 0 0.015270748833863411 0.0068619755764130781 0 0.01548670208842612 0.0073097904815332517 0 0.01544623458033134 0.0064847003692978912 0 0.015270748833863411 0.0068619755764130781 0 0.015168675725581209 0.0064238363174543107 0 0.01544623458033134 0.0064847003692978912 0 0.015168675725581209 0.0064238363174543107 0 0.01544623458033134 0.0064847003692978912 0 0.015290025475514625 0.0060257429949740256 0 0.01544623458033134 0.0064847003692978912 0 0.015290025475514625 0.0060257429949740256 0 0.015558365813793672 0.00589488239465219 0 0.015290025475514625 0.0060257429949740256 0 0.014999821659412202 0.0057804424269137806 0 0.01530130673402535 0.0055199205184357954 0 0.015168675725581209 0.0064238363174543107 0 0.015290025475514625 0.0060257429949740256 0 0.014999821659412202 0.0057804424269137806 0 0.014999821659412202 0.0057804424269137806 0 0.014999830539694793 0.0049579530301024737 0 0.01530130673402535 0.0055199205184357954 0 0.014999830539694793 0.0049579530301024737 0 0.015401924571872021 0.0050626619829679479 0 0.01536129602341808 0.004557145711275753 0 0.014999830539694793 0.0049579530301024737 0 0.015401924571872021 0.0050626619829679479 0 0.01530130673402535 0.0055199205184357954 0 0.015556017667397379 0.0050026343505562938 0 0.015401924571872021 0.0050626619829679479 0 0.015613966377406568 0.0051461132582666293 0 0.015556017667397379 0.0050026343505562938 0 0.015651110687228915 0.0049766473249583517 0 0.015613966377406568 0.0051461132582666293 0 0.015651110687228915 0.0049766473249583517 0 0.015613966377406568 0.0051461132582666293 0 0.015811678234051389 0.0050306227850315296 0 0.015651110687228915 0.0049766473249583517 0 0.015735107702640218 0.0047983318840158426 0 0.015811678234051389 0.0050306227850315296 0 0.015651110687228915 0.0049766473249583517 0 0.015735107702640218 0.0047983318840158426 0 0.015550947739504679 0.0047881063949103166 0 0.015556017667397379 0.0050026343505562938 0 0.015651110687228915 0.0049766473249583517 0 0.015550947739504679 0.0047881063949103166 0 0.015550947739504679 0.0047881063949103166 0 0.015401924571872021 0.0050626619829679479 0 0.01536129602341808 0.004557145711275753 0 0.015556017667397379 0.0050026343505562938 0 0.015550947739504679 0.0047881063949103166 0 0.015401924571872021 0.0050626619829679479 0 0.015401924571872021 0.0050626619829679479 0 0.01565112169489127 0.0053971154831824299 0 0.01530130673402535 0.0055199205184357954 0 0.01565112169489127 0.0053971154831824299 0 0.015613966377406568 0.0051461132582666293 0 0.015811678234051389 0.0050306227850315296 0 0.015401924571872021 0.0050626619829679479 0 0.01565112169489127 0.0053971154831824299 0 0.015613966377406568 0.0051461132582666293 0 0.01565112169489127 0.0053971154831824299 0 0.01530130673402535 0.0055199205184357954 0 0.015558365813793672 0.00589488239465219 0 0.015290025475514625 0.0060257429949740256 0 0.01530130673402535 0.0055199205184357954 0 0.015558365813793672 0.00589488239465219 0 0.01565112169489127 0.0053971154831824299 0 0.015558365813793672 0.00589488239465219 0 0.016026397040676869 0.0059973927169056926 0 0.01559710859010752 0.010726398290811276 0 0.01556588427202274 0.011009215456369905 0 0.015302267958214068 0.010739093719418575 0 0.01556588427202274 0.011009215456369905 0 0.015552316710103889 0.011293272707466991 0 0.015225508980278546 0.011036723054953623 0 0.015829433162645457 0.008379183120435247 0 0.01564788878297076 0.0078649863357449206 0 0.01559710859010752 0.010726398290811276 0 0.01556588427202274 0.011009215456369905 0 0.015846321167321945 0.011018285951253926 0 0.01565112169489127 0.0053971154831824299 0 0.016026397040676869 0.0059973927169056926 0 0.015811678234051389 0.0050306227850315296 0 0.015058253723402073 0.0063336099044547728 0 0.01564788878297076 0.0078649863357449206 0 0.015849581337962299 0.0049266634657479814 0 0.01591092610606629 0.0043723328688975872 0 0.016331046208248937 0.0043367099962301221 0 0.015735107702640218 0.0047983318840158426 0 0.015849581337962299 0.0049266634657479814 0 0.01591092610606629 0.0043723328688975872 0 0.015735107702640218 0.0047983318840158426 0 0.01591092610606629 0.0043723328688975872 0 0.015657004085126661 0.0044816134430638935 0 0.01564788878297076 0.0078649863357449206 0 0.015954630293097141 0.0078346761808579558 0 0.01556588427202274 0.011009215456369905 0 0.015846321167321945 0.011018285951253926 0 0.015552316710103889 0.011293272707466991 0 0.016331046208248937 0.0043367099962301221 0 0.016654687291998808 0.0038741757994640727 0 0.016205170611010317 0.003798447084647254 0 0.01591092610606629 0.0043723328688975872 0 0.015623955869384681 0.0040444015924695478 0 0.016205170611010317 0.003798447084647254 0 0.01591092610606629 0.0043723328688975872 0 0.016331046208248937 0.0043367099962301221 0 0.016205170611010317 0.003798447084647254 0 0.015623955869384681 0.0040444015924695478 0 0.014999912701313648 0.0041354485432552185 0 0.015390234116141438 0.0036168865121179537 0 0.015623955869384681 0.0040444015924695478 0 0.014999912701313648 0.0041354485432552185 0 0.01536129602341808 0.004557145711275753 0 0.014999830539694793 0.0049579530301024737 0 0.014999912701313648 0.0041354485432552185 0 0.01536129602341808 0.004557145711275753 0 0.015550947739504679 0.0047881063949103166 0 0.01536129602341808 0.004557145711275753 0 0.015657004085126661 0.0044816134430638935 0 0.015623955869384681 0.0040444015924695478 0 0.01536129602341808 0.004557145711275753 0 0.015657004085126661 0.0044816134430638935 0 0.015735107702640218 0.0047983318840158426 0 0.015550947739504679 0.0047881063949103166 0 0.015657004085126661 0.0044816134430638935 0 0.01591092610606629 0.0043723328688975872 0 0.015623955869384681 0.0040444015924695478 0 0.015657004085126661 0.0044816134430638935 0 0.014582955889605356 0.011389836371866524 0 0.014864010783174333 0.011470296450492369 0 0.014713516924117315 0.011194037066688667 0 0.014582955889605356 0.011389836371866524 0 0.014713516924117315 0.011194037066688667 0 0.014301663080362063 0.011322219875384582 0 0.014582955889605356 0.011389836371866524 0 0.014301663080362063 0.011322219875384582 0 0.014386687455406286 0.011504761936409211 0 0.014582955889605356 0.011389836371866524 0 0.014386687455406286 0.011504761936409211 0 0.014733013155606985 0.011611837538292471 0 0.014582955889605356 0.011389836371866524 0 0.014864010783174333 0.011470296450492369 0 0.014733013155606985 0.011611837538292471 0 0.014864010783174333 0.011470296450492369 0 0.015206878084275358 0.011553432122273903 0 0.015111794833278258 0.011308225825889424 0 0.015552316710103889 0.011293272707466991 0 0.015206878084275358 0.011553432122273903 0 0.015111794833278258 0.011308225825889424 0 0.015954630293097141 0.0078346761808579558 0 0.01594697964843907 0.0076700810742383737 0 0.015552316710103889 0.011293272707466991 0 0.015111794833278258 0.011308225825889424 0 0.015225508980278546 0.011036723054953623 0 0.015111794833278258 0.011308225825889424 0 0.015225508980278546 0.011036723054953623 0 0.014713516924117315 0.011194037066688667 0 0.014864010783174333 0.011470296450492369 0 0.015111794833278258 0.011308225825889424 0 0.014713516924117315 0.011194037066688667 0 0.015225508980278546 0.011036723054953623 0 0.01490496561290891 0.010837048537608808 0 0.014713516924117315 0.011194037066688667 0 0.01556588427202274 0.011009215456369905 0 0.015225508980278546 0.011036723054953623 0 0.015302267958214068 0.010739093719418575 0 0.015225508980278546 0.011036723054953623 0 0.015302267958214068 0.010739093719418575 0 0.01490496561290891 0.010837048537608808 0 0.01490496561290891 0.010837048537608808 0 0.014713516924117315 0.011194037066688667 0 0.014315982838245329 0.011094624433784547 0 0.014713516924117315 0.011194037066688667 0 0.014315982838245329 0.011094624433784547 0 0.014301663080362063 0.011322219875384582 0 0.01490496561290891 0.010837048537608808 0 0.014315982838245329 0.011094624433784547 0 0.014497817683335662 0.010683815567734348 0 0.01490496561290891 0.010837048537608808 0 0.014497817683335662 0.010683815567734348 0 0.015035537660515953 0.010450098185754068 0 0.014626858364464212 0.010068095251615523 0 0.015035537660515953 0.010450098185754068 0 0.015276776340984139 0.0098458233518355486 0 0.014497817683335662 0.010683815567734348 0 0.014626858364464212 0.010068095251615523 0 0.015035537660515953 0.010450098185754068 0 0.014497817683335662 0.010683815567734348 0 0.014626858364464212 0.010068095251615523 0 0.013944662577040041 0.010499011699278419 0 0.01559710859010752 0.010726398290811276 0 0.015302267958214068 0.010739093719418575 0 0.015416066174796786 0.010378631870066643 0 0.015302267958214068 0.010739093719418575 0 0.01490496561290891 0.010837048537608808 0 0.015035537660515953 0.010450098185754068 0 0.015302267958214068 0.010739093719418575 0 0.015035537660515953 0.010450098185754068 0 0.015416066174796786 0.010378631870066643 0 0.015035537660515953 0.010450098185754068 0 0.015416066174796786 0.010378631870066643 0 0.015276776340984139 0.0098458233518355486 0 0.015709530622402844 0.0086465117690073326 0 0.015493455197018896 0.0088806858867278796 0 0.015749905618204423 0.0075556955479000884 0 0.016067789161799385 0.0069885856946773446 0 0.015830037342579234 0.0080000120280543669 0 0.015749905618204423 0.0075556955479000884 0 0.015830037342579234 0.0080000120280543669 0 0.015627770605538428 0.008135221247233957 0 0.015830037342579234 0.0080000120280543669 0 0.015491291167623645 0.0084795138056587421 0 0.015627770605538428 0.008135221247233957 0 0.014626858364464212 0.010068095251615523 0 0.014372038841432341 0.0094572443698389859 0 0.013967717862812047 0.0099432570407156067 0 0.014626858364464212 0.010068095251615523 0 0.015276776340984139 0.0098458233518355486 0 0.01502874995384155 0.0089473531832602766 0 0.015830037342579234 0.0080000120280543669 0 0.015491291167623645 0.0084795138056587421 0 0.01502874995384155 0.0089473531832602766 0 0.015493455197018896 0.0088806858867278796 0 0.015046274872452286 0.0088573902599996448 0 0.014626858364464212 0.010068095251615523 0 0.01502874995384155 0.0089473531832602766 0 0.014372038841432341 0.0094572443698389859 0 0.014476376394446572 0.0089944058699249207 0 0.01502874995384155 0.0089473531832602766 0 0.014372038841432341 0.0094572443698389859 0 0.013743605933559782 0.0092674374030021853 0 0.014476376394446572 0.0089944058699249207 0 0.014372038841432341 0.0094572443698389859 0 0.013743605933559782 0.0092674374030021853 0 0.014372038841432341 0.0094572443698389859 0 0.013967717862812047 0.0099432570407156067 0 0.013743605933559782 0.0092674374030021853 0 0.013967717862812047 0.0099432570407156067 0 0.013404817381233046 0.0099455838443643675 0 0.013967717862812047 0.0099432570407156067 0 0.013404817381233046 0.0099455838443643675 0 0.013944662577040041 0.010499011699278419 0 0.013743605933559782 0.0092674374030021853 0 0.013404817381233046 0.0099455838443643675 0 0.01300350948900842 0.0094205430657571046 0 0.013404817381233046 0.0099455838443643675 0 0.01300350948900842 0.0094205430657571046 0 0.012737191248483151 0.0099255529331641005 0 0.012518069688299069 0.0095376670266899433 0 0.012737191248483151 0.0099255529331641005 0 0.012070494804007096 0.0099936264645697492 0 0.01300350948900842 0.0094205430657571046 0 0.012518069688299069 0.0095376670266899433 0 0.012737191248483151 0.0099255529331641005 0 0.012737191248483151 0.0099255529331641005 0 0.012419168575570945 0.010342013986811269 0 0.012070494804007096 0.0099936264645697492 0 0.013404817381233046 0.0099455838443643675 0 0.012737191248483151 0.0099255529331641005 0 0.013053652566452079 0.010541806652835726 0 0.013053652566452079 0.010541806652835726 0 0.012419168575570945 0.010342013986811269 0 0.012475986674563504 0.010971975424188355 0 0.012737191248483151 0.0099255529331641005 0 0.013053652566452079 0.010541806652835726 0 0.012419168575570945 0.010342013986811269 0 0.012475986674563504 0.010971975424188355 0 0.012924853118899871 0.011090723924564477 0 0.012761176376631165 0.01144299304407931 0 0.013053652566452079 0.010541806652835726 0 0.012475986674563504 0.010971975424188355 0 0.012924853118899871 0.011090723924564477 0 0.013053652566452079 0.010541806652835726 0 0.012924853118899871 0.011090723924564477 0 0.01343563845241297 0.010997594183437497 0 0.013053652566452079 0.010541806652835726 0 0.01343563845241297 0.010997594183437497 0 0.013944662577040041 0.010499011699278419 0 0.01343563845241297 0.010997594183437497 0 0.013944662577040041 0.010499011699278419 0 0.014008845419426765 0.010955284082519222 0 0.014497817683335662 0.010683815567734348 0 0.013944662577040041 0.010499011699278419 0 0.014008845419426765 0.010955284082519222 0 0.014626858364464212 0.010068095251615523 0 0.013967717862812047 0.0099432570407156067 0 0.013944662577040041 0.010499011699278419 0 0.013404817381233046 0.0099455838443643675 0 0.013053652566452079 0.010541806652835726 0 0.013944662577040041 0.010499011699278419 0 0.010186181941129734 0.010176837616260887 0 0.010169687334718258 0.0096246474684540603 0 0.01086600109121554 0.0099176354574861524 0 0.010186181941129734 0.010176837616260887 0 0.01086600109121554 0.0099176354574861524 0 0.010796968765857963 0.01067930458305435 0 0.010186181941129734 0.010176837616260887 0 0.010169687334718258 0.0096246474684540603 0 0.0096163839699482077 0.0097852277220032841 0 0.010169687334718258 0.0096246474684540603 0 0.010702864633914807 0.0095052438594607075 0 0.01086600109121554 0.0099176354574861524 0 0.010169687334718258 0.0096246474684540603 0 0.01035339240346092 0.0092962945479787423 0 0.010006067462220538 0.009340749951294516 0 0.01035339240346092 0.0092962945479787423 0 0.010006067462220538 0.009340749951294516 0 0.010085585190344566 0.0091193837413807502 0 0.010869479651624154 0.0092364331062943852 0 0.01035339240346092 0.0092962945479787423 0 0.010702864633914807 0.0095052438594607075 0 0.010169687334718258 0.0096246474684540603 0 0.01035339240346092 0.0092962945479787423 0 0.010702864633914807 0.0095052438594607075 0 0.011188285415493372 0.0095015806665148753 0 0.01086600109121554 0.0099176354574861524 0 0.011579482005724865 0.0098038386493074798 0 0.010702864633914807 0.0095052438594607075 0 0.011188285415493372 0.0095015806665148753 0 0.01086600109121554 0.0099176354574861524 0 0.010869479651624154 0.0092364331062943852 0 0.010702864633914807 0.0095052438594607075 0 0.011188285415493372 0.0095015806665148753 0 0.01086600109121554 0.0099176354574861524 0 0.01124431348990221 0.010275429590963468 0 0.011579482005724865 0.0098038386493074798 0 0.01086600109121554 0.0099176354574861524 0 0.01124431348990221 0.010275429590963468 0 0.010796968765857963 0.01067930458305435 0 0.01124431348990221 0.010275429590963468 0 0.011705813076585619 0.010302281386108862 0 0.011579482005724865 0.0098038386493074798 0 0.011705813076585619 0.010302281386108862 0 0.011579482005724865 0.0098038386493074798 0 0.012070494804007096 0.0099936264645697492 0 0.011188285415493372 0.0095015806665148753 0 0.011593513958156797 0.0094202047024510727 0 0.011579482005724865 0.0098038386493074798 0 0.011333236589921318 0.0091701634258810841 0 0.011188285415493372 0.0095015806665148753 0 0.011593513958156797 0.0094202047024510727 0 0.011593513958156797 0.0094202047024510727 0 0.011579482005724865 0.0098038386493074798 0 0.012022851612142524 0.0094994975683621082 0 0.011579482005724865 0.0098038386493074798 0 0.012022851612142524 0.0094994975683621082 0 0.012070494804007096 0.0099936264645697492 0 0.012518069688299069 0.0095376670266899433 0 0.012022851612142524 0.0094994975683621082 0 0.012070494804007096 0.0099936264645697492 0 0.012458469241641455 0.0091699108060715791 0 0.012518069688299069 0.0095376670266899433 0 0.012022851612142524 0.0094994975683621082 0 0.011705813076585619 0.010302281386108862 0 0.012070494804007096 0.0099936264645697492 0 0.012019583934006371 0.010617154142984673 0 0.012419168575570945 0.010342013986811269 0 0.012070494804007096 0.0099936264645697492 0 0.012019583934006371 0.010617154142984673 0 0.012419168575570945 0.010342013986811269 0 0.012475986674563504 0.010971975424188355 0 0.012019583934006371 0.010617154142984673 0 0.012475986674563504 0.010971975424188355 0 0.012019583934006371 0.010617154142984673 0 0.01185501903514532 0.011249696564635873 0 0.012475986674563504 0.010971975424188355 0 0.01185501903514532 0.011249696564635873 0 0.012299106828593778 0.011511414650379387 0 0.01185501903514532 0.011249696564635873 0 0.011456559350402806 0.010757533638468385 0 0.011032060459346439 0.011409496400733604 0 0.012019583934006371 0.010617154142984673 0 0.01185501903514532 0.011249696564635873 0 0.011456559350402806 0.010757533638468385 0 0.011705813076585619 0.010302281386108862 0 0.012019583934006371 0.010617154142984673 0 0.011456559350402806 0.010757533638468385 0 0.01124431348990221 0.010275429590963468 0 0.011705813076585619 0.010302281386108862 0 0.011456559350402806 0.010757533638468385 0 0.01124431348990221 0.010275429590963468 0 0.011456559350402806 0.010757533638468385 0 0.010796968765857963 0.01067930458305435 0 0.010796968765857963 0.01067930458305435 0 0.011032060459346439 0.011409496400733604 0 0.010222471797915817 0.011389233480331948 0 0.011456559350402806 0.010757533638468385 0 0.010796968765857963 0.01067930458305435 0 0.011032060459346439 0.011409496400733604 0 0.011032060459346439 0.011409496400733604 0 0.010222471797915817 0.011389233480331948 0 0.010401120493215546 0.011889628591131631 0 0.010186181941129734 0.010176837616260887 0 0.010796968765857963 0.01067930458305435 0 0.010001640078958767 0.010857687157436451 0 0.010796968765857963 0.01067930458305435 0 0.010222471797915817 0.011389233480331948 0 0.010001640078958767 0.010857687157436451 0 0.010686058479010628 0.012389553729565322 0 0.010224477745529906 0.012872294276122537 0 0.0098413115269225075 0.012461425339453014 0 0.010401120493215546 0.011889628591131631 0 0.010686058479010628 0.012389553729565322 0 0.0098413115269225075 0.012461425339453014 0 0.010222471797915817 0.011389233480331948 0 0.010401120493215546 0.011889628591131631 0 0.009719196471914205 0.011866796184136649 0 0.010401120493215546 0.011889628591131631 0 0.009719196471914205 0.011866796184136649 0 0.0098413115269225075 0.012461425339453014 0 0.010401120493215546 0.011889628591131631 0 0.010894846973440628 0.011888248441262727 0 0.010686058479010628 0.012389553729565322 0 0.011032060459346439 0.011409496400733604 0 0.010894846973440628 0.011888248441262727 0 0.011471345166494227 0.011848984404712014 0 0.011032060459346439 0.011409496400733604 0 0.010401120493215546 0.011889628591131631 0 0.010894846973440628 0.011888248441262727 0 0.010894846973440628 0.011888248441262727 0 0.010686058479010628 0.012389553729565322 0 0.011471345166494227 0.011848984404712014 0 0.010686058479010628 0.012389553729565322 0 0.011471345166494227 0.011848984404712014 0 0.01127232937993969 0.012665438718459461 0 0.010686058479010628 0.012389553729565322 0 0.01127232937993969 0.012665438718459461 0 0.010224477745529906 0.012872294276122537 0 0.011471345166494227 0.011848984404712014 0 0.012203376974632488 0.01192849788589411 0 0.01127232937993969 0.012665438718459461 0 0.01185501903514532 0.011249696564635873 0 0.011032060459346439 0.011409496400733604 0 0.011471345166494227 0.011848984404712014 0 0.01185501903514532 0.011249696564635873 0 0.011471345166494227 0.011848984404712014 0 0.012299106828593778 0.011511414650379387 0 0.011471345166494227 0.011848984404712014 0 0.012299106828593778 0.011511414650379387 0 0.012203376974632488 0.01192849788589411 0 0.012299106828593778 0.011511414650379387 0 0.012203376974632488 0.01192849788589411 0 0.012669311867658819 0.011662567773206386 0 0.012203376974632488 0.01192849788589411 0 0.012417547955578626 0.012355056829856766 0 0.01127232937993969 0.012665438718459461 0 0.012710671138376414 0.011933185096896748 0 0.012561289484715925 0.010190019352931325 0 0.012203376974632488 0.01192849788589411 0 0.012390483647053014 0.012062053768654163 0 0.012669311867658819 0.011662567773206386 0 0.012591837313854368 0.0056781748768349669 0 0.012329167331251136 0.0060361069384725083 0 0.012799483380348911 0.006141706185619095 0 0.012329167331251136 0.0060361069384725083 0 0.012799483380348911 0.006141706185619095 0 0.0125678583289076 0.0064457330918582158 0 0.012329167331251136 0.0060361069384725083 0 0.012108822251858487 0.0063362077057129472 0 0.0125678583289076 0.0064457330918582158 0 0.012329167331251136 0.0060361069384725083 0 0.012108822251858487 0.0063362077057129472 0 0.011751406265011467 0.0059922657222071891 0 0.012561289484715925 0.010190019352931325 0 0.011656080947507308 0.0090288758759945395 0 0.012329167331251136 0.0060361069384725083 0 0.012007773498964557 0.0056872358061937208 0 0.011751406265011467 0.0059922657222071891 0 0.012591837313854368 0.0056781748768349669 0 0.012329167331251136 0.0060361069384725083 0 0.012007773498964557 0.0056872358061937208 0 0.011656080947507308 0.0090288758759945395 0 0.010681936826518442 0.0094590184679987591 0 0.012007773498964557 0.0056872358061937208 0 0.011751406265011467 0.0059922657222071891 0 0.011354795283723112 0.0057249916428052149 0 0.012108822251858487 0.0063362077057129472 0 0.011751406265011467 0.0059922657222071891 0 0.011725950254595205 0.0063103094798804896 0 0.011751406265011467 0.0059922657222071891 0 0.01149203236443506 0.0061789365408468485 0 0.011725950254595205 0.0063103094798804896 0 0.011233456357726384 0.0060727135443441778 0 0.011335007574094618 0.005992667446507339 0 0.011239777741911535 0.0060034440159674142 0 0.011751406265011467 0.0059922657222071891 0 0.01149203236443506 0.0061789365408468485 0 0.011335007574094618 0.005992667446507339 0 0.01149203236443506 0.0061789365408468485 0 0.011233456357726384 0.0060727135443441778 0 0.011335007574094618 0.005992667446507339 0 0.011751406265011467 0.0059922657222071891 0 0.011335007574094618 0.005992667446507339 0 0.011354795283723112 0.0057249916428052149 0 0.014315982838245329 0.011094624433784547 0 0.013876486149881994 0.011214161480326773 0 0.014301663080362063 0.011322219875384582 0 0.014315982838245329 0.011094624433784547 0 0.014497817683335662 0.010683815567734348 0 0.014008845419426765 0.010955284082519222 0 0.014315982838245329 0.011094624433784547 0 0.013876486149881994 0.011214161480326773 0 0.014008845419426765 0.010955284082519222 0 0.01343563845241297 0.010997594183437497 0 0.013876486149881994 0.011214161480326773 0 0.014008845419426765 0.010955284082519222 0 0.01343563845241297 0.010997594183437497 0 0.012638319102536582 0.011552981777976225 0 0.012954433249464615 0.011470314252992973 0 0.013378623390962642 0.010960977543940108 0 0.013252827069036011 0.011320891143977127 0 0.012924853118899871 0.011090723924564477 0 0.01343563845241297 0.010997594183437497 0 0.012954433249464615 0.011470314252992973 0 0.012924853118899871 0.011090723924564477 0 0.012954433249464615 0.011470314252992973 0 0.012761176376631165 0.01144299304407931 0 0.012475986674563504 0.010971975424188355 0 0.012299106828593778 0.011511414650379387 0 0.012761176376631165 0.01144299304407931 0 0.012299106828593778 0.011511414650379387 0 0.012761176376631165 0.01144299304407931 0 0.012669311867658819 0.011662567773206386 0 0.012390483647053014 0.012062053768654163 0 0.013113651173213071 0.011498416808399461 0 0.012669311867658819 0.011662567773206386 0 0.012761176376631165 0.01144299304407931 0 0.013113651173213071 0.011498416808399461 0 0.012669311867658819 0.011662567773206386 0 0.012561289484715925 0.010190019352931325 0 0.013363473278735417 0.011669580476708291 0 0.012638319102536582 0.011552981777976225 0 0.013113651173213071 0.011498416808399461 0 0.012817381170092993 0.010476038775486876 0 0.012638319102536582 0.011552981777976225 0 0.012954433249464615 0.011470314252992973 0 0.013113651173213071 0.011498416808399461 0 0.012954433249464615 0.011470314252992973 0 0.012761176376631165 0.01144299304407931 0 0.013113651173213071 0.011498416808399461 0 0.012561289484715925 0.010190019352931325 0 0.013371980480547881 0.0078415245039766181 0 0.014441970202792457 0.011341376026844575 0 0.013113651173213071 0.011498416808399461 0 0.013921637662791291 0.010074204524538499 0 0.013113651173213071 0.011498416808399461 0 0.012817381170092993 0.010476038775486876 0 0.013921637662791291 0.010074204524538499 0 0.013371980480547881 0.0078415245039766181 0 0.01314325690305156 0.0076508753077842032 0 0.012799483380348911 0.006141706185619095 0 0.012909368088776456 0.0066358579217823893 0 0.0125678583289076 0.0064457330918582158 0 0.012817381170092993 0.010476038775486876 0 0.013921637662791291 0.010074204524538499 0 0.013443540470512038 0.0086388884191080945 0 0.012817381170092993 0.010476038775486876 0 0.012326299632933208 0.0091347079121100253 0 0.013443540470512038 0.0086388884191080945 0 0.011844305982106283 0.010428600686061135 0 0.012326299632933208 0.0091347079121100253 0 0.011219706652423066 0.0086885337224096859 0 0.012970491952635898 0.010798098902258252 0 0.012684623291379007 0.010632382044042264 0 0.012817381170092993 0.010476038775486876 0 0.011844305982106283 0.010428600686061135 0 0.012326299632933208 0.0091347079121100253 0 0.013876486149881994 0.011214161480326773 0 0.01409502229986859 0.011432353285064728 0 0.014301663080362063 0.011322219875384582 0 0.013252827069036011 0.011320891143977127 0 0.012970491952635898 0.010798098902258252 0 0.012638319102536582 0.011552981777976225 0 0.012817381170092993 0.010476038775486876 0 0.011844305982106283 0.010428600686061135 0 0.01409502229986859 0.011432353285064728 0 0.014301663080362063 0.011322219875384582 0 0.014386687455406286 0.011504761936409211 0 0.01409502229986859 0.011432353285064728 0 0.014386687455406286 0.011504761936409211 0 0.014279008692380484 0.011562905432151769 0 0.01409502229986859 0.011432353285064728 0 0.014279008692380484 0.011562905432151769 0 0.014259885658287523 0.011658000355956832 0 0.014386687455406286 0.011504761936409211 0 0.014279008692380484 0.011562905432151769 0 0.014357058825246788 0.011628635941273125 0 0.014279008692380484 0.011562905432151769 0 0.014357058825246788 0.011628635941273125 0 0.014259885658287523 0.011658000355956832 0 0.014357058825246788 0.011628635941273125 0 0.014274013032669411 0.011634063596488864 0 0.014259885658287523 0.011658000355956832 0 0.014357058825246788 0.011628635941273125 0 0.014274013032669411 0.011634063596488864 0 0.014442086921266523 0.011703649299948849 0 0.013673966897077101 0.0068453410253590079 0 0.012684623291379007 0.010632382044042264 0 0.014274013032669411 0.011634063596488864 0 0.014464072051395015 0.011776899468591446 0 0.014508219731336027 0.011901113499121312 0 0.013673966897077101 0.0068453410253590079 0 0.015254241760953583 0.0079204944468041268 0 0.014274013032669411 0.011634063596488864 0 0.014291760333515573 0.011536794109533805 0 0.014185966376446167 0.011493047067186676 0 0.014274013032669411 0.011634063596488864 0 0.014291760333515573 0.011536794109533805 0 0.014259885658287523 0.011658000355956832 0 0.014274013032669411 0.011634063596488864 0 0.014442086921266523 0.011703649299948849 0 0.014464072051395015 0.011776899468591446 0 0.014394930613052831 0.012649606969985549 0 0.015254241760953583 0.0079204944468041268 0 0.013673966897077101 0.0068453410253590079 0 0.011801436992361114 0.0067936456001891328 0 0.010925101198587913 0.0068566548875687661 0 0.011924208701771855 0.0078110884585272629 0 0.011219706652423066 0.0086885337224096859 0 0.012015304415541187 0.0068661049640094847 0 0.011924208701771855 0.0078110884585272629 0 0.012634484094482361 0.006883373372186914 0 0.012015304415541187 0.0068661049640094847 0 0.011380046281902412 0.0068779178582171743 0 0.011924208701771855 0.0078110884585272629 0 0.010925101198587913 0.0068566548875687661 0 0.011380046281902412 0.0068779178582171743 0 0.011924208701771855 0.0078110884585272629 0 0.011924208701771855 0.0078110884585272629 0 0.012326299632933208 0.0091347079121100253 0 0.011219706652423066 0.0086885337224096859 0 0.011924208701771855 0.0078110884585272629 0 0.012326299632933208 0.0091347079121100253 0 0.013443540470512038 0.0086388884191080945 0 0.012909368088776456 0.0066358579217823893 0 0.0125678583289076 0.0064457330918582158 0 0.012762485661119146 0.0067657916126770707 0 0.01285504535131602 0.0067227257970710885 0 0.013199108136693694 0.0063778400890930525 0 0.012762485661119146 0.0067657916126770707 0 0.012909368088776456 0.0066358579217823893 0 0.01285504535131602 0.0067227257970710885 0 0.012762485661119146 0.0067657916126770707 0 0.011924208701771855 0.0078110884585272629 0 0.013443540470512038 0.0086388884191080945 0 0.012634484094482361 0.006883373372186914 0 0.012909368088776456 0.0066358579217823893 0 0.01285504535131602 0.0067227257970710885 0 0.012634484094482361 0.006883373372186914 0 0.01314325690305156 0.0076508753077842032 0 0.012686459891947928 0.0068952901915629835 0 0.012634484094482361 0.006883373372186914 0 0.012792349034599297 0.0062969085633762167 0 0.012021215088638482 0.0063479679900958616 0 0.012792349034599297 0.0062969085633762167 0 0.012326615067085179 0.0057092381517498195 0 0.012021215088638482 0.0063479679900958616 0 0.01285504535131602 0.0067227257970710885 0 0.012634484094482361 0.006883373372186914 0 0.012792349034599297 0.0062969085633762167 0 0.012997826933299785 0.0070152656394317399 0 0.012794807091213483 0.0066097323630109365 0 0.01285504535131602 0.0067227257970710885 0 0.012792349034599297 0.0062969085633762167 0 0.013199108136693694 0.0063778400890930525 0 0.012792349034599297 0.0062969085633762167 0 0.013199108136693694 0.0063778400890930525 0 0.013273678967452986 0.0054622041633388962 0 0.012997826933299785 0.0070152656394317399 0 0.012660222919770255 0.0047956640799445803 0 0.012792349034599297 0.0062969085633762167 0 0.013273678967452986 0.0054622041633388962 0 0.012326615067085179 0.0057092381517498195 0 0.013273678967452986 0.0054622041633388962 0 0.012326615067085179 0.0057092381517498195 0 0.012132882604962264 0.0045487042033357742 0 0.012326615067085179 0.0057092381517498195 0 0.011630789136535782 0.0053263627575838492 0 0.012132882604962264 0.0045487042033357742 0 0.012326615067085179 0.0057092381517498195 0 0.011879624352417933 0.0058428564051841211 0 0.012021215088638482 0.0063479679900958616 0 0.012326615067085179 0.0057092381517498195 0 0.011879624352417933 0.0058428564051841211 0 0.011630789136535782 0.0053263627575838492 0 0.011630789136535782 0.0053263627575838492 0 0.010741911682895521 0.0053516496781666114 0 0.011522118603931914 0.0059801773156181581 0 0.011879624352417933 0.0058428564051841211 0 0.011630789136535782 0.0053263627575838492 0 0.011522118603931914 0.0059801773156181581 0 0.010741911682895521 0.0053516496781666114 0 0.011282287131118599 0.0063268818502921105 0 0.011522118603931914 0.0059801773156181581 0 0.011073699390867511 0.0068603691772253037 0 0.010741911682895521 0.0053516496781666114 0 0.011282287131118599 0.0063268818502921105 0 0.013673966897077101 0.0068453410253590079 0 0.013025126425622327 0.0036946529140981081 0 0.015492082712003011 0.0029838419787479374 0 0.01546172380535576 0.0029291619806576801 0 0.015479774996713673 0.002962323162024058 0 0.015492082712003011 0.0029838419787479374 0 0.015479774996713673 0.002962323162024058 0 0.015459480158292434 0.0029829572903309468 0 0.01546172380535576 0.0029291619806576801 0 0.015479774996713673 0.002962323162024058 0 0.015478770792712399 0.0029328728888898606 0 0.011073699390867511 0.0068603691772253037 0 0.011380046281902412 0.0068779178582171743 0 0.011282287131118599 0.0063268818502921105 0 0.012015304415541187 0.0068661049640094847 0 0.011380046281902412 0.0068779178582171743 0 0.011654774484426297 0.0065498921507581246 0 0.011380046281902412 0.0068779178582171743 0 0.011654774484426297 0.0065498921507581246 0 0.011282287131118599 0.0063268818502921105 0 0.012015304415541187 0.0068661049640094847 0 0.011654774484426297 0.0065498921507581246 0 0.012021215088638482 0.0063479679900958616 0 0.012015304415541187 0.0068661049640094847 0 0.012634484094482361 0.006883373372186914 0 0.012021215088638482 0.0063479679900958616 0 0.011879624352417933 0.0058428564051841211 0 0.012021215088638482 0.0063479679900958616 0 0.011522118603931914 0.0059801773156181581 0 0.011654774484426297 0.0065498921507581246 0 0.012021215088638482 0.0063479679900958616 0 0.011522118603931914 0.0059801773156181581 0 0.011654774484426297 0.0065498921507581246 0 0.011282287131118599 0.0063268818502921105 0 0.011522118603931914 0.0059801773156181581 0 0.011430937433157385 0.0066149224070586234 0 0.011781769747568876 0.006866471173188296 0 0.011609650226883745 0.0070287192276768662 0 0.011150388102259831 0.0060521497880105185 0 0.011263019739840814 0.0067209593797908163 0 0.010917872334274544 0.0057736116006870406 0 0.011031316468417393 0.0051893782561984996 0 0.010683627698578755 0.0052587158203403163 0 0.011219698988567249 0.0061165057257075769 0 0.011150388102259831 0.0060521497880105185 0 0.011233456357726384 0.0060727135443441778 0 0.010917872334274544 0.0057736116006870406 0 0.011179036491231645 0.0058920123440695197 0 0.01149203236443506 0.0061789365408468485 0 0.011430937433157385 0.0066149224070586234 0 0.011725950254595205 0.0063103094798804896 0 0.01149203236443506 0.0061789365408468485 0 0.011233456357726384 0.0060727135443441778 0 0.011430937433157385 0.0066149224070586234 0 0.011430937433157385 0.0066149224070586234 0 0.011725950254595205 0.0063103094798804896 0 0.011909296573687351 0.0066154885132947662 0 0.012108822251858487 0.0063362077057129472 0 0.011725950254595205 0.0063103094798804896 0 0.011909296573687351 0.0066154885132947662 0 0.011430937433157385 0.0066149224070586234 0 0.011909296573687351 0.0066154885132947662 0 0.011781769747568876 0.006866471173188296 0 0.011909296573687351 0.0066154885132947662 0 0.011781769747568876 0.006866471173188296 0 0.012089401021066011 0.0069225625579465702 0 0.011781769747568876 0.006866471173188296 0 0.012089401021066011 0.0069225625579465702 0 0.011860714417722022 0.0071207013073558284 0 0.011909296573687351 0.0066154885132947662 0 0.012341087729804162 0.0066810796569069511 0 0.012089401021066011 0.0069225625579465702 0 0.012341087729804162 0.0066810796569069511 0 0.012089401021066011 0.0069225625579465702 0 0.012471789556867263 0.0070237737618311915 0 0.012108822251858487 0.0063362077057129472 0 0.012341087729804162 0.0066810796569069511 0 0.0125678583289076 0.0064457330918582158 0 0.012108822251858487 0.0063362077057129472 0 0.011909296573687351 0.0066154885132947662 0 0.012341087729804162 0.0066810796569069511 0 0.012341087729804162 0.0066810796569069511 0 0.0125678583289076 0.0064457330918582158 0 0.012762485661119146 0.0067657916126770707 0 0.012341087729804162 0.0066810796569069511 0 0.012762485661119146 0.0067657916126770707 0 0.012471789556867263 0.0070237737618311915 0 0.012727783150176674 0.007119481702522786 0 0.012762485661119146 0.0067657916126770707 0 0.012471789556867263 0.0070237737618311915 0 0.012727783150176674 0.007119481702522786 0 0.012471789556867263 0.0070237737618311915 0 0.012522317999187899 0.0072508869880752395 0 0.012250309141187302 0.0021181637810244566 0 0.012489371419195112 0.0022573632765854191 0 0.012502610005326925 0.0019600153246534567 0 0.012727783150176674 0.007119481702522786 0 0.012751398889573355 0.007339957653085284 0 0.012522317999187899 0.0072508869880752395 0 0.012489371419195112 0.0022573632765854191 0 0.012650329589998137 0.0021226040823423345 0 0.012502610005326925 0.0019600153246534567 0 0.012660222919770255 0.0047956640799445803 0 0.012408216777219509 0.004672410769690989 0 0.012489371419195112 0.0022573632765854191 0 0.012658555648835066 0.0022472410179024643 0 0.012650329589998137 0.0021226040823423345 0 0.012489371419195112 0.0022573632765854191 0 0.012658555648835066 0.0022472410179024643 0 0.012736587592407825 0.0024010129334069729 0 0.012408216777219509 0.004672410769690989 0 0.012395206244013485 0.0061696327746256904 0 0.012650329589998137 0.0021226040823423345 0 0.012758265595933991 0.0022089163879298224 0 0.012811573010287325 0.0021119901797901474 0 0.012658555648835066 0.0022472410179024643 0 0.012650329589998137 0.0021226040823423345 0 0.012758265595933991 0.0022089163879298224 0 0.012758265595933991 0.0022089163879298224 0 0.012736587592407825 0.0024010129334069729 0 0.012851205202687878 0.0022148964983654401 0 0.012658555648835066 0.0022472410179024643 0 0.012758265595933991 0.0022089163879298224 0 0.012736587592407825 0.0024010129334069729 0 0.012471789556867263 0.0070237737618311915 0 0.012522317999187899 0.0072508869880752395 0 0.012290699176348705 0.0071339036271682674 0 0.012089401021066011 0.0069225625579465702 0 0.012471789556867263 0.0070237737618311915 0 0.012092517071171717 0.007251038886236817 0 0.012235163545393207 0.0071589325203959475 0 0.012395206244013485 0.0061696327746256904 0 0.012089401021066011 0.0069225625579465702 0 0.012092517071171717 0.007251038886236817 0 0.011860714417722022 0.0071207013073558284 0 0.011860714417722022 0.0071207013073558284 0 0.011734821243146277 0.0073346470982263989 0 0.011609650226883745 0.0070287192276768662 0 0.011996617906131338 0.0071816123680256911 0 0.011860714417722022 0.0071207013073558284 0 0.011734821243146277 0.0073346470982263989 0 0.011006370813701831 0.002836014108723443 0 0.011263019739840814 0.0067209593797908163 0 0.011781769747568876 0.006866471173188296 0 0.011860714417722022 0.0071207013073558284 0 0.011609650226883745 0.0070287192276768662 0 0.012395206244013485 0.0061696327746256904 0 0.012119078333826132 0.006780359911945249 0 0.012395206244013485 0.0061696327746256904 0 0.011006370813701831 0.002836014108723443 0 0.012736587592407825 0.0024010129334069729 0 0.012851205202687878 0.0022148964983654401 0 0.012984910454361136 0.0022236035408079377 0 0.010561940024336414 0.0045364649239748754 0 0.010491379286950769 0.0045813532394869995 0 0.010683627698578755 0.0052587158203403163 0 0.012758265595933991 0.0022089163879298224 0 0.012851205202687878 0.0022148964983654401 0 0.012811573010287325 0.0021119901797901474 0 0.012851205202687878 0.0022148964983654401 0 0.012811573010287325 0.0021119901797901474 0 0.012964197237773104 0.0021304872687491795 0 0.012851205202687878 0.0022148964983654401 0 0.012964197237773104 0.0021304872687491795 0 0.012984910454361136 0.0022236035408079377 0 0.011050689123113789 0.0005735819728683012 0 0.01151347375365914 0.001132852739284968 0 0.011239440960228778 0.001307401849562779 0 0.010999528352430525 0.0002428696518967132 0 0.011006370813701831 0.002836014108723443 0 0.010999528352430525 0.0002428696518967132 0 0.009494142512164969 0.00081319968138334115 0 0.009494142512164969 0.00081319968138334115 0 0.011006370813701831 0.002836014108723443 0 0.009494142512164969 0.00081319968138334115 0 0.0069513618421863533 -0.0034276373622905403 0 0.0046630381652681078 -0.00095972977772674649 0 0.0053343112271592875 -0.00010044677186138779 0 0.0057308577368996401 -0.00091423753465333683 0 0.009494142512164969 0.00081319968138334115 0 0.0079619628136247313 0.0025954091498827866 0 0.010561940024336414 0.0045364649239748754 0 0.011031316468417393 0.0051893782561984996 0 0.010683627698578755 0.0052587158203403163 0 0.0092348492427557598 -0.0038160863049934383 0 0.009234206721897004 -0.0040664277844471913 0 0.0095249938995866749 -0.0038979045863383019 0 0.0092348492427557598 -0.0038160863049934383 0 0.009234206721897004 -0.0040664277844471913 0 0.0089206092355267122 -0.0038787565479738773 0 0.0093898714297034266 -0.0042778415904181225 0 0.009335461416191659 -0.0043400099178446385 0 0.009234206721897004 -0.0040664277844471913 0 0.009335461416191659 -0.0043400099178446385 0 0.009234206721897004 -0.0040664277844471913 0 0.0089027263746617787 -0.0041681598325126546 0 0.010999528352430525 0.0002428696518967132 0 0.011017155497241098 -0.0015174710549194712 0 0.012474866582259242 0.0014147279409351789 0 0.012602976740669757 0.0016019538663274843 0 0.012605440404967064 0.0015334726522499694 0 0.0093898714297034266 -0.0042778415904181225 0 0.009234206721897004 -0.0040664277844471913 0 0.0095249938995866749 -0.0038979045863383019 0 0.010999528352430525 0.0002428696518967132 0 0.012968595873732074 0.0020396982028726071 0 0.012811573010287325 0.0021119901797901474 0 0.012964197237773104 0.0021304872687491795 0 0.012790936872539075 0.001896794105800035 0 0.012602976740669757 0.0016019538663274843 0 0.012580551593322669 0.0016393593513678252 0 0.012605440404967064 0.0015334726522499694 0 0.012496835087727377 0.0015199704407009549 0 0.012968595873732074 0.0020396982028726071 0 0.012650329589998137 0.0021226040823423345 0 0.012790936872539075 0.001896794105800035 0 0.012502610005326925 0.0019600153246534567 0 0.012580551593322669 0.0016393593513678252 0 0.012790936872539075 0.001896794105800035 0 0.012502610005326925 0.0019600153246534567 0 0.012650329589998137 0.0021226040823423345 0 0.012811573010287325 0.0021119901797901474 0 0.012790936872539075 0.001896794105800035 0 0.012250309141187302 0.0021181637810244566 0 0.012502610005326925 0.0019600153246534567 0 0.012345544337654089 0.0019115693614943196 0 0.012502610005326925 0.0019600153246534567 0 0.012345544337654089 0.0019115693614943196 0 0.012408486364618337 0.0017826460808125658 0 0.012580551593322669 0.0016393593513678252 0 0.012502610005326925 0.0019600153246534567 0 0.012408486364618337 0.0017826460808125658 0 0.012408486364618337 0.0017826460808125658 0 0.012406405423837332 0.0016275660212247919 0 0.012226548933607027 0.001790053986250648 0 0.012580551593322669 0.0016393593513678252 0 0.012408486364618337 0.0017826460808125658 0 0.012406405423837332 0.0016275660212247919 0 0.012406405423837332 0.0016275660212247919 0 0.012493774290329995 0.0015185916551324009 0 0.012352707014784409 0.0015128343302545479 0 0.012580551593322669 0.0016393593513678252 0 0.012406405423837332 0.0016275660212247919 0 0.012493774290329995 0.0015185916551324009 0 0.012493774290329995 0.0015185916551324009 0 0.01244572544252691 0.0014005777291837074 0 0.012352707014784409 0.0015128343302545479 0 0.01244572544252691 0.0014005777291837074 0 0.012352707014784409 0.0015128343302545479 0 0.012302537782310444 0.0014437302571971946 0 0.01244572544252691 0.0014005777291837074 0 0.012658186453444053 0.0014236206118258151 0 0.01264344100997402 0.0010770847226354943 0 0.012493774290329995 0.0015185916551324009 0 0.01244572544252691 0.0014005777291837074 0 0.012658186453444053 0.0014236206118258151 0 0.012580551593322669 0.0016393593513678252 0 0.012493774290329995 0.0015185916551324009 0 0.012658186453444053 0.0014236206118258151 0 0.012602976740669757 0.0016019538663274843 0 0.012580551593322669 0.0016393593513678252 0 0.012658186453444053 0.0014236206118258151 0 0.0092348492427557598 -0.0038160863049934383 0 0.0095249938995866749 -0.0038979045863383019 0 0.0093751519990944651 -0.0035710255977428971 0 0.011017155497241098 -0.0015174710549194712 0 0.011184792883555355 -0.00098784215662809142 0 0.0095249938995866749 -0.0038979045863383019 0 0.0096952762168780494 -0.0035018054202695758 0 0.0093751519990944651 -0.0035710255977428971 0 0.0096952762168780494 -0.0035018054202695758 0 0.0093751519990944651 -0.0035710255977428971 0 0.009453316352074392 -0.0032514677449213725 0 0.0093751519990944651 -0.0035710255977428971 0 0.0090402198057634633 -0.0036650399964923701 0 0.0089133675330362854 -0.003415206614059836 0 0.0093751519990944651 -0.0035710255977428971 0 0.0089133675330362854 -0.003415206614059836 0 0.009453316352074392 -0.0032514677449213725 0 0.0092348492427557598 -0.0038160863049934383 0 0.0093751519990944651 -0.0035710255977428971 0 0.0090402198057634633 -0.0036650399964923701 0 0.0092348492427557598 -0.0038160863049934383 0 0.0090402198057634633 -0.0036650399964923701 0 0.0089206092355267122 -0.0038787565479738773 0 0.011492008688248512 0.003248155943544705 0 0.011757567646515176 0.0039102992485647008 0 0.011816974391459944 0.003122600709963248 0 0.010598589396727932 0.0034645231002827992 0 0.012020812377879667 0.0042676191969353528 0 0.011107115104872001 0.003372086863875121 0 0.010601594267743144 0.0034532398529256146 0 0.011757567646515176 0.0039102992485647008 0 0.011492008688248512 0.003248155943544705 0 0.011107115104872001 0.003372086863875121 0 0.011757567646515176 0.0039102992485647008 0 0.011492008688248512 0.003248155943544705 0 0.011418776734239706 0.0030002591193911839 0 0.011620262017367832 0.0028798306677276357 0 0.011492008688248512 0.003248155943544705 0 0.011816974391459944 0.003122600709963248 0 0.011620262017367832 0.0028798306677276357 0 0.011492008688248512 0.003248155943544705 0 0.011261601350808731 0.0031323921403944017 0 0.011107115104872001 0.003372086863875121 0 0.011492008688248512 0.003248155943544705 0 0.011261601350808731 0.0031323921403944017 0 0.011418776734239706 0.0030002591193911839 0 0.011261601350808731 0.0031323921403944017 0 0.011055200918004507 0.0030909072898043259 0 0.011218209710305004 0.0029215756902158871 0 0.011261601350808731 0.0031323921403944017 0 0.011107115104872001 0.003372086863875121 0 0.011055200918004507 0.0030909072898043259 0 0.011055200918004507 0.0030909072898043259 0 0.010883833188049998 0.0032176514498922348 0 0.010835601131139187 0.0030111271449893957 0 0.011107115104872001 0.003372086863875121 0 0.010819953169906292 0.0033156859142519433 0 0.010601594267743144 0.0034532398529256146 0 0.011107115104872001 0.003372086863875121 0 0.011055200918004507 0.0030909072898043259 0 0.010883833188049998 0.0032176514498922348 0 0.010883833188049998 0.0032176514498922348 0 0.010819953169906292 0.0033156859142519433 0 0.010681519378128727 0.0032134849437556283 0 0.010883833188049998 0.0032176514498922348 0 0.010681519378128727 0.0032134849437556283 0 0.010835601131139187 0.0030111271449893957 0 0.011107115104872001 0.003372086863875121 0 0.010883833188049998 0.0032176514498922348 0 0.010819953169906292 0.0033156859142519433 0 0.010681519378128727 0.0032134849437556283 0 0.010424823497393137 0.0034853586484238459 0 0.010605328616921737 0.0027038968022108528 0 0.010681519378128727 0.0032134849437556283 0 0.010601594267743144 0.0034532398529256146 0 0.010424823497393137 0.0034853586484238459 0 0.010819953169906292 0.0033156859142519433 0 0.010681519378128727 0.0032134849437556283 0 0.010601594267743144 0.0034532398529256146 0 0.010601594267743144 0.0034532398529256146 0 0.010424823497393137 0.0034853586484238459 0 0.01111959491847078 0.0044347628517310642 0 0.010741911682895521 0.0053516496781666114 0 0.010424823497393137 0.0034853586484238459 0 0.01111959491847078 0.0044347628517310642 0 0.01546172380535576 0.0029291619806576801 0 0.015430246349781079 0.0030468326591391853 0 0.015480938555455924 0.0029921601487878221 0 0.013025126425622327 0.0036946529140981081 0 0.012898815734494111 0.003391824989311103 0 0.011630789136535782 0.0053263627575838492 0 0.010741911682895521 0.0053516496781666114 0 0.01111959491847078 0.0044347628517310642 0 0.010601594267743144 0.0034532398529256146 0 0.01111959491847078 0.0044347628517310642 0 0.012132882604962264 0.0045487042033357742 0 0.011630789136535782 0.0053263627575838492 0 0.01111959491847078 0.0044347628517310642 0 0.012132882604962264 0.0045487042033357742 0 0.012660222919770255 0.0047956640799445803 0 0.012020812377879667 0.0042676191969353528 0 0.012250309141187302 0.0021181637810244566 0 0.012345544337654089 0.0019115693614943196 0 0.012226548933607027 0.001790053986250648 0 0.012660222919770255 0.0047956640799445803 0 0.012476970624727947 0.0024081834567334041 0 0.012960646193133441 0.004531458673959517 0 0.011757567646515176 0.0039102992485647008 0 0.012796727194242248 0.0035959596869769377 0 0.012345544337654089 0.0019115693614943196 0 0.012408486364618337 0.0017826460808125658 0 0.012226548933607027 0.001790053986250648 0 0.012476970624727947 0.0024081834567334041 0 0.012425524724672543 0.0020919937318336431 0 0.012226548933607027 0.001790053986250648 0 0.012308642228009379 0.0016129648041833407 0 0.012239407934479406 0.0015451202071401977 0 0.012796727194242248 0.0035959596869769377 0 0.012221429299950917 0.0031606338641338651 0 0.012424039922034292 0.0026887045217823782 0 0.012796727194242248 0.0035959596869769377 0 0.012424039922034292 0.0026887045217823782 0 0.01263564824612157 0.0025202473415953863 0 0.012406405423837332 0.0016275660212247919 0 0.012226548933607027 0.001790053986250648 0 0.012308642228009379 0.0016129648041833407 0 0.011757567646515176 0.0039102992485647008 0 0.012796727194242248 0.0035959596869769377 0 0.012221429299950917 0.0031606338641338651 0 0.011757567646515176 0.0039102992485647008 0 0.012221429299950917 0.0031606338641338651 0 0.011816974391459944 0.003122600709963248 0 0.012221429299950917 0.0031606338641338651 0 0.011816974391459944 0.003122600709963248 0 0.012019433079012584 0.00279733125528545 0 0.012019433079012584 0.00279733125528545 0 0.012424039922034292 0.0026887045217823782 0 0.011798657933617509 0.0025207121473526024 0 0.011816974391459944 0.003122600709963248 0 0.011799087033925019 0.0027506339725723306 0 0.012019433079012584 0.00279733125528545 0 0.011799087033925019 0.0027506339725723306 0 0.012019433079012584 0.00279733125528545 0 0.011798657933617509 0.0025207121473526024 0 0.012221429299950917 0.0031606338641338651 0 0.012019433079012584 0.00279733125528545 0 0.012424039922034292 0.0026887045217823782 0 0.01234922489880845 0.0026526766770673046 0 0.011775810735204374 0.002368555933995303 0 0.012424039922034292 0.0026887045217823782 0 0.012086406345451545 0.0021735357901990163 0 0.011686717088672041 0.0021969707640324345 0 0.012424039922034292 0.0026887045217823782 0 0.012359167917395735 0.0023770346542871038 0 0.012086406345451545 0.0021735357901990163 0 0.012359167917395735 0.0023770346542871038 0 0.012239964429182945 0.0020681485048265349 0 0.01263564824612157 0.0025202473415953863 0 0.012359167917395735 0.0023770346542871038 0 0.012239964429182945 0.0020681485048265349 0 0.012086406345451545 0.0021735357901990163 0 0.012239964429182945 0.0020681485048265349 0 0.012086406345451545 0.0021735357901990163 0 0.012031650501403065 0.0018134264556799043 0 0.012086406345451545 0.0021735357901990163 0 0.011686717088672041 0.0021969707640324345 0 0.011801748752817942 0.0018901386461147671 0 0.012308642228009379 0.0016129648041833407 0 0.012239407934479406 0.0015451202071401977 0 0.012352707014784409 0.0015128343302545479 0 0.012406405423837332 0.0016275660212247919 0 0.012308642228009379 0.0016129648041833407 0 0.012352707014784409 0.0015128343302545479 0 0.012424039922034292 0.0026887045217823782 0 0.012359167917395735 0.0023770346542871038 0 0.01263564824612157 0.0025202473415953863 0 0.012239407934479406 0.0015451202071401977 0 0.012352707014784409 0.0015128343302545479 0 0.012302537782310444 0.0014437302571971946 0 0.012425524724672543 0.0020919937318336431 0 0.012255742693905535 0.0014616799460989327 0 0.012302537782310444 0.0014437302571971946 0 0.012217187949519953 0.0014198540003525679 0 0.01233936170805564 0.0011911455416550633 0 0.012239407934479406 0.0015451202071401977 0 0.012302537782310444 0.0014437302571971946 0 0.012217187949519953 0.0014198540003525679 0 0.01244572544252691 0.0014005777291837074 0 0.012302537782310444 0.0014437302571971946 0 0.01233936170805564 0.0011911455416550633 0 0.012239964429182945 0.0020681485048265349 0 0.01263564824612157 0.0025202473415953863 0 0.012217187949519953 0.0014198540003525679 0 0.012217187949519953 0.0014198540003525679 0 0.011850260207174251 0.0016045890261430355 0 0.01177532494044576 0.0013752292035838177 0 0.011801748752817942 0.0018901386461147671 0 0.012031650501403065 0.0018134264556799043 0 0.011850260207174251 0.0016045890261430355 0 0.012086406345451545 0.0021735357901990163 0 0.011801748752817942 0.0018901386461147671 0 0.012031650501403065 0.0018134264556799043 0 0.012239964429182945 0.0020681485048265349 0 0.012031650501403065 0.0018134264556799043 0 0.012217187949519953 0.0014198540003525679 0 0.012031650501403065 0.0018134264556799043 0 0.012217187949519953 0.0014198540003525679 0 0.011850260207174251 0.0016045890261430355 0 0.011850260207174251 0.0016045890261430355 0 0.011458946968363925 0.0017493993204829375 0 0.01177532494044576 0.0013752292035838177 0 0.011769674013729848 0.0018709866512547548 0 0.011024196462289637 0.0018189245150754337 0 0.011801748752817942 0.0018901386461147671 0 0.011850260207174251 0.0016045890261430355 0 0.011458946968363925 0.0017493993204829375 0 0.011798657933617509 0.0025207121473526024 0 0.011192874402986573 0.0022206293114570412 0 0.011386907370761767 0.0025711001736630902 0 0.011775810735204374 0.002368555933995303 0 0.011024196462289637 0.0018189245150754337 0 0.011798657933617509 0.0025207121473526024 0 0.011386907370761767 0.0025711001736630902 0 0.011640607542845094 0.0026702103430636883 0 0.011686717088672041 0.0021969707640324345 0 0.011801748752817942 0.0018901386461147671 0 0.010849744692635601 0.0017860091332071552 0 0.011799087033925019 0.0027506339725723306 0 0.011798657933617509 0.0025207121473526024 0 0.011640607542845094 0.0026702103430636883 0 0.011192874402986573 0.0022206293114570412 0 0.011386907370761767 0.0025711001736630902 0 0.011049251014294582 0.0027558395752258886 0 0.011386907370761767 0.0025711001736630902 0 0.011218209710305004 0.0029215756902158871 0 0.011418776734239706 0.0030002591193911839 0 0.011386907370761767 0.0025711001736630902 0 0.011218209710305004 0.0029215756902158871 0 0.011049251014294582 0.0027558395752258886 0 0.011055200918004507 0.0030909072898043259 0 0.011218209710305004 0.0029215756902158871 0 0.011049251014294582 0.0027558395752258886 0 0.011261601350808731 0.0031323921403944017 0 0.011218209710305004 0.0029215756902158871 0 0.011418776734239706 0.0030002591193911839 0 0.011386907370761767 0.0025711001736630902 0 0.011418776734239706 0.0030002591193911839 0 0.011620262017367832 0.0028798306677276357 0 0.011816974391459944 0.003122600709963248 0 0.011799087033925019 0.0027506339725723306 0 0.011620262017367832 0.0028798306677276357 0 0.011799087033925019 0.0027506339725723306 0 0.011620262017367832 0.0028798306677276357 0 0.011640607542845094 0.0026702103430636883 0 0.011386907370761767 0.0025711001736630902 0 0.011620262017367832 0.0028798306677276357 0 0.011640607542845094 0.0026702103430636883 0 0.010424823497393137 0.0034853586484238459 0 0.010605328616921737 0.0027038968022108528 0 0.010243315315370791 0.0020882406468985138 0 0.011192874402986573 0.0022206293114570412 0 0.010605328616921737 0.0027038968022108528 0 0.010243315315370791 0.0020882406468985138 0 0.010681519378128727 0.0032134849437556283 0 0.010605328616921737 0.0027038968022108528 0 0.010835601131139187 0.0030111271449893957 0 0.010605328616921737 0.0027038968022108528 0 0.010835601131139187 0.0030111271449893957 0 0.011049251014294582 0.0027558395752258886 0 0.011055200918004507 0.0030909072898043259 0 0.010835601131139187 0.0030111271449893957 0 0.011049251014294582 0.0027558395752258886 0 0.011192874402986573 0.0022206293114570412 0 0.010605328616921737 0.0027038968022108528 0 0.011049251014294582 0.0027558395752258886 0 0.011401518662495112 0.0015707793871873562 0 0.013088917946829622 0.0023813565416075121 0 0.012974651002922328 0.0017378693305433149 0 0.011024196462289637 0.0018189245150754337 0 0.013243295202245623 0.0013896305418720871 0 0.011024196462289637 0.0018189245150754337 0 0.013223323117475143 0.0025538478238623353 0 0.011458946968363925 0.0017493993204829375 0 0.010986892608549167 0.0014803310963570793 0 0.011562732354038898 0.0010519745393970758 0 0.013243295202245623 0.0013896305418720871 0 0.013223323117475143 0.0025538478238623353 0 0.014082245475930745 0.0024593149075718369 0 0.01396117012382592 0.0017811132135605687 0 0.014503318710449575 0.0026635094064759164 0 0.01396117012382592 0.0017811132135605687 0 0.015844660947420167 0.0019914294706408191 0 0.014503318710449575 0.0026635094064759164 0 0.013223323117475143 0.0025538478238623353 0 0.016209394129577538 0.0026693409110583226 0 0.013243295202245623 0.0013896305418720871 0 0.013615634614063014 0.00029798125658803804 0 0.013243295202245623 0.0013896305418720871 0 0.015256667274369041 0.0013521108319920444 0 0.015434013799677545 0.0032452929735303799 0 0.015626380188719851 0.0032781650522884539 0 0.015586627873000598 0.0031874858550986779 0 0.016209394129577538 0.0026693409110583226 0 0.015256667274369041 0.0013521108319920444 0 0.015626380188719851 0.0032781650522884539 0 0.015586627873000598 0.0031874858550986779 0 0.015683090020215982 0.0031625357438878733 0 0.015586627873000598 0.0031874858550986779 0 0.015515206812577077 0.0031480885840980753 0 0.01555711933392533 0.0030856395970046487 0 0.015586627873000598 0.0031874858550986779 0 0.01555711933392533 0.0030856395970046487 0 0.015639887116957289 0.003081190089714685 0 0.015586627873000598 0.0031874858550986779 0 0.015639887116957289 0.003081190089714685 0 0.015683090020215982 0.0031625357438878733 0 0.015434013799677545 0.0032452929735303799 0 0.015586627873000598 0.0031874858550986779 0 0.015515206812577077 0.0031480885840980753 0 0.012898815734494111 0.003391824989311103 0 0.013223323117475143 0.0025538478238623353 0 0.015434013799677545 0.0032452929735303799 0 0.015515206812577077 0.0031480885840980753 0 0.015488429627432273 0.0030901407285143928 0 0.015430246349781079 0.0030468326591391853 0 0.015434013799677545 0.0032452929735303799 0 0.015488429627432273 0.0030901407285143928 0 0.015515206812577077 0.0031480885840980753 0 0.015488429627432273 0.0030901407285143928 0 0.01555711933392533 0.0030856395970046487 0 0.015430246349781079 0.0030468326591391853 0 0.015488429627432273 0.0030901407285143928 0 0.015480240643028373 0.0030368334808916256 0 0.015480240643028373 0.0030368334808916256 0 0.015523451619999172 0.0030270444946276843 0 0.015480938555455924 0.0029921601487878221 0 0.015430246349781079 0.0030468326591391853 0 0.015480240643028373 0.0030368334808916256 0 0.015480938555455924 0.0029921601487878221 0 0.015488429627432273 0.0030901407285143928 0 0.015480240643028373 0.0030368334808916256 0 0.015523451619999172 0.0030270444946276843 0 0.015488429627432273 0.0030901407285143928 0 0.015523451619999172 0.0030270444946276843 0 0.01555711933392533 0.0030856395970046487 0 0.01555711933392533 0.0030856395970046487 0 0.015639887116957289 0.003081190089714685 0 0.015593078301494886 0.0030000984676186821 0 0.015639887116957289 0.003081190089714685 0 0.015593078301494886 0.0030000984676186821 0 0.0156859406576653 0.0030056189217941049 0 0.015523451619999172 0.0030270444946276843 0 0.01555711933392533 0.0030856395970046487 0 0.015593078301494886 0.0030000984676186821 0 0.015647262635711971 0.0029472625028240619 0 0.015544420132226804 0.0029511512283314271 0 0.015625675965567781 0.0028823061945465263 0 0.015523451619999172 0.0030270444946276843 0 0.015593078301494886 0.0030000984676186821 0 0.015544420132226804 0.0029511512283314271 0 0.015593078301494886 0.0030000984676186821 0 0.015647262635711971 0.0029472625028240619 0 0.015544420132226804 0.0029511512283314271 0 0.015593078301494886 0.0030000984676186821 0 0.015647262635711971 0.0029472625028240619 0 0.0156859406576653 0.0030056189217941049 0 0.015544420132226804 0.0029511512283314271 0 0.01549314626621036 0.0029475088390837371 0 0.015480938555455924 0.0029921601487878221 0 0.01546172380535576 0.0029291619806576801 0 0.01549314626621036 0.0029475088390837371 0 0.015480938555455924 0.0029921601487878221 0 0.015523451619999172 0.0030270444946276843 0 0.015544420132226804 0.0029511512283314271 0 0.015480938555455924 0.0029921601487878221 0 0.015647262635711971 0.0029472625028240619 0 0.015823629811683834 0.0029080667451639023 0 0.015625675965567781 0.0028823061945465263 0 0.015647262635711971 0.0029472625028240619 0 0.015823629811683834 0.0029080667451639023 0 0.0156859406576653 0.0030056189217941049 0 0.015823629811683834 0.0029080667451639023 0 0.0156859406576653 0.0030056189217941049 0 0.015758512734945329 0.0030608275093574979 0 0.015639887116957289 0.003081190089714685 0 0.0156859406576653 0.0030056189217941049 0 0.015758512734945329 0.0030608275093574979 0 0.016047928101347527 0.0030458961973686026 0 0.016093013771852717 0.0029986796399493133 0 0.015823629811683834 0.0029080667451639023 0 0.015918257484813375 0.0030352923041382734 0 0.016098671914871753 0.0030017090301245287 0 0.015823629811683834 0.0029080667451639023 0 0.015758512734945329 0.0030608275093574979 0 0.015918257484813375 0.0030352923041382734 0 0.016091686395797399 0.0030656002862984115 0 0.016109539869334201 0.0030140597414246967 0 0.016407806515534411 0.0028451085071916518 0 0.016245354983893762 0.0028055559205169404 0 0.016172293395367573 0.0028948873091286234 0 0.016407806515534411 0.0028451085071916518 0 0.016172293395367573 0.0028948873091286234 0 0.016098511228893345 0.0030243024742519506 0 0.015918257484813375 0.0030352923041382734 0 0.015826210932503262 0.0032020980799515788 0 0.016098511228893345 0.0030243024742519506 0 0.015758512734945329 0.0030608275093574979 0 0.015918257484813375 0.0030352923041382734 0 0.015826210932503262 0.0032020980799515788 0 0.016407806515534411 0.0028451085071916518 0 0.016245354983893762 0.0028055559205169404 0 0.01636287828973167 0.0027357399046165948 0 0.015758512734945329 0.0030608275093574979 0 0.015826210932503262 0.0032020980799515788 0 0.015683090020215982 0.0031625357438878733 0 0.015626380188719851 0.0032781650522884539 0 0.015826210932503262 0.0032020980799515788 0 0.015683090020215982 0.0031625357438878733 0 0.015639887116957289 0.003081190089714685 0 0.015758512734945329 0.0030608275093574979 0 0.015683090020215982 0.0031625357438878733 0 0.016209394129577538 0.0026693409110583226 0 0.016091686395797399 0.0030656002862984115 0 0.016698531733827088 0.0026861771361308363 0 0.016407806515534411 0.0028451085071916518 0 0.016502941211678904 0.0026659486485967128 0 0.016389789223815579 0.0025774646107343635 0 0.016374821539038263 0.0025211548383763534 0 0.016413788103192887 0.0025260004963968182 0 0.016389789223815579 0.0025774646107343635 0 0.016374821539038263 0.0025211548383763534 0 0.016333642819575483 0.0025463229007213935 0 0.016209394129577538 0.0026693409110583226 0 0.016491491335694455 0.002631475972919363 0 0.016450051966407444 0.0025598961412727551 0 0.016389789223815579 0.0025774646107343635 0 0.016413788103192887 0.0025260004963968182 0 0.016245354983893762 0.0028055559205169404 0 0.016290697595584783 0.002625979426840671 0 0.016202461039021725 0.0026747574303043658 0 0.016245354983893762 0.0028055559205169404 0 0.01636287828973167 0.0027357399046165948 0 0.016290697595584783 0.002625979426840671 0 0.016502941211678904 0.0026659486485967128 0 0.01636287828973167 0.0027357399046165948 0 0.016290697595584783 0.002625979426840671 0 0.016407806515534411 0.0028451085071916518 0 0.016502941211678904 0.0026659486485967128 0 0.01636287828973167 0.0027357399046165948 0 0.016491491335694455 0.002631475972919363 0 0.016291060343346642 0.0026181547401116557 0 0.016389789223815579 0.0025774646107343635 0 0.016290697595584783 0.002625979426840671 0 0.016333642819575483 0.0025463229007213935 0 0.016290697595584783 0.002625979426840671 0 0.016202461039021725 0.0026747574303043658 0 0.016258951193377745 0.0025142315089225465 0 0.016202461039021725 0.0026747574303043658 0 0.016062248544924905 0.0026904740201726704 0 0.016258951193377745 0.0025142315089225465 0 0.015824481934808086 0.0016010619988790118 0 0.016045382678709894 0.0017371176882666325 0 0.016202461039021725 0.0026747574303043658 0 0.016147558148742847 0.0027683731246059473 0 0.016062248544924905 0.0026904740201726704 0 0.016245354983893762 0.0028055559205169404 0 0.016202461039021725 0.0026747574303043658 0 0.016147558148742847 0.0027683731246059473 0 0.016060028082047727 0.0028034990528596052 0 0.016043748301914296 0.0027964383784555851 0 0.016047180598807335 0.0028388549511242657 0 0.015948199354284709 0.0021367938354504025 0 0.015891260721849702 0.0024593270111587782 0 0.016057133754101321 0.0027761712960495131 0 0.016069009212413134 0.0028110536683298394 0 0.016047180598807335 0.0028388549511242657 0 0.015948199354284709 0.0021367938354504025 0 0.016060994132087079 0.0022610768523361308 0 0.015948199354284709 0.0021367938354504025 0 0.015806718530935914 0.0017733552131560784 0 0.016057133754101321 0.0027761712960495131 0 0.016069009212413134 0.0028110536683298394 0 0.016091159027519866 0.002784956598187087 0 0.016147558148742847 0.0027683731246059473 0 0.016091159027519866 0.002784956598187087 0 0.016062248544924905 0.0026904740201726704 0 0.016147558148742847 0.0027683731246059473 0 0.016091159027519866 0.002784956598187087 0 0.016112652774521494 0.0028280730326815952 0 0.015785453637824833 0.0016392402349232581 0 0.015730227352436562 0.0017818874958695069 0 0.015857240558938803 0.0016715070592971237 0 0.015948199354284709 0.0021367938354504025 0 0.015824481934808086 0.0016010619988790118 0 0.015862520338684401 0.00061000551592856804 0 0.015677002704781909 0.00066037830178517507 0 0.015760932535033998 0.00069934900469666194 0 0.016035550245345063 0.0027582013120305351 0 0.016091159027519866 0.002784956598187087 0 0.016062248544924905 0.0026904740201726704 0 0.015824481934808086 0.0016010619988790118 0 0.015806718530935914 0.0017733552131560784 0 0.015677002704781909 0.00066037830178517507 0 0.015459589673267443 0.00024653444042546684 0 0.014947683345194182 0.00032407665480008337 0 0.01567332057922911 0.0009834387955173073 0 0.015641748583433149 0.0010631945448657892 0 0.015332386856789216 0.00082341814540790894 0 0.015862520338684401 0.00061000551592856804 0 0.015677002704781909 0.00066037830178517507 0 0.015701715632443387 0.00027756952349800967 0 0.015677002704781909 0.00066037830178517507 0 0.015459589673267443 0.00024653444042546684 0 0.015701715632443387 0.00027756952349800967 0 0.015599303559037251 0.0013243115709148799 0 0.015806718530935914 0.0017733552131560784 0 0.015599303559037251 0.0013243115709148799 0 0.01571666832923943 0.0018544499881237668 0 0.015749283036452424 0.0017809859935721882 0 0.015723794499019429 0.0017696534288101861 0 0.015770172282305393 0.001729636858783364 0 0.016043748301914296 0.0027964383784555851 0 0.016003043440511767 0.0028451474555086288 0 0.016047180598807335 0.0028388549511242657 0 0.015806718530935914 0.0017733552131560784 0 0.01571666832923943 0.0018544499881237668 0 0.01571666832923943 0.0018544499881237668 0 0.015818512084860733 0.002623369665494243 0 0.016003043440511767 0.0028451474555086288 0 0.016047180598807335 0.0028388549511242657 0 0.016053722922936206 0.002891296674487274 0 0.016003043440511767 0.0028451474555086288 0 0.016040936778006328 0.0029404429433368268 0 0.016002591568093409 0.0029917927948565461 0 0.016003043440511767 0.0028451474555086288 0 0.016040936778006328 0.0029404429433368268 0 0.016053722922936206 0.002891296674487274 0 0.01575636093068904 0.0018808842255773018 0 0.015677090916494472 0.001951215317723578 0 0.015709133699804173 0.0020048781180622595 0 0.01571666832923943 0.0018544499881237668 0 0.015605942145738783 0.0015641765506451313 0 0.016040936778006328 0.0029404429433368268 0 0.016070794013931324 0.0029572801329990424 0 0.016068183297796843 0.0029956010684615321 0 0.016070794013931324 0.0029572801329990424 0 0.016172293395367573 0.0028948873091286234 0 0.016098511228893345 0.0030243024742519506 0 0.016070794013931324 0.0029572801329990424 0 0.016098511228893345 0.0030243024742519506 0 0.016068183297796843 0.0029956010684615321 0 0.016070794013931324 0.0029572801329990424 0 0.016172293395367573 0.0028948873091286234 0 0.016101243189951354 0.0028856961017820486 0 0.016040936778006328 0.0029404429433368268 0 0.016070794013931324 0.0029572801329990424 0 0.016053722922936206 0.002891296674487274 0 0.016172293395367573 0.0028948873091286234 0 0.016145631684043611 0.0028480098484423696 0 0.016101243189951354 0.0028856961017820486 0 0.016245354983893762 0.0028055559205169404 0 0.016172293395367573 0.0028948873091286234 0 0.016145631684043611 0.0028480098484423696 0 0.016245354983893762 0.0028055559205169404 0 0.016147558148742847 0.0027683731246059473 0 0.016145631684043611 0.0028480098484423696 0 0.016147558148742847 0.0027683731246059473 0 0.016145631684043611 0.0028480098484423696 0 0.016112652774521494 0.0028280730326815952 0 0.016069009212413134 0.0028110536683298394 0 0.016091159027519866 0.002784956598187087 0 0.01608140897002518 0.0028443215433436473 0 0.016145631684043611 0.0028480098484423696 0 0.016112652774521494 0.0028280730326815952 0 0.016101243189951354 0.0028856961017820486 0 0.016091159027519866 0.002784956598187087 0 0.016112652774521494 0.0028280730326815952 0 0.01608140897002518 0.0028443215433436473 0 0.016112652774521494 0.0028280730326815952 0 0.01608140897002518 0.0028443215433436473 0 0.016101243189951354 0.0028856961017820486 0 0.01608140897002518 0.0028443215433436473 0 0.016047180598807335 0.0028388549511242657 0 0.016053722922936206 0.002891296674487274 0 0.016069009212413134 0.0028110536683298394 0 0.01608140897002518 0.0028443215433436473 0 0.016047180598807335 0.0028388549511242657 0 0.016070794013931324 0.0029572801329990424 0 0.016053722922936206 0.002891296674487274 0 0.016101243189951354 0.0028856961017820486 0 0.01608140897002518 0.0028443215433436473 0 0.016053722922936206 0.002891296674487274 0 0.016101243189951354 0.0028856961017820486 0 0.014999998947453077 0.00036725966455862112 0 0.015267852188044988 0.00081400273103093737 0 0.015534323130322828 -3.846920535553172e-05 0 0.014999998947453077 0.00036725966455862112 0 0.015534323130322828 -3.846920535553172e-05 0 0.014999997683906441 -0.00028327701149730204 0 0.015256228693021338 0.0010437158395566316 0 0.015305177837863421 0.00024845164812205902 0 0.015641748583433149 0.0010631945448657892 0 0.015491258869191797 0.0011941028334145438 0 0.015332386856789216 0.00082341814540790894 0 0.015599303559037251 0.0013243115709148799 0 0.015305177837863421 0.00024845164812205902 0 0.015491258869191797 0.0011941028334145438 0 0.015350136119213842 0.0011645553322687558 0 0.015332386856789216 0.00082341814540790894 0 0.015491258869191797 0.0011941028334145438 0 0.015350136119213842 0.0011645553322687558 0 0.015340546576060017 0.0013239496287211969 0 0.015350136119213842 0.0011645553322687558 0 0.015215647729939382 0.0012018783201977637 0 0.015332386856789216 0.00082341814540790894 0 0.014999998947453077 0.00036725966455862112 0 0.015267852188044988 0.00081400273103093737 0 0.014999998752087308 0.0010178007296111752 0 0.015350136119213842 0.0011645553322687558 0 0.015215647729939382 0.0012018783201977637 0 0.015340546576060017 0.0013239496287211969 0 0.015215647729939382 0.0012018783201977637 0 0.015340546576060017 0.0013239496287211969 0 0.015120760508822991 0.0015062737425509949 0 0.015267852188044988 0.00081400273103093737 0 0.014999998752087308 0.0010178007296111752 0 0.015049550542159323 0.0015106621548088965 0 0.014999998752087308 0.0010178007296111752 0 0.015000000073662102 0.0016683402376832341 0 0.015049550542159323 0.0015106621548088965 0 0.015459037730706551 0.0015277000926141617 0 0.01509973893267663 0.0014787461672898417 0 0.015256228693021338 0.0010437158395566316 0 0.01509973893267663 0.0014787461672898417 0 0.015545969099408604 0.0011123898190942315 0 0.015441202510909909 0.0014737047778143096 0 0.015047672734687535 0.0015200868748253772 0 0.015677090916494472 0.001951215317723578 0 0.015596172464332952 0.0020206318476447341 0 0.015709133699804173 0.0020048781180622595 0 0.015596172464332952 0.0020206318476447341 0 0.01566104125535769 0.0021286441571092105 0 0.015709133699804173 0.0020048781180622595 0 0.015779577518650143 0.0022132985760579247 0 0.015818512084860733 0.002623369665494243 0 0.015459037730706551 0.0015277000926141617 0 0.015779577518650143 0.0022132985760579247 0 0.015545969099408604 0.0011123898190942315 0 0.015817012950039028 0.0015551301791175117 0 0.015441202510909909 0.0014737047778143096 0 0.015605942145738783 0.0015641765506451313 0 0.015459037730706551 0.0015277000926141617 0 0.015817012950039028 0.0015551301791175117 0 0.015441202510909909 0.0014737047778143096 0 0.01563974401278781 0.0020164258647451853 0 0.015779577518650143 0.0022132985760579247 0 0.015627385249589988 0.0020684194626144187 0 0.015441202510909909 0.0014737047778143096 0 0.01528078695176175 0.001733927816385346 0 0.01563974401278781 0.0020164258647451853 0 0.015441202510909909 0.0014737047778143096 0 0.01528078695176175 0.001733927816385346 0 0.015047672734687535 0.0015200868748253772 0 0.01528078695176175 0.001733927816385346 0 0.014999993938702523 0.0016683535526749247 0 0.015261019488705311 0.0020836758160493827 0 0.01528078695176175 0.001733927816385346 0 0.014999993938702523 0.0016683535526749247 0 0.015047672734687535 0.0015200868748253772 0 0.015000111196459207 0.0016681956930381233 0 0.01509973893267663 0.0014787461672898417 0 0.016098671914871753 0.0030017090301245287 0 0.016078586849280346 0.0030394232829951489 0 0.016136581114089554 0.0030912352808578915 0 0.015918257484813375 0.0030352923041382734 0 0.016098511228893345 0.0030243024742519506 0 0.016098671914871753 0.0030017090301245287 0 0.016098511228893345 0.0030243024742519506 0 0.016098671914871753 0.0030017090301245287 0 0.016068183297796843 0.0029956010684615321 0 0.016098671914871753 0.0030017090301245287 0 0.016068183297796843 0.0029956010684615321 0 0.016078586849280346 0.0030394232829951489 0 0.016002591568093409 0.0029917927948565461 0 0.016078586849280346 0.0030394232829951489 0 0.016058587774277499 0.0030811658262518892 0 0.015991503718436065 0.0030727694639717039 0 0.016002591568093409 0.0029917927948565461 0 0.016058587774277499 0.0030811658262518892 0 0.016040936778006328 0.0029404429433368268 0 0.016068183297796843 0.0029956010684615321 0 0.016002591568093409 0.0029917927948565461 0 0.016068183297796843 0.0029956010684615321 0 0.016002591568093409 0.0029917927948565461 0 0.016078586849280346 0.0030394232829951489 0 0.016078586849280346 0.0030394232829951489 0 0.016058587774277499 0.0030811658262518892 0 0.016136581114089554 0.0030912352808578915 0 0.016058587774277499 0.0030811658262518892 0 0.016137072202756224 0.0031449345373829787 0 0.016078202264560224 0.0031708685654923503 0 0.015991503718436065 0.0030727694639717039 0 0.016058587774277499 0.0030811658262518892 0 0.016078202264560224 0.0031708685654923503 0 0.015779577518650143 0.0022132985760579247 0 0.016049167965488463 0.0027887145941935007 0 0.016136581114089554 0.0030912352808578915 0 0.016198845354524441 0.003162442503547953 0 0.016137072202756224 0.0031449345373829787 0 0.016058587774277499 0.0030811658262518892 0 0.016136581114089554 0.0030912352808578915 0 0.016137072202756224 0.0031449345373829787 0 0.016256458746920645 0.0031069970114712131 0 0.016136581114089554 0.0030912352808578915 0 0.016198845354524441 0.003162442503547953 0 0.016256458746920645 0.0031069970114712131 0 0.016098671914871753 0.0030017090301245287 0 0.016136581114089554 0.0030912352808578915 0 0.016137072202756224 0.0031449345373829787 0 0.016078202264560224 0.0031708685654923503 0 0.016213490326202694 0.0032126023141095116 0 0.016198845354524441 0.003162442503547953 0 0.016137072202756224 0.0031449345373829787 0 0.016213490326202694 0.0032126023141095116 0 0.015973727083557706 0.0023137065496003592 0 0.015674855637527355 0.0024561774461218269 0 0.015762934805146324 0.0027303331369476882 0 0.015973727083557706 0.0023137065496003592 0 0.016017859957705358 0.0028047240003508914 0 0.016270344899544091 0.0028354044076935249 0 0.016049167965488463 0.0027887145941935007 0 0.01621918412087486 0.0030362980399325466 0 0.015973727083557706 0.0023137065496003592 0 0.016017859957705358 0.0028047240003508914 0 0.015762934805146324 0.0027303331369476882 0 0.016017859957705358 0.0028047240003508914 0 0.015762934805146324 0.0027303331369476882 0 0.015914339961492618 0.003111476089399027 0 0.016017859957705358 0.0028047240003508914 0 0.016270344899544091 0.0028354044076935249 0 0.016177606448104457 0.0031306135124524329 0 0.016078202264560224 0.0031708685654923503 0 0.016190736470116769 0.0032459380609776186 0 0.016213490326202694 0.0032126023141095116 0 0.016190736470116769 0.0032459380609776186 0 0.016258303726875815 0.0032599706730608875 0 0.016213490326202694 0.0032126023141095116 0 0.016258303726875815 0.0032599706730608875 0 0.016213490326202694 0.0032126023141095116 0 0.01626002547730257 0.0032217959494096134 0 0.014999993938702523 0.0016683535526749247 0 0.015261019488705311 0.0020836758160493827 0 0.014999954186805454 0.0024908347550171707 0 0.01528078695176175 0.001733927816385346 0 0.015261019488705311 0.0020836758160493827 0 0.01563974401278781 0.0020164258647451853 0 0.015261019488705311 0.0020836758160493827 0 0.01563974401278781 0.0020164258647451853 0 0.015423994661074945 0.0025400876828924361 0 0.015261019488705311 0.0020836758160493827 0 0.015423994661074945 0.0025400876828924361 0 0.014999954186805454 0.0024908347550171707 0 0.015973727083557706 0.0023137065496003592 0 0.01556631437552171 0.0022414561773629214 0 0.015674855637527355 0.0024561774461218269 0 0.015709889050817983 0.0018879646125487314 0 0.015973727083557706 0.0023137065496003592 0 0.01556631437552171 0.0022414561773629214 0 0.015627385249589988 0.0020684194626144187 0 0.015440279134734544 0.0025126766856062637 0 0.01556631437552171 0.0022414561773629214 0 0.015674855637527355 0.0024561774461218269 0 0.015423994661074945 0.0025400876828924361 0 0.015762934805146324 0.0027303331369476882 0 0.015423994661074945 0.0025400876828924361 0 0.015506498355992302 0.0030902807904678109 0 0.015674855637527355 0.0024561774461218269 0 0.015762934805146324 0.0027303331369476882 0 0.015423994661074945 0.0025400876828924361 0 0.015423994661074945 0.0025400876828924361 0 0.015234528262341574 0.0028592078861247633 0 0.015506498355992302 0.0030902807904678109 0 0.015423994661074945 0.0025400876828924361 0 0.014999954186805454 0.0024908347550171707 0 0.015234528262341574 0.0028592078861247633 0 0.015234528262341574 0.0028592078861247633 0 0.015506498355992302 0.0030902807904678109 0 0.014999960465419702 0.0033131344788488123 0 0.014999954186805454 0.0024908347550171707 0 0.015234528262341574 0.0028592078861247633 0 0.014999960465419702 0.0033131344788488123 0 0.015506498355992302 0.0030902807904678109 0 0.015914339961492618 0.003111476089399027 0 0.015807232851726579 0.0035042981495063052 0 0.015762934805146324 0.0027303331369476882 0 0.015506498355992302 0.0030902807904678109 0 0.015914339961492618 0.003111476089399027 0 0.015623955869384681 0.0040444015924695478 0 0.015390234116141438 0.0036168865121179537 0 0.015807232851726579 0.0035042981495063052 0 0.015506498355992302 0.0030902807904678109 0 0.015390234116141438 0.0036168865121179537 0 0.015807232851726579 0.0035042981495063052 0 0.014999912701313648 0.0041354485432552185 0 0.015390234116141438 0.0036168865121179537 0 0.014999960465419702 0.0033131344788488123 0 0.015506498355992302 0.0030902807904678109 0 0.015390234116141438 0.0036168865121179537 0 0.014999960465419702 0.0033131344788488123 0 0.016270344899544091 0.0028354044076935249 0 0.016443392741451065 0.0034664929745098212 0 0.016177606448104457 0.0031306135124524329 0 0.01621918412087486 0.0030362980399325466 0 0.016424450922631492 0.0034155820395197749 0 0.016190736470116769 0.0032459380609776186 0 0.016258303726875815 0.0032599706730608875 0 0.016443392741451065 0.0034664929745098212 0 0.016180438737638789 0.0034211283793426387 0 0.016443392741451065 0.0034664929745098212 0 0.016177606448104457 0.0031306135124524329 0 0.016180438737638789 0.0034211283793426387 0 0.015914339961492618 0.003111476089399027 0 0.015807232851726579 0.0035042981495063052 0 0.016017859957705358 0.0028047240003508914 0 0.016177606448104457 0.0031306135124524329 0 0.015914339961492618 0.003111476089399027 0 0.016180438737638789 0.0034211283793426387 0 0.016177606448104457 0.0031306135124524329 0 0.015914339961492618 0.003111476089399027 0 0.015623955869384681 0.0040444015924695478 0 0.015807232851726579 0.0035042981495063052 0 0.016205170611010317 0.003798447084647254 0 0.016180438737638789 0.0034211283793426387 0 0.015807232851726579 0.0035042981495063052 0 0.016205170611010317 0.003798447084647254 0 0.016180438737638789 0.0034211283793426387 0 0.016443392741451065 0.0034664929745098212 0 0.016205170611010317 0.003798447084647254 0 0.016654687291998808 0.0038741757994640727 0 0.016443392741451065 0.0034664929745098212 0 0.016205170611010317 0.003798447084647254 0 0.016654687291998808 0.0038741757994640727 0 0.016443392741451065 0.0034664929745098212 0 0.016663797117608362 0.0035086708305733681 0 0.016258303726875815 0.0032599706730608875 0 0.016663797117608362 0.0035086708305733681 0 0.016737422082830442 0.0033270854310350263 0 0.016258303726875815 0.0032599706730608875 0 0.016443392741451065 0.0034664929745098212 0 0.016663797117608362 0.0035086708305733681 0 0.016663797117608362 0.0035086708305733681 0 0.016844948306185114 0.0035796879804537614 0 0.016737422082830442 0.0033270854310350263 0 0.016654687291998808 0.0038741757994640727 0 0.016663797117608362 0.0035086708305733681 0 0.016844948306185114 0.0035796879804537614 0 0.014864010783174333 0.011470296450492369 0 0.015206878084275358 0.011553432122273903 0 0.014872416994524717 0.011739793134200932 0 0.01594697964843907 0.0076700810742383737 0 0.015807088607989007 0.0079356061807388314 0 0.014864010783174333 0.011470296450492369 0 0.014872416994524717 0.011739793134200932 0 0.014733013155606985 0.011611837538292471 0 0.014733013155606985 0.011611837538292471 0 0.014540194322429397 0.01166649226072438 0 0.014662956394450899 0.011740956559377414 0 0.014872416994524717 0.011739793134200932 0 0.014733013155606985 0.011611837538292471 0 0.014662956394450899 0.011740956559377414 0 0.014386687455406286 0.011504761936409211 0 0.014733013155606985 0.011611837538292471 0 0.014540194322429397 0.01166649226072438 0 0.014386687455406286 0.011504761936409211 0 0.014357058825246788 0.011628635941273125 0 0.014540194322429397 0.01166649226072438 0 0.014357058825246788 0.011628635941273125 0 0.014540194322429397 0.01166649226072438 0 0.014442086921266523 0.011703649299948849 0 0.014442086921266523 0.011703649299948849 0 0.014464072051395015 0.011776899468591446 0 0.014563935037861199 0.011791844783330918 0 0.014540194322429397 0.01166649226072438 0 0.014442086921266523 0.011703649299948849 0 0.014563935037861199 0.011791844783330918 0 0.014563935037861199 0.011791844783330918 0 0.014662956394450899 0.011740956559377414 0 0.014606396537658523 0.011890903889583956 0 0.014540194322429397 0.01166649226072438 0 0.014563935037861199 0.011791844783330918 0 0.014662956394450899 0.011740956559377414 0 0.014563935037861199 0.011791844783330918 0 0.014540665857470807 0.011849644815104919 0 0.014606396537658523 0.011890903889583956 0 0.014540665857470807 0.011849644815104919 0 0.014508219731336027 0.011901113499121312 0 0.014606396537658523 0.011890903889583956 0 0.014464072051395015 0.011776899468591446 0 0.014563935037861199 0.011791844783330918 0 0.014540665857470807 0.011849644815104919 0 0.014464072051395015 0.011776899468591446 0 0.014540665857470807 0.011849644815104919 0 0.014508219731336027 0.011901113499121312 0 0.016844948306185114 0.0035796879804537614 0 0.017025598661879068 0.0034124130284509456 0 0.016737422082830442 0.0033270854310350263 0 0.014872416994524717 0.011739793134200932 0 0.014662956394450899 0.011740956559377414 0 0.014606396537658523 0.011890903889583956 0 0.015807088607989007 0.0079356061807388314 0 0.015588487749386775 0.0058500028840514553 0 0.015386096630092981 0.0044131870954666899 0 0.016006118626578542 0.0028401592858096538 0 0.01632201903238438 0.0032414275430891521 0 0.016348130143260257 0.0032592424086839095 0 0.016314514770687114 0.0031961170409754479 0 0.015507692235104745 0.0028870824583095492 0 0.015625675965567781 0.0028823061945465263 0 0.015543758832169971 0.002904360983746206 0 0.01632201903238438 0.0032414275430891521 0 0.01634201995362666 0.0032652994466892691 0 0.016281756339411115 0.0032458086186013505 0 0.015588487749386775 0.0058500028840514553 0 0.016749480332811515 0.002950163868288439 0 0.01632201903238438 0.0032414275430891521 0 0.016348130143260257 0.0032592424086839095 0 0.01634201995362666 0.0032652994466892691 0 0.015469507951646685 0.002962418940883432 0 0.015442270758798197 0.0029719200288056014 0 0.015478770792712399 0.0029328728888898606 0 0.015386096630092981 0.0044131870954666899 0 0.015825838445805842 0.003120923773977294 0 0.015479774996713673 0.002962323162024058 0 0.015459480158292434 0.0029829572903309468 0 0.015469507951646685 0.002962418940883432 0 0.015479774996713673 0.002962323162024058 0 0.015469507951646685 0.002962418940883432 0 0.015478770792712399 0.0029328728888898606 0 0.015459480158292434 0.0029829572903309468 0 0.015469507951646685 0.002962418940883432 0 0.015442270758798197 0.0029719200288056014 0 0.015020001773533936 0.0065977879415921774 0 0.015342438355401037 0.0068799813910033454 0 0.01562954135640578 0.006625923009436839 0 0.015254241760953583 0.0079204944468041268 0 0.015588487749386775 0.0058500028840514553 0 0.015254241760953583 0.0079204944468041268 0 0.015386096630092981 0.0044131870954666899 0 0.015386096630092981 0.0044131870954666899 0 0.015588487749386775 0.0058500028840514553 0 0.015507692235104745 0.0028870824583095492 0 0.015504726673554525 0.0029154282177679311 0 0.015543758832169971 0.002904360983746206 0 0.015507692235104745 0.0028870824583095492 0 0.015504726673554525 0.0029154282177679311 0 0.015478770792712399 0.0029328728888898606 0 0.015504726673554525 0.0029154282177679311 0 0.015478770792712399 0.0029328728888898606 0 0.015494987756531135 0.0029260743119606022 0 0.015544420132226804 0.0029511512283314271 0 0.015494987756531135 0.0029260743119606022 0 0.015543758832169971 0.002904360983746206 0 0.01546172380535576 0.0029291619806576801 0 0.015478770792712399 0.0029328728888898606 0 0.015494987756531135 0.0029260743119606022 0 0.015504726673554525 0.0029154282177679311 0 0.015494987756531135 0.0029260743119606022 0 0.015543758832169971 0.002904360983746206 0 0.015544420132226804 0.0029511512283314271 0 0.01549314626621036 0.0029475088390837371 0 0.015494987756531135 0.0029260743119606022 0 0.01546172380535576 0.0029291619806576801 0 0.01549314626621036 0.0029475088390837371 0 0.015494987756531135 0.0029260743119606022 0 0.015544420132226804 0.0029511512283314271 0 0.015625675965567781 0.0028823061945465263 0 0.015543758832169971 0.002904360983746206 0 0.016047928101347527 0.0030458961973686026 0 0.016006118626578542 0.0028401592858096538 0 0.016256458746920645 0.0031069970114712131 0 0.016314514770687114 0.0031961170409754479 0 0.01626002547730257 0.0032217959494096134 0 0.016256458746920645 0.0031069970114712131 0 0.016198845354524441 0.003162442503547953 0 0.01626002547730257 0.0032217959494096134 0 0.016198845354524441 0.003162442503547953 0 0.016213490326202694 0.0032126023141095116 0 0.01626002547730257 0.0032217959494096134 0 0.016258303726875815 0.0032599706730608875 0 0.01626002547730257 0.0032217959494096134 0 0.016281756339411115 0.0032458086186013505 0 0.016165169531693845 0.0033491337275150471 0 0.016749480332811515 0.002950163868288439 0 0.01632201903238438 0.0032414275430891521 0 0.016314514770687114 0.0031961170409754479 0 0.016281756339411115 0.0032458086186013505 0 0.016314514770687114 0.0031961170409754479 0 0.01626002547730257 0.0032217959494096134 0 0.016281756339411115 0.0032458086186013505 0 0.0052227389717661894 -0.0012415143230203993 0 0.0048055725641825359 -0.0006144491377548855 0 0.0046514964479611913 -0.0017947131707810151 0 0.0048055725641825359 -0.0006144491377548855 0 0.0036381488040624337 -0.00074278035801391784 0 0.0033317680865742358 0.00011025634475775556 0 0.0048055725641825359 -0.0006144491377548855 0 0.0046514964479611913 -0.0017947131707810151 0 0.0036381488040624337 -0.00074278035801391784 0 0.0048903506446718332 -0.00028825767617642658 0 0.0041883807409813009 8.1848531088273124e-05 0 0.0048055725641825359 -0.0006144491377548855 0 0.0050703382887570293 -0.00084535454317350323 0 0.0050684720005771955 -0.00084656292080018266 0 0.0048055725641825359 -0.0006144491377548855 0 0.0034589911933935805 0.0010820537484247837 0 0.0041280924904981428 0.0023436981958559213 0 0.0048055725641825359 -0.0006144491377548855 0 0.0033317680865742358 0.00011025634475775556 0 0.0034589911933935805 0.0010820537484247837 0 0.0052227389717661894 -0.0012415143230203993 0 0.0048055725641825359 -0.0006144491377548855 0 0.0053867126844370592 -0.0011168221933280662 0 0.0053867126844370592 -0.0011168221933280662 0 0.0050703382887570293 -0.00084535454317350323 0 0.0054166242671364502 -0.0010487021977981749 0 0.0048055725641825359 -0.0006144491377548855 0 0.0053867126844370592 -0.0011168221933280662 0 0.0050703382887570293 -0.00084535454317350323 0 0.0053867126844370592 -0.0011168221933280662 0 0.005767497434725077 -0.0013073602762256368 0 0.0057327795170594069 -0.0014586594547556064 0 0.0053867126844370592 -0.0011168221933280662 0 0.005767497434725077 -0.0013073602762256368 0 0.0054166242671364502 -0.0010487021977981749 0 0.005767497434725077 -0.0013073602762256368 0 0.0057327795170594069 -0.0014586594547556064 0 0.0061853907406480167 -0.0016034953621949231 0 0.0052227389717661894 -0.0012415143230203993 0 0.0053867126844370592 -0.0011168221933280662 0 0.0057327795170594069 -0.0014586594547556064 0 0.0052227389717661894 -0.0012415143230203993 0 0.0057327795170594069 -0.0014586594547556064 0 0.0054020614303413048 -0.0016422338234719333 0 0.0054020614303413048 -0.0016422338234719333 0 0.0057748720066762701 -0.0017510890139662903 0 0.0055050841471764598 -0.0018506429482805784 0 0.0057327795170594069 -0.0014586594547556064 0 0.0054020614303413048 -0.0016422338234719333 0 0.0057748720066762701 -0.0017510890139662903 0 0.0057748720066762701 -0.0017510890139662903 0 0.0055050841471764598 -0.0018506429482805784 0 0.0057351412936008893 -0.0020301222266533117 0 0.0055050841471764598 -0.0018506429482805784 0 0.0050302470662589383 -0.0019189000601509999 0 0.0053484214725926793 -0.0020529239449342865 0 0.0054020614303413048 -0.0016422338234719333 0 0.0055050841471764598 -0.0018506429482805784 0 0.0050302470662589383 -0.0019189000601509999 0 0.0054020614303413048 -0.0016422338234719333 0 0.0050302470662589383 -0.0019189000601509999 0 0.0046514964479611913 -0.0017947131707810151 0 0.0052227389717661894 -0.0012415143230203993 0 0.0054020614303413048 -0.0016422338234719333 0 0.0046514964479611913 -0.0017947131707810151 0 0.0044851149260779185 -0.001861569778038769 0 0.0039366770239813026 -0.0021386627425065952 0 0.0046514964479611913 -0.0017947131707810151 0 0.0035868569081558459 -0.0015737691246872074 0 0.0036381488040624337 -0.00074278035801391784 0 0.0046514964479611913 -0.0017947131707810151 0 0.0046515538461983346 -0.0019007664268703411 0 0.0044624004001276741 -0.0017689552238658608 0 0.0050302470662589383 -0.0019189000601509999 0 0.0046514964479611913 -0.0017947131707810151 0 0.0046515538461983346 -0.0019007664268703411 0 0.0050302470662589383 -0.0019189000601509999 0 0.0046515538461983346 -0.0019007664268703411 0 0.004786908518134173 -0.0021135019142587206 0 0.0046515538461983346 -0.0019007664268703411 0 0.0044624004001276741 -0.0017689552238658608 0 0.0044065457956388573 -0.0020080460411350449 0 0.0041664971474815312 -0.0018058187228666279 0 0.0044624004001276741 -0.0017689552238658608 0 0.0044065457956388573 -0.0020080460411350449 0 0.0015675643529763162 -0.0016080879073023147 0 0.0039366770239813026 -0.0021386627425065952 0 0.0015675643529763162 -0.0016080879073023147 0 0.0023228766432428164 -0.0017930867699587425 0 0.0013837158016768074 -0.0029366006331767681 0 0.0011132426258379071 -0.0018366630018323295 0 0.0025236336641320644 -0.0011758477918183041 0 0.0014676733532500701 -0.0030462263353921168 0 0.0030146617462414138 -0.0025469233436430142 0 0.0025236336641320644 -0.0011758477918183041 0 0.0030146617462414138 -0.0025469233436430142 0 0.0035868569081558459 -0.0015737691246872074 0 0.0025236336641320644 -0.0011758477918183041 0 0.0046514964479611913 -0.0017947131707810151 0 0.0030146617462414138 -0.0025469233436430142 0 0.0035868569081558459 -0.0015737691246872074 0 -0.00017875866325826032 -0.00071502337857716394 0 -0.00057992692443426929 -8.4692641999953194e-05 0 -0.0010456931154505247 -0.00026592969157758435 0 -0.00017875866325826032 -0.00071502337857716394 0 -0.0010656704873828948 -0.00069785999575404237 0 -0.0010456931154505247 -0.00026592969157758435 0 -0.00073825605940940997 0.00043871859536054233 0 0.00021384655969781808 0.00078438931943371204 0 -0.00028296952149693569 0.0012573088965365561 0 0.0013837158016768074 -0.0029366006331767681 0 5.3906523525744551e-06 -0.0033597315869225773 0 0.0011132426258379071 -0.0018366630018323295 0 -0.00034233367772669053 -0.00051941868435808865 0 0.00090203296839196144 -0.0013005471046723693 0 0.0015675643529763162 -0.0016080879073023147 0 -0.00034233367772669053 -0.00051941868435808865 0 0.0015675643529763162 -0.0016080879073023147 0 0.0016509465081413579 -0.00079851579275466039 0 -0.00017875866325826032 -0.00071502337857716394 0 0.00064583154459194807 -0.00028450479868508041 0 -1.9364817999535867e-05 -0.00015290280713141073 0 0.00064583154459194807 -0.00028450479868508041 0 -1.9364817999535867e-05 -0.00015290280713141073 0 0.00029876745646209444 0.00015771194579184569 0 -0.00017875866325826032 -0.00071502337857716394 0 -1.9364817999535867e-05 -0.00015290280713141073 0 -0.00057992692443426929 -8.4692641999953194e-05 0 -1.9364817999535867e-05 -0.00015290280713141073 0 -0.00057992692443426929 -8.4692641999953194e-05 0 -0.00046341065154552628 0.00020959451938718979 0 -1.9364817999535867e-05 -0.00015290280713141073 0 -0.00046341065154552628 0.00020959451938718979 0 0.00029876745646209444 0.00015771194579184569 0 -0.00057992692443426929 -8.4692641999953194e-05 0 -0.00046341065154552628 0.00020959451938718979 0 -0.0012064635380114135 0.00022144855428407563 0 -0.00046341065154552628 0.00020959451938718979 0 -0.00024020627734545443 0.00062225606238053689 0 -0.0010506349416760771 0.00058524565776001429 0 -0.00024020627734545443 0.00062225606238053689 0 -0.0006479551774577337 0.0011604484521932424 0 -0.0010506349416760771 0.00058524565776001429 0 -0.00046341065154552628 0.00020959451938718979 0 -0.00024020627734545443 0.00062225606238053689 0 0.00029876745646209444 0.00015771194579184569 0 0.00029876745646209444 0.00015771194579184569 0 0.00079472944495175783 0.00045191617116177558 0 0.00023245479887656502 0.00065823330006586325 0 -0.00024020627734545443 0.00062225606238053689 0 0.00029876745646209444 0.00015771194579184569 0 0.00023245479887656502 0.00065823330006586325 0 0.00064583154459194807 -0.00028450479868508041 0 0.00029876745646209444 0.00015771194579184569 0 0.001024189597342725 0.00011542093048991627 0 0.00029876745646209444 0.00015771194579184569 0 0.00079472944495175783 0.00045191617116177558 0 0.001024189597342725 0.00011542093048991627 0 0.00079472944495175783 0.00045191617116177558 0 0.00069902609102580457 0.00098554508195133417 0 0.0013293267772150924 0.00087264314239969792 0 0.00079472944495175783 0.00045191617116177558 0 0.00069902609102580457 0.00098554508195133417 0 0.00023245479887656502 0.00065823330006586325 0 0.00069902609102580457 0.00098554508195133417 0 0.00017351289690569372 0.0010394337928532765 0 0.00072228786539414529 0.0015384378570579447 0 0.00069902609102580457 0.00098554508195133417 0 0.0013293267772150924 0.00087264314239969792 0 0.0010485164035298354 0.0011697223228611913 0 0.00069902609102580457 0.00098554508195133417 0 0.0010485164035298354 0.0011697223228611913 0 0.00072228786539414529 0.0015384378570579447 0 0.00017351289690569372 0.0010394337928532765 0 0.00023245479887656502 0.00065823330006586325 0 -0.00011656418071226303 0.00082363780506795566 0 0.00069902609102580457 0.00098554508195133417 0 0.00017351289690569372 0.0010394337928532765 0 0.00023245479887656502 0.00065823330006586325 0 -0.00022992651973162626 0.00024421912977123494 0 0.0011746355068350171 0.0016400346787391413 0 0.00017351289690569372 0.0010394337928532765 0 -0.00059972502391871278 0.00097042953259115106 0 0.00072228786539414529 0.0015384378570579447 0 0.00083574739141063922 0.0012420163896561779 0 0.00103654195806008 0.0014151975994388317 0 0.0013428792512147304 0.0014243032678018287 0 -0.00024020627734545443 0.00062225606238053689 0 -0.00011656418071226303 0.00082363780506795566 0 -0.00059972502391871278 0.00097042953259115106 0 -0.00024020627734545443 0.00062225606238053689 0 0.00023245479887656502 0.00065823330006586325 0 -0.00011656418071226303 0.00082363780506795566 0 0.00017351289690569372 0.0010394337928532765 0 -0.00011656418071226303 0.00082363780506795566 0 -0.00059972502391871278 0.00097042953259115106 0 0.00083574739141063922 0.0012420163896561779 0 0.00086615662027947804 0.0014490647321115763 0 0.00103654195806008 0.0014151975994388317 0 -0.00047942794928415388 0.00082643684212709131 0 -0.00022992651973162626 0.00024421912977123494 0 0.0036381488040624337 -0.00074278035801391784 0 0.0025236336641320644 -0.0011758477918183041 0 0.0021600662723807442 -2.0099223544223671e-05 0 0.0036381488040624337 -0.00074278035801391784 0 0.0021600662723807442 -2.0099223544223671e-05 0 0.0033317680865742358 0.00011025634475775556 0 0.0035868569081558459 -0.0015737691246872074 0 0.0036381488040624337 -0.00074278035801391784 0 0.0025236336641320644 -0.0011758477918183041 0 0.0011132426258379071 -0.0018366630018323295 0 0.0025236336641320644 -0.0011758477918183041 0 0.0021600662723807442 -2.0099223544223671e-05 0 0.00064583154459194807 -0.00028450479868508041 0 0.001024189597342725 0.00011542093048991627 0 0.0021600662723807442 -2.0099223544223671e-05 0 0.00090203296839196144 -0.0013005471046723693 0 0.0021154502371681107 0.00011231360638929017 0 0.001024189597342725 0.00011542093048991627 0 0.0021600662723807442 -2.0099223544223671e-05 0 0.0014068112953123878 0.00038971769087692938 0 0.00079472944495175783 0.00045191617116177558 0 0.001024189597342725 0.00011542093048991627 0 0.0014068112953123878 0.00038971769087692938 0 0.0021600662723807442 -2.0099223544223671e-05 0 0.0018599820827542668 0.00063527033798040284 0 0.0025518529173211633 0.00084514999830367303 0 0.0021600662723807442 -2.0099223544223671e-05 0 0.0018599820827542668 0.00063527033798040284 0 0.0014068112953123878 0.00038971769087692938 0 0.00079472944495175783 0.00045191617116177558 0 0.0014068112953123878 0.00038971769087692938 0 0.0013293267772150924 0.00087264314239969792 0 0.0018599820827542668 0.00063527033798040284 0 0.0014068112953123878 0.00038971769087692938 0 0.0013293267772150924 0.00087264314239969792 0 0.0014659725843711321 0.0012991549536169322 0 0.0010485164035298354 0.0011697223228611913 0 0.00072228786539414529 0.0015384378570579447 0 0.0013293267772150924 0.00087264314239969792 0 0.0014659725843711321 0.0012991549536169322 0 0.0019365423401918609 0.0010908359393169472 0 0.0013293267772150924 0.00087264314239969792 0 0.0014659725843711321 0.0012991549536169322 0 0.0010485164035298354 0.0011697223228611913 0 0.0018599820827542668 0.00063527033798040284 0 0.0019365423401918609 0.0010908359393169472 0 0.0025518529173211633 0.00084514999830367303 0 0.0018599820827542668 0.00063527033798040284 0 0.0013293267772150924 0.00087264314239969792 0 0.0019365423401918609 0.0010908359393169472 0 0.0025518529173211633 0.00084514999830367303 0 0.0034589911933935805 0.0010820537484247837 0 0.002654392032958169 0.0015117175802812099 0 0.0019365423401918609 0.0010908359393169472 0 0.0025518529173211633 0.00084514999830367303 0 0.0022527558181497024 0.0014022607771355523 0 0.0021600662723807442 -2.0099223544223671e-05 0 0.0025518529173211633 0.00084514999830367303 0 0.0033317680865742358 0.00011025634475775556 0 0.0025518529173211633 0.00084514999830367303 0 0.0033317680865742358 0.00011025634475775556 0 0.0034589911933935805 0.0010820537484247837 0 0.0027145899317366049 0.0022289060826827106 0 0.0023032442072572906 0.0022422282025177645 0 0.0034579664911919281 0.0023566218966862363 0 0.0030658433252899893 -0.0011700823666752733 0 0.004224335717183848 -0.0024906325197960786 0 0.0034589911933935805 0.0010820537484247837 0 0.002862812100857245 0.0020082159637735499 0 0.0041280924904981428 0.0023436981958559213 0 0.0034589911933935805 0.0010820537484247837 0 0.002862812100857245 0.0020082159637735499 0 0.002654392032958169 0.0015117175802812099 0 0.002862812100857245 0.0020082159637735499 0 0.0027145899317366049 0.0022289060826827106 0 0.0034579664911919281 0.0023566218966862363 0 0.0031565329678539186 0.0015605326933449614 0 0.0041883807409813009 8.1848531088273124e-05 0 0.0027145899317366049 0.0022289060826827106 0 0.0023458554978064215 0.0018517241417737216 0 0.0018130373793580272 0.0016661914699776851 0 0.002862812100857245 0.0020082159637735499 0 0.0027145899317366049 0.0022289060826827106 0 0.0026412101742577898 0.0019218216057360616 0 0.0027145899317366049 0.0022289060826827106 0 0.0026412101742577898 0.0019218216057360616 0 0.0023458554978064215 0.0018517241417737216 0 0.0025518529173211633 0.00084514999830367303 0 0.002654392032958169 0.0015117175802812099 0 0.0022527558181497024 0.0014022607771355523 0 0.0026412101742577898 0.0019218216057360616 0 0.0023458554978064215 0.0018517241417737216 0 0.002654392032958169 0.0015117175802812099 0 0.0023458554978064215 0.0018517241417737216 0 0.002654392032958169 0.0015117175802812099 0 0.0022527558181497024 0.0014022607771355523 0 0.002862812100857245 0.0020082159637735499 0 0.0026412101742577898 0.0019218216057360616 0 0.002654392032958169 0.0015117175802812099 0 0.0027145899317366049 0.0022289060826827106 0 0.0018134944868110898 0.0018964023778831522 0 0.0023032442072572906 0.0022422282025177645 0 0.0025468740230852947 0.0021313807989854871 0 0.0011746355068350171 0.0016400346787391413 0 0.0018134944868110898 0.0018964023778831522 0 0.0023032442072572906 0.0022422282025177645 0 0.0011857252253665554 0.0020203669109429595 0 0.0019365423401918609 0.0010908359393169472 0 0.0022527558181497024 0.0014022607771355523 0 0.0018130373793580272 0.0016661914699776851 0 0.0027145899317366049 0.0022289060826827106 0 0.0018134944868110898 0.0018964023778831522 0 0.0013428792512147304 0.0014243032678018287 0 0.0030658433252899893 -0.0011700823666752733 0 0.0021536113881753974 -1.9719240037203536e-05 0 0.0027145899317366049 0.0022289060826827106 0 0.0018130373793580272 0.0016661914699776851 0 0.00072228786539414529 0.0015384378570579447 0 0.0014659725843711321 0.0012991549536169322 0 0.0019365423401918609 0.0010908359393169472 0 0.0018130373793580272 0.0016661914699776851 0 0.0023458554978064215 0.0018517241417737216 0 0.0022527558181497024 0.0014022607771355523 0 0.0018130373793580272 0.0016661914699776851 0 0.0014659725843711321 0.0012991549536169322 0 0.0018130373793580272 0.0016661914699776851 0 0.00072228786539414529 0.0015384378570579447 0 0.0038716331029313468 -0.0045877280352391234 0 0.0035634180113334316 -0.0044034467764951044 0 0.0037924622009498821 -0.004324802177826363 0 0.0038716331029313468 -0.0045877280352391234 0 0.0037924622009498821 -0.004324802177826363 0 0.0041010045078073596 -0.0043227369787665242 0 0.0038716331029313468 -0.0045877280352391234 0 0.0035634180113334316 -0.0044034467764951044 0 0.0032737523962773976 -0.0045762529294173888 0 0.0035634180113334316 -0.0044034467764951044 0 0.0034022089421015421 -0.0042600903954793864 0 0.0034959240849089736 -0.0041014376097865748 0 0.0035634180113334316 -0.0044034467764951044 0 0.0037924622009498821 -0.004324802177826363 0 0.0034959240849089736 -0.0041014376097865748 0 0.0037924622009498821 -0.004324802177826363 0 0.0041010045078073596 -0.0043227369787665242 0 0.0039254992984790538 -0.0040994843822831544 0 0.0037924622009498821 -0.004324802177826363 0 0.0039254992984790538 -0.0040994843822831544 0 0.0034959240849089736 -0.0041014376097865748 0 0.004595464714723608 -0.0039328870942978702 0 0.004224335717183848 -0.0024906325197960786 0 0.0038716331029313468 -0.0045877280352391234 0 0.0041010045078073596 -0.0043227369787665242 0 0.0044724732666420186 -0.0045656147131774676 0 0.0041010045078073596 -0.0043227369787665242 0 0.0042994700435624311 -0.0037725341109730846 0 0.0044724732666420186 -0.0045656147131774676 0 0.00092549707095828315 0.0016017325312346813 0 0.0010974673583343324 0.0015863383475632398 0 0.0012412310961455973 0.0016967295095622254 0 0.00072916889516022371 0.0015017595876256778 0 0.0021536113881753974 -1.9719240037203536e-05 0 0.00092549707095828315 0.0016017325312346813 0 0.00086615662027947804 0.0014490647321115763 0 0.00097506688432804354 0.001515809617716335 0 0.00103654195806008 0.0014151975994388317 0 0.00097506688432804354 0.001515809617716335 0 0.0010974673583343324 0.0015863383475632398 0 0.00086615662027947804 0.0014490647321115763 0 0.00103654195806008 0.0014151975994388317 0 0.00097506688432804354 0.001515809617716335 0 0.00092549707095828315 0.0016017325312346813 0 0.00097506688432804354 0.001515809617716335 0 0.0010974673583343324 0.0015863383475632398 0 0.0011969398164288171 0.0016215300909506458 0 0.0010974673583343324 0.0015863383475632398 0 0.0012412310961455973 0.0016967295095622254 0 0.0011969398164288171 0.0016215300909506458 0 0.0011762210917398968 0.0015458872705794238 0 0.0012651782274446886 0.0016452371819957897 0 0.0011969398164288171 0.0016215300909506458 0 0.0012651782274446886 0.0016452371819957897 0 0.0012412310961455973 0.0016967295095622254 0 0.0011969398164288171 0.0016215300909506458 0 0.0010974673583343324 0.0015863383475632398 0 0.0011762210917398968 0.0015458872705794238 0 0.00103654195806008 0.0014151975994388317 0 0.0011762210917398968 0.0015458872705794238 0 0.0013428792512147304 0.0014243032678018287 0 0.00103654195806008 0.0014151975994388317 0 0.0010974673583343324 0.0015863383475632398 0 0.0011762210917398968 0.0015458872705794238 0 0.0011762210917398968 0.0015458872705794238 0 0.0013428792512147304 0.0014243032678018287 0 0.0012651782274446886 0.0016452371819957897 0 0.0018134944868110898 0.0018964023778831522 0 0.0013428792512147304 0.0014243032678018287 0 0.0014420656793737725 0.0017167569381733323 0 0.0013428792512147304 0.0014243032678018287 0 0.0014420656793737725 0.0017167569381733323 0 0.0012651782274446886 0.0016452371819957897 0 0.0018134944868110898 0.0018964023778831522 0 0.0014420656793737725 0.0017167569381733323 0 0.0011857252253665554 0.0020203669109429595 0 0.0014420656793737725 0.0017167569381733323 0 0.0012651782274446886 0.0016452371819957897 0 0.0011857252253665554 0.0020203669109429595 0 0.0017018374968460867 0.0014071195015661617 0 0.0021536113881753974 -1.9719240037203536e-05 0 0.0010199977287768953 0.0013607210252638922 0 0.00099583658753535451 0.0014811877695333454 0 0.00092694259417852587 0.0014247125641559718 0 0.0021536113881753974 -1.9719240037203536e-05 0 0.002096081748874289 -0.0027763627985184693 0 0.0032737523962773976 -0.0045762529294173888 0 0.0033648581584161904 -0.0043753030428624971 0 0.0032141206890291618 -0.0041801896073288807 0 0.0035634180113334316 -0.0044034467764951044 0 0.0032737523962773976 -0.0045762529294173888 0 0.0033648581584161904 -0.0043753030428624971 0 0.0034022089421015421 -0.0042600903954793864 0 0.0032141206890291618 -0.0041801896073288807 0 0.0034959240849089736 -0.0041014376097865748 0 0.0035634180113334316 -0.0044034467764951044 0 0.0033648581584161904 -0.0043753030428624971 0 0.0034022089421015421 -0.0042600903954793864 0 0.0033648581584161904 -0.0043753030428624971 0 0.0034022089421015421 -0.0042600903954793864 0 0.0032141206890291618 -0.0041801896073288807 0 0.00099583658753535451 0.0014811877695333454 0 0.00092694259417852587 0.0014247125641559718 0 0.00081708876777466177 0.0014667049238079868 0 0.002096081748874289 -0.0027763627985184693 0 0.0014469579240594256 -0.00072221015263954145 0 0.0021133518793739169 -0.0030422704206849319 0 0.0016848184904951623 -0.0031896474732205 0 0.001778720417289894 -0.0029139849746204062 0 0.00085761697000517629 0.0013890072937633399 0 0.0010199977287768953 0.0013607210252638922 0 0.00092694259417852587 0.0014247125641559718 0 0.0016848184904951623 -0.0031896474732205 0 0.001778720417289894 -0.0029139849746204062 0 0.0015892253498958073 -0.0029696944957066278 0 0.00085761697000517629 0.0013890072937633399 0 0.00092694259417852587 0.0014247125641559718 0 0.00081708876777466177 0.0014667049238079868 0 0.0021133518793739169 -0.0030422704206849319 0 0.0018469218771442269 -0.0027147119356035112 0 0.0020219140923244225 -0.0024216687039487652 0 0.001778720417289894 -0.0029139849746204062 0 0.0018469218771442269 -0.0027147119356035112 0 0.0016029762070524968 -0.0027073683095392102 0 0.0021133518793739169 -0.0030422704206849319 0 0.001778720417289894 -0.0029139849746204062 0 0.0018469218771442269 -0.0027147119356035112 0 0.0030860450141873561 -0.0042695901431602434 0 0.0033951115383962114 -0.0036445747064700095 0 0.0027280514903774656 -0.0032664740560389358 0 0.002096081748874289 -0.0027763627985184693 0 0.0024578090846872113 -0.0030317334047562212 0 0.0030860450141873561 -0.0042695901431602434 0 0.0033951115383962114 -0.0036445747064700095 0 0.0034959240849089736 -0.0041014376097865748 0 0.002096081748874289 -0.0027763627985184693 0 0.0033716317945047653 -0.0036804465109256997 0 0.0033951115383962114 -0.0036445747064700095 0 0.0027280514903774656 -0.0032664740560389358 0 0.0034073766408925944 -0.0030031142245109735 0 0.0018469218771442269 -0.0027147119356035112 0 0.0020219140923244225 -0.0024216687039487652 0 0.0017179260112641086 -0.0024734273449437197 0 0.0020219140923244225 -0.0024216687039487652 0 0.0017179260112641086 -0.0024734273449437197 0 0.0018380740402228768 -0.0022067475205114605 0 0.0018469218771442269 -0.0027147119356035112 0 0.0017179260112641086 -0.0024734273449437197 0 0.0016029762070524968 -0.0027073683095392102 0 0.0041010045078073596 -0.0043227369787665242 0 0.0042994700435624311 -0.0037725341109730846 0 0.0039254992984790538 -0.0040994843822831544 0 0.0042994700435624311 -0.0037725341109730846 0 0.0039254992984790538 -0.0040994843822831544 0 0.0038177132799631871 -0.0038153964549830018 0 0.0039254992984790538 -0.0040994843822831544 0 0.0034959240849089736 -0.0041014376097865748 0 0.0038177132799631871 -0.0038153964549830018 0 0.0033951115383962114 -0.0036445747064700095 0 0.0034959240849089736 -0.0041014376097865748 0 0.0038177132799631871 -0.0038153964549830018 0 0.0033951115383962114 -0.0036445747064700095 0 0.0038540424345836961 -0.0034229570565736667 0 0.0034073766408925944 -0.0030031142245109735 0 0.0033951115383962114 -0.0036445747064700095 0 0.0038177132799631871 -0.0038153964549830018 0 0.0038540424345836961 -0.0034229570565736667 0 0.0042994700435624311 -0.0037725341109730846 0 0.0038540424345836961 -0.0034229570565736667 0 0.0042223064082411409 -0.0028185972070611902 0 0.004595464714723608 -0.0039328870942978702 0 0.004184867630637675 -0.0026473465065585088 0 0.0046853988059063004 -0.0033158001541765585 0 0.0047473111664731726 -0.0028799972586447571 0 0.0042223064082411409 -0.0028185972070611902 0 0.0042994700435624311 -0.0037725341109730846 0 0.0038177132799631871 -0.0038153964549830018 0 0.0038540424345836961 -0.0034229570565736667 0 0.0046853988059063004 -0.0033158001541765585 0 0.0051100139541545376 -0.0030593943869293605 0 0.0047473111664731726 -0.0028799972586447571 0 0.0051100139541545376 -0.0030593943869293605 0 0.0054220377146756964 -0.0032440811829569463 0 0.0055679072019266963 -0.0030199475867588228 0 0.0051100139541545376 -0.0030593943869293605 0 0.0055679072019266963 -0.0030199475867588228 0 0.0054400035374710387 -0.0027870815430816312 0 0.0051100139541545376 -0.0030593943869293605 0 0.0054220377146756964 -0.0032440811829569463 0 0.0051753133016380001 -0.0034671816835868483 0 0.0054220377146756964 -0.0032440811829569463 0 0.0051753133016380001 -0.0034671816835868483 0 0.0055032336205449233 -0.0034240948677106971 0 0.0046853988059063004 -0.0033158001541765585 0 0.0051100139541545376 -0.0030593943869293605 0 0.0051753133016380001 -0.0034671816835868483 0 0.0046853988059063004 -0.0033158001541765585 0 0.0051753133016380001 -0.0034671816835868483 0 0.0049038317960847788 -0.0037990845874452061 0 0.0054426267000869805 -0.0019154983709566084 0 0.004224335717183848 -0.0024906325197960786 0 0.0051753133016380001 -0.0034671816835868483 0 0.0054997319473971459 -0.003746443560816872 0 0.0049038317960847788 -0.0037990845874452061 0 0.0051753133016380001 -0.0034671816835868483 0 0.0055032336205449233 -0.0034240948677106971 0 0.0054997319473971459 -0.003746443560816872 0 0.0052605296561272262 -0.00086531545323623974 0 0.0050703382887570293 -0.00084535454317350323 0 0.0054166242671364502 -0.0010487021977981749 0 0.0052605296561272262 -0.00086531545323623974 0 0.0050703382887570293 -0.00084535454317350323 0 0.0050684720005771955 -0.00084656292080018266 0 0.0054426267000869805 -0.0019154983709566084 0 0.0041883807409813009 8.1848531088273124e-05 0 0.0054682313808246119 -0.0015161303804375177 0 0.004037552026170948 -0.0017630923215920023 0 0.0039766695887271108 -0.0015511362278945522 0 0.002862812100857245 0.0020082159637735499 0 0.0035222226595260663 0.0021384704863008398 0 0.0034579664911919281 0.0023566218966862363 0 0.0041883807409813009 8.1848531088273124e-05 0 0.004224335717183848 -0.0024906325197960786 0 0.0057104566250414397 -0.0011768567992852174 0 0.0057866161949933909 -0.0010967447747244551 0 0.0060346662049034503 -0.0014270810467964137 0 0.005767497434725077 -0.0013073602762256368 0 0.0057104566250414397 -0.0011768567992852174 0 0.0060346662049034503 -0.0014270810467964137 0 0.005767497434725077 -0.0013073602762256368 0 0.0057104566250414397 -0.0011768567992852174 0 0.0054166242671364502 -0.0010487021977981749 0 0.0052605296561272262 -0.00086531545323623974 0 0.0054166242671364502 -0.0010487021977981749 0 0.0055259242284206502 -0.0009849389051226566 0 0.0057104566250414397 -0.0011768567992852174 0 0.0054166242671364502 -0.0010487021977981749 0 0.0055259242284206502 -0.0009849389051226566 0 0.0054997319473971459 -0.003746443560816872 0 0.0057259684185253356 -0.0034671981616138606 0 0.005996215094964211 -0.0035313104877744981 0 0.0052833959225124108 -0.00083958492823460397 0 0.0055259242284206502 -0.0009849389051226566 0 0.0057866161949933909 -0.0010967447747244551 0 0.0057104566250414397 -0.0011768567992852174 0 0.0055259242284206502 -0.0009849389051226566 0 0.0057866161949933909 -0.0010967447747244551 0 0.0054426267000869805 -0.0019154983709566084 0 0.0058299805952995165 -0.0023473856380392287 0 0.0054426267000869805 -0.0019154983709566084 0 0.0054588476698526145 -0.0013435535372934679 0 0.0055032336205449233 -0.0034240948677106971 0 0.0054997319473971459 -0.003746443560816872 0 0.0057259684185253356 -0.0034671981616138606 0 0.0057259684185253356 -0.0034671981616138606 0 0.0058995399307428149 -0.0033448269371016172 0 0.005996215094964211 -0.0035313104877744981 0 0.0058299805952995165 -0.0023473856380392287 0 0.0062480682262410761 -0.0023815717596673267 0 0.0058995399307428149 -0.0033448269371016172 0 0.005996215094964211 -0.0035313104877744981 0 0.0061425206050199598 -0.0031476608605141058 0 0.005996215094964211 -0.0035313104877744981 0 0.0061425206050199598 -0.0031476608605141058 0 0.0064185904982442558 -0.0031445804260800915 0 0.0057866161949933909 -0.0010967447747244551 0 0.0060346662049034503 -0.0014270810467964137 0 0.0062351559220123944 -0.0015946671588393916 0 0.0061425206050199598 -0.0031476608605141058 0 0.0057419105898992625 -0.0032440827896842972 0 0.0059698147586210717 -0.0030000222423084305 0 0.0058995399307428149 -0.0033448269371016172 0 0.0061425206050199598 -0.0031476608605141058 0 0.0057419105898992625 -0.0032440827896842972 0 0.0054220377146756964 -0.0032440811829569463 0 0.0057419105898992625 -0.0032440827896842972 0 0.0055679072019266963 -0.0030199475867588228 0 0.0055032336205449233 -0.0034240948677106971 0 0.0057259684185253356 -0.0034671981616138606 0 0.0057419105898992625 -0.0032440827896842972 0 0.0054220377146756964 -0.0032440811829569463 0 0.0055032336205449233 -0.0034240948677106971 0 0.0057419105898992625 -0.0032440827896842972 0 0.0057259684185253356 -0.0034671981616138606 0 0.0058995399307428149 -0.0033448269371016172 0 0.0057419105898992625 -0.0032440827896842972 0 0.0057419105898992625 -0.0032440827896842972 0 0.0055679072019266963 -0.0030199475867588228 0 0.0059698147586210717 -0.0030000222423084305 0 0.0055679072019266963 -0.0030199475867588228 0 0.0059698147586210717 -0.0030000222423084305 0 0.0058190576543339853 -0.0027920539755246971 0 0.0059698147586210717 -0.0030000222423084305 0 0.0063593531783924023 -0.002938668627763822 0 0.0061376625955567882 -0.0028369851571895814 0 0.0061425206050199598 -0.0031476608605141058 0 0.0059698147586210717 -0.0030000222423084305 0 0.0063593531783924023 -0.002938668627763822 0 0.0063593531783924023 -0.002938668627763822 0 0.0066117932920618291 -0.0028886974608946119 0 0.0064147076489481404 -0.0027932445690701624 0 0.0063593531783924023 -0.002938668627763822 0 0.0064751432103582864 -0.0029529799414375686 0 0.0065683734632876337 -0.0028925338637326202 0 0.0061425206050199598 -0.0031476608605141058 0 0.0064751432103582864 -0.0029529799414375686 0 0.0064185904982442558 -0.0031445804260800915 0 0.0061425206050199598 -0.0031476608605141058 0 0.0063593531783924023 -0.002938668627763822 0 0.0064751432103582864 -0.0029529799414375686 0 0.0064751432103582864 -0.0029529799414375686 0 0.0065683734632876337 -0.0028925338637326202 0 0.0064929764606470337 -0.0024536382183002812 0 0.0065683734632876337 -0.0028925338637326202 0 0.0065134738770176587 -0.0026562773385357392 0 0.0064929764606470337 -0.0024536382183002812 0 0.0063593531783924023 -0.002938668627763822 0 0.0065683734632876337 -0.0028925338637326202 0 0.0066117932920618291 -0.0028886974608946119 0 0.0065683734632876337 -0.0028925338637326202 0 0.0066117932920618291 -0.0028886974608946119 0 0.0066952535814137817 -0.0029043735564900299 0 0.0066117932920618291 -0.0028886974608946119 0 0.0066952535814137817 -0.0029043735564900299 0 0.0068234180454402405 -0.0028916778322960199 0 0.0066952535814137817 -0.0029043735564900299 0 0.006831802642075723 -0.002942366668045285 0 0.0068234180454402405 -0.0028916778322960199 0 0.006831802642075723 -0.002942366668045285 0 0.0066419479146911488 -0.0028157554887091128 0 0.0068910695056440463 -0.0030095727720032411 0 0.006831802642075723 -0.002942366668045285 0 0.0068910695056440463 -0.0030095727720032411 0 0.0070856308797095282 -0.0029456543799465584 0 0.0066952535814137817 -0.0029043735564900299 0 0.006831802642075723 -0.002942366668045285 0 0.0066419479146911488 -0.0028157554887091128 0 0.0066419479146911488 -0.0028157554887091128 0 0.006273704037856943 -0.0024284900604984662 0 0.0068910695056440463 -0.0030095727720032411 0 0.0066419479146911488 -0.0028157554887091128 0 0.0065134738770176587 -0.0026562773385357392 0 0.006273704037856943 -0.0024284900604984662 0 0.0074248868166675482 -0.0025329170632570233 0 0.0074982170776414789 -0.0032404342473905754 0 0.0066952535814137817 -0.0029043735564900299 0 0.0066419479146911488 -0.0028157554887091128 0 0.0065134738770176587 -0.0026562773385357392 0 0.0065683734632876337 -0.0028925338637326202 0 0.0066952535814137817 -0.0029043735564900299 0 0.0065134738770176587 -0.0026562773385357392 0 0.0065134738770176587 -0.0026562773385357392 0 0.0063303085196987682 -0.0021426582910622251 0 0.006273704037856943 -0.0024284900604984662 0 0.0065134738770176587 -0.0026562773385357392 0 0.0063303085196987682 -0.0021426582910622251 0 0.0064929764606470337 -0.0024536382183002812 0 0.0074248868166675482 -0.0025329170632570233 0 0.0076273649060726346 -0.0014708582393127784 0 0.008537115311212054 -0.0026760244951120841 0 0.0077077723991064735 -0.0017184724013311623 0 0.0090408661306048636 -0.0011788678530172513 0 0.0063303085196987682 -0.0021426582910622251 0 0.006273704037856943 -0.0024284900604984662 0 0.0062084049136294714 -0.0017654676083988271 0 0.0063303085196987682 -0.0021426582910622251 0 0.0063524603238656295 -0.0018512802304832523 0 0.0062084049136294714 -0.0017654676083988271 0 0.0063524603238656295 -0.0018512802304832523 0 0.0061853907406480167 -0.0016034953621949231 0 0.0062084049136294714 -0.0017654676083988271 0 0.0063524603238656295 -0.0018512802304832523 0 0.0060346662049034503 -0.0014270810467964137 0 0.0062351559220123944 -0.0015946671588393916 0 0.0063524603238656295 -0.0018512802304832523 0 0.0060346662049034503 -0.0014270810467964137 0 0.0061853907406480167 -0.0016034953621949231 0 0.005767497434725077 -0.0013073602762256368 0 0.0060346662049034503 -0.0014270810467964137 0 0.0061853907406480167 -0.0016034953621949231 0 0.0063303085196987682 -0.0021426582910622251 0 0.0063524603238656295 -0.0018512802304832523 0 0.0064929764606470337 -0.0024536382183002812 0 0.0062480682262410761 -0.0023815717596673267 0 0.0063762120811671555 -0.0024448378460576038 0 0.0064751432103582864 -0.0029529799414375686 0 0.0064185904982442558 -0.0031445804260800915 0 0.0064929764606470337 -0.0024536382183002812 0 0.0063524603238656295 -0.0018512802304832523 0 0.0062351559220123944 -0.0015946671588393916 0 0.0064929764606470337 -0.0024536382183002812 0 0.0090402198057634633 -0.0036650399964923701 0 0.0089133675330362854 -0.003415206614059836 0 0.0086655256628319875 -0.0036530671643081915 0 0.0090402198057634633 -0.0036650399964923701 0 0.0086655256628319875 -0.0036530671643081915 0 0.0089206092355267122 -0.0038787565479738773 0 0.0089133675330362854 -0.003415206614059836 0 0.008477017027491764 -0.0034562477134448639 0 0.0086655256628319875 -0.0036530671643081915 0 0.0089133675330362854 -0.003415206614059836 0 0.008477017027491764 -0.0034562477134448639 0 0.0085193468107891482 -0.0032404121265618029 0 0.008477017027491764 -0.0034562477134448639 0 0.0086655256628319875 -0.0036530671643081915 0 0.0082259359032997789 -0.0035330169179680323 0 0.0082259359032997789 -0.0035330169179680323 0 0.0081085020351421375 -0.0033091961357031049 0 0.0083853914660650813 -0.0038885430807250577 0 0.0086655256628319875 -0.0036530671643081915 0 0.0082259359032997789 -0.0035330169179680323 0 0.0083853914660650813 -0.0038885430807250577 0 0.0082259359032997789 -0.0035330169179680323 0 0.0082019505951938781 -0.0034069965132863551 0 0.0080538270917640559 -0.003617978443002465 0 0.008477017027491764 -0.0034562477134448639 0 0.0082259359032997789 -0.0035330169179680323 0 0.0082019505951938781 -0.0034069965132863551 0 0.008477017027491764 -0.0034562477134448639 0 0.0082019505951938781 -0.0034069965132863551 0 0.0085193468107891482 -0.0032404121265618029 0 0.008537115311212054 -0.0026760244951120841 0 0.0080538270917640559 -0.003617978443002465 0 0.0081085020351421375 -0.0033091961357031049 0 0.0082259359032997789 -0.0035330169179680323 0 0.0080538270917640559 -0.003617978443002465 0 0.0081085020351421375 -0.0033091961357031049 0 0.0081085020351421375 -0.0033091961357031049 0 0.0078177709117535198 -0.0025760871489702397 0 0.0068932277369391564 -0.0025602514781758214 0 0.008537115311212054 -0.0026760244951120841 0 0.0081085020351421375 -0.0033091961357031049 0 0.0078177709117535198 -0.0025760871489702397 0 0.008537115311212054 -0.0026760244951120841 0 0.0078177709117535198 -0.0025760871489702397 0 0.0077077723991064735 -0.0017184724013311623 0 0.0077077723991064735 -0.0017184724013311623 0 0.0068932277369391564 -0.0025602514781758214 0 0.0066357269667098049 -0.0013469195586194402 0 0.0078177709117535198 -0.0025760871489702397 0 0.0077077723991064735 -0.0017184724013311623 0 0.0068932277369391564 -0.0025602514781758214 0 0.008069072715922037 -0.0033514182435817031 0 0.0077211491427121009 -0.0031473376879497059 0 0.0083853914660650813 -0.0038885430807250577 0 0.0089027263746617787 -0.0041681598325126546 0 0.0089206092355267122 -0.0038787565479738773 0 0.0086655256628319875 -0.0036530671643081915 0 0.0083853914660650813 -0.0038885430807250577 0 0.0089206092355267122 -0.0038787565479738773 0 0.0068932277369391564 -0.0025602514781758214 0 0.0057479148168433254 -0.0017365704073489243 0 0.0066357269667098049 -0.0013469195586194402 0 0.0077211491427121009 -0.0031473376879497059 0 0.0069513618421863533 -0.0034276373622905403 0 0.009234206721897004 -0.0040664277844471913 0 0.0089027263746617787 -0.0041681598325126546 0 0.0089206092355267122 -0.0038787565479738773 0 0.0053343112271592875 -0.00010044677186138779 0 0.0057308577368996401 -0.00091423753465333683 0 0.0062866050150022501 -0.00040277931744647739 0 0.0053343112271592875 -0.00010044677186138779 0 0.0062866050150022501 -0.00040277931744647739 0 0.0060183847594855264 0.00079781231083296338 0 0.0057479148168433254 -0.0017365704073489243 0 0.0057308577368996401 -0.00091423753465333683 0 0.0066357269667098049 -0.0013469195586194402 0 0.0046630381652681078 -0.00095972977772674649 0 0.0057479148168433254 -0.0017365704073489243 0 0.0057308577368996401 -0.00091423753465333683 0 0.0057308577368996401 -0.00091423753465333683 0 0.0066357269667098049 -0.0013469195586194402 0 0.0062866050150022501 -0.00040277931744647739 0 0.0066357269667098049 -0.0013469195586194402 0 0.0062866050150022501 -0.00040277931744647739 0 0.0071807046300672436 -0.00045508564472083812 0 0.0062866050150022501 -0.00040277931744647739 0 0.0071807046300672436 -0.00045508564472083812 0 0.0067531832350391065 0.00048608781264779417 0 0.0077077723991064735 -0.0017184724013311623 0 0.0066357269667098049 -0.0013469195586194402 0 0.0071807046300672436 -0.00045508564472083812 0 0.0077077723991064735 -0.0017184724013311623 0 0.0071807046300672436 -0.00045508564472083812 0 0.0082938047920109812 -0.00026432831965871083 0 0.0071807046300672436 -0.00045508564472083812 0 0.0075763275020392486 0.00080207606176003273 0 0.0082938047920109812 -0.00026432831965871083 0 0.0075763275020392486 0.00080207606176003273 0 0.0082938047920109812 -0.00026432831965871083 0 0.0085652246301082084 0.00076040685647901405 0 0.0075763275020392486 0.00080207606176003273 0 0.0074344162541712675 0.0019794032822161253 0 0.0080881675233644718 0.0017316860178844301 0 0.0075763275020392486 0.00080207606176003273 0 0.0085652246301082084 0.00076040685647901405 0 0.0080881675233644718 0.0017316860178844301 0 0.0075763275020392486 0.00080207606176003273 0 0.0067531832350391065 0.00048608781264779417 0 0.0067041370747071231 0.0017324451592126756 0 0.0075763275020392486 0.00080207606176003273 0 0.0067041370747071231 0.0017324451592126756 0 0.0074344162541712675 0.0019794032822161253 0 0.0071807046300672436 -0.00045508564472083812 0 0.0075763275020392486 0.00080207606176003273 0 0.0067531832350391065 0.00048608781264779417 0 0.0062866050150022501 -0.00040277931744647739 0 0.0067531832350391065 0.00048608781264779417 0 0.0060183847594855264 0.00079781231083296338 0 0.0067531832350391065 0.00048608781264779417 0 0.0060183847594855264 0.00079781231083296338 0 0.0067041370747071231 0.0017324451592126756 0 0.011249906874069432 0.0059405898875997199 0 0.011325499129673469 0.0057032254611305705 0 0.011285042421916138 0.0059433009207829103 0 0.0086891328765920026 0.0032559424499762229 0 0.0090101200963080622 0.0037855711653695338 0 0.011179036491231645 0.0058920123440695197 0 0.011249906874069432 0.0059405898875997199 0 0.011325499129673469 0.0057032254611305705 0 0.011233456357726384 0.0060727135443441778 0 0.011179036491231645 0.0058920123440695197 0 0.011249906874069432 0.0059405898875997199 0 0.010917872334274544 0.0057736116006870406 0 0.011179036491231645 0.0058920123440695197 0 0.011325499129673469 0.0057032254611305705 0 0.010917872334274544 0.0057736116006870406 0 0.011031316468417393 0.0051893782561984996 0 0.011325499129673469 0.0057032254611305705 0 0.0079619628136247313 0.0025954091498827866 0 0.0086891328765920026 0.0032559424499762229 0 0.0061688566176258675 -0.0016495978158747756 0 0.0061853907406480167 -0.0016034953621949231 0 0.0062084049136294714 -0.0017654676083988271 0 0.0061688566176258675 -0.0016495978158747756 0 0.00603249973947486 -0.0016369223700005578 0 0.0061853907406480167 -0.0016034953621949231 0 0.0061688566176258675 -0.0016495978158747756 0 0.00603249973947486 -0.0016369223700005578 0 0.0061856276070055838 -0.0016535495517434745 0 0.0057327795170594069 -0.0014586594547556064 0 0.00603249973947486 -0.0016369223700005578 0 0.0061853907406480167 -0.0016034953621949231 0 0.0077077723991064735 -0.0017184724013311623 0 0.0090408661306048636 -0.0011788678530172513 0 0.0082938047920109812 -0.00026432831965871083 0 0.0090408661306048636 -0.0011788678530172513 0 0.0082938047920109812 -0.00026432831965871083 0 0.0093947866818357983 0.00017626630483701661 0 0.0061688566176258675 -0.0016495978158747756 0 0.0062084049136294714 -0.0017654676083988271 0 0.0061856276070055838 -0.0016535495517434745 0 0.0076273649060726346 -0.0014708582393127784 0 0.0077848874324977042 -0.00078860346559585215 0 0.0093947866818357983 0.00017626630483701661 0 0.0085652246301082084 0.00076040685647901405 0 0.0090375989413221391 0.001112686254340993 0 0.0082938047920109812 -0.00026432831965871083 0 0.0093947866818357983 0.00017626630483701661 0 0.0085652246301082084 0.00076040685647901405 0 0.0085652246301082084 0.00076040685647901405 0 0.0090957924120217849 0.0022398649193982609 0 0.0080881675233644718 0.0017316860178844301 0 0.0085586237273225403 0.00093360591033383978 0 0.0091030251964699452 0.0016689754225700246 0 0.0085652246301082084 0.00076040685647901405 0 0.0090375989413221391 0.001112686254340993 0 0.0088095181268711426 0.0016758712301555866 0 0.0093947866818357983 0.00017626630483701661 0 0.0090375989413221391 0.001112686254340993 0 0.0095872166977014044 0.001237866350994258 0 0.00603249973947486 -0.0016369223700005578 0 0.0061856276070055838 -0.0016535495517434745 0 0.0060794989722163933 -0.0018989226356004418 0 0.0077848874324977042 -0.00078860346559585215 0 0.0077989141077842317 -0.00015998548929802348 0 0.0057748720066762701 -0.0017510890139662903 0 0.00603249973947486 -0.0016369223700005578 0 0.0060794989722163933 -0.0018989226356004418 0 0.0057327795170594069 -0.0014586594547556064 0 0.0057748720066762701 -0.0017510890139662903 0 0.00603249973947486 -0.0016369223700005578 0 0.0057748720066762701 -0.0017510890139662903 0 0.0060794989722163933 -0.0018989226356004418 0 0.0057351412936008893 -0.0020301222266533117 0 0.0060794989722163933 -0.0018989226356004418 0 0.0057351412936008893 -0.0020301222266533117 0 0.0058794766161554841 -0.0022544578124167373 0 0.0057351412936008893 -0.0020301222266533117 0 0.0056967386711363217 -0.0022181041133754746 0 0.0058794766161554841 -0.0022544578124167373 0 0.0056967386711363217 -0.0022181041133754746 0 0.0058794766161554841 -0.0022544578124167373 0 0.0056522711651310455 -0.0023472688699733399 0 0.0098039705858684548 0.0021532816991861616 0 0.0092665433917310958 0.001862902852406685 0 0.0093389063660908791 0.0023886072418897049 0 0.0095872166977014044 0.001237866350994258 0 0.0098039705858684548 0.0021532816991861616 0 0.0092665433917310958 0.001862902852406685 0 0.0077989141077842317 -0.00015998548929802348 0 0.0082182414458337547 -0.00091341124389986009 0 0.0090375989413221391 0.001112686254340993 0 0.0092665433917310958 0.001862902852406685 0 0.0088095181268711426 0.0016758712301555866 0 0.0090375989413221391 0.001112686254340993 0 0.0095872166977014044 0.001237866350994258 0 0.0092665433917310958 0.001862902852406685 0 0.0090957924120217849 0.0022398649193982609 0 0.0080881675233644718 0.0017316860178844301 0 0.0082771687105384802 0.002522296045414079 0 0.0090957924120217849 0.0022398649193982609 0 0.0086906069160876814 0.0031717215148936921 0 0.0082771687105384802 0.002522296045414079 0 0.0090957924120217849 0.0022398649193982609 0 0.0086906069160876814 0.0031717215148936921 0 0.0095427951381687037 0.0037682169866014655 0 0.0086906069160876814 0.0031717215148936921 0 0.0082771687105384802 0.002522296045414079 0 0.0080783317875182288 0.0030971999956629819 0 0.0086906069160876814 0.0031717215148936921 0 0.0082869054292745818 0.0039268039052514324 0 0.0080783317875182288 0.0030971999956629819 0 0.0092665433917310958 0.001862902852406685 0 0.0090160238327193706 0.0025624743178042655 0 0.0093389063660908791 0.0023886072418897049 0 0.0092665433917310958 0.001862902852406685 0 0.0088095181268711426 0.0016758712301555866 0 0.0090160238327193706 0.0025624743178042655 0 0.0091030251964699452 0.0016689754225700246 0 0.0079152361032076915 0.0045554239717561446 0 0.0089682066145546722 0.0025848932182200523 0 0.0089946468668482705 0.0026699214363868663 0 0.0093389063660908791 0.0023886072418897049 0 0.0086906069160876814 0.0031717215148936921 0 0.0095427951381687037 0.0037682169866014655 0 0.009462703303462083 0.0038083719571695724 0 0.0079152361032076915 0.0045554239717561446 0 0.0097347237475891458 0.0025808827285834679 0 0.0071521590449279042 0.0056186236753473671 0 0.0071738182144794544 0.0069064893615888613 0 0.0079152361032076915 0.0045554239717561446 0 0.0071738182144794544 0.0069064893615888613 0 0.0068534222184406489 0.0071928704664968113 0 0.0078844618250268981 0.006674870028287691 0 0.0063118089156415846 0.0054232606540160462 0 0.0079152361032076915 0.0045554239717561446 0 0.0071521590449279042 0.0056186236753473671 0 0.002441709813481084 0.014962172769223177 0 0.0025939698889866055 0.014756534454015948 0 0.0023777390288225002 0.014917103661603965 0 0.0025939698889866055 0.014756534454015948 0 0.0023777390288225002 0.014917103661603965 0 0.0024163831262934529 0.014546007518690916 0 0.0086906069160876814 0.0031717215148936921 0 0.0088099749286298813 0.0041738431787181887 0 0.0082869054292745818 0.0039268039052514324 0 0.0025939698889866055 0.014756534454015948 0 0.0027855049758201806 0.014854809635093355 0 0.0031799421046903088 0.014799873006753794 0 0.0086906069160876814 0.0031717215148936921 0 0.0094633345704363096 0.003843019421874175 0 0.0088099749286298813 0.0041738431787181887 0 0.0090056488967269963 0.0033217758175502418 0 0.0071521590449279042 0.0056186236753473671 0 0.002441709813481084 0.014962172769223177 0 0.0025939698889866055 0.014756534454015948 0 0.0027855049758201806 0.014854809635093355 0 0.0071521590449279042 0.0056186236753473671 0 0.0061176026080668831 0.011076705534606301 0 0.0061176026080668831 0.011076705534606301 0 0.0078264492806430705 0.0079649638267136162 0 0.0075166709323021587 0.012294168736223488 0 0.0078541504614414535 0.012438618598306521 0 0.0079496518668777487 0.012103674403866563 0 0.0061176026080668831 0.011076705534606301 0 0.0053395180944199221 0.013433714981134234 0 0.0025939698889866055 0.014756534454015948 0 0.0028391845929734523 0.014566181090849234 0 0.0031799421046903088 0.014799873006753794 0 0.0028391845929734523 0.014566181090849234 0 0.0030932847721284983 0.014319883627849261 0 0.0031799421046903088 0.014799873006753794 0 0.0025939698889866055 0.014756534454015948 0 0.0028391845929734523 0.014566181090849234 0 0.0026284819998708899 0.014558768409640467 0 0.0026284819998708899 0.014558768409640467 0 0.0027619646165577458 0.014320789147646713 0 0.0025042579128084289 0.01437983158832272 0 0.0027619646165577458 0.014320789147646713 0 0.0025042579128084289 0.01437983158832272 0 0.0025823442466623627 0.014130519814832893 0 0.0028391845929734523 0.014566181090849234 0 0.0026284819998708899 0.014558768409640467 0 0.0027619646165577458 0.014320789147646713 0 0.0028391845929734523 0.014566181090849234 0 0.0027619646165577458 0.014320789147646713 0 0.0030932847721284983 0.014319883627849261 0 0.0023777390288225002 0.014917103661603965 0 0.0024163831262934529 0.014546007518690916 0 0.0021341141948784444 0.014342346488377396 0 0.0071738182144794544 0.0069064893615888613 0 0.0023930045987174795 0.013076285043004846 0 0.0025939698889866055 0.014756534454015948 0 0.0026284819998708899 0.014558768409640467 0 0.0024163831262934529 0.014546007518690916 0 0.0024163831262934529 0.014546007518690916 0 0.0025042579128084289 0.01437983158832272 0 0.0022803185841267443 0.014301687451350716 0 0.0025042579128084289 0.01437983158832272 0 0.0022803185841267443 0.014301687451350716 0 0.0025823442466623627 0.014130519814832893 0 0.0026284819998708899 0.014558768409640467 0 0.0024163831262934529 0.014546007518690916 0 0.0025042579128084289 0.01437983158832272 0 0.0021440685238068788 0.013462625377681366 0 0.0023930045987174795 0.013076285043004846 0 0.0024163831262934529 0.014546007518690916 0 0.0022803185841267443 0.014301687451350716 0 0.0021341141948784444 0.014342346488377396 0 0.0047877792100634612 0.0085873830473588778 0 0.0049672405208333048 0.0092657986529674115 0 0.0054347834881506947 0.009129618197722884 0 0.0010318173408374032 0.011818296782161127 0 0.0010596712639740363 0.01179885908504659 0 0.0010380050452804379 0.011830669761276984 0 0.0071738182144794544 0.0069064893615888613 0 0.0050517987456712519 0.0079220914017633631 0 0.0023930045987174795 0.013076285043004846 0 0.0050517987456712519 0.0079220914017633631 0 0.0096215933228936089 0.0032025419079965279 0 0.010057741683220829 0.0030744046777339833 0 0.0095691810309740926 0.0026973249872935014 0 0.0033673772629904662 0.0079335001146931157 0 0.0036086372054183508 0.0078638490110948273 0 0.0037316306801315042 0.008275463172799806 0 0.0050517987456712519 0.0079220914017633631 0 0.0045982595373273193 0.0046132216756887027 0 0.0082182414458337547 -0.00091341124389986009 0 0.0045982595373273193 0.0046132216756887027 0 0.0058794766161554841 -0.0022544578124167373 0 0.005683824422860354 -0.002582590818432613 0 0.0056522711651310455 -0.0023472688699733399 0 0.0098039705858684548 0.0021532816991861616 0 0.010057741683220829 0.0030744046777339833 0 0.0095691810309740926 0.0026973249872935014 0 0.0098039705858684548 0.0021532816991861616 0 0.0095691810309740926 0.0026973249872935014 0 0.0093389063660908791 0.0023886072418897049 0 0.0089946468668482705 0.0026699214363868663 0 0.0096215933228936089 0.0032025419079965279 0 0.0095691810309740926 0.0026973249872935014 0 0.0089946468668482705 0.0026699214363868663 0 0.0095691810309740926 0.0026973249872935014 0 0.0093389063660908791 0.0023886072418897049 0 0.01139012978698507 0.0054759404896906373 0 0.010476742519891289 0.008107407232920855 0 0.011335007574094618 0.005992667446507339 0 0.011354795283723112 0.0057249916428052149 0 0.010774527512877182 0.0058421307868111163 0 0.010681936826518442 0.0094590184679987591 0 0.010476742519891289 0.008107407232920855 0 0.010224477745529906 0.012872294276122537 0 0.0093308996501135898 0.01294795519926978 0 0.0098413115269225075 0.012461425339453014 0 0.011335007574094618 0.005992667446507339 0 0.011239777741911535 0.0060034440159674142 0 0.011230965989790866 0.0059857781954735642 0 0.011233456357726384 0.0060727135443441778 0 0.011249906874069432 0.0059405898875997199 0 0.011239777741911535 0.0060034440159674142 0 0.011285042421916138 0.0059433009207829103 0 0.011230965989790866 0.0059857781954735642 0 0.011252687142011207 0.0059534225762074124 0 0.011249906874069432 0.0059405898875997199 0 0.011239777741911535 0.0060034440159674142 0 0.011285042421916138 0.0059433009207829103 0 0.011239777741911535 0.0060034440159674142 0 0.011285042421916138 0.0059433009207829103 0 0.011230965989790866 0.0059857781954735642 0 0.010476742519891289 0.008107407232920855 0 0.0090953616188322629 0.0047001904024253855 0 0.010476742519891289 0.008107407232920855 0 0.0089418646353851758 0.010585087947992854 0 0.010025159169921756 0.00787864487142775 0 0.0091880995485273051 0.0075810239971382124 0 0.0089722955587980199 0.0080022330304145035 0 0.0090101200963080622 0.0037855711653695338 0 0.0090953616188322629 0.0047001904024253855 0 0.0067041370747071231 0.0017324451592126756 0 0.0074219794154299409 0.002737301160798687 0 0.0074344162541712675 0.0019794032822161253 0 0.0074219794154299409 0.002737301160798687 0 0.0074344162541712675 0.0019794032822161253 0 0.0077440063355412843 0.0022874101170070353 0 0.0074344162541712675 0.0019794032822161253 0 0.0077440063355412843 0.0022874101170070353 0 0.0080881675233644718 0.0017316860178844301 0 0.0077440063355412843 0.0022874101170070353 0 0.0080881675233644718 0.0017316860178844301 0 0.0082771687105384802 0.002522296045414079 0 0.0077440063355412843 0.0022874101170070353 0 0.0082771687105384802 0.002522296045414079 0 0.0079612367477794928 0.0027014683931586968 0 0.0083554311743179611 0.007292786304534565 0 0.0091880995485273051 0.0075810239971382124 0 0.0089722955587980199 0.0080022330304145035 0 0.0082869054292745818 0.0039268039052514324 0 0.0074081362780946498 0.0027478061497525643 0 0.0080783317875182288 0.0030971999956629819 0 0.0082771687105384802 0.002522296045414079 0 0.0079612367477794928 0.0027014683931586968 0 0.0080783317875182288 0.0030971999956629819 0 0.0078264492806430705 0.0079649638267136162 0 0.0090953616188322629 0.0047001904024253855 0 0.0079612367477794928 0.0027014683931586968 0 0.0075796360511259939 0.0027236934280771619 0 0.0080783317875182288 0.0030971999956629819 0 0.0077440063355412843 0.0022874101170070353 0 0.0079612367477794928 0.0027014683931586968 0 0.0075796360511259939 0.0027236934280771619 0 0.0074081362780946498 0.0027478061497525643 0 0.0075796360511259939 0.0027236934280771619 0 0.0080783317875182288 0.0030971999956629819 0 0.0074219794154299409 0.002737301160798687 0 0.0077440063355412843 0.0022874101170070353 0 0.0075796360511259939 0.0027236934280771619 0 0.0090953616188322629 0.0047001904024253855 0 0.0086588210856401258 0.0045512408443627817 0 0.0078541504614414535 0.012438618598306521 0 0.0086125750617149291 0.012692801628929449 0 0.0084704004904429669 0.012215871907229834 0 0.0078264492806430705 0.0079649638267136162 0 0.0089418646353851758 0.010585087947992854 0 0.0078541504614414535 0.012438618598306521 0 0.0079496518668777487 0.012103674403866563 0 0.0084704004904429669 0.012215871907229834 0 0.0053395180944199221 0.013433714981134234 0 0.0069643596552706553 0.01289674198330797 0 0.0031799421046903088 0.014799873006753794 0 0.0035735111825744227 0.01429613160835305 0 0.004622820610357071 0.01405870046258631 0 0.0030932847721284983 0.014319883627849261 0 0.0031799421046903088 0.014799873006753794 0 0.0035735111825744227 0.01429613160835305 0 0.0030932847721284983 0.014319883627849261 0 0.0035735111825744227 0.01429613160835305 0 0.0035483958040809041 0.014028094421373845 0 0.0079496518668777487 0.012103674403866563 0 0.0087791926057715439 0.011784298655036938 0 0.0084704004904429669 0.012215871907229834 0 0.0031799421046903088 0.014799873006753794 0 0.004622820610357071 0.01405870046258631 0 0.0049578726174202377 0.014115985479488054 0 0.0087791926057715439 0.011784298655036938 0 0.0084704004904429669 0.012215871907229834 0 0.0089618734532993221 0.012253845209027323 0 0.0086125750617149291 0.012692801628929449 0 0.0084704004904429669 0.012215871907229834 0 0.0089618734532993221 0.012253845209027323 0 0.0093308996501135898 0.01294795519926978 0 0.0089618734532993221 0.012253845209027323 0 0.0094139166603192347 0.012161879927035957 0 0.0093308996501135898 0.01294795519926978 0 0.0086125750617149291 0.012692801628929449 0 0.0089618734532993221 0.012253845209027323 0 0.0087791926057715439 0.011784298655036938 0 0.0089618734532993221 0.012253845209027323 0 0.0092342477956314818 0.011904471815864176 0 0.0089618734532993221 0.012253845209027323 0 0.0092342477956314818 0.011904471815864176 0 0.0094139166603192347 0.012161879927035957 0 0.0094139166603192347 0.012161879927035957 0 0.009719196471914205 0.011866796184136649 0 0.0098413115269225075 0.012461425339453014 0 0.0092342477956314818 0.011904471815864176 0 0.0094139166603192347 0.012161879927035957 0 0.009719196471914205 0.011866796184136649 0 0.0093308996501135898 0.01294795519926978 0 0.0094139166603192347 0.012161879927035957 0 0.0098413115269225075 0.012461425339453014 0 0.010186181941129734 0.010176837616260887 0 0.010001640078958767 0.010857687157436451 0 0.0092652995575571509 0.010434885630948019 0 0.010001640078958767 0.010857687157436451 0 0.0092652995575571509 0.010434885630948019 0 0.0093093527181941135 0.011644920748019618 0 0.0092342477956314818 0.011904471815864176 0 0.009719196471914205 0.011866796184136649 0 0.0093093527181941135 0.011644920748019618 0 0.010222471797915817 0.011389233480331948 0 0.009719196471914205 0.011866796184136649 0 0.0093093527181941135 0.011644920748019618 0 0.010222471797915817 0.011389233480331948 0 0.010001640078958767 0.010857687157436451 0 0.0093093527181941135 0.011644920748019618 0 0.0049578726174202377 0.014115985479488054 0 0.0093093527181941135 0.011644920748019618 0 0.0066302197107635146 0.011084257022095039 0 0.0087791926057715439 0.011784298655036938 0 0.0092342477956314818 0.011904471815864176 0 0.0093093527181941135 0.011644920748019618 0 0.0069643596552706553 0.01289674198330797 0 0.0091321220355639818 0.011748570138135269 0 0.0092652995575571509 0.010434885630948019 0 0.0093093527181941135 0.011644920748019618 0 0.0066302197107635146 0.011084257022095039 0 0.0053064804790883503 0.01250629695633804 0 0.0061366551252127798 0.011288155496429569 0 0.0092652995575571509 0.010434885630948019 0 0.0066302197107635146 0.011084257022095039 0 0.0083564491393443747 0.0097926044971300905 0 0.0040460714791786994 0.01348951173263861 0 0.0037945692647580074 0.013591596176598286 0 0.0035748164192767546 0.013206105272984334 0 0.0040460714791786994 0.01348951173263861 0 0.0035748164192767546 0.013206105272984334 0 0.0038261261090831835 0.013182618670461955 0 0.004622820610357071 0.01405870046258631 0 0.0049578726174202377 0.014115985479488054 0 0.0066302197107635146 0.011084257022095039 0 0.004622820610357071 0.01405870046258631 0 0.0037945692647580074 0.013591596176598286 0 0.0035483958040809041 0.014028094421373845 0 0.004622820610357071 0.01405870046258631 0 0.0040460714791786994 0.01348951173263861 0 0.0037945692647580074 0.013591596176598286 0 0.0046482956379638877 0.013932074504499833 0 0.0053064804790883503 0.01250629695633804 0 0.0037945692647580074 0.013591596176598286 0 0.0035483958040809041 0.014028094421373845 0 0.0030168595470790299 0.013873773615215463 0 0.0035735111825744227 0.01429613160835305 0 0.004622820610357071 0.01405870046258631 0 0.0035483958040809041 0.014028094421373845 0 0.0030932847721284983 0.014319883627849261 0 0.0035483958040809041 0.014028094421373845 0 0.0030168595470790299 0.013873773615215463 0 0.0037945692647580074 0.013591596176598286 0 0.0032376938393212542 0.013414177624179046 0 0.0035748164192767546 0.013206105272984334 0 0.0037945692647580074 0.013591596176598286 0 0.0032376938393212542 0.013414177624179046 0 0.0030168595470790299 0.013873773615215463 0 0.0033065163602233154 0.012986115117673719 0 0.0035748164192767546 0.013206105272984334 0 0.002899889168367465 0.013045613909957484 0 0.0032376938393212542 0.013414177624179046 0 0.0035748164192767546 0.013206105272984334 0 0.002899889168367465 0.013045613909957484 0 0.0033065163602233154 0.012986115117673719 0 0.002899889168367465 0.013045613909957484 0 0.0029531248083653743 0.012837694119441967 0 0.0033065163602233154 0.012986115117673719 0 0.0035748164192767546 0.013206105272984334 0 0.0036348400826086117 0.013081679729754355 0 0.0033065163602233154 0.012986115117673719 0 0.0036348400826086117 0.013081679729754355 0 0.0033102416353020863 0.012756463794256552 0 0.0035748164192767546 0.013206105272984334 0 0.0038261261090831835 0.013182618670461955 0 0.0036348400826086117 0.013081679729754355 0 0.0061366551252127798 0.011288155496429569 0 0.0063596111192359538 0.012841355196559918 0 0.0038261261090831835 0.013182618670461955 0 0.0036079985665091086 0.013129848365919234 0 0.0035912938013609686 0.013123982378478829 0 0.0038261261090831835 0.013182618670461955 0 0.0036348400826086117 0.013081679729754355 0 0.0036079985665091086 0.013129848365919234 0 0.0036348400826086117 0.013081679729754355 0 0.0036079985665091086 0.013129848365919234 0 0.0035640603400891786 0.013227853997798343 0 0.0036079985665091086 0.013129848365919234 0 0.0035912938013609686 0.013123982378478829 0 0.0035640603400891786 0.013227853997798343 0 0.0083564491393443747 0.0097926044971300905 0 0.0095465034708612281 0.0094957245671241641 0 0.0094106740410898389 0.0093082175532157776 0 0.0095164492451516574 0.0093430912415865246 0 0.0095765988957280234 0.0093955791526693089 0 0.0094106740410898389 0.0093082175532157776 0 0.0095465034708612281 0.0094957245671241641 0 0.0095765988957280234 0.0093955791526693089 0 0.0094106740410898389 0.0093082175532157776 0 0.0095164492451516574 0.0093430912415865246 0 0.0095765988957280234 0.0093955791526693089 0 0.0096660928127926694 0.0093186870504697612 0 0.0095164492451516574 0.0093430912415865246 0 0.0094106740410898389 0.0093082175532157776 0 0.0096660928127926694 0.0093186870504697612 0 0.0096660928127926694 0.0093186870504697612 0 0.010006067462220538 0.009340749951294516 0 0.010085585190344566 0.0091193837413807502 0 0.0094106740410898389 0.0093082175532157776 0 0.0096660928127926694 0.0093186870504697612 0 0.010085585190344566 0.0091193837413807502 0 0.010169687334718258 0.0096246474684540603 0 0.0097616288135494046 0.0094838663158159572 0 0.0096163839699482077 0.0097852277220032841 0 0.0095465034708612281 0.0094957245671241641 0 0.0097616288135494046 0.0094838663158159572 0 0.0096163839699482077 0.0097852277220032841 0 0.010169687334718258 0.0096246474684540603 0 0.010006067462220538 0.009340749951294516 0 0.0097616288135494046 0.0094838663158159572 0 0.0096660928127926694 0.0093186870504697612 0 0.010006067462220538 0.009340749951294516 0 0.0097616288135494046 0.0094838663158159572 0 0.0095465034708612281 0.0094957245671241641 0 0.0095765988957280234 0.0093955791526693089 0 0.0097616288135494046 0.0094838663158159572 0 0.0095765988957280234 0.0093955791526693089 0 0.0096660928127926694 0.0093186870504697612 0 0.0097616288135494046 0.0094838663158159572 0 0.0092652995575571509 0.010434885630948019 0 0.0083564491393443747 0.0097926044971300905 0 0.0096163839699482077 0.0097852277220032841 0 0.010186181941129734 0.010176837616260887 0 0.0092652995575571509 0.010434885630948019 0 0.0096163839699482077 0.0097852277220032841 0 0.0083564491393443747 0.0097926044971300905 0 0.0095465034708612281 0.0094957245671241641 0 0.0096163839699482077 0.0097852277220032841 0 0.0012988618568230482 0.01271375825770781 0 0.0011839653132363409 0.012372962755709919 0 0.0010155248705294834 0.011864981139523827 0 0.0010396923308587495 0.011868263639113356 0 0.00099948082592404668 0.011928135524485645 0 0.0010155248705294834 0.011864981139523827 0 0.0010396923308587495 0.011868263639113356 0 0.0010462079460898551 0.011839314362122865 0 0.0010280999943239517 0.011904483201432951 0 0.0010722638798309845 0.011890600557381689 0 0.0010664995998401483 0.011869685924931355 0 0.0010396923308587495 0.011868263639113356 0 0.0010280999943239517 0.011904483201432951 0 0.0010664995998401483 0.011869685924931355 0 0.0010396923308587495 0.011868263639113356 0 0.0010664995998401483 0.011869685924931355 0 0.001080039001894425 0.011834084912274365 0 0.0010396923308587495 0.011868263639113356 0 0.0010462079460898551 0.011839314362122865 0 0.001080039001894425 0.011834084912274365 0 0.0010596712639740363 0.01179885908504659 0 0.0010462079460898551 0.011839314362122865 0 0.001080039001894425 0.011834084912274365 0 0.0050517987456712519 0.0079220914017633631 0 0.001388780696783579 0.010599765341134626 0 0.0023930045987174795 0.013076285043004846 0 0.0012988618568230482 0.01271375825770781 0 0.0010596712639740363 0.01179885908504659 0 0.0010462079460898551 0.011839314362122865 0 0.0010380050452804379 0.011830669761276984 0 0.0010318173408374032 0.011818296782161127 0 0.0010155248705294834 0.011864981139523827 0 0.0010380050452804379 0.011830669761276984 0 0.0010155248705294834 0.011864981139523827 0 0.0010462079460898551 0.011839314362122865 0 0.0010380050452804379 0.011830669761276984 0 0.0022803185841267443 0.014301687451350716 0 0.0020770452264981722 0.014358208550285476 0 0.0023916289287611329 0.013751591269927029 0 0.0022803185841267443 0.014301687451350716 0 0.0023916289287611329 0.013751591269927029 0 0.0025823442466623627 0.014130519814832893 0 0.0020770452264981722 0.014358208550285476 0 0.0017469309469187403 0.013625429192854102 0 0.0023916289287611329 0.013751591269927029 0 0.0023916289287611329 0.013751591269927029 0 0.0025823442466623627 0.014130519814832893 0 0.0030168595470790299 0.013873773615215463 0 0.0027619646165577458 0.014320789147646713 0 0.0030932847721284983 0.014319883627849261 0 0.0030168595470790299 0.013873773615215463 0 0.0027619646165577458 0.014320789147646713 0 0.0025823442466623627 0.014130519814832893 0 0.0030168595470790299 0.013873773615215463 0 0.0032376938393212542 0.013414177624179046 0 0.0023916289287611329 0.013751591269927029 0 0.0030168595470790299 0.013873773615215463 0 0.0032376938393212542 0.013414177624179046 0 0.0023916289287611329 0.013751591269927029 0 0.002899889168367465 0.013045613909957484 0 0.0023916289287611329 0.013751591269927029 0 0.0020344066018012979 0.01293148061144711 0 0.002899889168367465 0.013045613909957484 0 0.0017469309469187403 0.013625429192854102 0 0.0023916289287611329 0.013751591269927029 0 0.0020344066018012979 0.01293148061144711 0 0.0028656294603155281 0.013017627199773363 0 0.0024303003900699475 0.012359312165568652 0 0.002899889168367465 0.013045613909957484 0 0.0029531248083653743 0.012837694119441967 0 0.0026574671802239006 0.012860864445076539 0 0.0020344066018012979 0.01293148061144711 0 0.0016019445105007731 0.012213519549787822 0 0.002211320236089406 0.011825728106212388 0 0.0020344066018012979 0.01293148061144711 0 0.002899889168367465 0.013045613909957484 0 0.002211320236089406 0.011825728106212388 0 0.0011839653132363409 0.012372962755709919 0 0.0010320839250967493 0.011953526835045868 0 0.0016019445105007731 0.012213519549787822 0 0.0013407495516313691 0.01283610524595526 0 0.0010246505668502618 0.011924617554893612 0 0.0020344066018012979 0.01293148061144711 0 0.0016019445105007731 0.012213519549787822 0 0.0013407495516313691 0.01283610524595526 0 0.0017469309469187403 0.013625429192854102 0 0.0020344066018012979 0.01293148061144711 0 0.0013407495516313691 0.01283610524595526 0 0.0010396923308587495 0.011868263639113356 0 0.00099948082592404668 0.011928135524485645 0 0.0010280999943239517 0.011904483201432951 0 0.0010280999943239517 0.011904483201432951 0 0.00099963781994841477 0.011932598872211929 0 0.0010003832470476153 0.011930957563318524 0 0.00099948082592404668 0.011928135524485645 0 0.0010280999943239517 0.011904483201432951 0 0.00099963781994841477 0.011932598872211929 0 0.0010280999943239517 0.011904483201432951 0 0.0010003832470476153 0.011930957563318524 0 0.0010446294790798717 0.011923216779919366 0 0.00099948082592404668 0.011928135524485645 0 0.00099963781994841477 0.011932598872211929 0 0.0010246505668502618 0.011924617554893612 0 0.00099963781994841477 0.011932598872211929 0 0.0009875759615121495 0.011933400236453225 0 0.0010246505668502618 0.011924617554893612 0 0.0010003832470476153 0.011930957563318524 0 0.0010446294790798717 0.011923216779919366 0 0.00092810124179826855 0.011926389902241142 0 0.00099963781994841477 0.011932598872211929 0 0.0010003832470476153 0.011930957563318524 0 0.0009875759615121495 0.011933400236453225 0 0.0009875759615121495 0.011933400236453225 0 0.00092810124179826855 0.011926389902241142 0 0.0010246505668502618 0.011924617554893612 0 0.0010003832470476153 0.011930957563318524 0 0.0009875759615121495 0.011933400236453225 0 0.00092810124179826855 0.011926389902241142 0 0.00085833195538940045 0.011152292487671611 0 0.00083156589113439743 0.011275025407179349 0 0.00096926843760883493 0.011092072268104025 0 0.00085833195538940045 0.011152292487671611 0 0.00088285398571373878 0.011078991655947513 0 0.00096926843760883493 0.011092072268104025 0 0.00085987006400291635 0.011497946560143807 0 0.0009705952438979307 0.01150501883078398 0 0.00079010356097818047 0.011196405937768134 0 0.00078964204465049957 0.011142854468426392 0 0.0006992447577986936 0.011146996507911077 0 0.00085833195538940045 0.011152292487671611 0 0.00079010356097818047 0.011196405937768134 0 0.00078964204465049957 0.011142854468426392 0 0.00085833195538940045 0.011152292487671611 0 0.00078964204465049957 0.011142854468426392 0 0.00077705405621055076 0.01108042437834994 0 0.00078964204465049957 0.011142854468426392 0 0.00077705405621055076 0.01108042437834994 0 0.0006992447577986936 0.011146996507911077 0 0.00085833195538940045 0.011152292487671611 0 0.00077705405621055076 0.01108042437834994 0 0.00088285398571373878 0.011078991655947513 0 0.00075952454733428632 0.011314702035265228 0 0.0002912483881558321 0.01104358269571187 0 0.00050394055011138117 0.011021947876556628 0 0.0006992447577986936 0.011146996507911077 0 0.00075952454733428632 0.011314702035265228 0 0.00050394055011138117 0.011021947876556628 0 0.0006992447577986936 0.011146996507911077 0 0.00050394055011138117 0.011021947876556628 0 0.00067825709056436106 0.010993404911671171 0 0.00077705405621055076 0.01108042437834994 0 0.0006992447577986936 0.011146996507911077 0 0.00067825709056436106 0.010993404911671171 0 0.00068060371281250163 0.011245945246349675 0 0.00046735869724776193 0.010946899197989151 0 0.00079010356097818047 0.011196405937768134 0 0.0006992447577986936 0.011146996507911077 0 0.00074893568769029398 0.011257779698830822 0 0.00046735869724776193 0.010946899197989151 0 0.00011772247895504036 0.010600524659427367 0 9.3629604121843704e-05 0.010245412803977701 0 3.1872449649717914e-05 0.010279967804404991 0 -6.3620511668009453e-05 0.010229970540811617 0 9.3629604121843704e-05 0.010245412803977701 0 3.1872449649717914e-05 0.010279967804404991 0 7.5440283620474297e-05 0.010276598643507828 0 9.3629604121843704e-05 0.010245412803977701 0 7.5440283620474297e-05 0.010276598643507828 0 0.00010132832766213026 0.010284672306071347 0 0.00062587690025801281 0.011127049093432342 0 0.00063007805668049272 0.011128872014457416 0 0.00062808044443000478 0.011130637562662245 0 0.00046735869724776193 0.010946899197989151 0 0.00056670151721564376 0.010848442730531817 0 0.0010824430542073435 0.011911855335399565 0 0.0010722638798309845 0.011890600557381689 0 0.001094029002640489 0.011886230042365284 0 0.00085987006400291635 0.011497946560143807 0 0.00056670151721564376 0.010848442730531817 0 0.0011306366188850747 0.011914548801359358 0 0.00085987006400291635 0.011497946560143807 0 0.0010280999943239517 0.011904483201432951 0 0.0010824430542073435 0.011911855335399565 0 0.0010722638798309845 0.011890600557381689 0 0.00046735869724776193 0.010946899197989151 0 0.00085987006400291635 0.011497946560143807 0 0.00079010356097818047 0.011196405937768134 0 0.00074893568769029398 0.011257779698830822 0 0.00083156589113439743 0.011275025407179349 0 0.00085833195538940045 0.011152292487671611 0 0.00079010356097818047 0.011196405937768134 0 0.00083156589113439743 0.011275025407179349 0 -6.3620511668009453e-05 0.010229970540811617 0 -0.00014266619359766682 0.010266437347027068 0 -0.00014116843666510672 0.01036624620203363 0 0.00011772247895504036 0.010600524659427367 0 -9.8393997998597545e-05 0.010418109408661776 0 0.0002912483881558321 0.01104358269571187 0 -0.00014116843666510672 0.01036624620203363 0 0.00016837129780213449 0.010661830589345668 0 0.0002912483881558321 0.01104358269571187 0 0.00050394055011138117 0.011021947876556628 0 0.00016837129780213449 0.010661830589345668 0 3.1872449649717914e-05 0.010279967804404991 0 -6.3620511668009453e-05 0.010229970540811617 0 -5.4304786261101474e-05 0.010277578439480753 0 -6.3620511668009453e-05 0.010229970540811617 0 -5.4304786261101474e-05 0.010277578439480753 0 -0.00014266619359766682 0.010266437347027068 0 -5.4304786261101474e-05 0.010277578439480753 0 -0.00012380053057461357 0.010313085642252293 0 -0.00014266619359766682 0.010266437347027068 0 -5.4304786261101474e-05 0.010277578439480753 0 2.3521582492533964e-05 0.010310163769417685 0 -0.00012380053057461357 0.010313085642252293 0 3.1872449649717914e-05 0.010279967804404991 0 -5.4304786261101474e-05 0.010277578439480753 0 2.3521582492533964e-05 0.010310163769417685 0 3.1872449649717914e-05 0.010279967804404991 0 2.3521582492533964e-05 0.010310163769417685 0 5.9766964727089416e-05 0.010305086692396232 0 2.3521582492533964e-05 0.010310163769417685 0 5.9766964727089416e-05 0.010305086692396232 0 8.1821927002563173e-05 0.010315894382781202 0 2.3521582492533964e-05 0.010310163769417685 0 0.00013500267364981392 0.010326271528962745 0 -3.4588093776560547e-05 0.010399361373205381 0 2.3521582492533964e-05 0.010310163769417685 0 8.1821927002563173e-05 0.010315894382781202 0 0.00013500267364981392 0.010326271528962745 0 2.3521582492533964e-05 0.010310163769417685 0 -3.4588093776560547e-05 0.010399361373205381 0 -0.00012380053057461357 0.010313085642252293 0 0.00041551484404052261 0.010031674793118523 0 0.00043818585909204122 0.0098563145909497003 0 0.0005557243488397873 0.010140509234643106 0 0.00056670151721564376 0.010848442730531817 0 0.001388780696783579 0.010599765341134626 0 0.0010664995998401483 0.011869685924931355 0 0.001094029002640489 0.011886230042365284 0 0.001080039001894425 0.011834084912274365 0 0.0010722638798309845 0.011890600557381689 0 0.0010664995998401483 0.011869685924931355 0 0.001094029002640489 0.011886230042365284 0 0.00010132832766213026 0.010284672306071347 0 6.9563709040610836e-05 0.010293155524578688 0 7.2677232560119473e-05 0.01031374791232262 0 7.5440283620474297e-05 0.010276598643507828 0 0.00010132832766213026 0.010284672306071347 0 6.9563709040610836e-05 0.010293155524578688 0 0.00056670151721564376 0.010848442730531817 0 0.00023566619282313359 0.010120580730588205 0 3.1872449649717914e-05 0.010279967804404991 0 7.5440283620474297e-05 0.010276598643507828 0 6.9563709040610836e-05 0.010293155524578688 0 3.1872449649717914e-05 0.010279967804404991 0 6.9563709040610836e-05 0.010293155524578688 0 5.9766964727089416e-05 0.010305086692396232 0 6.9563709040610836e-05 0.010293155524578688 0 5.9766964727089416e-05 0.010305086692396232 0 7.2677232560119473e-05 0.01031374791232262 0 5.9766964727089416e-05 0.010305086692396232 0 7.2677232560119473e-05 0.01031374791232262 0 8.1821927002563173e-05 0.010315894382781202 0 0.00041551484404052261 0.010031674793118523 0 0.00043818585909204122 0.0098563145909497003 0 0.00029925679870692766 0.010064245518491536 0 0.00041551484404052261 0.010031674793118523 0 0.00029925679870692766 0.010064245518491536 0 0.0004107790508639939 0.010120822059763791 0 0.00029925679870692766 0.010064245518491536 0 0.00037701568056801857 0.010263103592388922 0 0.0004107790508639939 0.010120822059763791 0 0.00023566619282313359 0.010120580730588205 0 0.00011726938848284204 0.010336537623810418 0 7.2677232560119473e-05 0.01031374791232262 0 8.1821927002563173e-05 0.010315894382781202 0 0.00013500267364981392 0.010326271528962745 0 0.00029925679870692766 0.010064245518491536 0 0.00013500267364981392 0.010326271528962745 0 0.00037701568056801857 0.010263103592388922 0 0.00069077084731971944 0.010395083288905638 0 0.00037701568056801857 0.010263103592388922 0 0.00054872837897355215 0.010126412192282608 0 0.0045982595373273193 0.0046132216756887027 0 0.001388780696783579 0.010599765341134626 0 0.00037701568056801857 0.010263103592388922 0 0.0004107790508639939 0.010120822059763791 0 0.00054872837897355215 0.010126412192282608 0 0.00035314716396924351 0.009918140082430308 0 0.001388780696783579 0.010599765341134626 0 0.00041551484404052261 0.010031674793118523 0 0.0004107790508639939 0.010120822059763791 0 0.00054872837897355215 0.010126412192282608 0 0.00069077084731971944 0.010395083288905638 0 0.00037701568056801857 0.010263103592388922 0 0.00025944850147194303 0.010519047553585398 0 0.0045982595373273193 0.0046132216756887027 0 0.0024590538925675525 0.0039164295067315742 0 0.005683824422860354 -0.002582590818432613 0 0.005458004630236179 -0.0024008808666260107 0 0.0056522711651310455 -0.0023472688699733399 0 0.005683824422860354 -0.002582590818432613 0 0.005458004630236179 -0.0024008808666260107 0 0.0052439522720561316 -0.002537079112224074 0 0.005458004630236179 -0.0024008808666260107 0 0.0052439522720561316 -0.002537079112224074 0 0.0051713506231363133 -0.0022784934941051868 0 0.00013500267364981392 0.010326271528962745 0 0.00037701568056801857 0.010263103592388922 0 0.00025944850147194303 0.010519047553585398 0 0.00013500267364981392 0.010326271528962745 0 8.0964632913669722e-05 0.010454731177321265 0 -3.4588093776560547e-05 0.010399361373205381 0 0.00013500267364981392 0.010326271528962745 0 0.00025944850147194303 0.010519047553585398 0 8.0964632913669722e-05 0.010454731177321265 0 8.0964632913669722e-05 0.010454731177321265 0 -3.4588093776560547e-05 0.010399361373205381 0 -1.2769773719507265e-05 0.010582554281742013 0 -3.4588093776560547e-05 0.010399361373205381 0 -1.2769773719507265e-05 0.010582554281742013 0 -0.00021371532709884794 0.010471937814521491 0 0.0052439522720561316 -0.002537079112224074 0 0.0047492984359851194 -0.0024458551689262309 0 0.0051713506231363133 -0.0022784934941051868 0 0.0024590538925675525 0.0039164295067315742 0 0.0023937473609577996 0.0040951129075878787 0 0.00025944850147194303 0.010519047553585398 0 8.0964632913669722e-05 0.010454731177321265 0 -1.2769773719507265e-05 0.010582554281742013 0 0.0047492984359851194 -0.0024458551689262309 0 0.004786908518134173 -0.0021135019142587206 0 0.0051713506231363133 -0.0022784934941051868 0 0.0047492984359851194 -0.0024458551689262309 0 0.004786908518134173 -0.0021135019142587206 0 0.0045568502129821444 -0.0022172267915385262 0 0.0046515538461983346 -0.0019007664268703411 0 0.004786908518134173 -0.0021135019142587206 0 0.0044065457956388573 -0.0020080460411350449 0 0.004786908518134173 -0.0021135019142587206 0 0.0050812918830773577 -0.0020892083458384342 0 0.0051713506231363133 -0.0022784934941051868 0 0.0050302470662589383 -0.0019189000601509999 0 0.004786908518134173 -0.0021135019142587206 0 0.0050812918830773577 -0.0020892083458384342 0 0.0050302470662589383 -0.0019189000601509999 0 0.0050812918830773577 -0.0020892083458384342 0 0.0053484214725926793 -0.0020529239449342865 0 0.0050812918830773577 -0.0020892083458384342 0 0.0053484214725926793 -0.0020529239449342865 0 0.0051713506231363133 -0.0022784934941051868 0 0.0057351412936008893 -0.0020301222266533117 0 0.0053484214725926793 -0.0020529239449342865 0 0.0055137130561164708 -0.0022368203857385726 0 0.0055050841471764598 -0.0018506429482805784 0 0.0057351412936008893 -0.0020301222266533117 0 0.0053484214725926793 -0.0020529239449342865 0 0.0057351412936008893 -0.0020301222266533117 0 0.0056967386711363217 -0.0022181041133754746 0 0.0055137130561164708 -0.0022368203857385726 0 0.005458004630236179 -0.0024008808666260107 0 0.0056522711651310455 -0.0023472688699733399 0 0.0055137130561164708 -0.0022368203857385726 0 0.0056967386711363217 -0.0022181041133754746 0 0.0056522711651310455 -0.0023472688699733399 0 0.0055137130561164708 -0.0022368203857385726 0 0.005458004630236179 -0.0024008808666260107 0 0.0055137130561164708 -0.0022368203857385726 0 0.0051713506231363133 -0.0022784934941051868 0 0.0053484214725926793 -0.0020529239449342865 0 0.0055137130561164708 -0.0022368203857385726 0 0.0051713506231363133 -0.0022784934941051868 0 0.0009385085836636323 0.0049175035706505088 0 0.0021644157620319291 0.0040999069328786584 0 -0.00060131771645028059 0.010829755532076032 0 -0.00026447858632841975 0.010702989658773121 0 -0.00047204190406837607 0.010620437571871554 0 0.0038657619412638994 -0.0021478613178329427 0 0.0040180679703747989 -0.0019778117849827185 0 0.004286735165362235 -0.0023044314972059656 0 -0.00078210038465578887 0.010681271400554426 0 -0.00084041910804739353 0.010718073942325122 0 -0.00079106251184514909 0.010674111987099088 0 0.0009385085836636323 0.0049175035706505088 0 -0.00041969295600765622 0.012321297244783673 0 0.0009385085836636323 0.0049175035706505088 0 -0.0023071875821225412 0.0044211247012127678 0 0.00021384655969781808 0.00078438931943371204 0 0.00018057993883931751 0.00208134302121794 0 0.00095152189701258301 0.0018741459562806103 0 -0.00034233367772669053 -0.00051941868435808865 0 -0.0013682121665735982 0.00058932965255193163 0 -0.0013045273667108709 0.0019874044263020413 0 -0.0019498988833416722 0.0011357005075841406 0 -0.0021859748670036714 0.0017197859297145776 0 -0.00034233367772669053 -0.00051941868435808865 0 -0.0023071875821225412 0.0044211247012127678 0 0.00021384655969781808 0.00078438931943371204 0 0.00018057993883931751 0.00208134302121794 0 -0.00028296952149693569 0.0012573088965365561 0 0.0009385085836636323 0.0049175035706505088 0 0.0016509465081413579 -0.00079851579275466039 0 0.0041664971474815312 -0.0018058187228666279 0 0.0040180679703747989 -0.0019778117849827185 0 0.0044065457956388573 -0.0020080460411350449 0 0.0040180679703747989 -0.0019778117849827185 0 0.0044065457956388573 -0.0020080460411350449 0 0.004286735165362235 -0.0023044314972059656 0 0.004786908518134173 -0.0021135019142587206 0 0.0044065457956388573 -0.0020080460411350449 0 0.0045568502129821444 -0.0022172267915385262 0 0.0047492984359851194 -0.0024458551689262309 0 0.0045568502129821444 -0.0022172267915385262 0 0.004286735165362235 -0.0023044314972059656 0 0.0044065457956388573 -0.0020080460411350449 0 0.0045568502129821444 -0.0022172267915385262 0 0.004286735165362235 -0.0023044314972059656 0 -0.00026447858632841975 0.010702989658773121 0 -0.00021371532709884794 0.010471937814521491 0 -0.00047204190406837607 0.010620437571871554 0 -1.2769773719507265e-05 0.010582554281742013 0 -0.00026447858632841975 0.010702989658773121 0 -0.00021371532709884794 0.010471937814521491 0 0.0023937473609577996 0.0040951129075878787 0 0.0021644157620319291 0.0040999069328786584 0 -0.00021371532709884794 0.010471937814521491 0 -0.00040059137947131901 0.010450529246424225 0 -0.00047204190406837607 0.010620437571871554 0 -0.00040059137947131901 0.010450529246424225 0 -0.00047204190406837607 0.010620437571871554 0 -0.00066380885297528719 0.010512329311216449 0 -0.00060131771645028059 0.010829755532076032 0 -0.00047204190406837607 0.010620437571871554 0 -0.00079106251184514909 0.010674111987099088 0 -0.00047204190406837607 0.010620437571871554 0 -0.00079106251184514909 0.010674111987099088 0 -0.00066380885297528719 0.010512329311216449 0 -0.00066380885297528719 0.010512329311216449 0 -0.00092703745486627856 0.010601447565735757 0 -0.00090895904074982982 0.010423923887255765 0 -0.00079106251184514909 0.010674111987099088 0 -0.00066380885297528719 0.010512329311216449 0 -0.00092703745486627856 0.010601447565735757 0 -0.00066380885297528719 0.010512329311216449 0 -0.00056615777807116898 0.010259965183580189 0 -0.00090895904074982982 0.010423923887255765 0 -0.00040059137947131901 0.010450529246424225 0 -0.00056615777807116898 0.010259965183580189 0 -0.00026951790119033399 0.010330995132296801 0 -0.00040059137947131901 0.010450529246424225 0 -0.00066380885297528719 0.010512329311216449 0 -0.00056615777807116898 0.010259965183580189 0 -0.00021371532709884794 0.010471937814521491 0 -0.00026951790119033399 0.010330995132296801 0 -0.00012380053057461357 0.010313085642252293 0 -3.4588093776560547e-05 0.010399361373205381 0 -0.00021371532709884794 0.010471937814521491 0 -0.00012380053057461357 0.010313085642252293 0 -0.00021371532709884794 0.010471937814521491 0 -0.00040059137947131901 0.010450529246424225 0 -0.00026951790119033399 0.010330995132296801 0 -0.00056615777807116898 0.010259965183580189 0 -0.00026951790119033399 0.010330995132296801 0 -0.0002710307004608032 0.010232410374347021 0 -0.00026951790119033399 0.010330995132296801 0 -0.00012380053057461357 0.010313085642252293 0 -0.0002710307004608032 0.010232410374347021 0 -0.0002710307004608032 0.010232410374347021 0 -0.00014116843666510672 0.01036624620203363 0 -0.00041622412674005511 0.010037293113686455 0 -0.00014266619359766682 0.010266437347027068 0 -0.0002710307004608032 0.010232410374347021 0 -0.00014116843666510672 0.01036624620203363 0 -0.00012380053057461357 0.010313085642252293 0 -0.00014266619359766682 0.010266437347027068 0 -0.0002710307004608032 0.010232410374347021 0 -0.00056615777807116898 0.010259965183580189 0 -0.00041622412674005511 0.010037293113686455 0 -0.00082809835723677953 0.0099640229748738374 0 -0.00056615777807116898 0.010259965183580189 0 -0.0002710307004608032 0.010232410374347021 0 -0.00041622412674005511 0.010037293113686455 0 -0.00041622412674005511 0.010037293113686455 0 -0.00081051901427318571 0.009758107080952318 0 -0.00082809835723677953 0.0099640229748738374 0 -0.00041622412674005511 0.010037293113686455 0 -0.00034877826600557846 0.0097503475492400626 0 -0.00081051901427318571 0.009758107080952318 0 -0.00041622412674005511 0.010037293113686455 0 -0.00034877826600557846 0.0097503475492400626 0 -0.00023399773195431202 0.010127950441454876 0 -0.00034877826600557846 0.0097503475492400626 0 -0.00022151739326750308 0.010183789582337965 0 -0.00023399773195431202 0.010127950441454876 0 -0.00034877826600557846 0.0097503475492400626 0 -0.00017762973635850261 0.010023034540493872 0 -0.00013251978297921838 0.0099602138173524295 0 -0.00034877826600557846 0.0097503475492400626 0 -0.00017762973635850261 0.010023034540493872 0 -0.00022151739326750308 0.010183789582337965 0 -0.00017762973635850261 0.010023034540493872 0 -0.00022151739326750308 0.010183789582337965 0 -0.00018165055366281099 0.01027453467129349 0 -0.00017762973635850261 0.010023034540493872 0 2.7399212966133447e-05 0.010025389185872932 0 -0.00018165055366281099 0.01027453467129349 0 -0.00017762973635850261 0.010023034540493872 0 2.7399212966133447e-05 0.010025389185872932 0 -0.00013251978297921838 0.0099602138173524295 0 -0.00019824375888161236 0.010358724134386984 0 -0.00022151739326750308 0.010183789582337965 0 3.6538894103529307e-05 0.010525933185612625 0 -0.00022151739326750308 0.010183789582337965 0 -8.8263977887273698e-05 0.010373559237087925 0 3.6538894103529307e-05 0.010525933185612625 0 -0.00019824375888161236 0.010358724134386984 0 -0.00022151739326750308 0.010183789582337965 0 -0.00018165055366281099 0.01027453467129349 0 -0.00014116843666510672 0.01036624620203363 0 -0.00041622412674005511 0.010037293113686455 0 -0.00023399773195431202 0.010127950441454876 0 -0.00022151739326750308 0.010183789582337965 0 -8.8263977887273698e-05 0.010373559237087925 0 -0.00023399773195431202 0.010127950441454876 0 -0.00014116843666510672 0.01036624620203363 0 -8.8263977887273698e-05 0.010373559237087925 0 -0.00023399773195431202 0.010127950441454876 0 -0.00014116843666510672 0.01036624620203363 0 -8.8263977887273698e-05 0.010373559237087925 0 0.00016837129780213449 0.010661830589345668 0 0.00050394055011138117 0.011021947876556628 0 0.00016837129780213449 0.010661830589345668 0 0.00048941498233959202 0.010813720398605162 0 0.00048941498233959202 0.010813720398605162 0 3.6538894103529307e-05 0.010525933185612625 0 0.00053242112450650465 0.010811832109115745 0 0.00016837129780213449 0.010661830589345668 0 0.00048941498233959202 0.010813720398605162 0 3.6538894103529307e-05 0.010525933185612625 0 -8.8263977887273698e-05 0.010373559237087925 0 0.00016837129780213449 0.010661830589345668 0 3.6538894103529307e-05 0.010525933185612625 0 0.00082626523806289662 0.011021449493028192 0 0.00088680850949188097 0.010988840244954499 0 0.00094180394103257137 0.011046099259487173 0 0.00088285398571373878 0.011078991655947513 0 0.00082626523806289662 0.011021449493028192 0 0.00094180394103257137 0.011046099259487173 0 0.00077705405621055076 0.01108042437834994 0 0.00088285398571373878 0.011078991655947513 0 0.00082626523806289662 0.011021449493028192 0 0.00077705405621055076 0.01108042437834994 0 0.00082626523806289662 0.011021449493028192 0 0.00067825709056436106 0.010993404911671171 0 0.00082626523806289662 0.011021449493028192 0 0.00074445591816923713 0.010926351622068764 0 0.00088680850949188097 0.010988840244954499 0 0.00048941498233959202 0.010813720398605162 0 0.00067825709056436106 0.010993404911671171 0 0.00074445591816923713 0.010926351622068764 0 0.00082626523806289662 0.011021449493028192 0 0.00067825709056436106 0.010993404911671171 0 0.00074445591816923713 0.010926351622068764 0 0.00050394055011138117 0.011021947876556628 0 0.00048941498233959202 0.010813720398605162 0 0.00067825709056436106 0.010993404911671171 0 0.00074445591816923713 0.010926351622068764 0 0.00097421657192906202 0.010958730529590031 0 0.00053242112450650465 0.010811832109115745 0 0.00048941498233959202 0.010813720398605162 0 0.00074445591816923713 0.010926351622068764 0 0.00053242112450650465 0.010811832109115745 0 0.00074445591816923713 0.010926351622068764 0 0.00088680850949188097 0.010988840244954499 0 0.00097421657192906202 0.010958730529590031 0 0.00088680850949188097 0.010988840244954499 0 0.00097421657192906202 0.010958730529590031 0 0.00098156127109738623 0.011019437256415179 0 0.00088680850949188097 0.010988840244954499 0 0.00094180394103257137 0.011046099259487173 0 0.00098156127109738623 0.011019437256415179 0 0.00097421657192906202 0.010958730529590031 0 0.0011389900531945387 0.011031079028983089 0 0.0010595898203959444 0.01106397392120944 0 0.00097421657192906202 0.010958730529590031 0 0.0011389900531945387 0.011031079028983089 0 0.00053242112450650465 0.010811832109115745 0 0.0011389900531945387 0.011031079028983089 0 0.00024064923045630072 0.010615335057624554 0 0.00033343056890006666 0.010376256214394624 0 0.0011389900531945387 0.011031079028983089 0 0.00053242112450650465 0.010811832109115745 0 0.00024064923045630072 0.010615335057624554 0 0.001124666416275345 0.011052207095294631 0 0.0010564215931245199 0.011223522321824261 0 0.0011389900531945387 0.011031079028983089 0 0.0010595898203959444 0.01106397392120944 0 0.0012205014130313812 0.011635786602153551 0 3.6538894103529307e-05 0.010525933185612625 0 0.00053242112450650465 0.010811832109115745 0 0.00024064923045630072 0.010615335057624554 0 3.6538894103529307e-05 0.010525933185612625 0 0.00024064923045630072 0.010615335057624554 0 -0.0001406208912136579 0.010458178390294118 0 -0.00019824375888161236 0.010358724134386984 0 3.6538894103529307e-05 0.010525933185612625 0 -0.0001406208912136579 0.010458178390294118 0 0.00024064923045630072 0.010615335057624554 0 -0.0001406208912136579 0.010458178390294118 0 0.00033343056890006666 0.010376256214394624 0 -0.0001406208912136579 0.010458178390294118 0 -0.00020318869945612172 0.010498409657425187 0 0.00033343056890006666 0.010376256214394624 0 0.0016826117553463129 0.012716950621874015 0 0.0018384113042116169 0.012030731484559434 0 0.0016911136286423406 0.012572043542573758 0 0.0007336966473334691 0.011603737724853536 0 0.0010564215931245199 0.011223522321824261 0 -0.0001406208912136579 0.010458178390294118 0 -0.00020318869945612172 0.010498409657425187 0 -0.00034552737548639338 0.010682606847217314 0 0.0015192173622951561 0.012339329116062728 0 0.0012205014130313812 0.011635786602153551 0 0.0014329845343695454 0.012416287196928902 0 0.0011389900531945387 0.011031079028983089 0 0.0015192173622951561 0.012339329116062728 0 0.0012205014130313812 0.011635786602153551 0 0.0011389900531945387 0.011031079028983089 0 0.0018384113042116169 0.012030731484559434 0 0.0015192173622951561 0.012339329116062728 0 0.0016911136286423406 0.012572043542573758 0 0.0015192173622951561 0.012339329116062728 0 0.0017068729592108177 0.012733773464644658 0 0.0018384113042116169 0.012030731484559434 0 0.0016911136286423406 0.012572043542573758 0 0.0015192173622951561 0.012339329116062728 0 0.0015192173622951561 0.012339329116062728 0 0.0014329845343695454 0.012416287196928902 0 0.0016587767893957864 0.012628704205553159 0 0.0015192173622951561 0.012339329116062728 0 0.0017068729592108177 0.012733773464644658 0 0.0016587767893957864 0.012628704205553159 0 0.0016911136286423406 0.012572043542573758 0 0.0017068729592108177 0.012733773464644658 0 0.0015783910264801991 0.012838097317351043 0 0.0017068729592108177 0.012733773464644658 0 0.0017489470675625886 0.01282771024878257 0 0.0018792953114061359 0.012832218930969804 0 0.0017068729592108177 0.012733773464644658 0 0.0016587767893957864 0.012628704205553159 0 0.0018792953114061359 0.012832218930969804 0 -0.00020318869945612172 0.010498409657425187 0 -0.00052024468931609336 0.010975847573851186 0 -0.00034552737548639338 0.010682606847217314 0 0.0007336966473334691 0.011603737724853536 0 0.00031596301004806036 0.011985020160436594 0 0.0016826117553463129 0.012716950621874015 0 0.0015783910264801991 0.012838097317351043 0 0.001137682673707476 0.012997054668709733 0 0.0016826117553463129 0.012716950621874015 0 0.0016911136286423406 0.012572043542573758 0 0.0015783910264801991 0.012838097317351043 0 0.0015783910264801991 0.012838097317351043 0 0.0012817486230438833 0.012873500089878366 0 0.0017489470675625886 0.01282771024878257 0 0.0017068729592108177 0.012733773464644658 0 0.0015783910264801991 0.012838097317351043 0 0.0017489470675625886 0.01282771024878257 0 0.0015783910264801991 0.012838097317351043 0 0.0012817486230438833 0.012873500089878366 0 0.001137682673707476 0.012997054668709733 0 0.0012817486230438833 0.012873500089878366 0 0.001137682673707476 0.012997054668709733 0 0.00072254339385246071 0.012944566309004878 0 0.001137682673707476 0.012997054668709733 0 0.000582507816584572 0.01305071270684423 0 0.00072254339385246071 0.012944566309004878 0 0.00031596301004806036 0.011985020160436594 0 6.7784498687633438e-05 0.012419441961806261 0 -0.00052024468931609336 0.010975847573851186 0 -0.0002635098225865272 0.011060322968504883 0 -0.00050770012018709935 0.011785731089647481 0 -0.00052024468931609336 0.010975847573851186 0 -0.0002635098225865272 0.011060322968504883 0 -0.00034552737548639338 0.010682606847217314 0 -0.0002635098225865272 0.011060322968504883 0 -0.00013307301043316038 0.011467741237095826 0 -9.5186528756516673e-05 0.011216755074647096 0 -0.00013307301043316038 0.011467741237095826 0 -0.00050770012018709935 0.011785731089647481 0 0.00010769445694201839 0.012016011278837876 0 -0.0002635098225865272 0.011060322968504883 0 -0.00013307301043316038 0.011467741237095826 0 -0.00050770012018709935 0.011785731089647481 0 0.00010769445694201839 0.012016011278837876 0 0.00075737657943429409 0.011780365527311064 0 8.9547643508364666e-05 0.011392225853103665 0 -0.00013307301043316038 0.011467741237095826 0 0.00010769445694201839 0.012016011278837876 0 8.9547643508364666e-05 0.011392225853103665 0 0.00075737657943429409 0.011780365527311064 0 8.9547643508364666e-05 0.011392225853103665 0 0.00015905032209049578 0.011254196680643246 0 0.00010769445694201839 0.012016011278837876 0 0.00075737657943429409 0.011780365527311064 0 0.00052500189835148704 0.012522984908934788 0 7.3426683338840209e-05 0.012821554490009976 0 -7.4804534058852152e-05 0.011137418825959738 0 -0.00070076584751472171 0.013789103463240101 0 -0.00013105294288214524 0.011543017844124388 0 -4.8533371672538074e-05 0.01092497299153586 0 -0.00070076584751472171 0.013789103463240101 0 -0.00013105294288214524 0.011543017844124388 0 -1.0935339358639088e-05 0.012915766343257985 0 0.00075737657943429409 0.011780365527311064 0 0.00015905032209049578 0.011254196680643246 0 -4.8533371672538074e-05 0.01092497299153586 0 -0.00023502490946243005 0.011504778916486984 0 0.00063457152949313944 0.012514703890910759 0 -0.00013105294288214524 0.011543017844124388 0 -1.0935339358639088e-05 0.012915766343257985 0 0.0004559304851266273 0.012639568894347952 0 -0.00013307301043316038 0.011467741237095826 0 -9.5186528756516673e-05 0.011216755074647096 0 8.9547643508364666e-05 0.011392225853103665 0 -9.5186528756516673e-05 0.011216755074647096 0 8.9547643508364666e-05 0.011392225853103665 0 -6.2465004777958864e-05 0.010981543992595905 0 8.9547643508364666e-05 0.011392225853103665 0 0.00015905032209049578 0.011254196680643246 0 -6.2465004777958864e-05 0.010981543992595905 0 0.00015905032209049578 0.011254196680643246 0 -6.2465004777958864e-05 0.010981543992595905 0 -4.8533371672538074e-05 0.01092497299153586 0 -0.0002635098225865272 0.011060322968504883 0 -9.5186528756516673e-05 0.011216755074647096 0 -6.2465004777958864e-05 0.010981543992595905 0 -6.2465004777958864e-05 0.010981543992595905 0 -8.9073796445986885e-05 0.010763638407102975 0 -0.00019280389290124282 0.010667036327027542 0 -6.2465004777958864e-05 0.010981543992595905 0 -8.9073796445986885e-05 0.010763638407102975 0 -4.8533371672538074e-05 0.01092497299153586 0 -8.9073796445986885e-05 0.010763638407102975 0 4.5512611698002656e-05 0.010547328001497059 0 -0.00010549536654719275 0.010474459491209094 0 -8.9073796445986885e-05 0.010763638407102975 0 -0.00010549536654719275 0.010474459491209094 0 -0.00019280389290124282 0.010667036327027542 0 -0.00013105294288214524 0.011543017844124388 0 0.00015800357052904972 0.010908702902496591 0 0.00041349930077694529 0.011165576502858661 0 -0.00013105294288214524 0.011543017844124388 0 0.00015800357052904972 0.010908702902496591 0 -4.8533371672538074e-05 0.01092497299153586 0 0.00015800357052904972 0.010908702902496591 0 -4.8533371672538074e-05 0.01092497299153586 0 4.5512611698002656e-05 0.010547328001497059 0 -8.9073796445986885e-05 0.010763638407102975 0 -4.8533371672538074e-05 0.01092497299153586 0 4.5512611698002656e-05 0.010547328001497059 0 0.00015800357052904972 0.010908702902496591 0 4.5512611698002656e-05 0.010547328001497059 0 0.00044827851851106452 0.010754560471005457 0 4.5512611698002656e-05 0.010547328001497059 0 2.7399212966133447e-05 0.010025389185872932 0 0.00044827851851106452 0.010754560471005457 0 4.5512611698002656e-05 0.010547328001497059 0 2.7399212966133447e-05 0.010025389185872932 0 -0.00010549536654719275 0.010474459491209094 0 -0.00018165055366281099 0.01027453467129349 0 -0.00010549536654719275 0.010474459491209094 0 -0.00019280389290124282 0.010667036327027542 0 2.7399212966133447e-05 0.010025389185872932 0 -0.00018165055366281099 0.01027453467129349 0 -0.00010549536654719275 0.010474459491209094 0 -0.00018165055366281099 0.01027453467129349 0 -0.00025029635533084461 0.010465681574939821 0 -0.00019280389290124282 0.010667036327027542 0 -0.00019824375888161236 0.010358724134386984 0 -0.00018165055366281099 0.01027453467129349 0 -0.00025029635533084461 0.010465681574939821 0 -0.00019824375888161236 0.010358724134386984 0 -0.0001406208912136579 0.010458178390294118 0 -0.00025029635533084461 0.010465681574939821 0 -0.0001406208912136579 0.010458178390294118 0 -0.00025029635533084461 0.010465681574939821 0 -0.00034552737548639338 0.010682606847217314 0 -0.0002635098225865272 0.011060322968504883 0 -0.00034552737548639338 0.010682606847217314 0 -0.00019280389290124282 0.010667036327027542 0 -0.00025029635533084461 0.010465681574939821 0 -0.00034552737548639338 0.010682606847217314 0 -0.00019280389290124282 0.010667036327027542 0 -0.0002635098225865272 0.011060322968504883 0 -6.2465004777958864e-05 0.010981543992595905 0 -0.00019280389290124282 0.010667036327027542 0 0.0054170981108546514 0.014618605419885907 0 0.0046661467964054385 0.015239490499858153 0 0.0041766597930739096 0.014329442343099606 0 0.0040746317650981858 0.014305071248096849 0 0.0038213118645223552 0.013874102179695215 0 0.0046661467964054385 0.015239490499858153 0 0.0053053683846208894 0.015457000840263666 0 0.0050569369751402964 0.015895184644879441 0 0.0054170981108546514 0.014618605419885907 0 0.0046661467964054385 0.015239490499858153 0 0.0053053683846208894 0.015457000840263666 0 0.0059222417014387942 0.015356356090402959 0 0.0054170981108546514 0.014618605419885907 0 0.0053053683846208894 0.015457000840263666 0 0.0059222417014387942 0.015356356090402959 0 0.0053053683846208894 0.015457000840263666 0 0.0054803333971743754 0.015933533031063454 0 0.0053053683846208894 0.015457000840263666 0 0.0054803333971743754 0.015933533031063454 0 0.0050569369751402964 0.015895184644879441 0 0.0063596111192359538 0.012841355196559918 0 0.0079443946299946611 0.012367220604002457 0 0.0052512154185285591 0.016328746096176312 0 0.0054803333971743754 0.015933533031063454 0 0.0050569369751402964 0.015895184644879441 0 0.0094106740410898389 0.0093082175532157776 0 0.010183030939060903 0.008854738856101052 0 0.010085585190344566 0.0091193837413807502 0 0.0035912938013609686 0.013123982378478829 0 0.0035640603400891786 0.013227853997798343 0 0.0034757178353418466 0.013392036046676924 0 0.0063596111192359538 0.012841355196559918 0 0.004080505331763992 0.014989416660803832 0 0.0035640603400891786 0.013227853997798343 0 0.0034757178353418466 0.013392036046676924 0 0.0035908130090677969 0.013364431848180269 0 0.0034605305518920857 0.013533854332615655 0 0.0034757178353418466 0.013392036046676924 0 0.0034945316808901675 0.013479720197373654 0 0.0040746317650981858 0.014305071248096849 0 0.004080505331763992 0.014989416660803832 0 0.0034757178353418466 0.013392036046676924 0 0.0034945316808901675 0.013479720197373654 0 0.0035908130090677969 0.013364431848180269 0 0.0034945316808901675 0.013479720197373654 0 0.0035908130090677969 0.013364431848180269 0 0.0034430990727851584 0.013523279560593661 0 0.0036016667289016993 0.013090623504680942 0 0.0034410274963287374 0.013051564734634011 0 0.0036348400826086117 0.013081679729754355 0 0.0035640603400891786 0.013227853997798343 0 0.0035908130090677969 0.013364431848180269 0 0.0033102416353020863 0.012756463794256552 0 0.0029531248083653743 0.012837694119441967 0 0.0030324425236766196 0.012710711884141192 0 0.0033065163602233154 0.012986115117673719 0 0.0033102416353020863 0.012756463794256552 0 0.0029531248083653743 0.012837694119441967 0 0.0029531248083653743 0.012837694119441967 0 0.0030324425236766196 0.012710711884141192 0 0.0027392789958617706 0.012646412042305809 0 0.0033102416353020863 0.012756463794256552 0 0.0030324425236766196 0.012710711884141192 0 0.0029948018408432015 0.012518018910147657 0 0.0034410274963287374 0.013051564734634011 0 0.0032625834146526598 0.013033633410933507 0 0.0030324425236766196 0.012710711884141192 0 0.0029948018408432015 0.012518018910147657 0 0.0027392789958617706 0.012646412042305809 0 0.0029948018408432015 0.012518018910147657 0 0.0027053653719865747 0.012086158818696123 0 0.0027392789958617706 0.012646412042305809 0 0.0032625834146526598 0.013033633410933507 0 0.0026093361853314692 0.012773150504948321 0 0.0034430990727851584 0.013523279560593661 0 0.0033940331704440546 0.013537718209081123 0 0.0032370761251955009 0.013560482348944258 0 0.0034945316808901675 0.013479720197373654 0 0.0034430990727851584 0.013523279560593661 0 0.0033940331704440546 0.013537718209081123 0 0.0034605305518920857 0.013533854332615655 0 0.0034945316808901675 0.013479720197373654 0 0.0033940331704440546 0.013537718209081123 0 0.0034605305518920857 0.013533854332615655 0 0.0033940331704440546 0.013537718209081123 0 0.0034698103284470315 0.013462476078634369 0 0.0033940331704440546 0.013537718209081123 0 0.0032773755620304984 0.013477010925945431 0 0.0034698103284470315 0.013462476078634369 0 0.0033940331704440546 0.013537718209081123 0 0.0032370761251955009 0.013560482348944258 0 0.0032773755620304984 0.013477010925945431 0 0.0032370761251955009 0.013560482348944258 0 0.0029174516765217446 0.01335982660800889 0 0.0032773755620304984 0.013477010925945431 0 0.0026093361853314692 0.012773150504948321 0 0.0020112003381315899 0.012525299661327859 0 0.0024519453881680074 0.012628691142054322 0 0.0022616969780970028 0.012666582571472797 0 0.002110491311786289 0.012612122638461131 0 0.0026093361853314692 0.012773150504948321 0 0.0024879840724738103 0.013025626245488992 0 0.0022616969780970028 0.012666582571472797 0 0.0020035270551484381 0.012707422914504682 0 0.002110491311786289 0.012612122638461131 0 0.0022616969780970028 0.012666582571472797 0 0.0024420598168278791 0.012654695590782201 0 0.0023357206078220517 0.012693635482558634 0 0.0026093361853314692 0.012773150504948321 0 0.0026980021044435746 0.012482175985400013 0 0.0024519453881680074 0.012628691142054322 0 0.0022616969780970028 0.012666582571472797 0 0.0024420598168278791 0.012654695590782201 0 0.0024519453881680074 0.012628691142054322 0 0.0024420598168278791 0.012654695590782201 0 0.0027392789958617706 0.012646412042305809 0 0.0029531248083653743 0.012837694119441967 0 0.0027392789958617706 0.012646412042305809 0 0.0026574671802239006 0.012860864445076539 0 0.002211320236089406 0.011825728106212388 0 0.0013452860599292976 0.010971536019250185 0 0.0014684627800762963 0.011584358804505391 0 0.0016019445105007731 0.012213519549787822 0 0.002211320236089406 0.011825728106212388 0 0.0014684627800762963 0.011584358804505391 0 0.0024420598168278791 0.012654695590782201 0 0.0027392789958617706 0.012646412042305809 0 0.0023357206078220517 0.012693635482558634 0 0.0024303003900699475 0.012359312165568652 0 0.0018421594796665223 0.011860299903301622 0 0.0027392789958617706 0.012646412042305809 0 0.0026574671802239006 0.012860864445076539 0 0.0023357206078220517 0.012693635482558634 0 0.0013452860599292976 0.010971536019250185 0 0.0011609434790804288 0.011106053949359266 0 0.0014684627800762963 0.011584358804505391 0 0.0013452860599292976 0.010971536019250185 0 0.0011609434790804288 0.011106053949359266 0 0.0010793122508943459 0.011042068243404949 0 0.0011609434790804288 0.011106053949359266 0 0.0010395537366141784 0.011027734186868509 0 0.0010793122508943459 0.011042068243404949 0 0.0011609434790804288 0.011106053949359266 0 0.0014684627800762963 0.011584358804505391 0 0.0010246505668502618 0.011924617554893612 0 0.0016019445105007731 0.012213519549787822 0 0.0014684627800762963 0.011584358804505391 0 0.0010246505668502618 0.011924617554893612 0 0.0011608405004756186 0.011107345094574707 0 0.0009705952438979307 0.01150501883078398 0 0.0011609434790804288 0.011106053949359266 0 0.00096926843760883493 0.011092072268104025 0 0.0010193247328926236 0.0110598395281939 0 0.00096926843760883493 0.011092072268104025 0 0.00094180394103257137 0.011046099259487173 0 0.0010193247328926236 0.0110598395281939 0 0.0011609434790804288 0.011106053949359266 0 0.00092810124179826855 0.011926389902241142 0 0.0010246505668502618 0.011924617554893612 0 0.00088285398571373878 0.011078991655947513 0 0.00096926843760883493 0.011092072268104025 0 0.00094180394103257137 0.011046099259487173 0 0.00097421657192906202 0.010958730529590031 0 0.00098156127109738623 0.011019437256415179 0 0.0010395537366141784 0.011027734186868509 0 0.00098156127109738623 0.011019437256415179 0 0.0010193247328926236 0.0110598395281939 0 0.0010395537366141784 0.011027734186868509 0 0.00094180394103257137 0.011046099259487173 0 0.00098156127109738623 0.011019437256415179 0 0.0010193247328926236 0.0110598395281939 0 0.0011609434790804288 0.011106053949359266 0 0.0010193247328926236 0.0110598395281939 0 0.0010395537366141784 0.011027734186868509 0 0.0010595898203959444 0.01106397392120944 0 0.0010793122508943459 0.011042068243404949 0 0.0008374159885741288 0.011303180060477777 0 0.00097421657192906202 0.010958730529590031 0 0.0010395537366141784 0.011027734186868509 0 0.0010595898203959444 0.01106397392120944 0 0.0010395537366141784 0.011027734186868509 0 0.0010595898203959444 0.01106397392120944 0 0.0010793122508943459 0.011042068243404949 0 0.0013452860599292976 0.010971536019250185 0 0.0010793122508943459 0.011042068243404949 0 0.0008374159885741288 0.011303180060477777 0 0.0018421594796665223 0.011860299903301622 0 0.0014427659733318144 0.012002171862072041 0 0.0022616969780970028 0.012666582571472797 0 0.0023357206078220517 0.012693635482558634 0 0.0020035270551484381 0.012707422914504682 0 0.0010595898203959444 0.01106397392120944 0 0.0008374159885741288 0.011303180060477777 0 0.0012205014130313812 0.011635786602153551 0 0.0008374159885741288 0.011303180060477777 0 0.0012205014130313812 0.011635786602153551 0 0.0014329845343695454 0.012416287196928902 0 0.0014427659733318144 0.012002171862072041 0 0.0014275296840721369 0.012363073073308591 0 0.0020035270551484381 0.012707422914504682 0 0.0018754950293210903 0.012551049777233448 0 0.002110491311786289 0.012612122638461131 0 0.0020035270551484381 0.012707422914504682 0 0.0018754950293210903 0.012551049777233448 0 0.0014329845343695454 0.012416287196928902 0 0.0018754950293210903 0.012551049777233448 0 0.0017753215051758212 0.012544261017060717 0 0.0019789333087138839 0.012611335589803995 0 0.0018754950293210903 0.012551049777233448 0 0.0014329845343695454 0.012416287196928902 0 0.0017753215051758212 0.012544261017060717 0 0.0014329845343695454 0.012416287196928902 0 0.0016587767893957864 0.012628704205553159 0 0.0017753215051758212 0.012544261017060717 0 0.0016587767893957864 0.012628704205553159 0 0.0018303075629991132 0.012689713094332049 0 0.0018792953114061359 0.012832218930969804 0 0.0016587767893957864 0.012628704205553159 0 0.0018303075629991132 0.012689713094332049 0 0.0017753215051758212 0.012544261017060717 0 0.0018303075629991132 0.012689713094332049 0 0.0018556191209783909 0.012609222060602894 0 0.0017753215051758212 0.012544261017060717 0 0.0017753215051758212 0.012544261017060717 0 0.0019505743636499336 0.012558567635102894 0 0.0019789333087138839 0.012611335589803995 0 0.0019505743636499336 0.012558567635102894 0 0.0022330703197456351 0.012709345200205679 0 0.0019789333087138839 0.012611335589803995 0 0.0018556191209783909 0.012609222060602894 0 0.0017753215051758212 0.012544261017060717 0 0.0019505743636499336 0.012558567635102894 0 0.0019505743636499336 0.012558567635102894 0 0.0019398484387694694 0.012581384587499933 0 0.0020374379198398892 0.012477005248519864 0 0.0018556191209783909 0.012609222060602894 0 0.0019505743636499336 0.012558567635102894 0 0.0019398484387694694 0.012581384587499933 0 0.0023579784136862291 0.012354855701256931 0 0.0027419491055349059 0.013048853728653454 0 0.0020374379198398892 0.012477005248519864 0 0.0022330703197456351 0.012709345200205679 0 0.0028089724570969305 0.013055950374999644 0 0.0019505743636499336 0.012558567635102894 0 0.0020374379198398892 0.012477005248519864 0 0.0022330703197456351 0.012709345200205679 0 0.0022330703197456351 0.012709345200205679 0 0.0020997378301830694 0.012651269966964611 0 0.0020717353155427273 0.012624928941905983 0 0.0022330703197456351 0.012709345200205679 0 0.0028089724570969305 0.013055950374999644 0 0.0029174516765217446 0.01335982660800889 0 0.0022728745223563121 0.012654799706860818 0 0.0024879840724738103 0.013025626245488992 0 0.0022330703197456351 0.012709345200205679 0 0.0020997378301830694 0.012651269966964611 0 0.0019789333087138839 0.012611335589803995 0 0.0020997378301830694 0.012651269966964611 0 0.002110491311786289 0.012612122638461131 0 0.0020717353155427273 0.012624928941905983 0 0.0018754950293210903 0.012551049777233448 0 0.0019789333087138839 0.012611335589803995 0 0.002110491311786289 0.012612122638461131 0 0.0020997378301830694 0.012651269966964611 0 0.0019789333087138839 0.012611335589803995 0 0.002110491311786289 0.012612122638461131 0 0.002079512961095464 0.012569091428067647 0 0.002110491311786289 0.012612122638461131 0 0.0020717353155427273 0.012624928941905983 0 0.0029174516765217446 0.01335982660800889 0 0.0032824689887424726 0.013358369858735997 0 0.0032773755620304984 0.013477010925945431 0 0.0032824689887424726 0.013358369858735997 0 0.0032773755620304984 0.013477010925945431 0 0.0034698103284470315 0.013462476078634369 0 0.0032824689887424726 0.013358369858735997 0 0.0034698103284470315 0.013462476078634369 0 0.0035841008984291755 0.013084891338623242 0 0.0038213118645223552 0.013874102179695215 0 0.0035923413349624208 0.01310625242708815 0 0.0028089724570969305 0.013055950374999644 0 0.0029174516765217446 0.01335982660800889 0 0.0032824689887424726 0.013358369858735997 0 0.0028089724570969305 0.013055950374999644 0 0.0032824689887424726 0.013358369858735997 0 0.0035841008984291755 0.013084891338623242 0 0.0028089724570969305 0.013055950374999644 0 0.0035841008984291755 0.013084891338623242 0 0.0030810134353243916 0.012541275110187404 0 0.0025726971893413305 0.012156292604986508 0 0.0028089724570969305 0.013055950374999644 0 0.0030810134353243916 0.012541275110187404 0 0.0025726971893413305 0.012156292604986508 0 0.0029361832105265877 0.012095152204962024 0 0.0027990890089710004 0.01172101849322822 0 0.0025726971893413305 0.012156292604986508 0 0.0030810134353243916 0.012541275110187404 0 0.0029361832105265877 0.012095152204962024 0 0.0030810134353243916 0.012541275110187404 0 0.0029361832105265877 0.012095152204962024 0 0.0033809695080606779 0.012072637014483037 0 0.0029361832105265877 0.012095152204962024 0 0.0033809695080606779 0.012072637014483037 0 0.0030849730525954748 0.011641133327684093 0 0.0033809695080606779 0.012072637014483037 0 0.0045920533212513133 0.012164224301991038 0 0.0038317994763074131 0.011424325399467614 0 0.0030810134353243916 0.012541275110187404 0 0.0033809695080606779 0.012072637014483037 0 0.0038062140840442347 0.012576952980419595 0 0.0033809695080606779 0.012072637014483037 0 0.0038062140840442347 0.012576952980419595 0 0.0045920533212513133 0.012164224301991038 0 0.0035841008984291755 0.013084891338623242 0 0.0038062140840442347 0.012576952980419595 0 0.0046250590827613984 0.01302656409032805 0 0.0035841008984291755 0.013084891338623242 0 0.0030810134353243916 0.012541275110187404 0 0.0038062140840442347 0.012576952980419595 0 0.0038062140840442347 0.012576952980419595 0 0.0046250590827613984 0.01302656409032805 0 0.0045920533212513133 0.012164224301991038 0 0.0057131468166952146 0.012299555891820427 0 0.0045920533212513133 0.012164224301991038 0 0.005423360502417417 0.011685285009038197 0 0.0057131468166952146 0.012299555891820427 0 0.0045920533212513133 0.012164224301991038 0 0.0054028652544545336 0.012906531628118997 0 0.0046250590827613984 0.01302656409032805 0 0.0045920533212513133 0.012164224301991038 0 0.0054028652544545336 0.012906531628118997 0 0.0046250590827613984 0.01302656409032805 0 0.0054028652544545336 0.012906531628118997 0 0.0055797447185453371 0.013620754126590402 0 0.0046250590827613984 0.01302656409032805 0 0.0055797447185453371 0.013620754126590402 0 0.0048291466489170133 0.013858700235053945 0 0.0041766597930739096 0.014329442343099606 0 0.0035841008984291755 0.013084891338623242 0 0.0048291466489170133 0.013858700235053945 0 0.0035841008984291755 0.013084891338623242 0 0.0046250590827613984 0.01302656409032805 0 0.0048291466489170133 0.013858700235053945 0 0.0054170981108546514 0.014618605419885907 0 0.0041766597930739096 0.014329442343099606 0 0.0048291466489170133 0.013858700235053945 0 0.0054170981108546514 0.014618605419885907 0 0.0055797447185453371 0.013620754126590402 0 0.0048291466489170133 0.013858700235053945 0 0.0069820639609914298 0.015548470127955799 0 0.0067600417774402984 0.015687407868112156 0 0.0067708494997673913 0.015388154475016489 0 0.0067600417774402984 0.015687407868112156 0 0.0065216211816422317 0.015537598281663982 0 0.0067708494997673913 0.015388154475016489 0 0.0067600417774402984 0.015687407868112156 0 0.0065216211816422317 0.015537598281663982 0 0.0063760579409039017 0.015814291218300129 0 0.0063760579409039017 0.015814291218300129 0 0.0059167747443371905 0.015565713810922295 0 0.0060251058004979589 0.015237080873563904 0 0.0065216211816422317 0.015537598281663982 0 0.0063760579409039017 0.015814291218300129 0 0.0062851441991215425 0.01545827424965112 0 0.0063626332559248008 0.015778047321161167 0 0.0061659813892115268 0.01538080348216854 0 0.0013137612461773941 0.012015652230375906 0 0.0018237245350378507 0.011743294260114726 0 0.0019629263634214698 0.012585633593799862 0 0.0063760579409039017 0.015814291218300129 0 0.0066375527611890143 0.016040849738861013 0 0.0059167747443371905 0.015565713810922295 0 0.0048745007122962579 0.011965200674944724 0 0.0026734201213693787 0.011067893325691559 0 0.0048745007122962579 0.011965200674944724 0 0.0038500414913147977 0.014395668359472893 0 0.0067600417774402984 0.015687407868112156 0 0.0063760579409039017 0.015814291218300129 0 0.0066375527611890143 0.016040849738861013 0 0.007123966706329728 0.015779372397886144 0 0.0067600417774402984 0.015687407868112156 0 0.0066375527611890143 0.016040849738861013 0 0.0062127553389288914 0.0097033380430251795 0 0.005025981384233354 0.0096158588499766374 0 0.0055851339745940174 0.010039073123886907 0 0.0070611271407024509 0.012405336982066278 0 0.0048745007122962579 0.011965200674944724 0 0.0048745007122962579 0.011965200674944724 0 0.0049419166803722804 0.010279450069435273 0 0.0059608942285872598 0.010373829697209474 0 0.0055851339745940174 0.010039073123886907 0 0.00540583537970635 0.010636787080189591 0 0.0055851339745940174 0.010039073123886907 0 0.0048063493912008128 0.010529237377243917 0 0.00540583537970635 0.010636787080189591 0 0.0050106128760191238 0.0096646718625051035 0 0.0055851339745940174 0.010039073123886907 0 0.0048063493912008128 0.010529237377243917 0 0.0048063493912008128 0.010529237377243917 0 0.00540583537970635 0.010636787080189591 0 0.0048543931032151034 0.011308647042294593 0 0.0059087790922796824 0.011014631478801502 0 0.00540583537970635 0.010636787080189591 0 0.0048543931032151034 0.011308647042294593 0 0.0059087790922796824 0.011014631478801502 0 0.0048543931032151034 0.011308647042294593 0 0.005423360502417417 0.011685285009038197 0 0.0045920533212513133 0.012164224301991038 0 0.0048543931032151034 0.011308647042294593 0 0.005423360502417417 0.011685285009038197 0 0.0045920533212513133 0.012164224301991038 0 0.0048543931032151034 0.011308647042294593 0 0.0038317994763074131 0.011424325399467614 0 0.0048063493912008128 0.010529237377243917 0 0.0048543931032151034 0.011308647042294593 0 0.0038317994763074131 0.011424325399467614 0 0.0048063493912008128 0.010529237377243917 0 0.003912812055589087 0.010317182426918561 0 0.0038317994763074131 0.011424325399467614 0 0.0050106128760191238 0.0096646718625051035 0 0.0048063493912008128 0.010529237377243917 0 0.003912812055589087 0.010317182426918561 0 0.0026734201213693787 0.011067893325691559 0 0.0028223587499290144 0.011223834062180991 0 0.003912812055589087 0.010317182426918561 0 0.0038317994763074131 0.011424325399467614 0 0.0027314234287205926 0.011326303889640508 0 0.0018237245350378507 0.011743294260114726 0 0.0027314234287205926 0.011326303889640508 0 0.0022936551014780641 0.012106356635776727 0 0.0038317994763074131 0.011424325399467614 0 0.0030849730525954748 0.011641133327684093 0 0.0027314234287205926 0.011326303889640508 0 0.0033809695080606779 0.012072637014483037 0 0.0038317994763074131 0.011424325399467614 0 0.0030849730525954748 0.011641133327684093 0 0.0027990890089710004 0.01172101849322822 0 0.0027314234287205926 0.011326303889640508 0 0.0027130682628259298 0.01159042500869259 0 0.0029361832105265877 0.012095152204962024 0 0.0030849730525954748 0.011641133327684093 0 0.0027990890089710004 0.01172101849322822 0 0.0030849730525954748 0.011641133327684093 0 0.0027990890089710004 0.01172101849322822 0 0.0027314234287205926 0.011326303889640508 0 0.0027314234287205926 0.011326303889640508 0 0.0025992356475483332 0.012000503414305553 0 0.0027130682628259298 0.01159042500869259 0 0.0027314234287205926 0.011326303889640508 0 0.0025992356475483332 0.012000503414305553 0 0.0022936551014780641 0.012106356635776727 0 0.0025992356475483332 0.012000503414305553 0 0.0023928365335023883 0.012522513823729773 0 0.00267166532105381 0.012366179629364749 0 0.0025992356475483332 0.012000503414305553 0 0.0022936551014780641 0.012106356635776727 0 0.0023928365335023883 0.012522513823729773 0 0.0018237245350378507 0.011743294260114726 0 0.0022936551014780641 0.012106356635776727 0 0.0019629263634214698 0.012585633593799862 0 0.0022936551014780641 0.012106356635776727 0 0.0019629263634214698 0.012585633593799862 0 0.0023928365335023883 0.012522513823729773 0 0.0019629263634214698 0.012585633593799862 0 0.0023928365335023883 0.012522513823729773 0 0.0022808828665583183 0.013165553824148976 0 0.0023928365335023883 0.012522513823729773 0 0.0025508738723331679 0.012856856708712134 0 0.0022808828665583183 0.013165553824148976 0 0.0027696416495067632 0.01271500255504299 0 0.0030129008304206682 0.012176148515768755 0 0.00267166532105381 0.012366179629364749 0 0.0025508738723331679 0.012856856708712134 0 0.0027696416495067632 0.01271500255504299 0 0.00267166532105381 0.012366179629364749 0 0.0023928365335023883 0.012522513823729773 0 0.0025508738723331679 0.012856856708712134 0 0.00267166532105381 0.012366179629364749 0 0.0025508738723331679 0.012856856708712134 0 0.0027696416495067632 0.01271500255504299 0 0.002705115817470976 0.013013486264875317 0 0.0025878883525848272 0.012426410423919319 0 0.0028326262386081926 0.013071261473375945 0 0.0027696416495067632 0.01271500255504299 0 0.0030129008304206682 0.012176148515768755 0 0.0028706880619091876 0.013164152078830923 0 0.0027696416495067632 0.01271500255504299 0 0.0028706880619091876 0.013164152078830923 0 0.002705115817470976 0.013013486264875317 0 0.0020092340280174065 0.013024454138435093 0 0.0024169615997881688 0.013620544928365718 0 0.0021747767478455925 0.012683566020768486 0 0.0028706880619091876 0.013164152078830923 0 0.0029376731055368267 0.013110065019622499 0 0.0021747767478455925 0.012683566020768486 0 0.0022780643242587004 0.012657170927438312 0 0.0029376731055368267 0.013110065019622499 0 0.0021747767478455925 0.012683566020768486 0 0.0022780643242587004 0.012657170927438312 0 0.0020636620023614023 0.01264664658132408 0 0.0030129008304206682 0.012176148515768755 0 0.0027548621671864724 0.011894107089253043 0 0.00267166532105381 0.012366179629364749 0 0.0025992356475483332 0.012000503414305553 0 0.0027548621671864724 0.011894107089253043 0 0.00267166532105381 0.012366179629364749 0 0.0030129008304206682 0.012176148515768755 0 0.0027548621671864724 0.011894107089253043 0 0.0027143464245007582 0.011579560681714311 0 0.0025992356475483332 0.012000503414305553 0 0.0027548621671864724 0.011894107089253043 0 0.0027130682628259298 0.01159042500869259 0 0.0027548621671864724 0.011894107089253043 0 0.0027130682628259298 0.01159042500869259 0 0.0027143464245007582 0.011579560681714311 0 0.0025726971893413305 0.012156292604986508 0 0.0027990890089710004 0.01172101849322822 0 0.0027143464245007582 0.011579560681714311 0 0.0019398484387694694 0.012581384587499933 0 0.0020374379198398892 0.012477005248519864 0 0.0019742059733498115 0.012623711719422191 0 0.0027990890089710004 0.01172101849322822 0 0.0027130682628259298 0.01159042500869259 0 0.0027143464245007582 0.011579560681714311 0 0.0023579784136862291 0.012354855701256931 0 0.002349858363809481 0.012116869896314384 0 0.0019398484387694694 0.012581384587499933 0 0.0019742059733498115 0.012623711719422191 0 0.001874966440884356 0.012678847260340997 0 0.0018556191209783909 0.012609222060602894 0 0.0019398484387694694 0.012581384587499933 0 0.001874966440884356 0.012678847260340997 0 0.0020092340280174065 0.013024454138435093 0 0.0018836501142408353 0.012720466653425605 0 0.0022780643242587004 0.012657170927438312 0 0.001874966440884356 0.012678847260340997 0 0.0020636620023614023 0.01264664658132408 0 0.0019742059733498115 0.012623711719422191 0 0.001874966440884356 0.012678847260340997 0 0.0020636620023614023 0.01264664658132408 0 0.0021747767478455925 0.012683566020768486 0 0.0019742059733498115 0.012623711719422191 0 0.0020636620023614023 0.01264664658132408 0 0.0025878883525848272 0.012426410423919319 0 0.002349858363809481 0.012116869896314384 0 0.0016683098058334974 0.013326356250349428 0 0.001874966440884356 0.012678847260340997 0 0.0018946865279463071 0.013021513629703996 0 0.001874966440884356 0.012678847260340997 0 0.0018946865279463071 0.013021513629703996 0 0.0019386702550747449 0.012876902508953932 0 0.0018303075629991132 0.012689713094332049 0 0.0018556191209783909 0.012609222060602894 0 0.001874966440884356 0.012678847260340997 0 0.0018303075629991132 0.012689713094332049 0 0.001874966440884356 0.012678847260340997 0 0.0019386702550747449 0.012876902508953932 0 0.0018303075629991132 0.012689713094332049 0 0.0019386702550747449 0.012876902508953932 0 0.0018792953114061359 0.012832218930969804 0 0.0018946865279463071 0.013021513629703996 0 0.0019386702550747449 0.012876902508953932 0 0.0020513181133359278 0.013188136205980069 0 0.0019386702550747449 0.012876902508953932 0 0.0020513181133359278 0.013188136205980069 0 0.0020411524546729612 0.013014079968518517 0 0.0020513181133359278 0.013188136205980069 0 0.0022099278394497016 0.013616306825606933 0 0.0023221770808984515 0.013402968119699911 0 0.0020529246449895473 0.013450150526137319 0 0.0020513181133359278 0.013188136205980069 0 0.0022099278394497016 0.013616306825606933 0 0.0020513181133359278 0.013188136205980069 0 0.0020411524546729612 0.013014079968518517 0 0.0023221770808984515 0.013402968119699911 0 0.0020529246449895473 0.013450150526137319 0 0.0020513181133359278 0.013188136205980069 0 0.001926581845638463 0.013268430123979075 0 0.0018946865279463071 0.013021513629703996 0 0.0020513181133359278 0.013188136205980069 0 0.001926581845638463 0.013268430123979075 0 0.0016683098058334974 0.013326356250349428 0 0.001962359971510987 0.013507404864943291 0 0.0019886298572779361 0.013815166112177056 0 0.0016683098058334974 0.013326356250349428 0 0.0018946865279463071 0.013021513629703996 0 0.001926581845638463 0.013268430123979075 0 0.0016683098058334974 0.013326356250349428 0 0.001926581845638463 0.013268430123979075 0 0.001962359971510987 0.013507404864943291 0 0.0020529246449895473 0.013450150526137319 0 0.001962359971510987 0.013507404864943291 0 0.0021172383477191309 0.013726184344314867 0 0.0020529246449895473 0.013450150526137319 0 0.001926581845638463 0.013268430123979075 0 0.001962359971510987 0.013507404864943291 0 0.001962359971510987 0.013507404864943291 0 0.0019886298572779361 0.013815166112177056 0 0.0021172383477191309 0.013726184344314867 0 0.0016683098058334974 0.013326356250349428 0 0.0019886298572779361 0.013815166112177056 0 0.0019668579129583901 0.01414515131918812 0 0.0019886298572779361 0.013815166112177056 0 0.0021024323674575991 0.014066509365945019 0 0.0019668579129583901 0.01414515131918812 0 0.0019886298572779361 0.013815166112177056 0 0.002139734475548119 0.013949057417136763 0 0.0021172383477191309 0.013726184344314867 0 0.0019886298572779361 0.013815166112177056 0 0.002139734475548119 0.013949057417136763 0 0.0021024323674575991 0.014066509365945019 0 0.0022099278394497016 0.013616306825606933 0 0.0021172383477191309 0.013726184344314867 0 0.0023697150671985359 0.014142413164084334 0 0.002139734475548119 0.013949057417136763 0 0.0021172383477191309 0.013726184344314867 0 0.0023697150671985359 0.014142413164084334 0 0.0022099278394497016 0.013616306825606933 0 0.0023697150671985359 0.014142413164084334 0 0.0025729233301414493 0.014099524113241549 0 0.0020529246449895473 0.013450150526137319 0 0.0022099278394497016 0.013616306825606933 0 0.0021172383477191309 0.013726184344314867 0 0.0023760607649782424 0.014299546099707424 0 0.0023697150671985359 0.014142413164084334 0 0.0026116986812700035 0.014534736292520547 0 0.0023697150671985359 0.014142413164084334 0 0.0026116986812700035 0.014534736292520547 0 0.0027370213846161177 0.01459239950297187 0 0.002139734475548119 0.013949057417136763 0 0.0023697150671985359 0.014142413164084334 0 0.0022302122641633094 0.014130832202987146 0 0.0023760607649782424 0.014299546099707424 0 0.0023697150671985359 0.014142413164084334 0 0.0022302122641633094 0.014130832202987146 0 0.0021984799038350395 0.014244452762007438 0 0.0025551476395846806 0.014281296508419809 0 0.0019668579129583901 0.01414515131918812 0 0.0022302122641633094 0.014130832202987146 0 0.0021024323674575991 0.014066509365945019 0 0.0021984799038350395 0.014244452762007438 0 0.002139734475548119 0.013949057417136763 0 0.0022302122641633094 0.014130832202987146 0 0.0021024323674575991 0.014066509365945019 0 0.0021024323674575991 0.014066509365945019 0 0.0021984799038350395 0.014244452762007438 0 0.0019668579129583901 0.01414515131918812 0 0.0023760607649782424 0.014299546099707424 0 0.0021984799038350395 0.014244452762007438 0 0.0024229585613176514 0.014388766953512325 0 0.0023760607649782424 0.014299546099707424 0 0.0022302122641633094 0.014130832202987146 0 0.0021984799038350395 0.014244452762007438 0 0.0021984799038350395 0.014244452762007438 0 0.0024229585613176514 0.014388766953512325 0 0.0024260804509313835 0.014358572724711959 0 0.0021984799038350395 0.014244452762007438 0 0.0024260804509313835 0.014358572724711959 0 0.0025551476395846806 0.014281296508419809 0 0.0024260804509313835 0.014358572724711959 0 0.0025531671438589129 0.01451868519608108 0 0.0025551476395846806 0.014281296508419809 0 0.0024229585613176514 0.014388766953512325 0 0.0024260804509313835 0.014358572724711959 0 0.0025531671438589129 0.01451868519608108 0 0.0025531671438589129 0.01451868519608108 0 0.0026116986812700035 0.014534736292520547 0 0.0029845371321291455 0.014825995650330078 0 0.0023760607649782424 0.014299546099707424 0 0.0024229585613176514 0.014388766953512325 0 0.0026116986812700035 0.014534736292520547 0 0.0024229585613176514 0.014388766953512325 0 0.0025531671438589129 0.01451868519608108 0 0.0026116986812700035 0.014534736292520547 0 0.0025531671438589129 0.01451868519608108 0 0.0029845371321291455 0.014825995650330078 0 0.0026210371070338671 0.014831038913799196 0 0.0042771550620691497 0.014535855711428151 0 0.0036107953832940406 0.014346751136117011 0 0.0041075499694329387 0.013876829548677841 0 0.0040340227744326967 0.0141479644515699 0 0.0034993898439101122 0.013751748209306218 0 0.0029845371321291455 0.014825995650330078 0 0.0026210371070338671 0.014831038913799196 0 0.0036619273368675002 0.015000104669464208 0 0.0043523886588392865 0.014999996424097811 0 0.0044461934542656765 0.015180855047736369 0 0.0036644271184639891 0.014999995951437167 0 0.0033434509963717425 0.014460745149956508 0 0.0036107953832940406 0.014346751136117011 0 0.0041075499694329387 0.013876829548677841 0 0.0040340227744326967 0.0141479644515699 0 0.0047250032340743243 0.01400391696365774 0 0.0043523886588392865 0.014999996424097811 0 0.0044461934542656765 0.015180855047736369 0 0.0050019798075415529 0.014999994607659812 0 0.0025531671438589129 0.01451868519608108 0 0.0026210371070338671 0.014831038913799196 0 0.0025551476395846806 0.014281296508419809 0 0.0040340227744326967 0.0141479644515699 0 0.0047250032340743243 0.01400391696365774 0 0.004602660377373672 0.014578863302957856 0 0.0033434509963717425 0.014460745149956508 0 0.0035661677249365807 0.014359131873773256 0 0.0026210371070338671 0.014831038913799196 0 0.0024781205517402797 0.014088174287354061 0 0.0025551476395846806 0.014281296508419809 0 0.0044461934542656765 0.015180855047736369 0 0.0050019798075415529 0.014999994607659812 0 0.0051905214716712108 0.015359008117079652 0 0.0042771550620691497 0.014535855711428151 0 0.0049342867014457248 0.014666710802119334 0 0.0050019798075415529 0.014999994607659812 0 0.0051905214716712108 0.015359008117079652 0 0.0056515172379896367 0.014999990289516528 0 0.0051905214716712108 0.015359008117079652 0 0.0059216008619030628 0.015529416783641578 0 0.0056515172379896367 0.014999990289516528 0 0.0049342867014457248 0.014666710802119334 0 0.0057637718257361505 0.01493642660129456 0 0.0047250032340743243 0.01400391696365774 0 0.004602660377373672 0.014578863302957856 0 0.0051158915646097427 0.01448347104587009 0 0.0047250032340743243 0.01400391696365774 0 0.0051158915646097427 0.01448347104587009 0 0.0053849742323323442 0.014142338257782695 0 0.0024781205517402797 0.014088174287354061 0 0.0025271743772777586 0.013326208391732439 0 0.0022808828665583183 0.013165553824148976 0 0.004602660377373672 0.014578863302957856 0 0.0052089539660098326 0.015050101190693416 0 0.0051158915646097427 0.01448347104587009 0 0.0035661677249365807 0.014359131873773256 0 0.0037596042550996963 0.014080318882967758 0 0.0025449778592044649 0.014188422498331937 0 0.0024169615997881688 0.013620544928365718 0 0.0024781205517402797 0.014088174287354061 0 0.0026450269389270333 0.013444245013885369 0 0.0025271743772777586 0.013326208391732439 0 0.0024781205517402797 0.014088174287354061 0 0.0026450269389270333 0.013444245013885369 0 0.002691543987317681 0.01361767918214025 0 0.0024781205517402797 0.014088174287354061 0 0.0025551476395846806 0.014281296508419809 0 0.002691543987317681 0.01361767918214025 0 0.0025551476395846806 0.014281296508419809 0 0.002691543987317681 0.01361767918214025 0 0.0029376731055368267 0.013110065019622499 0 0.0026450269389270333 0.013444245013885369 0 0.002691543987317681 0.01361767918214025 0 0.0028706880619091876 0.013164152078830923 0 0.002691543987317681 0.01361767918214025 0 0.0028706880619091876 0.013164152078830923 0 0.0029376731055368267 0.013110065019622499 0 0.0026450269389270333 0.013444245013885369 0 0.002705115817470976 0.013013486264875317 0 0.0025271743772777586 0.013326208391732439 0 0.0026450269389270333 0.013444245013885369 0 0.0028706880619091876 0.013164152078830923 0 0.002705115817470976 0.013013486264875317 0 0.0025508738723331679 0.012856856708712134 0 0.002705115817470976 0.013013486264875317 0 0.0025271743772777586 0.013326208391732439 0 0.0025508738723331679 0.012856856708712134 0 0.0025271743772777586 0.013326208391732439 0 0.0022808828665583183 0.013165553824148976 0 0.0038500414913147977 0.014395668359472893 0 0.0037596042550996963 0.014080318882967758 0 0.0052089539660098326 0.015050101190693416 0 0.0056876125873162693 0.015108063229478901 0 0.0056862674123044988 0.014666937444117348 0 0.0061659813892115268 0.01538080348216854 0 0.0058535830912173218 0.01478086196143995 0 0.0056876125873162693 0.015108063229478901 0 0.0060251058004979589 0.015237080873563904 0 0.0056862674123044988 0.014666937444117348 0 0.0059167747443371905 0.015565713810922295 0 0.0052089539660098326 0.015050101190693416 0 0.0056876125873162693 0.015108063229478901 0 0.0059167747443371905 0.015565713810922295 0 0.0056876125873162693 0.015108063229478901 0 0.0060251058004979589 0.015237080873563904 0 0.0062851441991215425 0.01545827424965112 0 0.006096492174610153 0.01509156221650125 0 0.0064350105227351942 0.015145051594253016 0 0.006096492174610153 0.01509156221650125 0 0.0063185518127523736 0.014815135263221273 0 0.0064350105227351942 0.015145051594253016 0 0.0052089539660098326 0.015050101190693416 0 0.0056862674123044988 0.014666937444117348 0 0.0051158915646097427 0.01448347104587009 0 0.0058535830912173218 0.01478086196143995 0 0.0057637718257361505 0.01493642660129456 0 0.0056862674123044988 0.014666937444117348 0 0.0051158915646097427 0.01448347104587009 0 0.0053849742323323442 0.014142338257782695 0 0.0059973658949532471 0.015418569761484134 0 0.0056516227175985156 0.015000004389346649 0 0.0061102497323069329 0.014999924036946624 0 0.0057637718257361505 0.01493642660129456 0 0.0056518996905853876 0.015000656967424255 0 0.0059973658949532471 0.015418569761484134 0 0.0061102497323069329 0.014999924036946624 0 0.0063977122591603684 0.015211057817237838 0 0.0061102497323069329 0.014999924036946624 0 0.0063977122591603684 0.015211057817237838 0 0.0065685114339213641 0.014999914877401864 0 0.006096492174610153 0.01509156221650125 0 0.0059007432749268165 0.014714944804024983 0 0.0063185518127523736 0.014815135263221273 0 0.0057637718257361505 0.01493642660129456 0 0.0064706010405145157 0.015120047867773585 0 0.0059973658949532471 0.015418569761484134 0 0.0063977122591603684 0.015211057817237838 0 0.0065670843769379574 0.015404864949897181 0 0.0065670843769379574 0.015404864949897181 0 0.0067862569765091783 0.015241472329538912 0 0.0069396873936556167 0.015278874606346193 0 0.0064706010405145157 0.015120047867773585 0 0.0068281325180667082 0.015100753052728821 0 0.0065670843769379574 0.015404864949897181 0 0.0067862569765091783 0.015241472329538912 0 0.0066709442366208382 0.015192373581874806 0 0.0063977122591603684 0.015211057817237838 0 0.0065670843769379574 0.015404864949897181 0 0.0066709442366208382 0.015192373581874806 0 0.0066709442366208382 0.015192373581874806 0 0.0065685114339213641 0.014999914877401864 0 0.0069351678848843532 0.015104910370200087 0 0.006568862534912262 0.015000028746470967 0 0.0071288822503740579 0.015166365203177771 0 0.0063977122591603684 0.015211057817237838 0 0.0066709442366208382 0.015192373581874806 0 0.0065685114339213641 0.014999914877401864 0 0.0067862569765091783 0.015241472329538912 0 0.0066709442366208382 0.015192373581874806 0 0.0069351678848843532 0.015104910370200087 0 0.0065688562151869972 0.014999997058854251 0 0.0074062103507584231 0.014999962094909201 0 0.0073327061913775532 0.015253049637139341 0 0.0076195554200105594 0.015048254106413451 0 0.0074062103507584231 0.014999962094909201 0 0.0073327061913775532 0.015253049637139341 0 0.0067862569765091783 0.015241472329538912 0 0.0069351678848843532 0.015104910370200087 0 0.0069396873936556167 0.015278874606346193 0 0.0070780289874563026 0.015159303416896665 0 0.0069351678848843532 0.015104910370200087 0 0.0069396873936556167 0.015278874606346193 0 0.0069146691165819655 0.015165272720457004 0 0.0070399139461185326 0.015141294418949533 0 0.0067569498901794743 0.014921245677252559 0 0.0067569498901794743 0.014921245677252559 0 0.0067130767566033495 0.015199418717898937 0 0.0064350105227351942 0.015145051594253016 0 0.0069146691165819655 0.015165272720457004 0 0.0067569498901794743 0.014921245677252559 0 0.0067130767566033495 0.015199418717898937 0 0.0069146691165819655 0.015165272720457004 0 0.0067130767566033495 0.015199418717898937 0 0.0068921624780724916 0.015277658381820203 0 0.0063185518127523736 0.014815135263221273 0 0.0067569498901794743 0.014921245677252559 0 0.0064350105227351942 0.015145051594253016 0 0.0067130767566033495 0.015199418717898937 0 0.0064350105227351942 0.015145051594253016 0 0.0065406028089257688 0.015347183168067643 0 0.0062851441991215425 0.01545827424965112 0 0.0064350105227351942 0.015145051594253016 0 0.0065406028089257688 0.015347183168067643 0 0.0065216211816422317 0.015537598281663982 0 0.0062851441991215425 0.01545827424965112 0 0.0065406028089257688 0.015347183168067643 0 0.0065216211816422317 0.015537598281663982 0 0.0065406028089257688 0.015347183168067643 0 0.0067708494997673913 0.015388154475016489 0 0.0067130767566033495 0.015199418717898937 0 0.0067708494997673913 0.015388154475016489 0 0.0068921624780724916 0.015277658381820203 0 0.0067130767566033495 0.015199418717898937 0 0.0065406028089257688 0.015347183168067643 0 0.0067708494997673913 0.015388154475016489 0 0.00038422990528599822 0.013211394563493293 0 0.00025347253450053094 0.013551002102212656 0 0.00027123929539978216 0.013298438559572945 0 0.00038422990528599822 0.013211394563493293 0 0.00025347253450053094 0.013551002102212656 0 0.00028346754775655737 0.013429888893480138 0 0.00025347253450053094 0.013551002102212656 0 0.00028346754775655737 0.013429888893480138 0 0.00020916420309691368 0.013696462803061971 0 0.00025347253450053094 0.013551002102212656 0 0.00024985259216246707 0.013769160093911019 0 0.00027123929539978216 0.013298438559572945 0 0.00041796424121310754 0.013586674364072843 0 0.0002242195795456426 0.014169248863940836 0 0.00069230916283091813 0.013688927216435651 0 0.00024985259216246707 0.013769160093911019 0 0.00041796424121310754 0.013586674364072843 0 0.0002242195795456426 0.014169248863940836 0 0.00041796424121310754 0.013586674364072843 0 0.00061710419782740099 0.013296051943603377 0 0.00069230916283091813 0.013688927216435651 0 0.00041796424121310754 0.013586674364072843 0 0.00061710419782740099 0.013296051943603377 0 0.00042395935721663026 0.013208062553717606 0 0.00041796424121310754 0.013586674364072843 0 0.00027123929539978216 0.013298438559572945 0 0.00042395935721663026 0.013208062553717606 0 0.00024985259216246707 0.013769160093911019 0 0.00041796424121310754 0.013586674364072843 0 0.00027123929539978216 0.013298438559572945 0 0.00018032899878923177 0.012915492538614825 0 0.00042395935721663026 0.013208062553717606 0 0.00058650779072346435 0.012934444637171914 0 0.00027123929539978216 0.013298438559572945 0 0.00018032899878923177 0.012915492538614825 0 0.00042395935721663026 0.013208062553717606 0 0.00061710419782740099 0.013296051943603377 0 0.00042395935721663026 0.013208062553717606 0 0.00058650779072346435 0.012934444637171914 0 0.00061710419782740099 0.013296051943603377 0 0.00058650779072346435 0.012934444637171914 0 0.00092850934811563777 0.012947640005333952 0 7.3426683338840209e-05 0.012821554490009976 0 0.00042299690494279049 0.014825355047250381 0 0.00075737657943429409 0.011780365527311064 0 0.00052500189835148704 0.012522984908934788 0 0.00092850934811563777 0.012947640005333952 0 0.00058650779072346435 0.012934444637171914 0 0.00052500189835148704 0.012522984908934788 0 0.00092850934811563777 0.012947640005333952 0 0.00010769445694201839 0.012016011278837876 0 0.00018032899878923177 0.012915492538614825 0 0.00052500189835148704 0.012522984908934788 0 0.00018032899878923177 0.012915492538614825 0 0.00058650779072346435 0.012934444637171914 0 0.00052500189835148704 0.012522984908934788 0 -0.00050770012018709935 0.011785731089647481 0 0.00010769445694201839 0.012016011278837876 0 0.00018032899878923177 0.012915492538614825 0 6.7784498687633438e-05 0.012419441961806261 0 0.00019043174711178722 0.012862614151767862 0 0.000582507816584572 0.01305071270684423 0 0.00018032899878923177 0.012915492538614825 0 0.00043991141389835181 0.01299869896011055 0 0.00027123929539978216 0.013298438559572945 0 0.00018032899878923177 0.012915492538614825 0 0.00043991141389835181 0.01299869896011055 0 0.00038422990528599822 0.013211394563493293 0 0.00027123929539978216 0.013298438559572945 0 0.00043991141389835181 0.01299869896011055 0 0.00038422990528599822 0.013211394563493293 0 0.00043991141389835181 0.01299869896011055 0 0.00072254339385246071 0.012944566309004878 0 0.00038422990528599822 0.013211394563493293 0 0.00072254339385246071 0.012944566309004878 0 0.00043409160147913262 0.013185486246775914 0 0.000582507816584572 0.01305071270684423 0 0.00043991141389835181 0.01299869896011055 0 0.00072254339385246071 0.012944566309004878 0 0.0012817486230438833 0.012873500089878366 0 0.00072254339385246071 0.012944566309004878 0 0.00055638772458836065 0.013015141732134982 0 0.001246447106435731 0.01293569472075178 0 0.0011735924680844737 0.013031493788002264 0 0.0012817486230438833 0.012873500089878366 0 0.0017489470675625886 0.01282771024878257 0 0.0017894650434674862 0.012879886051415166 0 0.0017489470675625886 0.01282771024878257 0 0.0017894650434674862 0.012879886051415166 0 0.0019852168719458928 0.013013817172918444 0 0.0017894650434674862 0.012879886051415166 0 0.0019852168719458928 0.013013817172918444 0 0.0019706608873328933 0.013068585062764787 0 0.0011735924680844737 0.013031493788002264 0 0.0010420586533954083 0.013057977142280415 0 0.00055638772458836065 0.013015141732134982 0 0.00043409160147913262 0.013185486246775914 0 0.00022399912102031628 0.013317210507706493 0 0.00072254339385246071 0.012944566309004878 0 0.00055638772458836065 0.013015141732134982 0 0.00043409160147913262 0.013185486246775914 0 0.0017489470675625886 0.01282771024878257 0 0.0018792953114061359 0.012832218930969804 0 0.0019852168719458928 0.013013817172918444 0 0.0019386702550747449 0.012876902508953932 0 0.0018792953114061359 0.012832218930969804 0 0.0020411524546729612 0.013014079968518517 0 0.0018792953114061359 0.012832218930969804 0 0.0019852168719458928 0.013013817172918444 0 0.0020411524546729612 0.013014079968518517 0 0.0019852168719458928 0.013013817172918444 0 0.0020411524546729612 0.013014079968518517 0 0.0023221770808984515 0.013402968119699911 0 0.0019852168719458928 0.013013817172918444 0 0.0023221770808984515 0.013402968119699911 0 0.0020207607451962054 0.013117120525051729 0 0.0023221770808984515 0.013402968119699911 0 0.0020207607451962054 0.013117120525051729 0 0.0020770983262807792 0.013084587977313208 0 0.0019852168719458928 0.013013817172918444 0 0.0020207607451962054 0.013117120525051729 0 0.0019706608873328933 0.013068585062764787 0 0.0020207607451962054 0.013117120525051729 0 0.0020770983262807792 0.013084587977313208 0 0.001995339610189553 0.013056449231722559 0 0.0025510537391102103 0.013568387304550551 0 0.0019923201044207677 0.01408804958365437 0 0.00291838917168634 0.014012735892311412 0 0.0033253254745523974 0.014411033553293363 0 0.0028977579039006704 0.014641276120843805 0 0.00291838917168634 0.014012735892311412 0 0.0025729233301414493 0.014099524113241549 0 0.0028977579039006704 0.014641276120843805 0 0.0022736312776686124 0.013402831801137561 0 0.0025510537391102103 0.013568387304550551 0 0.0023221770808984515 0.013402968119699911 0 0.00291838917168634 0.014012735892311412 0 0.0025729233301414493 0.014099524113241549 0 0.0022099278394497016 0.013616306825606933 0 0.0023221770808984515 0.013402968119699911 0 0.0025729233301414493 0.014099524113241549 0 0.00038422990528599822 0.013211394563493293 0 0.00043409160147913262 0.013185486246775914 0 0.00028346754775655737 0.013429888893480138 0 0.00043409160147913262 0.013185486246775914 0 0.00022399912102031628 0.013317210507706493 0 0.00028346754775655737 0.013429888893480138 0 0.0020207607451962054 0.013117120525051729 0 0.0019706608873328933 0.013068585062764787 0 0.001995339610189553 0.013056449231722559 0 0.0010420586533954083 0.013057977142280415 0 0.0019923201044207677 0.01408804958365437 0 0.00022399912102031628 0.013317210507706493 0 0.00014440258861602432 0.013530816945603185 0 0.00028346754775655737 0.013429888893480138 0 0.00014440258861602432 0.013530816945603185 0 0.00028346754775655737 0.013429888893480138 0 0.00020916420309691368 0.013696462803061971 0 0.0019923201044207677 0.01408804958365437 0 0.00097266722073160853 0.014826673814787314 0 0.002838988601796624 0.015870631379939423 0 0.0029400953539143264 0.015209335414685936 0 0.0019319730442801063 0.015779842885373475 0 0.0019923201044207677 0.01408804958365437 0 0.0029381466359255461 0.015463962926144013 0 0.0033253254745523974 0.014411033553293363 0 0.0029400953539143264 0.015209335414685936 0 0.0028977579039006704 0.014641276120843805 0 0.0029400953539143264 0.015209335414685936 0 0.0022511311348354344 0.01525655113800692 0 0.0027902589154495342 0.015140286499782857 0 0.0029400953539143264 0.015209335414685936 0 0.0022511311348354344 0.01525655113800692 0 0.0019319730442801063 0.015779842885373475 0 0.0023697150671985359 0.014142413164084334 0 0.0025729233301414493 0.014099524113241549 0 0.0027370213846161177 0.01459239950297187 0 0.0025729233301414493 0.014099524113241549 0 0.0027370213846161177 0.01459239950297187 0 0.0028977579039006704 0.014641276120843805 0 0.0027370213846161177 0.01459239950297187 0 0.0028977579039006704 0.014641276120843805 0 0.0029165341105409125 0.015028229622953257 0 0.0029400953539143264 0.015209335414685936 0 0.0028977579039006704 0.014641276120843805 0 0.0029165341105409125 0.015028229622953257 0 0.0029400953539143264 0.015209335414685936 0 0.0029165341105409125 0.015028229622953257 0 0.0027902589154495342 0.015140286499782857 0 0.0029165341105409125 0.015028229622953257 0 0.0028696142029334243 0.014841181959424455 0 0.0030411271479512062 0.015054270755197585 0 0.0026116986812700035 0.014534736292520547 0 0.0029845371321291455 0.014825995650330078 0 0.0028696142029334243 0.014841181959424455 0 0.0026116986812700035 0.014534736292520547 0 0.0027370213846161177 0.01459239950297187 0 0.0028696142029334243 0.014841181959424455 0 0.0027370213846161177 0.01459239950297187 0 0.0029165341105409125 0.015028229622953257 0 0.0028696142029334243 0.014841181959424455 0 0.0029845371321291455 0.014825995650330078 0 0.0028696142029334243 0.014841181959424455 0 0.0030411271479512062 0.015054270755197585 0 0.0030411271479512062 0.015054270755197585 0 0.0027902589154495342 0.015140286499782857 0 0.0027684547463225446 0.014999589967914643 0 0.0029165341105409125 0.015028229622953257 0 0.0030411271479512062 0.015054270755197585 0 0.0027902589154495342 0.015140286499782857 0 0.0030411271479512062 0.015054270755197585 0 0.0036619273368675002 0.015000104669464208 0 0.0027684547463225446 0.014999589967914643 0 0.0029845371321291455 0.014825995650330078 0 0.0030411271479512062 0.015054270755197585 0 0.0036619273368675002 0.015000104669464208 0 0.0022511311348354344 0.01525655113800692 0 0.0027902589154495342 0.015140286499782857 0 0.0027684547463225446 0.014999589967914643 0 0.0022511311348354344 0.01525655113800692 0 0.0027684547463225446 0.014999589967914643 0 0.0018713247480105105 0.014999758259377055 0 0.0018713247480105105 0.014999758259377055 0 0.00097485907459661579 0.014999802270632218 0 0.0014913327333013814 0.015310319674875181 0 0.00097485907459661579 0.014999802270632218 0 0.0014913327333013814 0.015310319674875181 0 0.00081792855479744257 0.015377702793789473 0 0.0014913327333013814 0.015310319674875181 0 0.0011030228514515141 0.015798653758793534 0 0.00081792855479744257 0.015377702793789473 0 0.0022511311348354344 0.01525655113800692 0 0.0018713247480105105 0.014999758259377055 0 0.0014913327333013814 0.015310319674875181 0 0.0014913327333013814 0.015310319674875181 0 0.0011030228514515141 0.015798653758793534 0 0.0019319730442801063 0.015779842885373475 0 0.00025347253450053094 0.013551002102212656 0 0.00024985259216246707 0.013769160093911019 0 0.00015822242245662927 0.014054027823452114 0 0.0022511311348354344 0.01525655113800692 0 0.0014913327333013814 0.015310319674875181 0 0.0019319730442801063 0.015779842885373475 0 0.00025347253450053094 0.013551002102212656 0 0.00015822242245662927 0.014054027823452114 0 0.00020916420309691368 0.013696462803061971 0 0.00065420421088148873 0.014913954800026897 0 0.00097266722073160853 0.014826673814787314 0 0.00024985259216246707 0.013769160093911019 0 0.00015822242245662927 0.014054027823452114 0 0.0002242195795456426 0.014169248863940836 0 0.00065420421088148873 0.014913954800026897 0 0.00016114209743514594 0.015087218334580712 0 0.00015822242245662927 0.014054027823452114 0 0.0002242195795456426 0.014169248863940836 0 7.7484303696049813e-05 0.014534131104672412 0 0.00023076198045304688 0.015603309109090286 0 0.00081792855479744257 0.015377702793789473 0 7.8064725965664147e-05 0.014999861245693883 0 0.0011030228514515141 0.015798653758793534 0 0.00023076198045304688 0.015603309109090286 0 0.00081792855479744257 0.015377702793789473 0 0.00097485907459661579 0.014999802270632218 0 0.00081792855479744257 0.015377702793789473 0 7.8064725965664147e-05 0.014999861245693883 0 0.00023076198045304688 0.015603309109090286 0 7.8064725965664147e-05 0.014999861245693883 0 -0.00049651301917969979 0.015180416307636408 0 7.8064725965664147e-05 0.014999861245693883 0 -0.0008181243997560471 0.014999676389895253 0 -0.00049651301917969979 0.015180416307636408 0 -0.0008181243997560471 0.014999676389895253 0 -0.00049651301917969979 0.015180416307636408 0 -0.0010421296094684901 0.015177398183620325 0 -0.00047342588660955316 0.015195154371787686 0 -0.00049651301917969979 0.015180416307636408 0 -0.0010421296094684901 0.015177398183620325 0 -0.00047342588660955316 0.015195154371787686 0 -0.00049651301917969979 0.015180416307636408 0 -4.8965780668308904e-05 0.014734516492033766 0 7.7484303696049813e-05 0.014534131104672412 0 -0.00049651301917969979 0.015180416307636408 0 -4.8965780668308904e-05 0.014734516492033766 0 0.00016114209743514594 0.015087218334580712 0 -0.00040729480582460257 0.01515710362123881 0 -0.0017148871623682389 0.014999724456297801 0 -0.0010421296094684901 0.015177398183620325 0 -0.0015054029636805471 0.015496311583265653 0 -0.0008181243997560471 0.014999676389895253 0 -0.0017148871623682389 0.014999724456297801 0 -0.0010421296094684901 0.015177398183620325 0 -0.0010421296094684901 0.015177398183620325 0 -0.0015054029636805471 0.015496311583265653 0 -0.0010064295078562686 0.015574409934348095 0 -0.00047342588660955316 0.015195154371787686 0 -0.0010421296094684901 0.015177398183620325 0 -0.0010064295078562686 0.015574409934348095 0 -0.0017148871623682389 0.014999724456297801 0 -0.0015054029636805471 0.015496311583265653 0 -0.0021142732455086011 0.015424103254760436 0 -0.0015054029636805471 0.015496311583265653 0 -0.00144308983758727 0.015803576943935947 0 -0.0019668159763449934 0.015851627137275639 0 -0.0015054029636805471 0.015496311583265653 0 -0.00144308983758727 0.015803576943935947 0 -0.0010064295078562686 0.015574409934348095 0 -0.00144308983758727 0.015803576943935947 0 -0.0010064295078562686 0.015574409934348095 0 -0.0011111623186478218 0.015975920766718985 0 -0.0011111623186478218 0.015975920766718985 0 -0.00034334402040794295 0.016010627165685101 0 -0.0010975253563901693 0.016403672538434843 0 -0.0010064295078562686 0.015574409934348095 0 -0.0011111623186478218 0.015975920766718985 0 -0.00034334402040794295 0.016010627165685101 0 -0.0011111623186478218 0.015975920766718985 0 -0.0015855349342871641 0.016115733546600911 0 -0.0010975253563901693 0.016403672538434843 0 -0.00144308983758727 0.015803576943935947 0 -0.0015855349342871641 0.016115733546600911 0 -0.0019668159763449934 0.015851627137275639 0 -0.00144308983758727 0.015803576943935947 0 -0.0011111623186478218 0.015975920766718985 0 -0.0015855349342871641 0.016115733546600911 0 0.0002242195795456426 0.014169248863940836 0 7.7484303696049813e-05 0.014534131104672412 0 -4.8965780668308904e-05 0.014734516492033766 0 -0.00040948920210973338 0.015118368927807076 0 -2.5800530854939841e-05 0.01514017321902148 0 -0.00047342588660955316 0.015195154371787686 0 -4.8965780668308904e-05 0.014734516492033766 0 0.000361500631947779 0.0143303461013164 0 -0.00047342588660955316 0.015195154371787686 0 -0.0010064295078562686 0.015574409934348095 0 -0.00034334402040794295 0.016010627165685101 0 0.0002242195795456426 0.014169248863940836 0 -4.8965780668308904e-05 0.014734516492033766 0 0.000361500631947779 0.0143303461013164 0 0.0002242195795456426 0.014169248863940836 0 0.000361500631947779 0.0143303461013164 0 0.00069230916283091813 0.013688927216435651 0 -0.000533050608355261 0.016529836939309792 0 -0.00082949283870635245 0.016821962209515939 0 -6.4024409460599157e-05 0.016750777364705389 0 -7.5705428412421716e-05 0.01657834955522371 0 -0.000533050608355261 0.016529836939309792 0 -6.4024409460599157e-05 0.016750777364705389 0 -2.5800530854939841e-05 0.01514017321902148 0 0.00029992031755210193 0.015122703987570195 0 -0.00034334402040794295 0.016010627165685101 0 -7.5705428412421716e-05 0.01657834955522371 0 -0.000533050608355261 0.016529836939309792 0 -0.00034334402040794295 0.016010627165685101 0 -0.000533050608355261 0.016529836939309792 0 -0.0010975253563901693 0.016403672538434843 0 -0.0015855349342871641 0.016115733546600911 0 -0.0010975253563901693 0.016403672538434843 0 -0.0017804977171490782 0.016468871541446814 0 -0.0010975253563901693 0.016403672538434843 0 -0.0015423508319189767 0.016872956388198166 0 -0.0017804977171490782 0.016468871541446814 0 -0.0010975253563901693 0.016403672538434843 0 -0.0015423508319189767 0.016872956388198166 0 -0.00082949283870635245 0.016821962209515939 0 -0.000533050608355261 0.016529836939309792 0 -0.0010975253563901693 0.016403672538434843 0 -0.00082949283870635245 0.016821962209515939 0 -0.00082949283870635245 0.016821962209515939 0 -0.00085010823390083091 0.017216318329544268 0 -0.00035216064161071314 0.016970377481360203 0 -0.00082949283870635245 0.016821962209515939 0 -0.0012700195118960944 0.017145951930266506 0 -0.00085010823390083091 0.017216318329544268 0 -0.0015423508319189767 0.016872956388198166 0 -0.00082949283870635245 0.016821962209515939 0 -0.0012700195118960944 0.017145951930266506 0 -0.0015423508319189767 0.016872956388198166 0 -0.0012700195118960944 0.017145951930266506 0 -0.00160358843890037 0.017142750362633994 0 -0.0012700195118960944 0.017145951930266506 0 -0.0015007890060232283 0.017346980718165306 0 -0.00160358843890037 0.017142750362633994 0 -0.0012700195118960944 0.017145951930266506 0 -0.0011827228617333264 0.017399921466611439 0 -0.00085010823390083091 0.017216318329544268 0 -0.0012700195118960944 0.017145951930266506 0 -0.0015007890060232283 0.017346980718165306 0 -0.0011827228617333264 0.017399921466611439 0 -0.0011827228617333264 0.017399921466611439 0 -0.00090764405358378019 0.017566084307075507 0 -0.0012937163309635472 0.01772117880778384 0 -0.0015007890060232283 0.017346980718165306 0 -0.0011827228617333264 0.017399921466611439 0 -0.0012937163309635472 0.01772117880778384 0 -0.001755229769710195 0.017486951691651372 0 -0.0012756757093335483 0.01759424782796214 0 -0.0018600214347823199 0.017454344209915752 0 -0.0012377300403318902 0.017682215129755378 0 -0.0016736538602183267 0.017856838330980253 0 -0.0015007890060232283 0.017346980718165306 0 -0.0018600214347823199 0.017454344209915752 0 -0.0012937163309635472 0.01772117880778384 0 -0.00085010823390083091 0.017216318329544268 0 -0.00090764405358378019 0.017566084307075507 0 -0.00032063792586767444 0.017529780187508746 0 -0.00090764405358378019 0.017566084307075507 0 -0.00032063792586767444 0.017529780187508746 0 -0.00082028016539853043 0.017925645259443651 0 -0.0011827228617333264 0.017399921466611439 0 -0.00085010823390083091 0.017216318329544268 0 -0.00090764405358378019 0.017566084307075507 0 -0.00085010823390083091 0.017216318329544268 0 -0.00032063792586767444 0.017529780187508746 0 -0.00035216064161071314 0.016970377481360203 0 0.0010983528678935764 0.016358451280976412 0 0.0003913773681121067 0.016801289825784174 0 -0.00032063792586767444 0.017529780187508746 0 0.00032818296961748043 0.016781758023913618 0 -0.00035216064161071314 0.016970377481360203 0 0.0023627433735648011 0.0153611357982403 0 0.00095394123564748225 0.015009962963326457 0 0.00032818296961748043 0.016781758023913618 0 0.00095394123564748225 0.015009962963326457 0 7.7520126076974398e-05 0.015178106088401536 0 0.00028683107549345565 0.015987257965828176 0 -0.00070076584751472171 0.013789103463240101 0 7.7520126076974398e-05 0.015178106088401536 0 -4.1128153922453284e-05 0.016829874843601347 0 7.7520126076974398e-05 0.015178106088401536 0 0.00028683107549345565 0.015987257965828176 0 -4.1128153922453284e-05 0.016829874843601347 0 0.00095394123564748225 0.015009962963326457 0 0.00028683107549345565 0.015987257965828176 0 0.00032818296961748043 0.016781758023913618 0 0.00028683107549345565 0.015987257965828176 0 0.00032818296961748043 0.016781758023913618 0 -4.1128153922453284e-05 0.016829874843601347 0 -7.5705428412421716e-05 0.01657834955522371 0 -4.1128153922453284e-05 0.016829874843601347 0 -6.4024409460599157e-05 0.016750777364705389 0 0.00032818296961748043 0.016781758023913618 0 -4.1128153922453284e-05 0.016829874843601347 0 -6.4024409460599157e-05 0.016750777364705389 0 0.00061710419782740099 0.013296051943603377 0 0.00069230916283091813 0.013688927216435651 0 0.00092850934811563777 0.012947640005333952 0 0.00029992031755210193 0.015122703987570195 0 0.00042299690494279049 0.014825355047250381 0 -0.00082949283870635245 0.016821962209515939 0 -6.4024409460599157e-05 0.016750777364705389 0 -0.00035216064161071314 0.016970377481360203 0 0.00032818296961748043 0.016781758023913618 0 -6.4024409460599157e-05 0.016750777364705389 0 -0.00035216064161071314 0.016970377481360203 0 -0.0034039420629036689 0.016561539998218116 0 -0.0041437719311428842 0.016781831732433739 0 -0.0034549768256862466 0.015797709807815974 0 -0.0053272855397324889 0.016380792671478312 0 -0.0037964611696344633 0.015960466265976882 0 -0.0034039420629036689 0.016561539998218116 0 -0.0041437719311428842 0.016781831732433739 0 -0.0036722703603658956 0.016987544688855227 0 -0.0034039420629036689 0.016561539998218116 0 -0.0036722703603658956 0.016987544688855227 0 -0.0030239637562112466 0.017005839712849417 0 -0.0065679832604852006 0.015248870462253242 0 -0.0065725530139357823 0.01495367516672071 0 -0.0069640042266813111 0.015066760244846196 0 -0.0041437719311428842 0.016781831732433739 0 -0.0040972671369101273 0.017297074780899098 0 -0.0036722703603658956 0.016987544688855227 0 -0.0053272855397324889 0.016380792671478312 0 -0.0080720811990638158 0.013615608935070283 0 -0.0040972671369101273 0.017297074780899098 0 -0.0035472456493886957 0.017426840274227109 0 -0.0043957848304550006 0.017799728202233776 0 -0.0041437719311428842 0.016781831732433739 0 -0.0040972671369101273 0.017297074780899098 0 -0.0048181670504215462 0.017665782569500233 0 -0.0040972671369101273 0.017297074780899098 0 -0.0045127462844023634 0.017715446448940658 0 -0.0043903790665610161 0.017733437777635891 0 -0.0040972671369101273 0.017297074780899098 0 -0.0048181670504215462 0.017665782569500233 0 -0.0045127462844023634 0.017715446448940658 0 -0.0050055443349812153 0.01748715503636767 0 -0.005229531160653925 0.014166706290794142 0 -0.0040972671369101273 0.017297074780899098 0 -0.0035472456493886957 0.017426840274227109 0 -0.0036722703603658956 0.016987544688855227 0 -0.0035472456493886957 0.017426840274227109 0 -0.0036722703603658956 0.016987544688855227 0 -0.0030239637562112466 0.017005839712849417 0 -0.0035472456493886957 0.017426840274227109 0 -0.0028447325139965632 0.017460514584440326 0 -0.0032145844194274597 0.018002358923211354 0 -0.0035472456493886957 0.017426840274227109 0 -0.0028447325139965632 0.017460514584440326 0 -0.0030239637562112466 0.017005839712849417 0 -0.0028447325139965632 0.017460514584440326 0 -0.0023147513765919164 0.017677558251756095 0 -0.0022966636028358559 0.017129461597905321 0 -0.0028447325139965632 0.017460514584440326 0 -0.0030239637562112466 0.017005839712849417 0 -0.0022966636028358559 0.017129461597905321 0 -0.0015007890060232283 0.017346980718165306 0 -0.0018600214347823199 0.017454344209915752 0 -0.0022966636028358559 0.017129461597905321 0 -0.0015007890060232283 0.017346980718165306 0 -0.0022966636028358559 0.017129461597905321 0 -0.0024430507533967352 0.016510333023099431 0 -0.0018600214347823199 0.017454344209915752 0 -0.0023147513765919164 0.017677558251756095 0 -0.0016736538602183267 0.017856838330980253 0 -0.0018600214347823199 0.017454344209915752 0 -0.0023147513765919164 0.017677558251756095 0 -0.0022966636028358559 0.017129461597905321 0 -0.0016286507122583289 0.017265399859715622 0 -0.0021173989439467779 0.016951310206953573 0 -0.0015007890060232283 0.017346980718165306 0 -0.00160358843890037 0.017142750362633994 0 -0.0020854261333501417 0.017191767427948694 0 -0.0015423508319189767 0.016872956388198166 0 -0.00160358843890037 0.017142750362633994 0 -0.0020854261333501417 0.017191767427948694 0 -0.0034039420629036689 0.016561539998218116 0 -0.0024430507533967352 0.016510333023099431 0 -0.0034549768256862466 0.015797709807815974 0 -0.0034039420629036689 0.016561539998218116 0 -0.0030239637562112466 0.017005839712849417 0 -0.0024430507533967352 0.016510333023099431 0 -0.0030239637562112466 0.017005839712849417 0 -0.0022966636028358559 0.017129461597905321 0 -0.0024430507533967352 0.016510333023099431 0 -0.0021173989439467779 0.016951310206953573 0 -0.0037964611696344633 0.015960466265976882 0 -0.0020854261333501417 0.017191767427948694 0 -0.0021566398366193781 0.016721086008038503 0 -0.0026494882888799015 0.016813018783818721 0 -0.0020854261333501417 0.017191767427948694 0 -0.0026494882888799015 0.016813018783818721 0 -0.0027404433575625685 0.016945637904247173 0 -0.0015423508319189767 0.016872956388198166 0 -0.0021566398366193781 0.016721086008038503 0 -0.0017804977171490782 0.016468871541446814 0 -0.0015423508319189767 0.016872956388198166 0 -0.0020854261333501417 0.017191767427948694 0 -0.0021566398366193781 0.016721086008038503 0 -0.0021566398366193781 0.016721086008038503 0 -0.0017804977171490782 0.016468871541446814 0 -0.0023447532194957269 0.016369488814877015 0 -0.0017804977171490782 0.016468871541446814 0 -0.0023447532194957269 0.016369488814877015 0 -0.0019936994686563262 0.016171631193856381 0 -0.0025106610385683958 0.016594537557221373 0 -0.0023447532194957269 0.016369488814877015 0 -0.0028348350087036185 0.016531068791716334 0 -0.0021566398366193781 0.016721086008038503 0 -0.0025106610385683958 0.016594537557221373 0 -0.0026494882888799015 0.016813018783818721 0 -0.0021566398366193781 0.016721086008038503 0 -0.0025106610385683958 0.016594537557221373 0 -0.0023447532194957269 0.016369488814877015 0 -0.0028348350087036185 0.016531068791716334 0 -0.0027864725403603688 0.016988734203004702 0 -0.0035206471030997145 0.01662501841599057 0 -0.0025106610385683958 0.016594537557221373 0 -0.0028348350087036185 0.016531068791716334 0 -0.0026494882888799015 0.016813018783818721 0 -0.0028348350087036185 0.016531068791716334 0 -0.0026494882888799015 0.016813018783818721 0 -0.0027864725403603688 0.016988734203004702 0 -0.0034242427822361071 0.016329622757101456 0 -0.0037964611696344633 0.015960466265976882 0 -0.0065679832604852006 0.015248870462253242 0 -0.0063694572328234578 0.014964548314521904 0 -0.0065725530139357823 0.01495367516672071 0 -0.0063694572328234578 0.014964548314521904 0 -0.0065725530139357823 0.01495367516672071 0 -0.0066340086264785186 0.014820738523331612 0 -0.0037964611696344633 0.015960466265976882 0 -0.0052891447890880561 0.015603441633403497 0 -0.0065725530139357823 0.01495367516672071 0 -0.0066340086264785186 0.014820738523331612 0 -0.0067067271490753519 0.014940771987250178 0 -0.0028348350087036185 0.016531068791716334 0 -0.0035206471030997145 0.01662501841599057 0 -0.00328272696534238 0.016202290232896766 0 -0.0035206471030997145 0.01662501841599057 0 -0.00328272696534238 0.016202290232896766 0 -0.0036604004800446909 0.016251026413181217 0 -0.00328272696534238 0.016202290232896766 0 -0.0036604004800446909 0.016251026413181217 0 -0.0037095360008137382 0.015937027371458027 0 -0.0028348350087036185 0.016531068791716334 0 -0.00328272696534238 0.016202290232896766 0 -0.002780977920506899 0.016112122815133901 0 -0.0023447532194957269 0.016369488814877015 0 -0.0028348350087036185 0.016531068791716334 0 -0.002780977920506899 0.016112122815133901 0 -0.00328272696534238 0.016202290232896766 0 -0.002780977920506899 0.016112122815133901 0 -0.003125084173729822 0.015771205439312548 0 -0.002780977920506899 0.016112122815133901 0 -0.003125084173729822 0.015771205439312548 0 -0.0024904214154468909 0.015775436985128372 0 -0.003125084173729822 0.015771205439312548 0 -0.0024904214154468909 0.015775436985128372 0 -0.0026695739042432434 0.015452235402675103 0 -0.003125084173729822 0.015771205439312548 0 -0.0040185504064990506 0.015478857647870064 0 -0.0037095360008137382 0.015937027371458027 0 -0.00328272696534238 0.016202290232896766 0 -0.003125084173729822 0.015771205439312548 0 -0.0037095360008137382 0.015937027371458027 0 -0.0015855349342871641 0.016115733546600911 0 -0.0019936994686563262 0.016171631193856381 0 -0.0019668159763449934 0.015851627137275639 0 -0.0015855349342871641 0.016115733546600911 0 -0.0017804977171490782 0.016468871541446814 0 -0.0019936994686563262 0.016171631193856381 0 -0.0019936994686563262 0.016171631193856381 0 -0.0022895698942916086 0.016052196178988728 0 -0.0019668159763449934 0.015851627137275639 0 -0.0023447532194957269 0.016369488814877015 0 -0.002780977920506899 0.016112122815133901 0 -0.0022895698942916086 0.016052196178988728 0 -0.0023447532194957269 0.016369488814877015 0 -0.0019936994686563262 0.016171631193856381 0 -0.0022895698942916086 0.016052196178988728 0 -0.002780977920506899 0.016112122815133901 0 -0.0022895698942916086 0.016052196178988728 0 -0.0024904214154468909 0.015775436985128372 0 -0.0022895698942916086 0.016052196178988728 0 -0.0024904214154468909 0.015775436985128372 0 -0.0019668159763449934 0.015851627137275639 0 -0.0015054029636805471 0.015496311583265653 0 -0.0019668159763449934 0.015851627137275639 0 -0.0021142732455086011 0.015424103254760436 0 -0.0024904214154468909 0.015775436985128372 0 -0.0019668159763449934 0.015851627137275639 0 -0.0021142732455086011 0.015424103254760436 0 -0.0024904214154468909 0.015775436985128372 0 -0.0021142732455086011 0.015424103254760436 0 -0.0026695739042432434 0.015452235402675103 0 -0.0021142732455086011 0.015424103254760436 0 -0.0026695739042432434 0.015452235402675103 0 -0.0026115596519730249 0.014999868704017975 0 -0.0017148871623682389 0.014999724456297801 0 -0.0021142732455086011 0.015424103254760436 0 -0.0026115596519730249 0.014999868704017975 0 -0.003125084173729822 0.015771205439312548 0 -0.003163790615709784 0.015333910896590069 0 -0.0040185504064990506 0.015478857647870064 0 -0.003125084173729822 0.015771205439312548 0 -0.0026695739042432434 0.015452235402675103 0 -0.003163790615709784 0.015333910896590069 0 -0.0026695739042432434 0.015452235402675103 0 -0.0026115596519730249 0.014999868704017975 0 -0.003163790615709784 0.015333910896590069 0 -0.0026115596519730249 0.014999868704017975 0 -0.003163790615709784 0.015333910896590069 0 -0.0035081732023634939 0.014999853169482411 0 -0.003163790615709784 0.015333910896590069 0 -0.0035081732023634939 0.014999853169482411 0 -0.0040185504064990506 0.015478857647870064 0 -0.0035081732023634939 0.014999853169482411 0 -0.0040185504064990506 0.015478857647870064 0 -0.0044048628661405307 0.014999850074144597 0 -0.0040185504064990506 0.015478857647870064 0 -0.0044048628661405307 0.014999850074144597 0 -0.0048744069599475134 0.015579928526659433 0 -0.0040185504064990506 0.015478857647870064 0 -0.0048744069599475134 0.015579928526659433 0 -0.0046050018470816991 0.015902165293755377 0 -0.0044048628661405307 0.014999850074144597 0 -0.0053015926444153197 0.014999908247454261 0 -0.0048744069599475134 0.015579928526659433 0 -0.0053015926444153197 0.014999908247454261 0 -0.0054366091057555088 0.01553632427346492 0 -0.0059625374420397385 0.015450676703923326 0 -0.0054366091057555088 0.01553632427346492 0 -0.0057021065723199893 0.015912637312046313 0 -0.0059625374420397385 0.015450676703923326 0 -0.0053015926444153197 0.014999908247454261 0 -0.0054366091057555088 0.01553632427346492 0 -0.0048744069599475134 0.015579928526659433 0 -0.0054366091057555088 0.01553632427346492 0 -0.0048744069599475134 0.015579928526659433 0 -0.005351495148079052 0.015791827090790651 0 -0.0051432592346648638 0.016031150582934528 0 -0.004842513969258621 0.016148994527309855 0 -0.0046050018470816991 0.015902165293755377 0 -0.0048744069599475134 0.015579928526659433 0 -0.0051432592346648638 0.016031150582934528 0 -0.0046050018470816991 0.015902165293755377 0 -0.0048744069599475134 0.015579928526659433 0 -0.0051432592346648638 0.016031150582934528 0 -0.005351495148079052 0.015791827090790651 0 -0.0054366091057555088 0.01553632427346492 0 -0.0057021065723199893 0.015912637312046313 0 -0.005351495148079052 0.015791827090790651 0 -0.0051432592346648638 0.016031150582934528 0 -0.0057021065723199893 0.015912637312046313 0 -0.005351495148079052 0.015791827090790651 0 -0.0051432592346648638 0.016031150582934528 0 -0.0057021065723199893 0.015912637312046313 0 -0.0056496927078037466 0.016410653585903844 0 -0.0057021065723199893 0.015912637312046313 0 -0.0056496927078037466 0.016410653585903844 0 -0.0060217403457886245 0.016185369112314607 0 -0.0049860909369412298 0.016336462931575771 0 -0.004496248315048427 0.016405722844514966 0 -0.0051307654329087165 0.016712646326482474 0 -0.0056496927078037466 0.016410653585903844 0 -0.0049860909369412298 0.016336462931575771 0 -0.0051307654329087165 0.016712646326482474 0 -0.0051432592346648638 0.016031150582934528 0 -0.0056496927078037466 0.016410653585903844 0 -0.0049860909369412298 0.016336462931575771 0 -0.0051432592346648638 0.016031150582934528 0 -0.004842513969258621 0.016148994527309855 0 -0.0049860909369412298 0.016336462931575771 0 -0.0046227537415563192 0.016319660009544299 0 -0.0044498915853311317 0.016444389769913755 0 -0.0037095360008137382 0.015937027371458027 0 -0.0049860909369412298 0.016336462931575771 0 -0.0046227537415563192 0.016319660009544299 0 -0.004496248315048427 0.016405722844514966 0 -0.004842513969258621 0.016148994527309855 0 -0.0049860909369412298 0.016336462931575771 0 -0.0046227537415563192 0.016319660009544299 0 -0.0047836150556041391 0.016219166057435858 0 -0.0051877519590500781 0.015941382047799109 0 -0.0051877519590500781 0.015941382047799109 0 -0.0034949507780069351 0.015967583204309993 0 -0.0035206471030997145 0.01662501841599057 0 -0.0040890791760970898 0.016254358301731251 0 -0.0036604004800446909 0.016251026413181217 0 -0.0040890791760970898 0.016254358301731251 0 -0.0036604004800446909 0.016251026413181217 0 -0.0037095360008137382 0.015937027371458027 0 -0.0040185504064990506 0.015478857647870064 0 -0.0037095360008137382 0.015937027371458027 0 -0.0046050018470816991 0.015902165293755377 0 -0.0046227537415563192 0.016319660009544299 0 -0.0037095360008137382 0.015937027371458027 0 -0.0046050018470816991 0.015902165293755377 0 -0.004842513969258621 0.016148994527309855 0 -0.0046227537415563192 0.016319660009544299 0 -0.0046050018470816991 0.015902165293755377 0 -0.0071552139036252438 0.015569303167866267 0 -0.0073747985535930474 0.015875469725784006 0 -0.0075033066264174357 0.015633268907478279 0 -0.0071552139036252438 0.015569303167866267 0 -0.0074756485399535668 0.01534906380818492 0 -0.0075033066264174357 0.015633268907478279 0 -0.0074756485399535668 0.01534906380818492 0 -0.0070299073057799484 0.014999935901234039 0 -0.0078614158626705427 0.015000022486126009 0 -0.0071552139036252438 0.015569303167866267 0 -0.0074756485399535668 0.01534906380818492 0 -0.0070299073057799484 0.014999935901234039 0 -0.0071552139036252438 0.015569303167866267 0 -0.0070299073057799484 0.014999935901234039 0 -0.0066623134395771928 0.015577406985434328 0 -0.0070299073057799484 0.014999935901234039 0 -0.0066623134395771928 0.015577406985434328 0 -0.0061981603954572783 0.014999977451145089 0 -0.0071552139036252438 0.015569303167866267 0 -0.0066623134395771928 0.015577406985434328 0 -0.0070410007947395766 0.016003974993981967 0 -0.0065930358841472135 0.015482088896321144 0 -0.0059625374420397385 0.015450676703923326 0 -0.0063572688205689194 0.015974320018541616 0 -0.0065930358841472135 0.015482088896321144 0 -0.0061979923790424392 0.014999834001055489 0 -0.0059625374420397385 0.015450676703923326 0 -0.0066338910136474645 0.015532701866310561 0 -0.0061981229905630703 0.01500008004389012 0 -0.0053015926444153197 0.014999908247454261 0 -0.0061979923790424392 0.014999834001055489 0 -0.0059625374420397385 0.015450676703923326 0 -0.0057021065723199893 0.015912637312046313 0 -0.0060217403457886245 0.016185369112314607 0 -0.0063572688205689194 0.015974320018541616 0 -0.0057021065723199893 0.015912637312046313 0 -0.0059625374420397385 0.015450676703923326 0 -0.0063572688205689194 0.015974320018541616 0 -0.0060217403457886245 0.016185369112314607 0 -0.0063572688205689194 0.015974320018541616 0 -0.0063675134907159609 0.016442190689874858 0 -0.0056496927078037466 0.016410653585903844 0 -0.0060217403457886245 0.016185369112314607 0 -0.0063675134907159609 0.016442190689874858 0 -0.0063572688205689194 0.015974320018541616 0 -0.006798069473055916 0.016305118809736712 0 -0.0063675134907159609 0.016442190689874858 0 -0.0066338910136474645 0.015532701866310561 0 -0.0070021253968439254 0.015986723496916565 0 -0.0065930358841472135 0.015482088896321144 0 -0.0063572688205689194 0.015974320018541616 0 -0.0070410007947395766 0.016003974993981967 0 -0.0063572688205689194 0.015974320018541616 0 -0.0070410007947395766 0.016003974993981967 0 -0.006798069473055916 0.016305118809736712 0 -0.0070410007947395766 0.016003974993981967 0 -0.006798069473055916 0.016305118809736712 0 -0.0072374226998267593 0.016428173900143353 0 -0.0070410007947395766 0.016003974993981967 0 -0.0074788662007802629 0.016177830075093404 0 -0.0072374226998267593 0.016428173900143353 0 -0.0070410007947395766 0.016003974993981967 0 -0.0074788662007802629 0.016177830075093404 0 -0.0073747985535930474 0.015875469725784006 0 -0.0071552139036252438 0.015569303167866267 0 -0.0070410007947395766 0.016003974993981967 0 -0.0073747985535930474 0.015875469725784006 0 -0.0072577651795261442 0.016414184433009051 0 -0.0074105493801128897 0.016680452823343937 0 -0.0072374226998267593 0.016428173900143353 0 -0.0076936947330408885 0.016440068088566767 0 -0.0076283908690939449 0.016401837000186031 0 -0.0074788662007802629 0.016177830075093404 0 -0.0072374226998267593 0.016428173900143353 0 -0.0076283908690939449 0.016401837000186031 0 -0.006798069473055916 0.016305118809736712 0 -0.0072374226998267593 0.016428173900143353 0 -0.0068347407568175207 0.016752810247722259 0 -0.0068347407568175207 0.016752810247722259 0 -0.0069926682568302633 0.017002026859457502 0 -0.007176148104293672 0.016995675304654744 0 -0.0072374226998267593 0.016428173900143353 0 -0.0068347407568175207 0.016752810247722259 0 -0.007176148104293672 0.016995675304654744 0 -0.0068347407568175207 0.016752810247722259 0 -0.0067528741664432341 0.017026132341475864 0 -0.0069926682568302633 0.017002026859457502 0 -0.0062795821529655505 0.01681564441101803 0 -0.0063797826895383072 0.017136621995423141 0 -0.0067528741664432341 0.017026132341475864 0 -0.0068347407568175207 0.016752810247722259 0 -0.0062795821529655505 0.01681564441101803 0 -0.0067528741664432341 0.017026132341475864 0 -0.006798069473055916 0.016305118809736712 0 -0.0068347407568175207 0.016752810247722259 0 -0.0063675134907159609 0.016442190689874858 0 -0.0068347407568175207 0.016752810247722259 0 -0.0063675134907159609 0.016442190689874858 0 -0.0062795821529655505 0.01681564441101803 0 -0.0056496927078037466 0.016410653585903844 0 -0.0063675134907159609 0.016442190689874858 0 -0.0062795821529655505 0.01681564441101803 0 -0.0069325633954880972 0.016129583629507175 0 -0.0065018600896488195 0.015971787599046428 0 -0.0062795821529655505 0.01681564441101803 0 -0.0063797826895383072 0.017136621995423141 0 -0.0057612970657813642 0.016968010537487067 0 -0.0075815699470498359 0.015249433570590526 0 -0.0074845787886587377 0.015583888785332005 0 -0.0073196927507477643 0.015294604853696913 0 -0.0075815699470498359 0.015249433570590526 0 -0.0072516544120813636 0.014971411258193295 0 -0.0073196927507477643 0.015294604853696913 0 -0.0075815699470498359 0.015249433570590526 0 -0.0074845787886587377 0.015583888785332005 0 -0.007911676569943878 0.015530828935379454 0 -0.0084384208779889058 0.014757741874900329 0 -0.0073063481348000755 0.01523605146384791 0 -0.010630810248061102 0.010118499968771018 0 -0.01094428330963294 0.0099180226574303067 0 -0.010772422867200447 0.0096886506692458792 0 -0.0088760161376248772 0.016992497385864898 0 -0.0083117150348466402 0.016735114517734219 0 -0.00797744341071655 0.01716225289280543 0 -0.0083117150348466402 0.016735114517734219 0 -0.00797744341071655 0.01716225289280543 0 -0.0078912147827200959 0.016536394375580979 0 -0.0084384208779889058 0.014757741874900329 0 -0.0075257792782846642 0.016604732488357348 0 -0.0075257792782846642 0.016604732488357348 0 -0.0072762797143820675 0.01670132716879873 0 -0.0063797826895383072 0.017136621995423141 0 -0.0069366391986054304 0.017124691783053043 0 -0.0067528741664432341 0.017026132341475864 0 -0.0069366391986054304 0.017124691783053043 0 -0.0067528741664432341 0.017026132341475864 0 -0.0070457558415877256 0.01706481049641272 0 -0.0069325633954880972 0.016129583629507175 0 -0.0075257792782846642 0.016604732488357348 0 -0.0069926682568302633 0.017002026859457502 0 -0.0070457558415877256 0.01706481049641272 0 -0.0071031454149540763 0.016979498739234312 0 -0.0067528741664432341 0.017026132341475864 0 -0.0069926682568302633 0.017002026859457502 0 -0.0070457558415877256 0.01706481049641272 0 -0.0075257792782846642 0.016604732488357348 0 -0.0073108902596394753 0.016835111343894996 0 -0.00797744341071655 0.01716225289280543 0 -0.0078912147827200959 0.016536394375580979 0 -0.0072876662456830147 0.016688573522369781 0 -0.0070351498328592591 0.017094008286305428 0 -0.0070457558415877256 0.01706481049641272 0 -0.0072876662456830147 0.016688573522369781 0 -0.0070457558415877256 0.01706481049641272 0 -0.0071031454149540763 0.016979498739234312 0 -0.0072876662456830147 0.016688573522369781 0 -0.0071031454149540763 0.016979498739234312 0 -0.0072876662456830147 0.016688573522369781 0 -0.0068872640190543047 0.016860317850312698 0 -0.0074105493801128897 0.016680452823343937 0 -0.0073950953236138492 0.016552404286319627 0 -0.0071031454149540763 0.016979498739234312 0 -0.007176148104293672 0.016995675304654744 0 -0.0068872640190543047 0.016860317850312698 0 -0.0069926682568302633 0.017002026859457502 0 -0.0071031454149540763 0.016979498739234312 0 -0.007176148104293672 0.016995675304654744 0 -0.0069677056032969248 0.015006949565527361 0 -0.0068209623111386251 0.01488947947028387 0 -0.0067625487781709246 0.015087610427269492 0 -0.0069677056032969248 0.015006949565527361 0 -0.0068209623111386251 0.01488947947028387 0 -0.0070278513916643718 0.01481841066506087 0 -0.0065725530139357823 0.01495367516672071 0 -0.0067067271490753519 0.014940771987250178 0 -0.0067625487781709246 0.015087610427269492 0 -0.0065971743617968164 0.014961791894379651 0 -0.0068832132511086478 0.01506594872826081 0 -0.0067067271490753519 0.014940771987250178 0 -0.0068209623111386251 0.01488947947028387 0 -0.0067625487781709246 0.015087610427269492 0 -0.0052891447890880561 0.015603441633403497 0 -0.0051877519590500781 0.015941382047799109 0 -0.0066340086264785186 0.014820738523331612 0 -0.0067067271490753519 0.014940771987250178 0 -0.0068209623111386251 0.01488947947028387 0 -0.0066340086264785186 0.014820738523331612 0 -0.0068376321580219833 0.014686005298998406 0 -0.0068209623111386251 0.01488947947028387 0 -0.0051877519590500781 0.015941382047799109 0 -0.0061231709201792824 0.015731016113013141 0 -0.0068376321580219833 0.014686005298998406 0 -0.0068209623111386251 0.01488947947028387 0 -0.0070278513916643718 0.01481841066506087 0 -0.0056496927078037466 0.016410653585903844 0 -0.0062795821529655505 0.01681564441101803 0 -0.0057612970657813642 0.016968010537487067 0 -0.0061231709201792824 0.015731016113013141 0 -0.0065018600896488195 0.015971787599046428 0 -0.0056496927078037466 0.016410653585903844 0 -0.0051307654329087165 0.016712646326482474 0 -0.0057612970657813642 0.016968010537487067 0 -0.0072516544120813636 0.014971411258193295 0 -0.0071805015950079836 0.015000278664284676 0 -0.0073196927507477643 0.015294604853696913 0 -0.0070278513916643718 0.01481841066506087 0 -0.0072516544120813636 0.014971411258193295 0 -0.0071805015950079836 0.015000278664284676 0 -0.0071805015950079836 0.015000278664284676 0 -0.0070790632574833715 0.015033356421255481 0 -0.0071666459080376608 0.01507826561565429 0 -0.0070278513916643718 0.01481841066506087 0 -0.0071805015950079836 0.015000278664284676 0 -0.0070790632574833715 0.015033356421255481 0 -0.0069677056032969248 0.015006949565527361 0 -0.0070278513916643718 0.01481841066506087 0 -0.0070790632574833715 0.015033356421255481 0 -0.0069677056032969248 0.015006949565527361 0 -0.0070790632574833715 0.015033356421255481 0 -0.0071189231552005435 0.015133886685401792 0 -0.0069677056032969248 0.015006949565527361 0 -0.0071189231552005435 0.015133886685401792 0 -0.0069764568245287133 0.015215302496436704 0 -0.0071189231552005435 0.015133886685401792 0 -0.0071997934945856167 0.015218329918817362 0 -0.0069764568245287133 0.015215302496436704 0 -0.0070790632574833715 0.015033356421255481 0 -0.0071189231552005435 0.015133886685401792 0 -0.0071666459080376608 0.01507826561565429 0 -0.007192760423657448 0.015023286591785119 0 -0.0073063481348000755 0.01523605146384791 0 -0.0071189231552005435 0.015133886685401792 0 -0.0071666459080376608 0.01507826561565429 0 -0.0072863735320581021 0.015144922976969876 0 -0.0071805015950079836 0.015000278664284676 0 -0.0071666459080376608 0.01507826561565429 0 -0.0072863735320581021 0.015144922976969876 0 -0.0071189231552005435 0.015133886685401792 0 -0.0071997934945856167 0.015218329918817362 0 -0.0072863735320581021 0.015144922976969876 0 -0.010630810248061102 0.010118499968771018 0 -0.011130368117366974 0.010039189395803604 0 -0.01094428330963294 0.0099180226574303067 0 -0.0073939461468178697 0.015302198610523737 0 -0.0071997934945856167 0.015218329918817362 0 -0.0072030640680344716 0.015330669827247127 0 -0.0084384208779889058 0.014757741874900329 0 -0.0091876409469164293 0.012944181213467991 0 -0.0073939461468178697 0.015302198610523737 0 -0.0071997934945856167 0.015218329918817362 0 -0.0072863735320581021 0.015144922976969876 0 -0.011140568446200367 0.0099946731408836701 0 -0.01094428330963294 0.0099180226574303067 0 -0.011113645823574643 0.0097972020046399079 0 -0.0091876409469164293 0.012944181213467991 0 -0.0099852355607830973 0.0116960246975373 0 -0.0071997934945856167 0.015218329918817362 0 -0.0072030640680344716 0.015330669827247127 0 -0.0069764568245287133 0.015215302496436704 0 -0.0091876409469164293 0.012944181213467991 0 -0.0097760821942066214 0.012622495532158195 0 -0.0091876409469164293 0.012944181213467991 0 -0.0070341808276518942 0.015419561442273024 0 -0.011140568446200367 0.0099946731408836701 0 -0.011531656455339807 0.0099218345294402512 0 -0.011590779669542622 0.0099421189102947127 0 -0.011140568446200367 0.0099946731408836701 0 -0.011531656455339807 0.0099218345294402512 0 -0.011399130495200395 0.0098184116176929168 0 -0.0078702893688063422 0.015450051400010805 0 -0.0073337484555623614 0.015547842727361679 0 -0.0074052610773920379 0.015235343266638812 0 -0.0073337484555623614 0.015547842727361679 0 -0.0074052610773920379 0.015235343266638812 0 -0.0070129847060091868 0.015340862423153301 0 -0.0070341808276518942 0.015419561442273024 0 -0.0068832132511086478 0.01506594872826081 0 -0.0074052610773920379 0.015235343266638812 0 -0.0069640042266813111 0.015066760244846196 0 -0.0070129847060091868 0.015340862423153301 0 -0.0069677056032969248 0.015006949565527361 0 -0.0069764568245287133 0.015215302496436704 0 -0.0067625487781709246 0.015087610427269492 0 -0.0065679832604852006 0.015248870462253242 0 -0.0069640042266813111 0.015066760244846196 0 -0.0070129847060091868 0.015340862423153301 0 -0.0073337484555623614 0.015547842727361679 0 -0.0070129847060091868 0.015340862423153301 0 -0.0068484058104524769 0.015612808446823062 0 -0.0065679832604852006 0.015248870462253242 0 -0.0070129847060091868 0.015340862423153301 0 -0.0068484058104524769 0.015612808446823062 0 -0.0080720811990638158 0.013615608935070283 0 -0.0065496188636933505 0.013548711953343468 0 -0.0080720811990638158 0.013615608935070283 0 -0.010770881845696677 0.0099458325591304641 0 -0.011590779669542622 0.0099421189102947127 0 -0.011651816270013901 0.009976627453651174 0 -0.011653778457923777 0.009943227656673494 0 -0.0080447583755286975 0.01164348076443966 0 -0.0080843123864238354 0.011393011442970894 0 -0.007790293198873339 0.011256692664613261 0 -0.0080447583755286975 0.01164348076443966 0 -0.0080843123864238354 0.011393011442970894 0 -0.0083474032542197613 0.011600255258095498 0 -0.0080843123864238354 0.011393011442970894 0 -0.007790293198873339 0.011256692664613261 0 -0.0081826436702294655 0.011058783648535089 0 -0.011422977236951641 0.0083884823113663295 0 -0.011470581955697931 0.0083606387845102399 0 -0.011464089498033271 0.0083364345694954961 0 -0.0080843123864238354 0.011393011442970894 0 -0.0081826436702294655 0.011058783648535089 0 -0.0083474032542197613 0.011600255258095498 0 -0.010770881845696677 0.0099458325591304641 0 -0.0074457627618263146 0.0093472079125189178 0 -0.0073998745725066201 0.0039078510116504293 0 -0.0083910046431047748 0.0064727484491058779 0 -0.0069903698451050135 0.0049252824106355148 0 -0.011464089498033271 0.0083364345694954961 0 -0.011366255767534288 0.00825111885322319 0 -0.011417989271121271 0.00814134162195892 0 -0.0074457627618263146 0.0093472079125189178 0 -0.0091677749630917609 0.0072773999850559278 0 -0.0072028336372563671 0.0035575070942282833 0 -0.0073998745725066201 0.0039078510116504293 0 -0.0069903698451050135 0.0049252824106355148 0 -0.0091677749630917609 0.0072773999850559278 0 -0.011690943414216134 0.008118773291051656 0 -0.011422977236951641 0.0083884823113663295 0 -0.011464089498033271 0.0083364345694954961 0 -0.011366255767534288 0.00825111885322319 0 -0.012225103931738486 0.0096069764453705249 0 -0.011851912318003021 0.009050064156154513 0 -0.011766992370125419 0.0094713356066224875 0 -0.010770881845696677 0.0099458325591304641 0 -0.011692877447199502 0.0085478998446566513 0 -0.011851912318003021 0.009050064156154513 0 -0.011766992370125419 0.0094713356066224875 0 -0.011531935852815537 0.0093116579155924362 0 -0.011766992370125419 0.0094713356066224875 0 -0.011718641270440294 0.0096810083391157212 0 -0.011523240693729349 0.0096377929345692476 0 -0.011766992370125419 0.0094713356066224875 0 -0.011523240693729349 0.0096377929345692476 0 -0.011531935852815537 0.0093116579155924362 0 -0.011531656455339807 0.0099218345294402512 0 -0.012225103931738486 0.0096069764453705249 0 -0.011718641270440294 0.0096810083391157212 0 -0.01200476828822338 0.0097825663352667392 0 -0.010770881845696677 0.0099458325591304641 0 -0.0097760821942066214 0.012622495532158195 0 -0.0080720811990638158 0.013615608935070283 0 -0.012225103931738486 0.0096069764453705249 0 -0.011766992370125419 0.0094713356066224875 0 -0.011718641270440294 0.0096810083391157212 0 -0.011531656455339807 0.0099218345294402512 0 -0.011590779669542622 0.0099421189102947127 0 -0.011653778457923777 0.009943227656673494 0 -0.011531656455339807 0.0099218345294402512 0 -0.011718641270440294 0.0096810083391157212 0 -0.011538568109179033 0.0097661092549520163 0 -0.011718641270440294 0.0096810083391157212 0 -0.011538568109179033 0.0097661092549520163 0 -0.011523240693729349 0.0096377929345692476 0 -0.011399130495200395 0.0098184116176929168 0 -0.011265333451200198 0.0097277755876698079 0 -0.011523240693729349 0.0096377929345692476 0 -0.011531656455339807 0.0099218345294402512 0 -0.011538568109179033 0.0097661092549520163 0 -0.011399130495200395 0.0098184116176929168 0 -0.011538568109179033 0.0097661092549520163 0 -0.011399130495200395 0.0098184116176929168 0 -0.011523240693729349 0.0096377929345692476 0 -0.011140568446200367 0.0099946731408836701 0 -0.011399130495200395 0.0098184116176929168 0 -0.011265333451200198 0.0097277755876698079 0 -0.011265333451200198 0.0097277755876698079 0 -0.011318781158111186 0.009496120799115151 0 -0.011523240693729349 0.0096377929345692476 0 -0.011318781158111186 0.009496120799115151 0 -0.011523240693729349 0.0096377929345692476 0 -0.011531935852815537 0.0093116579155924362 0 -0.01094428330963294 0.0099180226574303067 0 -0.011035833689054506 0.00955271317924789 0 -0.010772422867200447 0.0096886506692458792 0 -0.01094428330963294 0.0099180226574303067 0 -0.011113645823574643 0.0097972020046399079 0 -0.011035833689054506 0.00955271317924789 0 -0.011140568446200367 0.0099946731408836701 0 -0.011265333451200198 0.0097277755876698079 0 -0.011113645823574643 0.0097972020046399079 0 -0.011265333451200198 0.0097277755876698079 0 -0.011113645823574643 0.0097972020046399079 0 -0.011035833689054506 0.00955271317924789 0 -0.011265333451200198 0.0097277755876698079 0 -0.011318781158111186 0.009496120799115151 0 -0.011035833689054506 0.00955271317924789 0 -0.011035833689054506 0.00955271317924789 0 -0.010772422867200447 0.0096886506692458792 0 -0.010715346581588507 0.0093612436936619386 0 -0.011035833689054506 0.00955271317924789 0 -0.010884739345617241 0.0091084801111090755 0 -0.010715346581588507 0.0093612436936619386 0 -0.011318781158111186 0.009496120799115151 0 -0.011035833689054506 0.00955271317924789 0 -0.011237033003537341 0.0092418326936026182 0 -0.011035833689054506 0.00955271317924789 0 -0.010884739345617241 0.0091084801111090755 0 -0.011237033003537341 0.0092418326936026182 0 -0.010884739345617241 0.0091084801111090755 0 -0.011237033003537341 0.0092418326936026182 0 -0.011084254883669381 0.0087917996460084025 0 -0.011851912318003021 0.009050064156154513 0 -0.011531935852815537 0.0093116579155924362 0 -0.011435040850618913 0.0089621759909880323 0 -0.011318781158111186 0.009496120799115151 0 -0.011531935852815537 0.0093116579155924362 0 -0.011237033003537341 0.0092418326936026182 0 -0.011237033003537341 0.0092418326936026182 0 -0.011435040850618913 0.0089621759909880323 0 -0.011084254883669381 0.0087917996460084025 0 -0.011531935852815537 0.0093116579155924362 0 -0.011237033003537341 0.0092418326936026182 0 -0.011435040850618913 0.0089621759909880323 0 -0.011851912318003021 0.009050064156154513 0 -0.011435040850618913 0.0089621759909880323 0 -0.011521474498157363 0.008498261631610304 0 -0.011435040850618913 0.0089621759909880323 0 -0.011084254883669381 0.0087917996460084025 0 -0.011521474498157363 0.008498261631610304 0 -0.011084254883669381 0.0087917996460084025 0 -0.011032441456205383 0.0083813666374071161 0 -0.011521474498157363 0.008498261631610304 0 -0.010884739345617241 0.0091084801111090755 0 -0.011084254883669381 0.0087917996460084025 0 -0.010639673417869899 0.0086264680748970504 0 -0.011084254883669381 0.0087917996460084025 0 -0.011032441456205383 0.0083813666374071161 0 -0.010639673417869899 0.0086264680748970504 0 -0.011032441456205383 0.0083813666374071161 0 -0.010671007090304472 0.0080435595346754537 0 -0.011118621763702981 0.0079189259826065901 0 -0.0112626324071216 0.0080840890600689316 0 -0.011323581373757894 0.007856473603930882 0 -0.011118621763702981 0.0079189259826065901 0 -0.011032441456205383 0.0083813666374071161 0 -0.011521474498157363 0.008498261631610304 0 -0.011118621763702981 0.0079189259826065901 0 -0.011377839944475176 0.0082988315974909747 0 -0.011139434424856692 0.0079391583090194576 0 -0.011690943414216134 0.008118773291051656 0 -0.011192872056587718 0.0077548096692416357 0 -0.011194344715937121 0.0077233345815508362 0 -0.011250003484414539 0.007707017925867571 0 -0.011363184322622432 0.0078421582138180398 0 -0.0097427128022947555 0.0067202957560837271 0 -0.010350149913339797 0.0082359599723920637 0 -0.0083910046431047748 0.0064727484491058779 0 -0.0084603355357616254 0.0081515695379196056 0 -0.0093123114446288808 0.0084960441830337578 0 -0.0112626324071216 0.0080840890600689316 0 -0.011417989271121271 0.00814134162195892 0 -0.011323581373757894 0.007856473603930882 0 -0.011250003484414539 0.007707017925867571 0 -0.011363184322622432 0.0078421582138180398 0 -0.011323581373757894 0.007856473603930882 0 -0.0078836218203151478 0.0075937019285552626 0 -0.0083910046431047748 0.0064727484491058779 0 -0.0084603355357616254 0.0081515695379196056 0 -0.0078836218203151478 0.0075937019285552626 0 -0.0075467073471751443 0.006951126437426485 0 -0.0069529653410556691 0.0075782536582684875 0 -0.0078836218203151478 0.0075937019285552626 0 -0.0075467073471751443 0.006951126437426485 0 -0.0083910046431047748 0.0064727484491058779 0 -0.0091677749630917609 0.0072773999850559278 0 -0.0097427128022947555 0.0067202957560837271 0 -0.0083910046431047748 0.0064727484491058779 0 -0.0072478770242363696 0.0061123365771529742 0 -0.0069903698451050135 0.0049252824106355148 0 -0.010911583777962423 0.0072683322412065553 0 -0.011194344715937121 0.0077233345815508362 0 -0.011250003484414539 0.007707017925867571 0 -0.0075467073471751443 0.006951126437426485 0 -0.0072478770242363696 0.0061123365771529742 0 -0.0069000593825975553 0.00667406407677821 0 -0.0075467073471751443 0.006951126437426485 0 -0.0083910046431047748 0.0064727484491058779 0 -0.0072478770242363696 0.0061123365771529742 0 -0.011366255767534288 0.00825111885322319 0 -0.0112626324071216 0.0080840890600689316 0 -0.011417989271121271 0.00814134162195892 0 -0.011692877447199502 0.0085478998446566513 0 -0.011377839944475176 0.0082988315974909747 0 -0.0074247059667101305 0.015932035337368724 0 -0.0071669920815240883 0.015138507843419443 0 -0.0066325971740101991 0.015924311658345281 0 -0.007028410763108347 0.016337372642865194 0 -0.0074247059667101305 0.015932035337368724 0 -0.0066325971740101991 0.015924311658345281 0 -0.007028410763108347 0.016337372642865194 0 -0.0072876662456830147 0.016688573522369781 0 -0.0074247059667101305 0.015932035337368724 0 -0.007028410763108347 0.016337372642865194 0 -0.0072876662456830147 0.016688573522369781 0 -0.0068872640190543047 0.016860317850312698 0 -0.0078912147827200959 0.016536394375580979 0 -0.0074247059667101305 0.015932035337368724 0 -0.0083726220397804633 0.016112004069834037 0 -0.0078912147827200959 0.016536394375580979 0 -0.0072876662456830147 0.016688573522369781 0 -0.0074247059667101305 0.015932035337368724 0 -0.0074247059667101305 0.015932035337368724 0 -0.0083726220397804633 0.016112004069834037 0 -0.0079186791174589276 0.015258961218761535 0 -0.010312235813776004 0.0094363651215332838 0 -0.010541383742755584 0.00904220824780963 0 -0.010054947957922711 0.0087674684160704494 0 -0.0094842207276990154 0.012597038815981527 0 -0.0089790245408235703 0.012052801902285602 0 -0.0083117150348466402 0.016735114517734219 0 -0.0078912147827200959 0.016536394375580979 0 -0.0083726220397804633 0.016112004069834037 0 -0.010312235813776004 0.0094363651215332838 0 -0.010772422867200447 0.0096886506692458792 0 -0.010715346581588507 0.0093612436936619386 0 -0.010630810248061102 0.010118499968771018 0 -0.010312235813776004 0.0094363651215332838 0 -0.010772422867200447 0.0096886506692458792 0 -0.0084384208779889058 0.014757741874900329 0 -0.0094842207276990154 0.012597038815981527 0 -0.0088760161376248772 0.016992497385864898 0 -0.0083117150348466402 0.016735114517734219 0 -0.0083726220397804633 0.016112004069834037 0 -0.010312235813776004 0.0094363651215332838 0 -0.010715346581588507 0.0093612436936619386 0 -0.010541383742755584 0.00904220824780963 0 -0.010884739345617241 0.0091084801111090755 0 -0.010715346581588507 0.0093612436936619386 0 -0.010541383742755584 0.00904220824780963 0 -0.010884739345617241 0.0091084801111090755 0 -0.010541383742755584 0.00904220824780963 0 -0.010639673417869899 0.0086264680748970504 0 -0.011032441456205383 0.0083813666374071161 0 -0.010639673417869899 0.0086264680748970504 0 -0.010671007090304472 0.0080435595346754537 0 -0.010639673417869899 0.0086264680748970504 0 -0.010236833566522462 0.0082725476161997803 0 -0.010671007090304472 0.0080435595346754537 0 -0.010639673417869899 0.0086264680748970504 0 -0.010236833566522462 0.0082725476161997803 0 -0.010054947957922711 0.0087674684160704494 0 -0.010541383742755584 0.00904220824780963 0 -0.010639673417869899 0.0086264680748970504 0 -0.010054947957922711 0.0087674684160704494 0 -0.0074247059667101305 0.015932035337368724 0 -0.0079186791174589276 0.015258961218761535 0 -0.0071669920815240883 0.015138507843419443 0 -0.010236833566522462 0.0082725476161997803 0 -0.010054947957922711 0.0087674684160704494 0 -0.0098497778773014404 0.0081549903048177483 0 -0.0089790245408235703 0.012052801902285602 0 -0.008685462766460773 0.011304601623499283 0 -0.0079186791174589276 0.015258961218761535 0 -0.0075121674993225696 0.014505860558399322 0 -0.0071669920815240883 0.015138507843419443 0 -0.0075121674993225696 0.014505860558399322 0 -0.0071669920815240883 0.015138507843419443 0 -0.0069850161167202031 0.014392260089437904 0 -0.008685462766460773 0.011304601623499283 0 -0.0083579230275568385 0.010928806513507659 0 -0.0075121674993225696 0.014505860558399322 0 -0.0071799301833185298 0.01394478190885691 0 -0.0069850161167202031 0.014392260089437904 0 -0.010236833566522462 0.0082725476161997803 0 -0.0098497778773014404 0.0081549903048177483 0 -0.010235530740776856 0.0076720943306872215 0 -0.0098497778773014404 0.0081549903048177483 0 -0.0096511561230968115 0.0075813568306754599 0 -0.010235530740776856 0.0076720943306872215 0 -0.0096511561230968115 0.0075813568306754599 0 -0.010235530740776856 0.0076720943306872215 0 -0.0099960028150475264 0.0071152175071725037 0 -0.010235530740776856 0.0076720943306872215 0 -0.010776713343162155 0.0075363139387796194 0 -0.01044383992683968 0.0070283572589364251 0 -0.010236833566522462 0.0082725476161997803 0 -0.010235530740776856 0.0076720943306872215 0 -0.010671007090304472 0.0080435595346754537 0 -0.010235530740776856 0.0076720943306872215 0 -0.010671007090304472 0.0080435595346754537 0 -0.010776713343162155 0.0075363139387796194 0 -0.010776713343162155 0.0075363139387796194 0 -0.010750860159632546 0.0070463864866667624 0 -0.01041407451481236 0.0070854021618005376 0 -0.010776713343162155 0.0075363139387796194 0 -0.010750860159632546 0.0070463864866667624 0 -0.010957816385921113 0.0071851031738731468 0 -0.010762169764127293 0.0075060860293893429 0 -0.010435509503021523 0.0070559746175161758 0 -0.010750860159632546 0.0070463864866667624 0 -0.010925320845182031 0.0068529398247099398 0 -0.010673443387810755 0.0063782321437101906 0 -0.010750860159632546 0.0070463864866667624 0 -0.01041407451481236 0.0070854021618005376 0 -0.010673443387810755 0.0063782321437101906 0 -0.01041407451481236 0.0070854021618005376 0 -0.010057647657298094 0.0064523215461204427 0 -0.010673443387810755 0.0063782321437101906 0 -0.010235530740776856 0.0076720943306872215 0 -0.01044383992683968 0.0070283572589364251 0 -0.0099960028150475264 0.0071152175071725037 0 -0.010435509503021523 0.0070559746175161758 0 -0.010094405455128108 0.0064559952532555901 0 -0.01044383992683968 0.0070283572589364251 0 -0.0099960028150475264 0.0071152175071725037 0 -0.010126992672054861 0.0064639693009079721 0 -0.0099960028150475264 0.0071152175071725037 0 -0.0097910605375045676 0.0068338791916427184 0 -0.010126992672054861 0.0064639693009079721 0 -0.0097910605375045676 0.0068338791916427184 0 -0.00963931364613216 0.0065195328846755201 0 -0.010126992672054861 0.0064639693009079721 0 -0.0096511561230968115 0.0075813568306754599 0 -0.0099960028150475264 0.0071152175071725037 0 -0.0096837819957607523 0.0071163286115812708 0 -0.0097910605375045676 0.0068338791916427184 0 -0.0096837819957607523 0.0071163286115812708 0 -0.0094943230082741754 0.0069806834588598378 0 -0.0099960028150475264 0.0071152175071725037 0 -0.0097910605375045676 0.0068338791916427184 0 -0.0096837819957607523 0.0071163286115812708 0 -0.010350149913339797 0.0082359599723920637 0 -0.010652787625248159 0.0081610223317799026 0 -0.0093652257276658612 0.0089154993889362169 0 -0.0093123114446288808 0.0084960441830337578 0 -0.0098980827355586685 0.0090384353729523227 0 -0.0093652257276658612 0.0089154993889362169 0 -0.0093123114446288808 0.0084960441830337578 0 -0.0089169912713609571 0.0087042817239976183 0 -0.0093652257276658612 0.0089154993889362169 0 -0.0088048585357955646 0.0090068138293632142 0 -0.0089169912713609571 0.0087042817239976183 0 -0.0093652257276658612 0.0089154993889362169 0 -0.0093335947469537408 0.0090934402348765396 0 -0.0088048585357955646 0.0090068138293632142 0 -0.0093652257276658612 0.0089154993889362169 0 -0.0093335947469537408 0.0090934402348765396 0 -0.0097325406049553441 0.0090561641490550168 0 -0.0093335947469537408 0.0090934402348765396 0 -0.0088048585357955646 0.0090068138293632142 0 -0.0091193636911583668 0.0093377844611081187 0 -0.0088048585357955646 0.0090068138293632142 0 -0.0091193636911583668 0.0093377844611081187 0 -0.0068941405755132039 0.0091975373105617885 0 -0.0084826436546849831 0.0086227236524396827 0 -0.0044837393538585627 0.0087779719360136683 0 -0.0088048585357955646 0.0090068138293632142 0 -0.0083441535252651421 0.0087562001166603919 0 -0.0068941405755132039 0.0091975373105617885 0 -0.0091193636911583668 0.0093377844611081187 0 -0.0091348660043391074 0.0095636559434952896 0 -0.0068941405755132039 0.0091975373105617885 0 -0.0088048585357955646 0.0090068138293632142 0 -0.0083441535252651421 0.0087562001166603919 0 -0.0089169912713609571 0.0087042817239976183 0 -0.0083441535252651421 0.0087562001166603919 0 -0.0078005959991606349 0.0083221684075218145 0 -0.0084603355357616254 0.0081515695379196056 0 -0.0083441535252651421 0.0087562001166603919 0 -0.0078005959991606349 0.0083221684075218145 0 -0.0068941405755132039 0.0091975373105617885 0 -0.0083441535252651421 0.0087562001166603919 0 -0.0084603355357616254 0.0081515695379196056 0 -0.0089169912713609571 0.0087042817239976183 0 -0.0078836218203151478 0.0075937019285552626 0 -0.0078005959991606349 0.0083221684075218145 0 -0.0084603355357616254 0.0081515695379196056 0 -0.0078836218203151478 0.0075937019285552626 0 -0.0078005959991606349 0.0083221684075218145 0 -0.0069529653410556691 0.0075782536582684875 0 -0.0084603355357616254 0.0081515695379196056 0 -0.0093123114446288808 0.0084960441830337578 0 -0.0089169912713609571 0.0087042817239976183 0 -0.011363184322622432 0.0078421582138180398 0 -0.011323581373757894 0.007856473603930882 0 -0.011197025350414558 0.0076372428486336319 0 -0.011323581373757894 0.007856473603930882 0 -0.011118621763702981 0.0079189259826065901 0 -0.011197025350414558 0.0076372428486336319 0 -0.010671007090304472 0.0080435595346754537 0 -0.010776713343162155 0.0075363139387796194 0 -0.011118621763702981 0.0079189259826065901 0 -0.010776713343162155 0.0075363139387796194 0 -0.011118621763702981 0.0079189259826065901 0 -0.011197025350414558 0.0076372428486336319 0 -0.010776713343162155 0.0075363139387796194 0 -0.011197025350414558 0.0076372428486336319 0 -0.011085258667865515 0.0073768534407258465 0 -0.011363184322622432 0.0078421582138180398 0 -0.011197025350414558 0.0076372428486336319 0 -0.011297818078098437 0.0073343625860037339 0 -0.011197025350414558 0.0076372428486336319 0 -0.011297818078098437 0.0073343625860037339 0 -0.011085258667865515 0.0073768534407258465 0 -0.011297818078098437 0.0073343625860037339 0 -0.011084292452277543 0.0071819594728503838 0 -0.011085258667865515 0.0073768534407258465 0 -0.010776713343162155 0.0075363139387796194 0 -0.011085258667865515 0.0073768534407258465 0 -0.010957816385921113 0.0071851031738731468 0 -0.011084292452277543 0.0071819594728503838 0 -0.011085258667865515 0.0073768534407258465 0 -0.010957816385921113 0.0071851031738731468 0 -0.010957816385921113 0.0071851031738731468 0 -0.011013589583041375 0.0070646148999807916 0 -0.010925320845182031 0.0068529398247099398 0 -0.010750860159632546 0.0070463864866667624 0 -0.010957816385921113 0.0071851031738731468 0 -0.010925320845182031 0.0068529398247099398 0 -0.011084292452277543 0.0071819594728503838 0 -0.011013589583041375 0.0070646148999807916 0 -0.010999163121976314 0.0070659939237266278 0 -0.011084292452277543 0.0071819594728503838 0 -0.010957816385921113 0.0071851031738731468 0 -0.011013589583041375 0.0070646148999807916 0 -0.011013589583041375 0.0070646148999807916 0 -0.010925320845182031 0.0068529398247099398 0 -0.010999163121976314 0.0070659939237266278 0 -0.011297818078098437 0.0073343625860037339 0 -0.011084292452277543 0.0071819594728503838 0 -0.010999163121976314 0.0070659939237266278 0 -0.010652787625248159 0.0081610223317799026 0 -0.010930673944500162 0.007261842734269339 0 -0.0098980827355586685 0.0090384353729523227 0 -0.01107372733575716 0.0073518299247805601 0 -0.010999163121976314 0.0070659939237266278 0 -0.011910788377803953 0.0080600818817398202 0 -0.012786021081400464 0.0073286683163844984 0 -0.011925631892776078 0.0072949810971742251 0 -0.0098980827355586685 0.0090384353729523227 0 -0.01030628956523442 0.0085197125069774761 0 -0.01107372733575716 0.0073518299247805601 0 -0.011910788377803953 0.0080600818817398202 0 -0.011925631892776078 0.0072949810971742251 0 -0.01107372733575716 0.0073518299247805601 0 -0.011264101646332101 0.0084377426698431131 0 -0.010830626442148692 0.0073966228793731588 0 -0.0098980827355586685 0.0090384353729523227 0 -0.01030628956523442 0.0085197125069774761 0 -0.0097325406049553441 0.0090561641490550168 0 -0.011264101646332101 0.0084377426698431131 0 -0.0084826436546849831 0.0086227236524396827 0 -0.01030628956523442 0.0085197125069774761 0 -0.0097325406049553441 0.0090561641490550168 0 -0.0093728894164284825 0.009246342079954362 0 -0.0097325406049553441 0.0090561641490550168 0 -0.0094387245307563424 0.0091775535347656603 0 -0.0093728894164284825 0.009246342079954362 0 -0.0093335947469537408 0.0090934402348765396 0 -0.0097325406049553441 0.0090561641490550168 0 -0.0094387245307563424 0.0091775535347656603 0 -0.0093652257276658612 0.0089154993889362169 0 -0.0098980827355586685 0.0090384353729523227 0 -0.0097325406049553441 0.0090561641490550168 0 -0.0093335947469537408 0.0090934402348765396 0 -0.0094387245307563424 0.0091775535347656603 0 -0.0091193636911583668 0.0093377844611081187 0 -0.0094387245307563424 0.0091775535347656603 0 -0.0091193636911583668 0.0093377844611081187 0 -0.0093728894164284825 0.009246342079954362 0 -0.0085720634864603525 0.0089342040569921552 0 -0.0084826436546849831 0.0086227236524396827 0 -0.011910788377803953 0.0080600818817398202 0 -0.012538047902114085 0.0087445359291786311 0 -0.012786021081400464 0.0073286683163844984 0 -0.002753781296307599 0.0087838774458094578 0 -0.0026513512677141934 0.0087879779601589859 0 -0.0024696388693146651 0.0087775098074613714 0 -0.0084826436546849831 0.0086227236524396827 0 -0.007523021015923669 0.008072388709343176 0 -0.0026513512677141934 0.0087879779601589859 0 -0.0027281039703612366 0.0088326132703903295 0 -0.0023984657988352599 0.0088094362520965697 0 -0.0026513512677141934 0.0087879779601589859 0 -0.0023984657988352599 0.0088094362520965697 0 -0.0024696388693146651 0.0087775098074613714 0 -0.0027281039703612366 0.0088326132703903295 0 -0.0024907855017185674 0.0089923336819787199 0 -0.0023984657988352599 0.0088094362520965697 0 -0.0027281039703612366 0.0088326132703903295 0 -0.0028531648049253387 0.0087559114335804995 0 -0.0029730694743508152 0.0086867572716191974 0 -0.0026513512677141934 0.0087879779601589859 0 -0.0027281039703612366 0.0088326132703903295 0 -0.0028531648049253387 0.0087559114335804995 0 -0.002753781296307599 0.0087838774458094578 0 -0.0026513512677141934 0.0087879779601589859 0 -0.0028531648049253387 0.0087559114335804995 0 -0.0028531648049253387 0.0087559114335804995 0 -0.0030893153487538158 0.008671797696717852 0 -0.0029730694743508152 0.0086867572716191974 0 -0.002753781296307599 0.0087838774458094578 0 -0.0028531648049253387 0.0087559114335804995 0 -0.0030893153487538158 0.008671797696717852 0 -0.0030893153487538158 0.008671797696717852 0 -0.0029730694743508152 0.0086867572716191974 0 -0.0032977044720418633 0.0084550418300605341 0 -0.0030893153487538158 0.008671797696717852 0 -0.0032977044720418633 0.0084550418300605341 0 -0.0039261511333706081 0.0078332148346239219 0 -0.0044837393538585627 0.0087779719360136683 0 -0.0040578095993404036 0.0078721352525255722 0 -0.0068941405755132039 0.0091975373105617885 0 -0.0055445257057689049 0.0074580208780121509 0 -0.0039261511333706081 0.0078332148346239219 0 -0.0068941405755132039 0.0091975373105617885 0 -0.0055445257057689049 0.0074580208780121509 0 -0.0069529653410556691 0.0075782536582684875 0 -0.0078005959991606349 0.0083221684075218145 0 -0.0068941405755132039 0.0091975373105617885 0 -0.0069529653410556691 0.0075782536582684875 0 -0.0022366518390270359 0.0086111028702427553 0 -0.0025399638424531421 0.0082756726890454956 0 -0.0029078525648367584 0.0086399280803436691 0 -0.0022366518390270359 0.0086111028702427553 0 -0.0025399638424531421 0.0082756726890454956 0 -0.0021443112288805212 0.0081187518208511739 0 -0.0032977044720418633 0.0084550418300605341 0 -0.0028790191177511435 0.0084826502777214895 0 -0.0039261511333706081 0.0078332148346239219 0 -0.0025399638424531421 0.0082756726890454956 0 -0.0029078525648367584 0.0086399280803436691 0 -0.0028953333295832955 0.0076229130917118831 0 -0.0029730694743508152 0.0086867572716191974 0 -0.0032977044720418633 0.0084550418300605341 0 -0.0028790191177511435 0.0084826502777214895 0 -0.0029254186641600004 0.0085112055669428911 0 -0.0024929618297143625 0.0089622847450055755 0 -0.0029730694743508152 0.0086867572716191974 0 -0.0028790191177511435 0.0084826502777214895 0 -0.0025413276907297307 0.008819548801080164 0 -0.0022366518390270359 0.0086111028702427553 0 -0.0029078525648367584 0.0086399280803436691 0 -0.0024273868759835974 0.0090798803940198344 0 -0.0027281039703612366 0.0088326132703903295 0 -0.0029730694743508152 0.0086867572716191974 0 -0.0025413276907297307 0.008819548801080164 0 -0.0027281039703612366 0.0088326132703903295 0 -0.0025413276907297307 0.008819548801080164 0 -0.0024907855017185674 0.0089923336819787199 0 -0.0024929618297143625 0.0089622847450055755 0 -0.0023458160524049815 0.0091905969389575685 0 -0.0025413276907297307 0.008819548801080164 0 -0.0023365139458099969 0.0092027778668474104 0 -0.0024907855017185674 0.0089923336819787199 0 -0.0024273868759835974 0.0090798803940198344 0 -0.0019214858056489212 0.0092098594179620599 0 -0.0023365139458099969 0.0092027778668474104 0 -0.0019214858056489212 0.0092098594179620599 0 -0.001314587645995755 0.0093248598263048852 0 -0.0018611824112232979 0.0089012303161026523 0 -0.0024273868759835974 0.0090798803940198344 0 -0.0019214858056489212 0.0092098594179620599 0 -0.0018611824112232979 0.0089012303161026523 0 -0.00034877826600557846 0.0097503475492400626 0 -0.001314587645995755 0.0093248598263048852 0 -0.0011316869408040419 0.0088703025190268042 0 -0.00034877826600557846 0.0097503475492400626 0 -0.00081051901427318571 0.009758107080952318 0 -0.001314587645995755 0.0093248598263048852 0 -0.00081051901427318571 0.009758107080952318 0 -0.001314587645995755 0.0093248598263048852 0 -0.0013421380389418848 0.0096197021402995141 0 -0.0019214858056489212 0.0092098594179620599 0 -0.001314587645995755 0.0093248598263048852 0 -0.0013421380389418848 0.0096197021402995141 0 -0.001314587645995755 0.0093248598263048852 0 -0.0011316869408040419 0.0088703025190268042 0 -0.0018611824112232979 0.0089012303161026523 0 -0.00036911182395689602 0.0097085913163474039 0 -0.00064897278126864477 0.0094243589631413521 0 2.7399212966133447e-05 0.010025389185872932 0 -0.00013251978297921838 0.0099602138173524295 0 -0.00025455202780093436 0.0092113629819661185 0 -0.00013251978297921838 0.0099602138173524295 0 -0.00068030359406512375 0.0090079761050605011 0 -0.00025455202780093436 0.0092113629819661185 0 -0.00064897278126864477 0.0094243589631413521 0 -0.0013169744161413018 0.0089415455231174768 0 -0.00013251978297921838 0.0099602138173524295 0 -0.00091476556700563082 0.0094375308257752723 0 -0.00068030359406512375 0.0090079761050605011 0 -0.0022366518390270359 0.0086111028702427553 0 -0.0024273868759835974 0.0090798803940198344 0 -0.0018611824112232979 0.0089012303161026523 0 -0.0022366518390270359 0.0086111028702427553 0 -0.0018611824112232979 0.0089012303161026523 0 -0.001738743244992548 0.0085065789738654161 0 -0.0011316869408040419 0.0088703025190268042 0 -0.0018611824112232979 0.0089012303161026523 0 -0.001738743244992548 0.0085065789738654161 0 -0.0022366518390270359 0.0086111028702427553 0 -0.001738743244992548 0.0085065789738654161 0 -0.0021443112288805212 0.0081187518208511739 0 -0.0013169744161413018 0.0089415455231174768 0 -0.0021097988118907512 0.0082033252172461005 0 -0.0017387583883214654 0.0079437402441436752 0 -0.00095492648067186975 0.0082276175265013681 0 -0.0012368292175104758 0.0083059756548730605 0 -0.0021443112288805212 0.0081187518208511739 0 -0.0022607205672063348 0.0070160836086863316 0 -0.0012368292175104758 0.0083059756548730605 0 -0.0011030346629064775 0.0082511307026378825 0 -0.0016950867567389349 0.0080768042017150526 0 -0.00091476556700563082 0.0094375308257752723 0 -0.0012368292175104758 0.0083059756548730605 0 -0.0021443112288805212 0.0081187518208511739 0 -0.00091476556700563082 0.0094375308257752723 0 -0.0012368292175104758 0.0083059756548730605 0 -0.00068030359406512375 0.0090079761050605011 0 -0.0012368292175104758 0.0083059756548730605 0 -0.00068030359406512375 0.0090079761050605011 0 -0.0011030346629064775 0.0082511307026378825 0 0.0013184017398098124 0.010736568258661415 0 0.0012565901979048593 0.010952362505502206 0 0.0014193517099508341 0.01091884008517389 0 0.0013184017398098124 0.010736568258661415 0 0.0012565901979048593 0.010952362505502206 0 0.001043644145528702 0.010965643190186938 0 0.0012565901979048593 0.010952362505502206 0 0.001043644145528702 0.010965643190186938 0 0.0012508797419286866 0.011201915079129085 0 0.0012565901979048593 0.010952362505502206 0 0.0014193517099508341 0.01091884008517389 0 0.0013671476945231224 0.011053484566387243 0 0.0013671476945231224 0.011053484566387243 0 0.001497588019919836 0.011010197578297739 0 0.001470505705583082 0.011096150116368102 0 0.0014193517099508341 0.01091884008517389 0 0.0013671476945231224 0.011053484566387243 0 0.001497588019919836 0.011010197578297739 0 0.0014193517099508341 0.01091884008517389 0 0.001497588019919836 0.011010197578297739 0 0.0016436693788748975 0.01089388801158307 0 0.0013184017398098124 0.010736568258661415 0 0.0014193517099508341 0.01091884008517389 0 0.0016436693788748975 0.01089388801158307 0 0.00031822269363063817 0.0096982987496428679 0 -0.00095492648067186975 0.0082276175265013681 0 2.7399212966133447e-05 0.010025389185872932 0 0.00083716375120195126 0.010445856043132438 0 0.00044827851851106452 0.010754560471005457 0 3.9640886623202665e-05 0.0099861812646193353 0 0.00017196225715602497 0.0097832548535347289 0 0.00031822269363063817 0.0096982987496428679 0 0.00017196225715602497 0.0097832548535347289 0 -0.00068030359406512375 0.0090079761050605011 0 -0.0011030346629064775 0.0082511307026378825 0 -0.00025455202780093436 0.0092113629819661185 0 0.00083716375120195126 0.010445856043132438 0 0.001043644145528702 0.010965643190186938 0 0.00078477483079249298 0.010819363410140032 0 0.0013184017398098124 0.010736568258661415 0 0.00083716375120195126 0.010445856043132438 0 0.001043644145528702 0.010965643190186938 0 0.001043644145528702 0.010965643190186938 0 0.00078477483079249298 0.010819363410140032 0 0.0007678089247894626 0.011112163798370883 0 0.00083716375120195126 0.010445856043132438 0 0.00078477483079249298 0.010819363410140032 0 0.00044827851851106452 0.010754560471005457 0 0.00078477483079249298 0.010819363410140032 0 0.0007678089247894626 0.011112163798370883 0 0.00044827851851106452 0.010754560471005457 0 0.0007678089247894626 0.011112163798370883 0 0.00041349930077694529 0.011165576502858661 0 0.00044827851851106452 0.010754560471005457 0 0.00015800357052904972 0.010908702902496591 0 0.00041349930077694529 0.011165576502858661 0 0.00044827851851106452 0.010754560471005457 0 -0.00013105294288214524 0.011543017844124388 0 0.0004559304851266273 0.012639568894347952 0 0.00055403080324269995 0.012749630644122097 0 -0.00013105294288214524 0.011543017844124388 0 0.00041349930077694529 0.011165576502858661 0 0.00064292243417322578 0.011434512079803043 0 -1.0935339358639088e-05 0.012915766343257985 0 0.0004559304851266273 0.012639568894347952 0 0.00054901224929052028 0.013576430360972894 0 0.0007678089247894626 0.011112163798370883 0 0.00041349930077694529 0.011165576502858661 0 0.00064292243417322578 0.011434512079803043 0 0.0004559304851266273 0.012639568894347952 0 0.00068849546918239759 0.012674106692316903 0 0.00054901224929052028 0.013576430360972894 0 0.00061999826915914145 0.012523694079336701 0 0.00063457152949313944 0.012514703890910759 0 0.0007678089247894626 0.011112163798370883 0 0.00064292243417322578 0.011434512079803043 0 0.0010587913007788071 0.011374468577424815 0 0.000890428133051259 0.013391194467840125 0 0.00077032951689871376 0.013401221312624438 0 0.00080038559435196687 0.013375454594887627 0 0.001043644145528702 0.010965643190186938 0 0.0007678089247894626 0.011112163798370883 0 0.0010587913007788071 0.011374468577424815 0 0.00063457152949313944 0.012514703890910759 0 0.0010848098940453173 0.012356388105556639 0 0.00063457152949313944 0.012514703890910759 0 0.0016684575191478945 0.013460811426865256 0 0.0023627433735648011 0.0153611357982403 0 0.00095394123564748225 0.015009962963326457 0 0.0022087668658766668 0.013348450089276214 0 0.0023627433735648011 0.0153611357982403 0 0.0022087668658766668 0.013348450089276214 0 0.003871141708005948 0.014112575748348314 0 0.00095394123564748225 0.015009962963326457 0 0.0022087668658766668 0.013348450089276214 0 0.00054901224929052028 0.013576430360972894 0 0.00068849546918239759 0.012674106692316903 0 0.0022087668658766668 0.013348450089276214 0 0.00054901224929052028 0.013576430360972894 0 0.00095394123564748225 0.015009962963326457 0 7.7520126076974398e-05 0.015178106088401536 0 0.00054901224929052028 0.013576430360972894 0 -0.00070076584751472171 0.013789103463240101 0 7.7520126076974398e-05 0.015178106088401536 0 0.00054901224929052028 0.013576430360972894 0 -0.00070076584751472171 0.013789103463240101 0 -1.0935339358639088e-05 0.012915766343257985 0 0.00054901224929052028 0.013576430360972894 0 -0.00053499400499635685 0.011327093168696642 0 -0.0020217510623410069 0.011089663078925994 0 -0.0014551280536110344 0.012041044829079776 0 0.0013910002799570258 0.011197891141985989 0 0.0013877206941035132 0.011360059718200761 0 0.0015880461609858482 0.011131502955428555 0 3.6922557875503527e-05 0.013308711770207817 0 0.00023808072636086612 0.011489664503217971 0 0.001497588019919836 0.011010197578297739 0 0.001470505705583082 0.011096150116368102 0 0.0015880461609858482 0.011131502955428555 0 0.0013910002799570258 0.011197891141985989 0 0.001470505705583082 0.011096150116368102 0 0.0015880461609858482 0.011131502955428555 0 0.0013671476945231224 0.011053484566387243 0 0.0013910002799570258 0.011197891141985989 0 0.001470505705583082 0.011096150116368102 0 0.001043644145528702 0.010965643190186938 0 0.0010587913007788071 0.011374468577424815 0 0.0012508797419286866 0.011201915079129085 0 0.0013671476945231224 0.011053484566387243 0 0.0013910002799570258 0.011197891141985989 0 0.0012508797419286866 0.011201915079129085 0 0.0012565901979048593 0.010952362505502206 0 0.0013671476945231224 0.011053484566387243 0 0.0012508797419286866 0.011201915079129085 0 0.0010587913007788071 0.011374468577424815 0 0.0012508797419286866 0.011201915079129085 0 0.0013877206941035132 0.011360059718200761 0 0.0013910002799570258 0.011197891141985989 0 0.0012508797419286866 0.011201915079129085 0 0.0013877206941035132 0.011360059718200761 0 0.00046699570297809283 0.015876104054357111 0 3.6922557875503527e-05 0.013308711770207817 0 0.00077032951689871376 0.013401221312624438 0 0.00069178390653008999 0.013339668618177406 0 0.00062225288290243693 0.013392062507839544 0 0.0010848098940453173 0.012356388105556639 0 3.6922557875503527e-05 0.013308711770207817 0 0.00077032951689871376 0.013401221312624438 0 0.00080038559435196687 0.013375454594887627 0 0.00069178390653008999 0.013339668618177406 0 0.0016684575191478945 0.013460811426865256 0 0.00046699570297809283 0.015876104054357111 0 0.0010983528678935764 0.016358451280976412 0 0.00046699570297809283 0.015876104054357111 0 -0.00090764405358378019 0.017566084307075507 0 -0.00082028016539853043 0.017925645259443651 0 -0.0012937163309635472 0.01772117880778384 0 -0.0010176411818433946 0.0182671795034655 0 -0.0016736538602183267 0.017856838330980253 0 -0.0020725243941458454 0.018156657352944323 0 0.00046699570297809283 0.015876104054357111 0 -0.0012756757093335483 0.01759424782796214 0 3.6922557875503527e-05 0.013308711770207817 0 -0.002217877784696537 0.014745546867321173 0 -0.00060094486252567996 0.017930107670373778 0 -0.0012377300403318902 0.017682215129755378 0 -0.0010176411818433946 0.0182671795034655 0 -0.0012377300403318902 0.017682215129755378 0 -0.0010176411818433946 0.0182671795034655 0 -0.0016736538602183267 0.017856838330980253 0 -0.0023147513765919164 0.017677558251756095 0 -0.0016736538602183267 0.017856838330980253 0 -0.0020725243941458454 0.018156657352944323 0 -0.0020217510623410069 0.011089663078925994 0 -0.0023596437428068774 0.011894263317943791 0 -0.0014551280536110344 0.012041044829079776 0 -0.0023596437428068774 0.011894263317943791 0 -0.0014551280536110344 0.012041044829079776 0 -0.0023901316823104115 0.012784346731862477 0 -0.0020217510623410069 0.011089663078925994 0 -0.0023596437428068774 0.011894263317943791 0 -0.0030289824884890603 0.011646097084971007 0 -0.0023596437428068774 0.011894263317943791 0 -0.0030289824884890603 0.011646097084971007 0 -0.003009532491076257 0.012489940646428735 0 -0.0023147513765919164 0.017677558251756095 0 -0.0020725243941458454 0.018156657352944323 0 -0.0032145844194274597 0.018002358923211354 0 -0.0028447325139965632 0.017460514584440326 0 -0.0023147513765919164 0.017677558251756095 0 -0.0032145844194274597 0.018002358923211354 0 -0.0020217510623410069 0.011089663078925994 0 -0.0030289824884890603 0.011646097084971007 0 -0.003530209611126608 0.01085398295297724 0 -0.002217877784696537 0.014745546867321173 0 -0.0032388233552276464 0.014430181290945527 0 -0.0035472456493886957 0.017426840274227109 0 -0.0032145844194274597 0.018002358923211354 0 -0.0043957848304550006 0.017799728202233776 0 -0.0032388233552276464 0.014430181290945527 0 -0.005229531160653925 0.014166706290794142 0 -0.003530209611126608 0.01085398295297724 0 -0.00465667900096045 0.011261583971217392 0 -0.0042348697711024428 0.0119056858587349 0 -0.003530209611126608 0.01085398295297724 0 -0.0050535677704201566 0.010626986192999685 0 -0.00465667900096045 0.011261583971217392 0 -0.0058308463099804933 0.01031307075243732 0 -0.0068021433269293665 0.013440900571214888 0 -0.0075370178085417553 0.013332915349781253 0 -0.0065496188636933505 0.013548711953343468 0 -0.005229531160653925 0.014166706290794142 0 -0.005463693800685997 0.011315469959413085 0 -0.0050535677704201566 0.010626986192999685 0 -0.00465667900096045 0.011261583971217392 0 -0.0074457627618263146 0.0093472079125189178 0 -0.0065496188636933505 0.013548711953343468 0 -0.0074457627618263146 0.0093472079125189178 0 -0.005229531160653925 0.014166706290794142 0 -0.0074457627618263146 0.0093472079125189178 0 -0.0046129815230312584 0.0081050274268350368 0 -0.005463693800685997 0.011315469959413085 0 -0.00465667900096045 0.011261583971217392 0 -0.0042348697711024428 0.0119056858587349 0 -0.0072028336372563671 0.0035575070942282833 0 -0.0069903698451050135 0.0049252824106355148 0 -0.0051837779853763409 0.0044930630867146513 0 -0.0046129815230312584 0.0081050274268350368 0 -0.0030842406788082811 0.0090448835507288272 0 -0.0069903698451050135 0.0049252824106355148 0 -0.0051837779853763409 0.0044930630867146513 0 -0.0039992926942065115 0.0058590885161202274 0 -0.0030289824884890603 0.011646097084971007 0 -0.003530209611126608 0.01085398295297724 0 -0.0042348697711024428 0.0119056858587349 0 -0.0051837779853763409 0.0044930630867146513 0 -0.0039992926942065115 0.0058590885161202274 0 -0.0030213884121646556 0.0056060137792073791 0 -0.0030289824884890603 0.011646097084971007 0 -0.0042348697711024428 0.0119056858587349 0 -0.003009532491076257 0.012489940646428735 0 -0.0041463133018139423 0.0058459561565611714 0 -0.0051152474962253289 0.006448217273188772 0 -0.0060999548120698743 0.0060188819152878327 0 -0.0051152474962253289 0.006448217273188772 0 -0.0044186900591238736 0.0065405360250976024 0 -0.00453044464761503 0.0069786487004980724 0 -0.0044186900591238736 0.0065405360250976024 0 -0.00453044464761503 0.0069786487004980724 0 -0.0038890808063217525 0.0068093035547413788 0 -0.0041463133018139423 0.0058459561565611714 0 -0.0044186900591238736 0.0065405360250976024 0 -0.0038890808063217525 0.0068093035547413788 0 -0.0041463133018139423 0.0058459561565611714 0 -0.0051152474962253289 0.006448217273188772 0 -0.0044186900591238736 0.0065405360250976024 0 -0.0067598383003079259 0.0050514953825324975 0 -0.0043003918796599627 0.00564994021079123 0 -0.0069903698451050135 0.0049252824106355148 0 -0.0041463133018139423 0.0058459561565611714 0 -0.0060999548120698743 0.0060188819152878327 0 -0.0072478770242363696 0.0061123365771529742 0 -0.0069903698451050135 0.0049252824106355148 0 -0.0060999548120698743 0.0060188819152878327 0 -0.0051152474962253289 0.006448217273188772 0 -0.0060999548120698743 0.0060188819152878327 0 -0.0060695339567491211 0.0067507177933614675 0 -0.0072478770242363696 0.0061123365771529742 0 -0.0060999548120698743 0.0060188819152878327 0 -0.0069000593825975553 0.00667406407677821 0 -0.0060999548120698743 0.0060188819152878327 0 -0.0069000593825975553 0.00667406407677821 0 -0.0060695339567491211 0.0067507177933614675 0 -0.0075467073471751443 0.006951126437426485 0 -0.0069000593825975553 0.00667406407677821 0 -0.0069529653410556691 0.0075782536582684875 0 -0.0069000593825975553 0.00667406407677821 0 -0.0060695339567491211 0.0067507177933614675 0 -0.0069529653410556691 0.0075782536582684875 0 -0.0051152474962253289 0.006448217273188772 0 -0.0060695339567491211 0.0067507177933614675 0 -0.0055445257057689049 0.0074580208780121509 0 -0.0060695339567491211 0.0067507177933614675 0 -0.0055445257057689049 0.0074580208780121509 0 -0.0069529653410556691 0.0075782536582684875 0 -0.00453044464761503 0.0069786487004980724 0 -0.0039261511333706081 0.0078332148346239219 0 -0.0038890808063217525 0.0068093035547413788 0 -0.0051152474962253289 0.006448217273188772 0 -0.0055445257057689049 0.0074580208780121509 0 -0.00453044464761503 0.0069786487004980724 0 -0.0055445257057689049 0.0074580208780121509 0 -0.00453044464761503 0.0069786487004980724 0 -0.0039261511333706081 0.0078332148346239219 0 -0.0028790191177511435 0.0084826502777214895 0 -0.0039261511333706081 0.0078332148346239219 0 -0.0038890808063217525 0.0068093035547413788 0 -0.0029078525648367584 0.0086399280803436691 0 -0.0028953333295832955 0.0076229130917118831 0 -0.0038890808063217525 0.0068093035547413788 0 -0.0028953333295832955 0.0076229130917118831 0 -0.0022607205672063348 0.0070160836086863316 0 -0.0038890808063217525 0.0068093035547413788 0 -0.0029254186641600004 0.0085112055669428911 0 -0.0037986039612792721 0.0068965114118994435 0 -0.0025399638424531421 0.0082756726890454956 0 -0.0028953333295832955 0.0076229130917118831 0 -0.0021443112288805212 0.0081187518208511739 0 -0.0028953333295832955 0.0076229130917118831 0 -0.0021443112288805212 0.0081187518208511739 0 -0.0022607205672063348 0.0070160836086863316 0 0.001497588019919836 0.011010197578297739 0 0.0015880461609858482 0.011131502955428555 0 0.0016436693788748975 0.01089388801158307 0 0.0015880461609858482 0.011131502955428555 0 0.0016436693788748975 0.01089388801158307 0 0.0017440341341411825 0.010950739249044831 0 -0.00095492648067186975 0.0082276175265013681 0 -0.0013060716715739926 0.010025118405139132 0 0.00023808072636086612 0.011489664503217971 0 -0.0013060716715739926 0.010025118405139132 0 -0.0043003918796599627 0.00564994021079123 0 -0.00095492648067186975 0.0082276175265013681 0 -0.0041463133018139423 0.0058459561565611714 0 -0.0022607205672063348 0.0070160836086863316 0 -0.0038890808063217525 0.0068093035547413788 0 -0.0039992926942065115 0.0058590885161202274 0 -0.0018769824603974399 0.0062085028313820503 0 -0.0030213884121646556 0.0056060137792073791 0 -0.0039992926942065115 0.0058590885161202274 0 -0.00078717549452758748 0.0067864454104335399 0 -0.0018769824603974399 0.0062085028313820503 0 -0.0023596437428068774 0.011894263317943791 0 -0.0023901316823104115 0.012784346731862477 0 -0.003009532491076257 0.012489940646428735 0 -0.0013060716715739926 0.010025118405139132 0 -0.0030842406788082811 0.0090448835507288272 0 -0.014979012099554045 0.012190599986926526 0 -0.01501377921340088 0.011979224737415372 0 -0.01505381867251499 0.012359984058485769 0 -0.014979012099554045 0.012190599986926526 0 -0.01487641611078132 0.012170184429364248 0 -0.014951305271423881 0.011922791275358504 0 -0.014979012099554045 0.012190599986926526 0 -0.014951305271423881 0.011922791275358504 0 -0.01501377921340088 0.011979224737415372 0 -0.014979012099554045 0.012190599986926526 0 -0.01487641611078132 0.012170184429364248 0 -0.014932409730365217 0.012473610700045367 0 -0.01500010845195395 0.011544592703640087 0 -0.015080083968794705 0.011596672506561219 0 -0.014999942874627071 0.012354539723339565 0 -0.01487641611078132 0.012170184429364248 0 -0.014636754156642956 0.011897185436933966 0 -0.014999754855398588 0.01235486210694795 0 -0.014890181029176334 0.011725652046476178 0 -0.014999925280467719 0.012354234181390769 0 -0.01487641611078132 0.012170184429364248 0 -0.014848189235130305 0.011959172792316744 0 -0.014636754156642956 0.011897185436933966 0 -0.01487641611078132 0.012170184429364248 0 -0.014848189235130305 0.011959172792316744 0 -0.014951305271423881 0.011922791275358504 0 -0.014890606809596491 0.011797971280787335 0 -0.014848189235130305 0.011959172792316744 0 -0.014636754156642956 0.011897185436933966 0 -0.01500010845195395 0.011544592703640087 0 -0.015080083968794705 0.011596672506561219 0 -0.015027285634212508 0.010920442913150844 0 -0.014890606809596491 0.011797971280787335 0 -0.014848189235130305 0.011959172792316744 0 -0.014951305271423881 0.011922791275358504 0 -0.014636754156642956 0.011897185436933966 0 -0.014943032830367946 0.011522016742881591 0 -0.01500260094791755 0.011252308890235629 0 -0.014890606809596491 0.011797971280787335 0 -0.014943032830367946 0.011522016742881591 0 -0.014975359186827521 0.011656334478517296 0 -0.014890606809596491 0.011797971280787335 0 -0.014636754156642956 0.011897185436933966 0 -0.014943032830367946 0.011522016742881591 0 -0.014975359186827521 0.011656334478517296 0 -0.014951305271423881 0.011922791275358504 0 -0.015009628928636063 0.011654833777501455 0 -0.014943032830367946 0.011522016742881591 0 -0.014975359186827521 0.011656334478517296 0 -0.015030536962652143 0.011437079306789064 0 -0.014975359186827521 0.011656334478517296 0 -0.015009628928636063 0.011654833777501455 0 -0.015030536962652143 0.011437079306789064 0 -0.014890606809596491 0.011797971280787335 0 -0.014975359186827521 0.011656334478517296 0 -0.014951305271423881 0.011922791275358504 0 -0.014951305271423881 0.011922791275358504 0 -0.015009628928636063 0.011654833777501455 0 -0.01501377921340088 0.011979224737415372 0 -0.015009628928636063 0.011654833777501455 0 -0.014985693404638914 0.011799293419645902 0 -0.014952586597277889 0.011659657757311433 0 -0.014985693404638914 0.011799293419645902 0 -0.014967896931869507 0.011915029103782017 0 -0.014952586597277889 0.011659657757311433 0 -0.014985693404638914 0.011799293419645902 0 -0.014967896931869507 0.011915029103782017 0 -0.01501377921340088 0.011979224737415372 0 -0.015009628928636063 0.011654833777501455 0 -0.014985693404638914 0.011799293419645902 0 -0.01501377921340088 0.011979224737415372 0 -0.014967896931869507 0.011915029103782017 0 -0.014927052661203363 0.012104966002456363 0 -0.014805137464574661 0.012009687314888178 0 -0.014967896931869507 0.011915029103782017 0 -0.014805137464574661 0.012009687314888178 0 -0.014858987209707492 0.011777603887492032 0 -0.014967896931869507 0.011915029103782017 0 -0.014858987209707492 0.011777603887492032 0 -0.014952586597277889 0.011659657757311433 0 -0.015034030788632514 0.012148364853351325 0 -0.015111907161710566 0.012346673933742586 0 -0.014963516050308337 0.012228825825363094 0 -0.014967896931869507 0.011915029103782017 0 -0.015034030788632514 0.012148364853351325 0 -0.014927052661203363 0.012104966002456363 0 -0.015034030788632514 0.012148364853351325 0 -0.014927052661203363 0.012104966002456363 0 -0.014963516050308337 0.012228825825363094 0 -0.015034030788632514 0.012148364853351325 0 -0.01501377921340088 0.011979224737415372 0 -0.01505381867251499 0.012359984058485769 0 -0.014967896931869507 0.011915029103782017 0 -0.015034030788632514 0.012148364853351325 0 -0.01501377921340088 0.011979224737415372 0 -0.01505381867251499 0.012359984058485769 0 -0.015111907161710566 0.012346673933742586 0 -0.01518057776328865 0.012578798245021065 0 -0.015034030788632514 0.012148364853351325 0 -0.01505381867251499 0.012359984058485769 0 -0.015111907161710566 0.012346673933742586 0 -0.015111907161710566 0.012346673933742586 0 -0.01502277475220443 0.012288409760888396 0 -0.014963516050308337 0.012228825825363094 0 -0.015111907161710566 0.012346673933742586 0 -0.01518057776328865 0.012578798245021065 0 -0.015114211598367306 0.012319896093526034 0 -0.014478622089275627 0.01389835311628209 0 -0.014102771562051957 0.013447882798929068 0 -0.01518057776328865 0.012578798245021065 0 -0.015313398777686837 0.012986261322350586 0 -0.015114211598367306 0.012319896093526034 0 -0.01505381867251499 0.012359984058485769 0 -0.01518057776328865 0.012578798245021065 0 -0.014911742491538068 0.012904777532976867 0 -0.01518057776328865 0.012578798245021065 0 -0.014911742491538068 0.012904777532976867 0 -0.015313398777686837 0.012986261322350586 0 -0.014911742491538068 0.012904777532976867 0 -0.014932409730365217 0.012473610700045367 0 -0.014881885727869937 0.012869290082039575 0 -0.014911742491538068 0.012904777532976867 0 -0.014881885727869937 0.012869290082039575 0 -0.014675819497231133 0.013438614633876921 0 -0.014979012099554045 0.012190599986926526 0 -0.01505381867251499 0.012359984058485769 0 -0.014932409730365217 0.012473610700045367 0 -0.01505381867251499 0.012359984058485769 0 -0.014911742491538068 0.012904777532976867 0 -0.014932409730365217 0.012473610700045367 0 -0.014932409730365217 0.012473610700045367 0 -0.014999754855398588 0.01235486210694795 0 -0.014881885727869937 0.012869290082039575 0 -0.01487641611078132 0.012170184429364248 0 -0.014932409730365217 0.012473610700045367 0 -0.014999754855398588 0.01235486210694795 0 -0.014999754855398588 0.01235486210694795 0 -0.014881885727869937 0.012869290082039575 0 -0.014997805091153041 0.013228425614807948 0 -0.014997805091153041 0.013228425614807948 0 -0.014675819497231133 0.013438614633876921 0 -0.014264895167870991 0.014137092285892047 0 -0.015000282487471922 0.013228629982704751 0 -0.015122454005016737 0.013846676157484326 0 -0.014999005984279133 0.01500011332101712 0 -0.014999843397551232 0.013228738372504822 0 -0.014747844998178682 0.014029807632161825 0 -0.014881885727869937 0.012869290082039575 0 -0.014997805091153041 0.013228425614807948 0 -0.014675819497231133 0.013438614633876921 0 -0.014911742491538068 0.012904777532976867 0 -0.014675819497231133 0.013438614633876921 0 -0.014578596183522861 0.01419844210608143 0 -0.014578596183522861 0.01419844210608143 0 -0.014247711523367637 0.014649312836347163 0 -0.01395813155653995 0.014670758967735086 0 -0.014578596183522861 0.01419844210608143 0 -0.014341335721873363 0.014453014919223154 0 -0.014247711523367637 0.014649312836347163 0 -0.014675819497231133 0.013438614633876921 0 -0.014578596183522861 0.01419844210608143 0 -0.014264895167870991 0.014137092285892047 0 -0.014578596183522861 0.01419844210608143 0 -0.014341335721873363 0.014453014919223154 0 -0.014264895167870991 0.014137092285892047 0 -0.014747844998178682 0.014029807632161825 0 -0.014655136484672707 0.014583273975355658 0 -0.014341335721873363 0.014453014919223154 0 -0.014264895167870991 0.014137092285892047 0 -0.014214419387965695 0.014773412467414201 0 -0.015122454005016737 0.013846676157484326 0 -0.015151064797221328 0.014503771005720482 0 -0.014999005984279133 0.01500011332101712 0 -0.014341335721873363 0.014453014919223154 0 -0.014214419387965695 0.014773412467414201 0 -0.014247711523367637 0.014649312836347163 0 -0.014214419387965695 0.014773412467414201 0 -0.014247711523367637 0.014649312836347163 0 -0.014168185397528251 0.014906093368197215 0 -0.014514876980234945 0.014999603892635906 0 -0.014168185397528251 0.014906093368197215 0 -0.013684675992136981 0.014999509941156152 0 -0.014214419387965695 0.014773412467414201 0 -0.014514876980234945 0.014999603892635906 0 -0.014168185397528251 0.014906093368197215 0 -0.014655136484672707 0.014583273975355658 0 -0.014516061729322001 0.014999723556581726 0 -0.015151064797221328 0.014503771005720482 0 -0.014517699906516563 0.014999500781710334 0 -0.014999005984279133 0.01500011332101712 0 -0.013253814263245846 0.014983143494488153 0 -0.013684675992136981 0.014999509941156152 0 -0.012852437514685688 0.014999552423064829 0 -0.013253814263245846 0.014983143494488153 0 -0.013684675992136981 0.014999509941156152 0 -0.013818316213091583 0.014858447303909754 0 -0.014168185397528251 0.014906093368197215 0 -0.013684675992136981 0.014999509941156152 0 -0.013818316213091583 0.014858447303909754 0 -0.014247711523367637 0.014649312836347163 0 -0.013818316213091583 0.014858447303909754 0 -0.01395813155653995 0.014670758967735086 0 -0.014247711523367637 0.014649312836347163 0 -0.014168185397528251 0.014906093368197215 0 -0.013818316213091583 0.014858447303909754 0 -0.013253814263245846 0.014983143494488153 0 -0.013818316213091583 0.014858447303909754 0 -0.013233933005181707 0.014987582978137601 0 -0.013818316213091583 0.014858447303909754 0 -0.013233933005181707 0.014987582978137601 0 -0.01395813155653995 0.014670758967735086 0 -0.013233933005181707 0.014987582978137601 0 -0.01395813155653995 0.014670758967735086 0 -0.012934663903227958 0.015454298678313941 0 -0.014578596183522861 0.01419844210608143 0 -0.01395813155653995 0.014670758967735086 0 -0.013717562291622703 0.014827451573143247 0 -0.014526145483093071 0.01417820378703301 0 -0.014478622089275627 0.01389835311628209 0 -0.014911742491538068 0.012904777532976867 0 -0.014578596183522861 0.01419844210608143 0 -0.015313398777686837 0.012986261322350586 0 -0.013717562291622703 0.014827451573143247 0 -0.01318467740627923 0.014516626765789161 0 -0.01308081310327347 0.01455416921036368 0 -0.01395813155653995 0.014670758967735086 0 -0.013717562291622703 0.014827451573143247 0 -0.01318467740627923 0.014516626765789161 0 -0.013874167615980398 0.014700919822744782 0 -0.013055686120272062 0.014960702102034793 0 -0.012934663903227958 0.015454298678313941 0 -0.012513233391713622 0.015268783177236709 0 -0.012815715265358445 0.015205820572988936 0 -0.013055686120272062 0.014960702102034793 0 -0.012640115698238032 0.0147269433981508 0 -0.012934663903227958 0.015454298678313941 0 -0.012513233391713622 0.015268783177236709 0 -0.012286201133237709 0.015142831918997336 0 -0.012513233391713622 0.015268783177236709 0 -0.012815715265358445 0.015205820572988936 0 -0.01259635040247635 0.015142862755453783 0 -0.012513233391713622 0.015268783177236709 0 -0.01259635040247635 0.015142862755453783 0 -0.012322757842058848 0.015263385183273127 0 -0.013233933005181707 0.014987582978137601 0 -0.012815715265358445 0.015205820572988936 0 -0.01259635040247635 0.015142862755453783 0 -0.013233933005181707 0.014987582978137601 0 -0.012934663903227958 0.015454298678313941 0 -0.012815715265358445 0.015205820572988936 0 -0.013253814263245846 0.014983143494488153 0 -0.013233933005181707 0.014987582978137601 0 -0.01259635040247635 0.015142862755453783 0 -0.01259635040247635 0.015142862755453783 0 -0.012852437514685688 0.014999552423064829 0 -0.012020925377387791 0.014999824477208252 0 -0.013253814263245846 0.014983143494488153 0 -0.01259635040247635 0.015142862755453783 0 -0.012852437514685688 0.014999552423064829 0 -0.012020925377387791 0.014999824477208252 0 -0.01198884536553808 0.01519726158051923 0 -0.011189424651138999 0.014999761213117449 0 -0.01198884536553808 0.01519726158051923 0 -0.011446733052506389 0.015179167261487221 0 -0.011189424651138999 0.014999761213117449 0 -0.01259635040247635 0.015142862755453783 0 -0.012020925377387791 0.014999824477208252 0 -0.01198884536553808 0.01519726158051923 0 -0.01259635040247635 0.015142862755453783 0 -0.01198884536553808 0.01519726158051923 0 -0.012322757842058848 0.015263385183273127 0 -0.01198884536553808 0.01519726158051923 0 -0.012193552734166464 0.015285192408119427 0 -0.012322757842058848 0.015263385183273127 0 -0.01198884536553808 0.01519726158051923 0 -0.012193552734166464 0.015285192408119427 0 -0.011446733052506389 0.015179167261487221 0 -0.012513233391713622 0.015268783177236709 0 -0.012322757842058848 0.015263385183273127 0 -0.012388560653536258 0.015250243145333709 0 -0.012193552734166464 0.015285192408119427 0 -0.012322757842058848 0.015263385183273127 0 -0.012388560653536258 0.015250243145333709 0 -0.012513233391713622 0.015268783177236709 0 -0.012388560653536258 0.015250243145333709 0 -0.012286201133237709 0.015142831918997336 0 -0.012388560653536258 0.015250243145333709 0 -0.012659111123377476 0.01509813263367509 0 -0.012286201133237709 0.015142831918997336 0 -0.012193552734166464 0.015285192408119427 0 -0.012388560653536258 0.015250243145333709 0 -0.012659111123377476 0.01509813263367509 0 -0.012193552734166464 0.015285192408119427 0 -0.012659111123377476 0.01509813263367509 0 -0.012516553220176474 0.015194447128802843 0 -0.012659111123377476 0.01509813263367509 0 -0.013214142355524591 0.014137196607317219 0 -0.012286201133237709 0.015142831918997336 0 -0.013214142355524591 0.014137196607317219 0 -0.013656458703991516 0.012895984100978227 0 -0.013915736250376556 0.013171055598603472 0 -0.013214142355524591 0.014137196607317219 0 -0.012810302091536965 0.014063622453049054 0 -0.013656458703991516 0.012895984100978227 0 -0.01372787742418956 0.013111325071637271 0 -0.013700397513642907 0.012905626208440317 0 -0.013204805345096323 0.014184798654050045 0 -0.012640115698238032 0.0147269433981508 0 -0.013214142355524591 0.014137196607317219 0 -0.012892760243287477 0.014339296539013268 0 -0.012810302091536965 0.014063622453049054 0 -0.012892760243287477 0.014339296539013268 0 -0.01308081310327347 0.01455416921036368 0 -0.012810302091536965 0.014063622453049054 0 -0.01318467740627923 0.014516626765789161 0 -0.012892760243287477 0.014339296539013268 0 -0.01308081310327347 0.01455416921036368 0 -0.015114211598367306 0.012319896093526034 0 -0.01502277475220443 0.012288409760888396 0 -0.014875116556421436 0.012246886451630077 0 -0.015111907161710566 0.012346673933742586 0 -0.015114211598367306 0.012319896093526034 0 -0.01502277475220443 0.012288409760888396 0 -0.01502277475220443 0.012288409760888396 0 -0.014875116556421436 0.012246886451630077 0 -0.014963516050308337 0.012228825825363094 0 -0.014102771562051957 0.013447882798929068 0 -0.01372787742418956 0.013111325071637271 0 -0.014875116556421436 0.012246886451630077 0 -0.014573742397768593 0.012153125109677927 0 -0.014711688589102484 0.012291365838413259 0 -0.015114211598367306 0.012319896093526034 0 -0.014875116556421436 0.012246886451630077 0 -0.014573742397768593 0.012153125109677927 0 -0.014711688589102484 0.012291365838413259 0 -0.014809756648621471 0.012195832123245686 0 -0.014647862292371043 0.012235346398056429 0 -0.014573742397768593 0.012153125109677927 0 -0.014711688589102484 0.012291365838413259 0 -0.014257494942772425 0.012550992092592562 0 -0.014711688589102484 0.012291365838413259 0 -0.014963516050308337 0.012228825825363094 0 -0.014809756648621471 0.012195832123245686 0 -0.014875116556421436 0.012246886451630077 0 -0.014711688589102484 0.012291365838413259 0 -0.014963516050308337 0.012228825825363094 0 -0.014927052661203363 0.012104966002456363 0 -0.014963516050308337 0.012228825825363094 0 -0.014809756648621471 0.012195832123245686 0 -0.014809756648621471 0.012195832123245686 0 -0.014805137464574661 0.012009687314888178 0 -0.014647862292371043 0.012235346398056429 0 -0.014927052661203363 0.012104966002456363 0 -0.014809756648621471 0.012195832123245686 0 -0.014805137464574661 0.012009687314888178 0 -0.014711688589102484 0.012291365838413259 0 -0.014647862292371043 0.012235346398056429 0 -0.014257494942772425 0.012550992092592562 0 -0.014647862292371043 0.012235346398056429 0 -0.014257494942772425 0.012550992092592562 0 -0.014535990859571487 0.012177184542169312 0 -0.014257494942772425 0.012550992092592562 0 -0.01424348158265009 0.012421886625083705 0 -0.014431794663383617 0.012217384611792637 0 -0.014257494942772425 0.012550992092592562 0 -0.014431794663383617 0.012217384611792637 0 -0.014535990859571487 0.012177184542169312 0 -0.014257494942772425 0.012550992092592562 0 -0.01424348158265009 0.012421886625083705 0 -0.013656458703991516 0.012895984100978227 0 -0.01424348158265009 0.012421886625083705 0 -0.013656458703991516 0.012895984100978227 0 -0.014232363908362636 0.012560076666364267 0 -0.01424348158265009 0.012421886625083705 0 -0.014232363908362636 0.012560076666364267 0 -0.014449943965299765 0.012224050722083239 0 -0.013656458703991516 0.012895984100978227 0 -0.013915736250376556 0.013171055598603472 0 -0.014232363908362636 0.012560076666364267 0 -0.014573742397768593 0.012153125109677927 0 -0.014257494942772425 0.012550992092592562 0 -0.013656458703991516 0.012895984100978227 0 -0.014296640765165777 0.013261221575428054 0 -0.014312385624876824 0.012834896116137431 0 -0.014647095909401475 0.012787189586000209 0 -0.014720431380744855 0.013230283671305982 0 -0.014647095909401475 0.012787189586000209 0 -0.015089264222770543 0.012705184248894929 0 -0.014720431380744855 0.013230283671305982 0 -0.014296640765165777 0.013261221575428054 0 -0.014647095909401475 0.012787189586000209 0 -0.014720431380744855 0.013230283671305982 0 -0.014296640765165777 0.013261221575428054 0 -0.014487079460623642 0.013735246315654943 0 -0.013915736250376556 0.013171055598603472 0 -0.014312385624876824 0.012834896116137431 0 -0.014232363908362636 0.012560076666364267 0 -0.014296640765165777 0.013261221575428054 0 -0.013915736250376556 0.013171055598603472 0 -0.014312385624876824 0.012834896116137431 0 -0.014312385624876824 0.012834896116137431 0 -0.014232363908362636 0.012560076666364267 0 -0.014555292793498336 0.012492561022511405 0 -0.014232363908362636 0.012560076666364267 0 -0.014555292793498336 0.012492561022511405 0 -0.014589835224728762 0.012216153993487007 0 -0.014555292793498336 0.012492561022511405 0 -0.01483372679437699 0.012438794163850785 0 -0.014813244351247017 0.012197669601505626 0 -0.014555292793498336 0.012492561022511405 0 -0.014647095909401475 0.012787189586000209 0 -0.01483372679437699 0.012438794163850785 0 -0.014312385624876824 0.012834896116137431 0 -0.014555292793498336 0.012492561022511405 0 -0.014647095909401475 0.012787189586000209 0 -0.014647095909401475 0.012787189586000209 0 -0.01483372679437699 0.012438794163850785 0 -0.015089264222770543 0.012705184248894929 0 -0.015122019771036032 0.012901056353493801 0 -0.01498300688694338 0.013091533156620098 0 -0.014866859707425227 0.01260954067841462 0 -0.01483372679437699 0.012438794163850785 0 -0.015089264222770543 0.012705184248894929 0 -0.01506343909632118 0.012091887684012058 0 -0.015122019771036032 0.012901056353493801 0 -0.01498300688694338 0.013091533156620098 0 -0.01536897055310802 0.013359171095222855 0 -0.015022403064236082 0.012926004088825412 0 -0.015102448651703005 0.012274374141038293 0 -0.0086256024424097022 0.016308165335789004 0 -0.0082542884583699412 0.016677891574130153 0 -0.0085115941430307911 0.016969431360516631 0 -0.015122019771036032 0.012901056353493801 0 -0.01536897055310802 0.013359171095222855 0 -0.015327436151253451 0.012790072151656456 0 -0.012288991155339306 0.014735214269109117 0 -0.0095971567473716289 0.015203226783434972 0 -0.0080789112335993962 0.016396709805310942 0 -0.0095971567473716289 0.015203226783434972 0 -0.0086256024424097022 0.016308165335789004 0 -0.0082523003650839862 0.016337252456938858 0 -0.0082542884583699412 0.016677891574130153 0 -0.0086256024424097022 0.016308165335789004 0 -0.0082895984084632428 0.016114723274906987 0 -0.0082523003650839862 0.016337252456938858 0 -0.015022403064236082 0.012926004088825412 0 -0.015124858499001359 0.013663430827938581 0 -0.014720431380744855 0.013230283671305982 0 -0.015089264222770543 0.012705184248894929 0 -0.015124212371727452 0.013739330496111772 0 -0.01498300688694338 0.013091533156620098 0 -0.01536897055310802 0.013359171095222855 0 -0.015124212371727452 0.013739330496111772 0 -0.015124212371727452 0.013739330496111772 0 -0.015426855526091882 0.014385944623427828 0 -0.014505342208836701 0.014359902244869131 0 -0.014720431380744855 0.013230283671305982 0 -0.015124212371727452 0.013739330496111772 0 -0.014487079460623642 0.013735246315654943 0 -0.01536897055310802 0.013359171095222855 0 -0.015124212371727452 0.013739330496111772 0 -0.015426855526091882 0.014385944623427828 0 -0.015124212371727452 0.013739330496111772 0 -0.014505342208836701 0.014359902244869131 0 -0.014487079460623642 0.013735246315654943 0 -0.0086256024424097022 0.016308165335789004 0 -0.0087760330523137531 0.015652271961146432 0 -0.0082895984084632428 0.016114723274906987 0 -0.0087760330523137531 0.015652271961146432 0 -0.0083811209225107784 0.015728531729289254 0 -0.0082895984084632428 0.016114723274906987 0 -0.012288991155339306 0.014735214269109117 0 -0.01212298025578868 0.015081512011368481 0 -0.0087760330523137531 0.015652271961146432 0 -0.0083811209225107784 0.015728531729289254 0 -0.008600119940301857 0.01527138956520328 0 -0.0083811209225107784 0.015728531729289254 0 -0.008600119940301857 0.01527138956520328 0 -0.0081954496103496515 0.015384025064676086 0 -0.015426855526091882 0.014385944623427828 0 -0.014871627396850452 0.015067962460802584 0 -0.014505342208836701 0.014359902244869131 0 -0.014871627396850452 0.015067962460802584 0 -0.014505342208836701 0.014359902244869131 0 -0.014321332933513453 0.015517069275141999 0 -0.014505342208836701 0.014359902244869131 0 -0.013843366041638095 0.013902594325219659 0 -0.013176468265910748 0.014955101971049267 0 -0.014505342208836701 0.014359902244869131 0 -0.013176468265910748 0.014955101971049267 0 -0.014321332933513453 0.015517069275141999 0 -0.014505342208836701 0.014359902244869131 0 -0.014487079460623642 0.013735246315654943 0 -0.013843366041638095 0.013902594325219659 0 -0.014296640765165777 0.013261221575428054 0 -0.014487079460623642 0.013735246315654943 0 -0.013843366041638095 0.013902594325219659 0 -0.013214142355524591 0.014137196607317219 0 -0.013915736250376556 0.013171055598603472 0 -0.013843366041638095 0.013902594325219659 0 -0.014296640765165777 0.013261221575428054 0 -0.013915736250376556 0.013171055598603472 0 -0.013843366041638095 0.013902594325219659 0 -0.013214142355524591 0.014137196607317219 0 -0.013843366041638095 0.013902594325219659 0 -0.013176468265910748 0.014955101971049267 0 -0.012659111123377476 0.01509813263367509 0 -0.013214142355524591 0.014137196607317219 0 -0.013176468265910748 0.014955101971049267 0 -0.012659111123377476 0.01509813263367509 0 -0.013176468265910748 0.014955101971049267 0 -0.012516553220176474 0.015194447128802843 0 -0.013176468265910748 0.014955101971049267 0 -0.012516553220176474 0.015194447128802843 0 -0.012114703500249293 0.015267447185505451 0 -0.012516553220176474 0.015194447128802843 0 -0.012114703500249293 0.015267447185505451 0 -0.011872886290410535 0.015194468947102141 0 -0.012985489146631481 0.014970268708771535 0 -0.013468162644988325 0.01550023117716235 0 -0.012114703500249293 0.015267447185505451 0 -0.011634259605386008 0.015192338000487039 0 -0.011872886290410535 0.015194468947102141 0 -0.012193552734166464 0.015285192408119427 0 -0.012516553220176474 0.015194447128802843 0 -0.011872886290410535 0.015194468947102141 0 -0.012193552734166464 0.015285192408119427 0 -0.011872886290410535 0.015194468947102141 0 -0.011446733052506389 0.015179167261487221 0 -0.011634259605386008 0.015192338000487039 0 -0.011872886290410535 0.015194468947102141 0 -0.010983765685720294 0.015148936341232938 0 -0.011872886290410535 0.015194468947102141 0 -0.011446733052506389 0.015179167261487221 0 -0.010983765685720294 0.015148936341232938 0 -0.011446733052506389 0.015179167261487221 0 -0.010983765685720294 0.015148936341232938 0 -0.010358167155126575 0.014999857318791584 0 -0.010983765685720294 0.015148936341232938 0 -0.010358167155126575 0.014999857318791584 0 -0.010238162380211203 0.015058692281229571 0 -0.011446733052506389 0.015179167261487221 0 -0.010358167155126575 0.014999857318791584 0 -0.011189424651138999 0.014999761213117449 0 -0.0095250916569894345 0.015000010622845637 0 -0.0098451883362976073 0.015356916710425805 0 -0.0093170443729708886 0.015379186041428022 0 -0.0095250916569894345 0.015000010622845637 0 -0.0098451883362976073 0.015356916710425805 0 -0.010238162380211203 0.015058692281229571 0 -0.0098451883362976073 0.015356916710425805 0 -0.0094635147541332829 0.015634623486419627 0 -0.0093170443729708886 0.015379186041428022 0 -0.010983765685720294 0.015148936341232938 0 -0.010238162380211203 0.015058692281229571 0 -0.011266299611877598 0.01516352107972252 0 -0.010358167155126575 0.014999857318791584 0 -0.0095250916569894345 0.015000010622845637 0 -0.010238162380211203 0.015058692281229571 0 -0.0098451883362976073 0.015356916710425805 0 -0.010238162380211203 0.015058692281229571 0 -0.010088300794310818 0.015704204608389952 0 -0.010376961181588571 0.014991162062038434 0 -0.010573129694659216 0.015484245416847165 0 -0.011634259605386008 0.015192338000487039 0 -0.010983765685720294 0.015148936341232938 0 -0.011266299611877598 0.01516352107972252 0 -0.0098451883362976073 0.015356916710425805 0 -0.0094635147541332829 0.015634623486419627 0 -0.009505424134364995 0.016159949820818587 0 -0.0098451883362976073 0.015356916710425805 0 -0.010088300794310818 0.015704204608389952 0 -0.0096023376439081064 0.016023873661585343 0 -0.0094635147541332829 0.015634623486419627 0 -0.009505424134364995 0.016159949820818587 0 -0.0092817322706260103 0.015789944153948479 0 -0.0099947988187020376 0.015593083573404406 0 -0.0088429676826886038 0.015482204702854951 0 -0.010088300794310818 0.015704204608389952 0 -0.0096023376439081064 0.016023873661585343 0 -0.009999568133417026 0.016261298068080628 0 -0.0088429676826886038 0.015482204702854951 0 -0.011493908161395556 0.015342482086069337 0 -0.010573129694659216 0.015484245416847165 0 -0.011493908161395556 0.015342482086069337 0 -0.011634259605386008 0.015192338000487039 0 -0.011266299611877598 0.01516352107972252 0 -0.011621727019371619 0.015258171052778628 0 -0.015426855526091882 0.014385944623427828 0 -0.014871627396850452 0.015067962460802584 0 -0.015224851717891601 0.016038612946277103 0 -0.01212298025578868 0.015081512011368481 0 -0.011493908161395556 0.015342482086069337 0 -0.014871627396850452 0.015067962460802584 0 -0.014321332933513453 0.015517069275141999 0 -0.015224851717891601 0.016038612946277103 0 -0.012114703500249293 0.015267447185505451 0 -0.011634259605386008 0.015192338000487039 0 -0.011621727019371619 0.015258171052778628 0 -0.013468162644988325 0.01550023117716235 0 -0.011493908161395556 0.015342482086069337 0 -0.0084982611988204948 0.014696318999964536 0 -0.0089151677969052899 0.014953401680581044 0 -0.008600119940301857 0.01527138956520328 0 -0.0084982611988204948 0.014696318999964536 0 -0.008600119940301857 0.01527138956520328 0 -0.0081954496103496515 0.015384025064676086 0 -0.0087760330523137531 0.015652271961146432 0 -0.0089151677969052899 0.014953401680581044 0 -0.008600119940301857 0.01527138956520328 0 -0.0082323365920319649 0.015364633213149478 0 -0.0080556974492316785 0.015394637510566536 0 -0.0080883395610811763 0.015703992680848777 0 -0.0088429676826886038 0.015482204702854951 0 -0.0080861956924365916 0.015468308462973979 0 -0.0079491426885922867 0.015537319569500321 0 -0.0080556974492316785 0.015394637510566536 0 -0.0080883395610811763 0.015703992680848777 0 -0.0079814141140381305 0.016187938309069887 0 -0.0082304325451006081 0.016042464282407215 0 -0.0080747553463380532 0.015969563759830732 0 -0.0082304325451006081 0.016042464282407215 0 -0.0081689601653443349 0.015815556569308772 0 -0.0083645065194968022 0.015669616544496359 0 -0.0080747553463380532 0.015969563759830732 0 -0.0081689601653443349 0.015815556569308772 0 -0.0079916006822997043 0.015821940194695967 0 -0.0082304325451006081 0.016042464282407215 0 -0.0080747553463380532 0.015969563759830732 0 -0.0081689601653443349 0.015815556569308772 0 -0.0088429676826886038 0.015482204702854951 0 -0.0085507833792364887 0.015649079991383635 0 -0.0079491426885922867 0.015537319569500321 0 -0.0080556974492316785 0.015394637510566536 0 -0.0080135703690875863 0.015228888297158176 0 -0.0082323365920319649 0.015364633213149478 0 -0.0080556974492316785 0.015394637510566536 0 -0.0080135703690875863 0.015228888297158176 0 -0.0080500226407394116 0.015747404462272043 0 -0.0085507833792364887 0.015649079991383635 0 -0.009505424134364995 0.016159949820818587 0 -0.0092817322706260103 0.015789944153948479 0 -0.0089873360359200623 0.015829637364262072 0 -0.0094635147541332829 0.015634623486419627 0 -0.0092388589381316461 0.01558746008393844 0 -0.0093170443729708886 0.015379186041428022 0 -0.0092817322706260103 0.015789944153948479 0 -0.0092388589381316461 0.01558746008393844 0 -0.0090108649010840012 0.015703162756164506 0 -0.0094635147541332829 0.015634623486419627 0 -0.0092817322706260103 0.015789944153948479 0 -0.0092388589381316461 0.01558746008393844 0 -0.0092388589381316461 0.01558746008393844 0 -0.0090818550086550712 0.015497347544673397 0 -0.0093170443729708886 0.015379186041428022 0 -0.0090108649010840012 0.015703162756164506 0 -0.0089917137899174215 0.01584749617640676 0 -0.0088072949741870889 0.015500063025554732 0 -0.0090818550086550712 0.015497347544673397 0 -0.0090108649010840012 0.015703162756164506 0 -0.0088072949741870889 0.015500063025554732 0 -0.0092388589381316461 0.01558746008393844 0 -0.0090818550086550712 0.015497347544673397 0 -0.0090108649010840012 0.015703162756164506 0 -0.0092817322706260103 0.015789944153948479 0 -0.0090108649010840012 0.015703162756164506 0 -0.0089873360359200623 0.015829637364262072 0 -0.0086256391523788813 0.015674499121008233 0 -0.0085507833792364887 0.015649079991383635 0 -0.0081689601653443349 0.015815556569308772 0 -0.0083645065194968022 0.015669616544496359 0 -0.0081262657496055605 0.01564180419705866 0 -0.0089917137899174215 0.01584749617640676 0 -0.0088072949741870889 0.015500063025554732 0 -0.0081544351571898061 0.015336260646102511 0 -0.0083645065194968022 0.015669616544496359 0 -0.0081544351571898061 0.015336260646102511 0 -0.0081262657496055605 0.01564180419705866 0 -0.0085507833792364887 0.015649079991383635 0 -0.0082202049679615165 0.015399541625241998 0 -0.0088072949741870889 0.015500063025554732 0 -0.008693368785611038 0.014999956655542148 0 -0.0081544351571898061 0.015336260646102511 0 -0.0088072949741870889 0.015500063025554732 0 -0.008693368785611038 0.014999956655542148 0 -0.0090373077234804974 0.015284674069452541 0 -0.0095250916569894345 0.015000010622845637 0 -0.008693368785611038 0.014999956655542148 0 -0.0090373077234804974 0.015284674069452541 0 -0.0095250916569894345 0.015000010622845637 0 -0.0093170443729708886 0.015379186041428022 0 -0.0090373077234804974 0.015284674069452541 0 -0.0090818550086550712 0.015497347544673397 0 -0.0093170443729708886 0.015379186041428022 0 -0.0090373077234804974 0.015284674069452541 0 -0.0090818550086550712 0.015497347544673397 0 -0.0088072949741870889 0.015500063025554732 0 -0.0090373077234804974 0.015284674069452541 0 -0.0074756485399535668 0.01534906380818492 0 -0.0078614158626705427 0.015000022486126009 0 -0.0078551584973827505 0.015563151979818305 0 -0.008693368785611038 0.014999956655542148 0 -0.0078614158626705427 0.015000022486126009 0 -0.0081544351571898061 0.015336260646102511 0 -0.0078614158626705427 0.015000022486126009 0 -0.0081544351571898061 0.015336260646102511 0 -0.0078551584973827505 0.015563151979818305 0 -0.0081544351571898061 0.015336260646102511 0 -0.0081262657496055605 0.01564180419705866 0 -0.0078551584973827505 0.015563151979818305 0 -0.0081262657496055605 0.01564180419705866 0 -0.0078551584973827505 0.015563151979818305 0 -0.0079916006822997043 0.015821940194695967 0 -0.0078551584973827505 0.015563151979818305 0 -0.0075033066264174357 0.015633268907478279 0 -0.0076681509462344791 0.015959220207346546 0 -0.0074756485399535668 0.01534906380818492 0 -0.0078551584973827505 0.015563151979818305 0 -0.0075033066264174357 0.015633268907478279 0 -0.0073747985535930474 0.015875469725784006 0 -0.0075033066264174357 0.015633268907478279 0 -0.0076681509462344791 0.015959220207346546 0 -0.0074788662007802629 0.016177830075093404 0 -0.0073747985535930474 0.015875469725784006 0 -0.0076681509462344791 0.015959220207346546 0 -0.0076681509462344791 0.015959220207346546 0 -0.0079916006822997043 0.015821940194695967 0 -0.0079006463753771052 0.016041389724553989 0 -0.0078551584973827505 0.015563151979818305 0 -0.0076681509462344791 0.015959220207346546 0 -0.0079916006822997043 0.015821940194695967 0 -0.0081689601653443349 0.015815556569308772 0 -0.0081262657496055605 0.01564180419705866 0 -0.0079916006822997043 0.015821940194695967 0 -0.0080747553463380532 0.015969563759830732 0 -0.0079916006822997043 0.015821940194695967 0 -0.0079006463753771052 0.016041389724553989 0 -0.0076681509462344791 0.015959220207346546 0 -0.0079006463753771052 0.016041389724553989 0 -0.0077810666756725575 0.016246294680125235 0 -0.0079814141140381305 0.016187938309069887 0 -0.0080747553463380532 0.015969563759830732 0 -0.0079006463753771052 0.016041389724553989 0 -0.0079814141140381305 0.016187938309069887 0 -0.0079006463753771052 0.016041389724553989 0 -0.0077810666756725575 0.016246294680125235 0 -0.0074788662007802629 0.016177830075093404 0 -0.0076681509462344791 0.015959220207346546 0 -0.0077810666756725575 0.016246294680125235 0 -0.0076283908690939449 0.016401837000186031 0 -0.0078041636143002299 0.016375407414943748 0 -0.0077810666756725575 0.016246294680125235 0 -0.0074788662007802629 0.016177830075093404 0 -0.0076283908690939449 0.016401837000186031 0 -0.0077810666756725575 0.016246294680125235 0 -0.0076283908690939449 0.016401837000186031 0 -0.0078041636143002299 0.016375407414943748 0 -0.0077526921295476307 0.016408856560950265 0 -0.0076936947330408885 0.016440068088566767 0 -0.0076283908690939449 0.016401837000186031 0 -0.0077526921295476307 0.016408856560950265 0 -0.0078041636143002299 0.016375407414943748 0 -0.0078766802583171373 0.016354187041837533 0 -0.0078274155625495754 0.016358742126584669 0 -0.0078041636143002299 0.016375407414943748 0 -0.0077526921295476307 0.016408856560950265 0 -0.0078274155625495754 0.016358742126584669 0 -0.0078041636143002299 0.016375407414943748 0 -0.0078766802583171373 0.016354187041837533 0 -0.0078993768691032074 0.016314849307814693 0 -0.0078041636143002299 0.016375407414943748 0 -0.0078993768691032074 0.016314849307814693 0 -0.0077810666756725575 0.016246294680125235 0 -0.0079814141140381305 0.016187938309069887 0 -0.0078993768691032074 0.016314849307814693 0 -0.0077810666756725575 0.016246294680125235 0 -0.0079814141140381305 0.016187938309069887 0 -0.0082304325451006081 0.016042464282407215 0 -0.0079976243641538651 0.016339632448767828 0 -0.0079814141140381305 0.016187938309069887 0 -0.0078993768691032074 0.016314849307814693 0 -0.0079976243641538651 0.016339632448767828 0 -0.0080500226407394116 0.015747404462272043 0 -0.0079371822954382582 0.016105063802199081 0 -0.0078766802583171373 0.016354187041837533 0 -0.0078993768691032074 0.016314849307814693 0 -0.0079976243641538651 0.016339632448767828 0 -0.0078610097549910961 0.015875704683106118 0 -0.0080883395610811763 0.015703992680848777 0 -0.0079245772714374614 0.01610554886505015 0 -0.0080861956924365916 0.015468308462973979 0 -0.0079453033148272033 0.016105870422078505 0 -0.0079491426885922867 0.015537319569500321 0 -0.0078610097549910961 0.015875704683106118 0 -0.0080883395610811763 0.015703992680848777 0 -0.0083811209225107784 0.015728531729289254 0 -0.0081954496103496515 0.015384025064676086 0 -0.0081726357677113764 0.015918687477539401 0 -0.0081954496103496515 0.015384025064676086 0 -0.0081726357677113764 0.015918687477539401 0 -0.0079245772714374614 0.01610554886505015 0 -0.0083811209225107784 0.015728531729289254 0 -0.0081726357677113764 0.015918687477539401 0 -0.0082895984084632428 0.016114723274906987 0 -0.0081726357677113764 0.015918687477539401 0 -0.0079245772714374614 0.01610554886505015 0 -0.0080485772859687481 0.016201614214509955 0 -0.0081726357677113764 0.015918687477539401 0 -0.0082895984084632428 0.016114723274906987 0 -0.0080485772859687481 0.016201614214509955 0 -0.0078610097549910961 0.015875704683106118 0 -0.0079245772714374614 0.01610554886505015 0 -0.0078274514816796276 0.01631095129576058 0 -0.0078766802583171373 0.016354187041837533 0 -0.0079976243641538651 0.016339632448767828 0 -0.0078274514816796276 0.01631095129576058 0 -0.0079371822954382582 0.016105063802199081 0 -0.0078435296898089289 0.016286911101591486 0 -0.0079245772714374614 0.01610554886505015 0 -0.0078274514816796276 0.01631095129576058 0 -0.0078893574441889509 0.016308443324794586 0 -0.0078274514816796276 0.01631095129576058 0 -0.0078893574441889509 0.016308443324794586 0 -0.0078506198258781745 0.016300892710937254 0 -0.0078893574441889509 0.016308443324794586 0 -0.0078862426209044406 0.016311191715827591 0 -0.0078506198258781745 0.016300892710937254 0 -0.0078274514816796276 0.01631095129576058 0 -0.0078506198258781745 0.016300892710937254 0 -0.0078263114484731517 0.016297084848354019 0 -0.0082895984084632428 0.016114723274906987 0 -0.0080485772859687481 0.016201614214509955 0 -0.0082523003650839862 0.016337252456938858 0 -0.0079245772714374614 0.01610554886505015 0 -0.0078893574441889509 0.016308443324794586 0 -0.0080485772859687481 0.016201614214509955 0 -0.0080485772859687481 0.016201614214509955 0 -0.0079407485227463003 0.016344880326518558 0 -0.0082523003650839862 0.016337252456938858 0 -0.0078893574441889509 0.016308443324794586 0 -0.0080485772859687481 0.016201614214509955 0 -0.0079407485227463003 0.016344880326518558 0 -0.0079407485227463003 0.016344880326518558 0 -0.0078865517502045551 0.016302604793306263 0 -0.007776964201199576 0.016210720126559792 0 -0.0079490780303385963 0.016347992713429224 0 -0.0080789112335993962 0.016396709805310942 0 -0.0078893574441889509 0.016308443324794586 0 -0.0078862426209044406 0.016311191715827591 0 -0.0079407485227463003 0.016344880326518558 0 -0.0078862426209044406 0.016311191715827591 0 -0.0079407485227463003 0.016344880326518558 0 -0.0078865517502045551 0.016302604793306263 0 -0.0078862426209044406 0.016311191715827591 0 -0.0078865517502045551 0.016302604793306263 0 -0.0078538689449456269 0.016280151870202979 0 -0.0079407485227463003 0.016344880326518558 0 -0.0082523003650839862 0.016337252456938858 0 -0.0082542884583699412 0.016677891574130153 0 -0.0078571977243285344 0.016272321261862621 0 -0.0077632497511399348 0.016134848927640857 0 -0.0078865517502045551 0.016302604793306263 0 -0.007818697972134565 0.016237695175472931 0 -0.0077069370441759282 0.016181933588628999 0 -0.0078865517502045551 0.016302604793306263 0 -0.007776964201199576 0.016210720126559792 0 -0.0077888053329315012 0.016039122148046921 0 -0.0078865517502045551 0.016302604793306263 0 -0.007818697972134565 0.016237695175472931 0 -0.0078538689449456269 0.016280151870202979 0 -0.007776964201199576 0.016210720126559792 0 -0.0077888053329315012 0.016039122148046921 0 -0.0076554383823432062 0.016043201745387738 0 -0.0078506198258781745 0.016300892710937254 0 -0.0078423153460083321 0.016220320990440983 0 -0.0078263114484731517 0.016297084848354019 0 -0.0078506198258781745 0.016300892710937254 0 -0.0078538689449456269 0.016280151870202979 0 -0.0078423153460083321 0.016220320990440983 0 -0.0078862426209044406 0.016311191715827591 0 -0.0078506198258781745 0.016300892710937254 0 -0.0078538689449456269 0.016280151870202979 0 -0.007818697972134565 0.016237695175472931 0 -0.0078423153460083321 0.016220320990440983 0 -0.0078056419394707541 0.016152108809329206 0 -0.007818697972134565 0.016237695175472931 0 -0.0078538689449456269 0.016280151870202979 0 -0.0078423153460083321 0.016220320990440983 0 -0.0078423153460083321 0.016220320990440983 0 -0.0078263114484731517 0.016297084848354019 0 -0.0078112739258468754 0.016182406534375793 0 -0.0078263114484731517 0.016297084848354019 0 -0.007834582016143914 0.016281128567935146 0 -0.0078112739258468754 0.016182406534375793 0 -0.0078263114484731517 0.016297084848354019 0 -0.007834582016143914 0.016281128567935146 0 -0.0078128835483066046 0.016341023259342644 0 -0.007834582016143914 0.016281128567935146 0 -0.0079010586853935864 0.016292446126097575 0 -0.0078128835483066046 0.016341023259342644 0 -0.0076936947330408885 0.016440068088566767 0 -0.0079010586853935864 0.016292446126097575 0 -0.0077526921295476307 0.016408856560950265 0 -0.0079010586853935864 0.016292446126097575 0 -0.0077526921295476307 0.016408856560950265 0 -0.0078128835483066046 0.016341023259342644 0 -0.0077526921295476307 0.016408856560950265 0 -0.0078274155625495754 0.016358742126584669 0 -0.0078128835483066046 0.016341023259342644 0 -0.0078274514816796276 0.01631095129576058 0 -0.0078263114484731517 0.016297084848354019 0 -0.0078274155625495754 0.016358742126584669 0 -0.0078263114484731517 0.016297084848354019 0 -0.0078274155625495754 0.016358742126584669 0 -0.0078128835483066046 0.016341023259342644 0 -0.0078766802583171373 0.016354187041837533 0 -0.0078274514816796276 0.01631095129576058 0 -0.0078274155625495754 0.016358742126584669 0 -0.00738409269189539 0.015823675929829743 0 -0.0079520652265757212 0.015980046275801001 0 -0.0078112739258468754 0.016182406534375793 0 -0.0077028699762135234 0.01582202181292585 0 -0.0077938744449690713 0.016123006509501488 0 -0.007834582016143914 0.016281128567935146 0 -0.0079520652265757212 0.015980046275801001 0 -0.0078112739258468754 0.016182406534375793 0 -0.0073950953236138492 0.016552404286319627 0 -0.0072937287692593326 0.015950136397305831 0 -0.007834582016143914 0.016281128567935146 0 -0.0079010586853935864 0.016292446126097575 0 -0.0079520652265757212 0.015980046275801001 0 -0.007028410763108347 0.016337372642865194 0 -0.0068872640190543047 0.016860317850312698 0 -0.0066325971740101991 0.015924311658345281 0 -0.0078423153460083321 0.016220320990440983 0 -0.0078771806216831591 0.016030318597760541 0 -0.0078056419394707541 0.016152108809329206 0 -0.0078423153460083321 0.016220320990440983 0 -0.0078112739258468754 0.016182406534375793 0 -0.0078771806216831591 0.016030318597760541 0 -0.0077069370441759282 0.016181933588628999 0 -0.0077611594179001582 0.016019512513187898 0 -0.0075847864914988994 0.015888764860809992 0 -0.0077632497511399348 0.016134848927640857 0 -0.0076257701161211522 0.015668695606130399 0 -0.007818697972134565 0.016237695175472931 0 -0.0077069370441759282 0.016181933588628999 0 -0.0078056419394707541 0.016152108809329206 0 -0.0077069370441759282 0.016181933588628999 0 -0.0078056419394707541 0.016152108809329206 0 -0.0077611594179001582 0.016019512513187898 0 -0.0078771806216831591 0.016030318597760541 0 -0.0078056419394707541 0.016152108809329206 0 -0.0077611594179001582 0.016019512513187898 0 -0.007798143970806872 0.015797351935009533 0 -0.0077109392061403895 0.015508126378942215 0 -0.0075847864914988994 0.015888764860809992 0 -0.0077611594179001582 0.016019512513187898 0 -0.007798143970806872 0.015797351935009533 0 -0.0075847864914988994 0.015888764860809992 0 -0.0078771806216831591 0.016030318597760541 0 -0.0077611594179001582 0.016019512513187898 0 -0.007798143970806872 0.015797351935009533 0 -0.0080350082444832875 0.015866026794622651 0 -0.0078771806216831591 0.016030318597760541 0 -0.0079293852348291099 0.015739221618135669 0 -0.0078771806216831591 0.016030318597760541 0 -0.007798143970806872 0.015797351935009533 0 -0.0079293852348291099 0.015739221618135669 0 -0.0080350082444832875 0.015866026794622651 0 -0.0078112739258468754 0.016182406534375793 0 -0.0078771806216831591 0.016030318597760541 0 -0.0077028699762135234 0.01582202181292585 0 -0.0074798167366170532 0.015281746666249161 0 -0.0080350082444832875 0.015866026794622651 0 -0.0079293852348291099 0.015739221618135669 0 -0.0080667366177244095 0.015431231177468559 0 -0.0079293852348291099 0.015739221618135669 0 -0.0078750531464182594 0.015527994299982585 0 -0.0080667366177244095 0.015431231177468559 0 -0.007798143970806872 0.015797351935009533 0 -0.0078750531464182594 0.015527994299982585 0 -0.0077109392061403895 0.015508126378942215 0 -0.007798143970806872 0.015797351935009533 0 -0.0079293852348291099 0.015739221618135669 0 -0.0078750531464182594 0.015527994299982585 0 -0.0078080838199193047 0.015397717011330024 0 -0.0077418415590836598 0.015346326114576465 0 -0.0077109392061403895 0.015508126378942215 0 -0.0078750531464182594 0.015527994299982585 0 -0.0078080838199193047 0.015397717011330024 0 -0.0077109392061403895 0.015508126378942215 0 -0.0078255007698607593 0.015289959150525036 0 -0.0077876532660534452 0.015217212135872892 0 -0.0077418415590836598 0.015346326114576465 0 -0.0078080838199193047 0.015397717011330024 0 -0.0078255007698607593 0.015289959150525036 0 -0.0077418415590836598 0.015346326114576465 0 -0.0078080838199193047 0.015397717011330024 0 -0.0079030039351438083 0.01533032049077371 0 -0.0078255007698607593 0.015289959150525036 0 -0.0078750531464182594 0.015527994299982585 0 -0.0078080838199193047 0.015397717011330024 0 -0.0079030039351438083 0.01533032049077371 0 -0.0079030039351438083 0.01533032049077371 0 -0.0078255007698607593 0.015289959150525036 0 -0.0078853373319601825 0.015176733375267168 0 -0.0079030039351438083 0.01533032049077371 0 -0.0079879568283406366 0.015172000345383074 0 -0.0078853373319601825 0.015176733375267168 0 -0.0078255007698607593 0.015289959150525036 0 -0.0078853373319601825 0.015176733375267168 0 -0.0077876532660534452 0.015217212135872892 0 -0.0079030039351438083 0.01533032049077371 0 -0.0080667366177244095 0.015431231177468559 0 -0.0079879568283406366 0.015172000345383074 0 -0.0074798167366170532 0.015281746666249161 0 -0.0077883431788969455 0.014782490573544731 0 -0.0069860589037461967 0.015187338725856663 0 -0.0071078003525335319 0.014737795344503727 0 -0.0066642981971989489 0.014498100384012233 0 -0.0080667366177244095 0.015431231177468559 0 -0.0080050372817976941 0.015080905279830529 0 -0.0079879568283406366 0.015172000345383074 0 -0.0078750531464182594 0.015527994299982585 0 -0.0079030039351438083 0.01533032049077371 0 -0.0080667366177244095 0.015431231177468559 0 -0.0069860589037461967 0.015187338725856663 0 -0.0071078003525335319 0.014737795344503727 0 -0.007743364888997452 0.015244655427049112 0 -0.0071649191361633216 0.015114875103096257 0 -0.0070271764556010877 0.014305148329148426 0 -0.0071078003525335319 0.014737795344503727 0 -0.007743364888997452 0.015244655427049112 0 -0.0073874827171124613 0.014375548468588236 0 -0.00738409269189539 0.015823675929829743 0 -0.0079520652265757212 0.015980046275801001 0 -0.007743364888997452 0.015244655427049112 0 -0.00738409269189539 0.015823675929829743 0 -0.0069860589037461967 0.015187338725856663 0 -0.007743364888997452 0.015244655427049112 0 -0.0072937287692593326 0.015950136397305831 0 -0.0071649191361633216 0.015114875103096257 0 -0.0071669920815240883 0.015138507843419443 0 -0.0066325971740101991 0.015924311658345281 0 -0.0065794262471506543 0.014953803906255126 0 -0.0071669920815240883 0.015138507843419443 0 -0.0065794262471506543 0.014953803906255126 0 -0.0069850161167202031 0.014392260089437904 0 -0.0065794262471506543 0.014953803906255126 0 -0.0069850161167202031 0.014392260089437904 0 -0.0066647757027163803 0.014183321424830492 0 -0.0069850161167202031 0.014392260089437904 0 -0.0066647757027163803 0.014183321424830492 0 -0.0069172537091809596 0.013891471319513425 0 -0.0071078003525335319 0.014737795344503727 0 -0.0073874827171124613 0.014375548468588236 0 -0.0069443299311202555 0.014293492466534625 0 -0.0073874827171124613 0.014375548468588236 0 -0.0068938603101760488 0.013733334168304759 0 -0.0068828690848520141 0.013965225159872962 0 -0.0066647757027163803 0.014183321424830492 0 -0.0069172537091809596 0.013891471319513425 0 -0.0068938603101760488 0.013733334168304759 0 -0.0070271764556010877 0.014305148329148426 0 -0.0069084571993210239 0.013791484287511957 0 -0.0073874827171124613 0.014375548468588236 0 -0.0068828690848520141 0.013965225159872962 0 -0.0069443299311202555 0.014293492466534625 0 -0.0071799301833185298 0.01394478190885691 0 -0.0069850161167202031 0.014392260089437904 0 -0.0069172537091809596 0.013891471319513425 0 -0.0071799301833185298 0.01394478190885691 0 -0.0069172537091809596 0.013891471319513425 0 -0.0070073520634449053 0.013626458911406241 0 -0.0083579230275568385 0.010928806513507659 0 -0.0089546046201586342 0.0093427869181557256 0 -0.0069172537091809596 0.013891471319513425 0 -0.0070073520634449053 0.013626458911406241 0 -0.0069306149409979773 0.01373753011349914 0 -0.0096511561230968115 0.0075813568306754599 0 -0.0096837819957607523 0.0071163286115812708 0 -0.0094375089806472186 0.0069849050006877611 0 -0.0096837819957607523 0.0071163286115812708 0 -0.0094943230082741754 0.0069806834588598378 0 -0.0094375089806472186 0.0069849050006877611 0 -0.0090809360812034827 0.0091969013392934687 0 -0.0089546046201586342 0.0093427869181557256 0 -0.0070073520634449053 0.013626458911406241 0 -0.0069306149409979773 0.01373753011349914 0 -0.0069013768410186279 0.013661998159917194 0 -0.0089546046201586342 0.0093427869181557256 0 -0.0076424919649672705 0.011466664924373381 0 -0.0069172537091809596 0.013891471319513425 0 -0.0069306149409979773 0.01373753011349914 0 -0.0068938603101760488 0.013733334168304759 0 -0.0069306149409979773 0.01373753011349914 0 -0.0068938603101760488 0.013733334168304759 0 -0.0069013768410186279 0.013661998159917194 0 -0.0088229493739981971 0.0093759606954822838 0 -0.0084497956587329184 0.0085730458960687813 0 -0.0092670364831874182 0.0080276423029793029 0 -0.0099911647108201305 0.0093268900165591091 0 -0.0088229493739981971 0.0093759606954822838 0 -0.0092670364831874182 0.0080276423029793029 0 -0.0084497956587329184 0.0085730458960687813 0 -0.0083846047852528856 0.0077351471807232119 0 -0.0092670364831874182 0.0080276423029793029 0 -0.0094943230082741754 0.0069806834588598378 0 -0.0094385670548246727 0.0069804348347579049 0 -0.00963931364613216 0.0065195328846755201 0 -0.0094385670548246727 0.0069804348347579049 0 -0.00963931364613216 0.0065195328846755201 0 -0.0092752744297987938 0.0064673509209588068 0 -0.0097910605375045676 0.0068338791916427184 0 -0.0094943230082741754 0.0069806834588598378 0 -0.00963931364613216 0.0065195328846755201 0 -0.0089546046201586342 0.0093427869181557256 0 -0.009270155204855024 0.0071781852835633726 0 -0.0091941526425753772 0.0088839539373347081 0 -0.0098496580812678682 0.0084012538980458261 0 -0.0083758696596687946 0.0082161679822946518 0 -0.0091941526425753772 0.0088839539373347081 0 -0.0087911585986098374 0.0094762965523463062 0 -0.0083758696596687946 0.0082161679822946518 0 -0.0092015336588299086 0.010550574849916068 0 -0.010268964485844075 0.0073415511152653727 0 -0.0091941526425753772 0.0088839539373347081 0 -0.0098496580812678682 0.0084012538980458261 0 -0.0097609478411434768 0.009442102470416493 0 -0.0088229493739981971 0.0093759606954822838 0 -0.0084497956587329184 0.0085730458960687813 0 -0.0076481517233254748 0.0094300061740340366 0 -0.0084497956587329184 0.0085730458960687813 0 -0.0077443703718636262 0.0082602485606499115 0 -0.0076481517233254748 0.0094300061740340366 0 -0.0088026939454817574 0.0081970012909081107 0 -0.0079880886846005524 0.011061183539373376 0 -0.0084497956587329184 0.0085730458960687813 0 -0.0077443703718636262 0.0082602485606499115 0 -0.0083846047852528856 0.0077351471807232119 0 -0.0079880886846005524 0.011061183539373376 0 -0.0076207879823550042 0.013965894716251284 0 -0.0067172271679225622 0.013619370841023604 0 -0.0068828690848520141 0.013965225159872962 0 -0.0066870632427704817 0.013977180686582096 0 -0.0087537366329333132 0.011690308669991198 0 -0.0082077276621404689 0.01252021786485683 0 -0.0086120954573542761 0.013383858469200739 0 -0.0068938603101760488 0.013733334168304759 0 -0.0067172271679225622 0.013619370841023604 0 -0.0068828690848520141 0.013965225159872962 0 -0.0076424919649672705 0.011466664924373381 0 -0.0079880886846005524 0.011061183539373376 0 -0.0068938603101760488 0.013733334168304759 0 -0.0069013768410186279 0.013661998159917194 0 -0.0067172271679225622 0.013619370841023604 0 -0.0082077276621404689 0.01252021786485683 0 -0.00736688664937703 0.011741902827518323 0 -0.007916188968121244 0.013410821359731567 0 -0.0079206414212967639 0.014755650969558606 0 -0.0078807411365092762 0.014871294405680552 0 -0.0079584326228878607 0.014917611683228801 0 -0.0092015336588299086 0.010550574849916068 0 -0.008023069532296756 0.014605719341837686 0 -0.0087537366329333132 0.011690308669991198 0 -0.0082077276621404689 0.01252021786485683 0 -0.00736688664937703 0.011741902827518323 0 -0.0091941526425753772 0.0088839539373347081 0 -0.0097609478411434768 0.009442102470416493 0 -0.0087911585986098374 0.0094762965523463062 0 -0.0079880886846005524 0.011061183539373376 0 -0.0092015336588299086 0.010550574849916068 0 -0.0078807411365092762 0.014871294405680552 0 -0.0079584326228878607 0.014917611683228801 0 -0.0078769617089206982 0.015026520072919207 0 -0.008023069532296756 0.014605719341837686 0 -0.0077883431788969455 0.014782490573544731 0 -0.0082077276621404689 0.01252021786485683 0 -0.007916188968121244 0.013410821359731567 0 -0.0086120954573542761 0.013383858469200739 0 -0.007916188968121244 0.013410821359731567 0 -0.0086120954573542761 0.013383858469200739 0 -0.0084629825164411806 0.015068306116858783 0 -0.0076207879823550042 0.013965894716251284 0 -0.0077883431788969455 0.014782490573544731 0 -0.0068828690848520141 0.013965225159872962 0 -0.0066870632427704817 0.013977180686582096 0 -0.0069443299311202555 0.014293492466534625 0 -0.0066870632427704817 0.013977180686582096 0 -0.0069443299311202555 0.014293492466534625 0 -0.0066642981971989489 0.014498100384012233 0 -0.0077883431788969455 0.014782490573544731 0 -0.0078292952604750183 0.015023106912267239 0 -0.0071078003525335319 0.014737795344503727 0 -0.0069443299311202555 0.014293492466534625 0 -0.0066642981971989489 0.014498100384012233 0 -0.0079584326228878607 0.014917611683228801 0 -0.0079980336700962076 0.015104244246059981 0 -0.0078769617089206982 0.015026520072919207 0 -0.0079980336700962076 0.015104244246059981 0 -0.0079879568283406366 0.015172000345383074 0 -0.0078853373319601825 0.015176733375267168 0 -0.0079980336700962076 0.015104244246059981 0 -0.0078769617089206982 0.015026520072919207 0 -0.0078853373319601825 0.015176733375267168 0 -0.0078769617089206982 0.015026520072919207 0 -0.0078853373319601825 0.015176733375267168 0 -0.0078181871129517511 0.015113361099410619 0 -0.0078853373319601825 0.015176733375267168 0 -0.0078181871129517511 0.015113361099410619 0 -0.0077876532660534452 0.015217212135872892 0 -0.0078181871129517511 0.015113361099410619 0 -0.007771320124359213 0.015036429841965925 0 -0.0077033817514617015 0.015167663769680938 0 -0.0078769617089206982 0.015026520072919207 0 -0.0078181871129517511 0.015113361099410619 0 -0.007771320124359213 0.015036429841965925 0 -0.007771320124359213 0.015036429841965925 0 -0.0077157358448351095 0.015013387639764453 0 -0.0077033817514617015 0.015167663769680938 0 -0.0077157358448351095 0.015013387639764453 0 -0.0076906905370301001 0.015125196144468129 0 -0.0077033817514617015 0.015167663769680938 0 -0.0077157358448351095 0.015013387639764453 0 -0.0077574570654850147 0.014878915619570119 0 -0.0076986603696280421 0.01486191584302974 0 -0.0077157358448351095 0.015013387639764453 0 -0.0076986603696280421 0.01486191584302974 0 -0.0076427964470837575 0.014964254280487472 0 -0.0077157358448351095 0.015013387639764453 0 -0.0077574570654850147 0.014878915619570119 0 -0.0078027139158766828 0.014933427969292827 0 -0.0078807411365092762 0.014871294405680552 0 -0.0078769617089206982 0.015026520072919207 0 -0.0078027139158766828 0.014933427969292827 0 -0.0078769617089206982 0.015026520072919207 0 -0.007771320124359213 0.015036429841965925 0 -0.0078027139158766828 0.014933427969292827 0 -0.007771320124359213 0.015036429841965925 0 -0.0077157358448351095 0.015013387639764453 0 -0.0078027139158766828 0.014933427969292827 0 -0.0077574570654850147 0.014878915619570119 0 -0.0078027139158766828 0.014933427969292827 0 -0.0078237131382986724 0.014844721852296985 0 -0.0078807411365092762 0.014871294405680552 0 -0.0078027139158766828 0.014933427969292827 0 -0.0078237131382986724 0.014844721852296985 0 -0.0092015336588299086 0.010550574849916068 0 -0.0099025540329343385 0.010833874658302186 0 -0.0079206414212967639 0.014755650969558606 0 -0.0078807411365092762 0.014871294405680552 0 -0.0078237131382986724 0.014844721852296985 0 -0.0079206414212967639 0.014755650969558606 0 -0.0078237131382986724 0.014844721852296985 0 -0.0077664650699162761 0.014784837798467359 0 -0.010620066095303752 0.0068567094996858221 0 -0.012716850514104623 0.0067725940668875943 0 -0.011687107561634364 0.0074611978816588927 0 -0.0077574570654850147 0.014878915619570119 0 -0.0078237131382986724 0.014844721852296985 0 -0.0077664650699162761 0.014784837798467359 0 -0.0077574570654850147 0.014878915619570119 0 -0.0076986603696280421 0.01486191584302974 0 -0.0077664650699162761 0.014784837798467359 0 -0.0099025540329343385 0.010833874658302186 0 -0.01274088018159099 0.010492618265305441 0 -0.0076986603696280421 0.01486191584302974 0 -0.0077664650699162761 0.014784837798467359 0 -0.0076497720983192911 0.014772113224982552 0 -0.012716850514104623 0.0067725940668875943 0 -0.012523595185462323 0.0077390522344061453 0 -0.013715809109866632 0.0069911936935914722 0 -0.012935982382883847 0.0074826096611354488 0 -0.01356368772834241 0.0070942819765365817 0 -0.013031020109655143 0.0073873319696720766 0 -0.01362374763420999 0.0076440170511285254 0 -0.013715809109866632 0.0069911936935914722 0 -0.013031020109655143 0.0073873319696720766 0 -0.012857036089836177 0.0080003697550661574 0 -0.013256541149668769 0.0078575951988466911 0 -0.013031020109655143 0.0073873319696720766 0 -0.01362374763420999 0.0076440170511285254 0 -0.013256541149668769 0.0078575951988466911 0 -0.010620066095303752 0.0068567094996858221 0 -0.011687107561634364 0.0074611978816588927 0 -0.011182692550391487 0.0084804222494709661 0 -0.013031020109655143 0.0073873319696720766 0 -0.012276951115024165 0.0077725070062478994 0 -0.012857036089836177 0.0080003697550661574 0 -0.012935982382883847 0.0074826096611354488 0 -0.010268964485844075 0.0073415511152653727 0 -0.012523595185462323 0.0077390522344061453 0 -0.011687107561634364 0.0074611978816588927 0 -0.011182692550391487 0.0084804222494709661 0 -0.012716850514104623 0.0067725940668875943 0 -0.012523595185462323 0.0077390522344061453 0 -0.011687107561634364 0.0074611978816588927 0 -0.014983168598929503 0.0074394152813067552 0 -0.014530782444082086 0.0075836620879143031 0 -0.014498091112031118 0.0070777276170335621 0 -0.014983168598929503 0.0074394152813067552 0 -0.015371211164876736 0.0075856952181599449 0 -0.014949789241531841 0.007829178063904367 0 -0.014983168598929503 0.0074394152813067552 0 -0.014530782444082086 0.0075836620879143031 0 -0.014949789241531841 0.007829178063904367 0 -0.014252778492106464 0.0065130577350257434 0 -0.01274088018159099 0.010492618265305441 0 -0.014530782444082086 0.0075836620879143031 0 -0.014011833956977989 0.0074200621326704786 0 -0.014091020729129371 0.0080082143614767683 0 -0.014530782444082086 0.0075836620879143031 0 -0.014011833956977989 0.0074200621326704786 0 -0.014460575968203992 0.0067045401337604968 0 -0.01362374763420999 0.0076440170511285254 0 -0.014011833956977989 0.0074200621326704786 0 -0.014091020729129371 0.0080082143614767683 0 -0.014011833956977989 0.0074200621326704786 0 -0.014460575968203992 0.0067045401337604968 0 -0.013715809109866632 0.0069911936935914722 0 -0.01362374763420999 0.0076440170511285254 0 -0.014011833956977989 0.0074200621326704786 0 -0.013715809109866632 0.0069911936935914722 0 -0.012716850514104623 0.0067725940668875943 0 -0.014460575968203992 0.0067045401337604968 0 -0.013715809109866632 0.0069911936935914722 0 -0.014983168598929503 0.0074394152813067552 0 -0.014498091112031118 0.0070777276170335621 0 -0.015511546135084136 0.0071906090665720705 0 -0.014855727184247996 0.010658934684238692 0 -0.01487545683440133 0.010648670812972296 0 -0.014914110432500557 0.010622032726864733 0 -0.01274088018159099 0.010492618265305441 0 -0.015634277069352904 0.0086957876754024232 0 -0.01487545683440133 0.010648670812972296 0 -0.014872886744271068 0.010683090138127552 0 -0.014856547060651849 0.010665537767953202 0 -0.014855727184247996 0.010658934684238692 0 -0.01487545683440133 0.010648670812972296 0 -0.014872886744271068 0.010683090138127552 0 -0.01274088018159099 0.010492618265305441 0 -0.011176144810983172 0.013245576119308759 0 -0.0076986603696280421 0.01486191584302974 0 -0.0076497720983192911 0.014772113224982552 0 -0.0076427964470837575 0.014964254280487472 0 -0.011176144810983172 0.013245576119308759 0 -0.011101532346999789 0.012959912453949883 0 -0.0077157358448351095 0.015013387639764453 0 -0.0076427964470837575 0.014964254280487472 0 -0.0076906905370301001 0.015125196144468129 0 -0.014872886744271068 0.010683090138127552 0 -0.01483951903308975 0.010773259716147194 0 -0.014880778378544681 0.010779979256590527 0 -0.015039517380456906 0.011368448994209574 0 -0.014948100600790777 0.011263310115858571 0 -0.015063092100098157 0.010950062904023771 0 -0.015149245752720301 0.010937787794916699 0 -0.01492294586083813 0.010816567111058014 0 -0.014872886744271068 0.010683090138127552 0 -0.01483951903308975 0.010773259716147194 0 -0.014856547060651849 0.010665537767953202 0 -0.015039517380456906 0.011368448994209574 0 -0.014902377985457757 0.011491394585524072 0 -0.014948100600790777 0.011263310115858571 0 -0.015039517380456906 0.011368448994209574 0 -0.014902377985457757 0.011491394585524072 0 -0.014951053738434401 0.011605882977652976 0 -0.014951053738434401 0.011605882977652976 0 -0.014835182161130453 0.011705686952926087 0 -0.014891662360350839 0.011804865768810157 0 -0.014902377985457757 0.011491394585524072 0 -0.014835182161130453 0.011705686952926087 0 -0.014781774990022303 0.01164460907175059 0 -0.014902377985457757 0.011491394585524072 0 -0.014951053738434401 0.011605882977652976 0 -0.014835182161130453 0.011705686952926087 0 -0.015149245752720301 0.010937787794916699 0 -0.013406185967957233 0.012365721797776064 0 -0.014951053738434401 0.011605882977652976 0 -0.015079042003099409 0.011700167493004007 0 -0.014891662360350839 0.011804865768810157 0 -0.015039517380456906 0.011368448994209574 0 -0.014951053738434401 0.011605882977652976 0 -0.015079042003099409 0.011700167493004007 0 -0.013406185967957233 0.012365721797776064 0 -0.011101532346999789 0.012959912453949883 0 -0.01483951903308975 0.010773259716147194 0 -0.014872965048729436 0.01091667753141172 0 -0.014880778378544681 0.010779979256590527 0 -0.0076906905370301001 0.015125196144468129 0 -0.0077033817514617015 0.015167663769680938 0 -0.0077291166823483613 0.015143133248535907 0 -0.0077033817514617015 0.015167663769680938 0 -0.0077442805593489908 0.015141771548975268 0 -0.0077291166823483613 0.015143133248535907 0 -0.0077033817514617015 0.015167663769680938 0 -0.0077418415590836598 0.015346326114576465 0 -0.0076433486348067084 0.015494171101996926 0 -0.0077014039934356704 0.015217579746324261 0 -0.0076960757088320739 0.015274699000253533 0 -0.0078181871129517511 0.015113361099410619 0 -0.0077876532660534452 0.015217212135872892 0 -0.0077033817514617015 0.015167663769680938 0 -0.0077876532660534452 0.015217212135872892 0 -0.0077033817514617015 0.015167663769680938 0 -0.0077418415590836598 0.015346326114576465 0 -0.0077109392061403895 0.015508126378942215 0 -0.0076433486348067084 0.015494171101996926 0 -0.0076885096695032155 0.015634059617907065 0 -0.0076920614541450914 0.015568971090261296 0 -0.0076257701161211522 0.015668695606130399 0 -0.0076960757088320739 0.015274699000253533 0 -0.0076257701161211522 0.015668695606130399 0 -0.0077418415590836598 0.015346326114576465 0 -0.0077109392061403895 0.015508126378942215 0 -0.0076433486348067084 0.015494171101996926 0 -0.0077442805593489908 0.015141771548975268 0 -0.0077449581803120063 0.015142733937513236 0 -0.0077595217043782312 0.015146674897576715 0 -0.007751993545843187 0.015137713666339869 0 -0.0076906905370301001 0.015125196144468129 0 -0.0077291166823483613 0.015143133248535907 0 -0.007751993545843187 0.015137713666339869 0 -0.0077449581803120063 0.015142733937513236 0 -0.0077595217043782312 0.015146674897576715 0 -0.0077442805593489908 0.015141771548975268 0 -0.0077291166823483613 0.015143133248535907 0 -0.0077449581803120063 0.015142733937513236 0 -0.007751993545843187 0.015137713666339869 0 -0.0077291166823483613 0.015143133248535907 0 -0.0077449581803120063 0.015142733937513236 0 -0.013406185967957233 0.012365721797776064 0 -0.015102448651703005 0.012274374141038293 0 -0.013406185967957233 0.012365721797776064 0 -0.011392887932663607 0.013797626857350668 0 -0.014753783419353107 0.012117413700798321 0 -0.015049046620937876 0.01245478559769342 0 -0.014866859707425227 0.01260954067841462 0 -0.007751993545843187 0.015137713666339869 0 -0.007771230862338315 0.01515312036301617 0 -0.0077595217043782312 0.015146674897576715 0 -0.007771230862338315 0.01515312036301617 0 -0.0077595217043782312 0.015146674897576715 0 -0.0077787593700987994 0.015152425682859971 0 -0.0077442805593489908 0.015141771548975268 0 -0.0077595217043782312 0.015146674897576715 0 -0.0077787593700987994 0.015152425682859971 0 -0.011392887932663607 0.013797626857350668 0 -0.0095971567473716289 0.015203226783434972 0 -0.0077888053329315012 0.016039122148046921 0 -0.0077010296438869393 0.015762852212774625 0 -0.0076554383823432062 0.016043201745387738 0 -0.007771230862338315 0.01515312036301617 0 -0.0077787593700987994 0.015152425682859971 0 -0.0078001991092379206 0.015172642863086255 0 -0.015049046620937876 0.01245478559769342 0 -0.015327436151253451 0.012790072151656456 0 -0.015102893994775051 0.012697774798693726 0 -0.0076257701161211522 0.015668695606130399 0 -0.0095971567473716289 0.015203226783434972 0 -0.015122019771036032 0.012901056353493801 0 -0.015327436151253451 0.012790072151656456 0 -0.015102893994775051 0.012697774798693726 0 -0.015049046620937876 0.01245478559769342 0 -0.014866859707425227 0.01260954067841462 0 -0.015102893994775051 0.012697774798693726 0 -0.015122019771036032 0.012901056353493801 0 -0.014866859707425227 0.01260954067841462 0 -0.015102893994775051 0.012697774798693726 0 -0.01483372679437699 0.012438794163850785 0 -0.01506343909632118 0.012091887684012058 0 -0.014813244351247017 0.012197669601505626 0 -0.01506343909632118 0.012091887684012058 0 -0.014813244351247017 0.012197669601505626 0 -0.014929939336513879 0.011945832973023861 0 -0.014813244351247017 0.012197669601505626 0 -0.014929939336513879 0.011945832973023861 0 -0.014788574143658787 0.012002097068612614 0 -0.014813244351247017 0.012197669601505626 0 -0.014589835224728762 0.012216153993487007 0 -0.014788574143658787 0.012002097068612614 0 -0.014555292793498336 0.012492561022511405 0 -0.014813244351247017 0.012197669601505626 0 -0.014589835224728762 0.012216153993487007 0 -0.014232363908362636 0.012560076666364267 0 -0.014589835224728762 0.012216153993487007 0 -0.014449943965299765 0.012224050722083239 0 -0.014589835224728762 0.012216153993487007 0 -0.014676539769627042 0.011927694823573309 0 -0.014449943965299765 0.012224050722083239 0 -0.014589835224728762 0.012216153993487007 0 -0.014676539769627042 0.011927694823573309 0 -0.014788574143658787 0.012002097068612614 0 -0.014676539769627042 0.011927694823573309 0 -0.014891662360350839 0.011804865768810157 0 -0.014788574143658787 0.012002097068612614 0 -0.014835182161130453 0.011705686952926087 0 -0.014676539769627042 0.011927694823573309 0 -0.014781774990022303 0.01164460907175059 0 -0.014835182161130453 0.011705686952926087 0 -0.014676539769627042 0.011927694823573309 0 -0.014891662360350839 0.011804865768810157 0 -0.015079042003099409 0.011700167493004007 0 -0.014891662360350839 0.011804865768810157 0 -0.014929939336513879 0.011945832973023861 0 -0.015079042003099409 0.011700167493004007 0 -0.01506343909632118 0.012091887684012058 0 -0.014929939336513879 0.011945832973023861 0 -0.014891662360350839 0.011804865768810157 0 -0.014929939336513879 0.011945832973023861 0 -0.014788574143658787 0.012002097068612614 0 -0.014566494074583124 0.011973453652774873 0 -0.014648910920418343 0.011802567482975387 0 -0.014716302884492088 0.011644883684787414 0 -0.014566494074583124 0.011973453652774873 0 -0.01465003016681778 0.011837080841775247 0 -0.014716302884492088 0.011644883684787414 0 -0.014566494074583124 0.011973453652774873 0 -0.01465003016681778 0.011837080841775247 0 -0.014504025637268225 0.012078999178388568 0 -0.014676539769627042 0.011927694823573309 0 -0.01465003016681778 0.011837080841775247 0 -0.014781774990022303 0.01164460907175059 0 -0.014676539769627042 0.011927694823573309 0 -0.01465003016681778 0.011837080841775247 0 -0.014504025637268225 0.012078999178388568 0 -0.01424348158265009 0.012421886625083705 0 -0.014504025637268225 0.012078999178388568 0 -0.014449943965299765 0.012224050722083239 0 -0.014676539769627042 0.011927694823573309 0 -0.014504025637268225 0.012078999178388568 0 -0.014449943965299765 0.012224050722083239 0 -0.01424348158265009 0.012421886625083705 0 -0.014504025637268225 0.012078999178388568 0 -0.014431794663383617 0.012217384611792637 0 -0.014566494074583124 0.011973453652774873 0 -0.014504025637268225 0.012078999178388568 0 -0.014431794663383617 0.012217384611792637 0 -0.014566494074583124 0.011973453652774873 0 -0.014431794663383617 0.012217384611792637 0 -0.014535990859571487 0.012177184542169312 0 -0.014566494074583124 0.011973453652774873 0 -0.014535990859571487 0.012177184542169312 0 -0.014643907689799094 0.011974425083699201 0 -0.014647862292371043 0.012235346398056429 0 -0.014535990859571487 0.012177184542169312 0 -0.014643907689799094 0.011974425083699201 0 -0.014805137464574661 0.012009687314888178 0 -0.014643907689799094 0.011974425083699201 0 -0.014747915857000754 0.011755312825450188 0 -0.014805137464574661 0.012009687314888178 0 -0.014647862292371043 0.012235346398056429 0 -0.014643907689799094 0.011974425083699201 0 -0.014747915857000754 0.011755312825450188 0 -0.01468562437022628 0.011709610675708687 0 -0.014697263589714691 0.011565008933985965 0 -0.014643907689799094 0.011974425083699201 0 -0.014747915857000754 0.011755312825450188 0 -0.01468562437022628 0.011709610675708687 0 -0.01468562437022628 0.011709610675708687 0 -0.014648910920418343 0.011802567482975387 0 -0.014702517277534981 0.011609853349358594 0 -0.014566494074583124 0.011973453652774873 0 -0.014643907689799094 0.011974425083699201 0 -0.014648910920418343 0.011802567482975387 0 -0.014643907689799094 0.011974425083699201 0 -0.01468562437022628 0.011709610675708687 0 -0.014648910920418343 0.011802567482975387 0 -0.014648910920418343 0.011802567482975387 0 -0.014702517277534981 0.011609853349358594 0 -0.014716302884492088 0.011644883684787414 0 -0.014702517277534981 0.011609853349358594 0 -0.014758990036545381 0.011469401411376562 0 -0.014716302884492088 0.011644883684787414 0 -0.014702517277534981 0.011609853349358594 0 -0.014697521248488084 0.011480639084630921 0 -0.014764810896030852 0.011344002806342825 0 -0.014702517277534981 0.011609853349358594 0 -0.014758990036545381 0.011469401411376562 0 -0.014764810896030852 0.011344002806342825 0 -0.01468562437022628 0.011709610675708687 0 -0.014697521248488084 0.011480639084630921 0 -0.014697263589714691 0.011565008933985965 0 -0.01468562437022628 0.011709610675708687 0 -0.014702517277534981 0.011609853349358594 0 -0.014697521248488084 0.011480639084630921 0 -0.014697521248488084 0.011480639084630921 0 -0.014776580993440471 0.011178793101850612 0 -0.014615857129333597 0.011375613393376066 0 -0.014776580993440471 0.011178793101850612 0 -0.014799601095767832 0.010832351788209434 0 -0.014615857129333597 0.011375613393376066 0 -0.014697521248488084 0.011480639084630921 0 -0.014776580993440471 0.011178793101850612 0 -0.014764810896030852 0.011344002806342825 0 -0.014758990036545381 0.011469401411376562 0 -0.014764810896030852 0.011344002806342825 0 -0.014838965623384194 0.01113948856604809 0 -0.014758990036545381 0.011469401411376562 0 -0.014838965623384194 0.01113948856604809 0 -0.01482461857268178 0.011343592218435497 0 -0.014776580993440471 0.011178793101850612 0 -0.014764810896030852 0.011344002806342825 0 -0.014838965623384194 0.01113948856604809 0 -0.014838965623384194 0.01113948856604809 0 -0.014897040415765001 0.011141971180283351 0 -0.01482461857268178 0.011343592218435497 0 -0.014897040415765001 0.011141971180283351 0 -0.01482461857268178 0.011343592218435497 0 -0.014839034390130658 0.011436963140172392 0 -0.01482461857268178 0.011343592218435497 0 -0.014716302884492088 0.011644883684787414 0 -0.014839034390130658 0.011436963140172392 0 -0.014758990036545381 0.011469401411376562 0 -0.01482461857268178 0.011343592218435497 0 -0.014716302884492088 0.011644883684787414 0 -0.01465003016681778 0.011837080841775247 0 -0.014716302884492088 0.011644883684787414 0 -0.014781774990022303 0.01164460907175059 0 -0.014716302884492088 0.011644883684787414 0 -0.014781774990022303 0.01164460907175059 0 -0.014839034390130658 0.011436963140172392 0 -0.014902377985457757 0.011491394585524072 0 -0.014781774990022303 0.01164460907175059 0 -0.014839034390130658 0.011436963140172392 0 -0.014902377985457757 0.011491394585524072 0 -0.014839034390130658 0.011436963140172392 0 -0.014948100600790777 0.011263310115858571 0 -0.014897040415765001 0.011141971180283351 0 -0.014839034390130658 0.011436963140172392 0 -0.014948100600790777 0.011263310115858571 0 -0.014897040415765001 0.011141971180283351 0 -0.014948100600790777 0.011263310115858571 0 -0.015063092100098157 0.010950062904023771 0 -0.014897040415765001 0.011141971180283351 0 -0.014941515247162411 0.010814316170574285 0 -0.014905344218733324 0.010861577839229565 0 -0.014897040415765001 0.011141971180283351 0 -0.015063092100098157 0.010950062904023771 0 -0.014941515247162411 0.010814316170574285 0 -0.014838965623384194 0.01113948856604809 0 -0.014897040415765001 0.011141971180283351 0 -0.014905344218733324 0.010861577839229565 0 -0.015063092100098157 0.010950062904023771 0 -0.014941515247162411 0.010814316170574285 0 -0.014933782910003884 0.010576997522792279 0 -0.014941515247162411 0.010814316170574285 0 -0.014933782910003884 0.010576997522792279 0 -0.014927108098062008 0.010589405549273999 0 -0.014941515247162411 0.010814316170574285 0 -0.014927108098062008 0.010589405549273999 0 -0.014905344218733324 0.010861577839229565 0 -0.01487545683440133 0.010648670812972296 0 -0.014856547060651849 0.010665537767953202 0 -0.014914110432500557 0.010622032726864733 0 -0.01492294586083813 0.010816567111058014 0 -0.01493398134233017 0.010596244141067409 0 -0.014856547060651849 0.010665537767953202 0 -0.014914110432500557 0.010622032726864733 0 -0.014933782910003884 0.010576997522792279 0 -0.015511546135084136 0.0071906090665720705 0 -0.015831403232436786 0.0075390829820471987 0 -0.016036778710855425 0.0075933473758738228 0 -0.014914110432500557 0.010622032726864733 0 -0.014933782910003884 0.010576997522792279 0 -0.014926790960635671 0.010488272780598247 0 -0.015634277069352904 0.0086957876754024232 0 -0.015346834123632053 0.0090652739146766456 0 -0.014933782910003884 0.010576997522792279 0 -0.014926790960635671 0.010488272780598247 0 -0.014927108098062008 0.010589405549273999 0 -0.015511546135084136 0.0071906090665720705 0 -0.015831403232436786 0.0075390829820471987 0 -0.015661470200185088 0.0075022875472453513 0 -0.015831403232436786 0.0075390829820471987 0 -0.015825356125884704 0.0076068573650189351 0 -0.015661470200185088 0.0075022875472453513 0 -0.015831403232436786 0.0075390829820471987 0 -0.015825356125884704 0.0076068573650189351 0 -0.016002463979306051 0.0076880320100736494 0 -0.015825356125884704 0.0076068573650189351 0 -0.015661470200185088 0.0075022875472453513 0 -0.01564759524184545 0.0077019848599266241 0 -0.015511546135084136 0.0071906090665720705 0 -0.015371211164876736 0.0075856952181599449 0 -0.015661470200185088 0.0075022875472453513 0 -0.015371211164876736 0.0075856952181599449 0 -0.015661470200185088 0.0075022875472453513 0 -0.01564759524184545 0.0077019848599266241 0 -0.014983168598929503 0.0074394152813067552 0 -0.015511546135084136 0.0071906090665720705 0 -0.015371211164876736 0.0075856952181599449 0 -0.015371211164876736 0.0075856952181599449 0 -0.015327455831576213 0.0078625825226444814 0 -0.014949789241531841 0.007829178063904367 0 -0.015371211164876736 0.0075856952181599449 0 -0.015327455831576213 0.0078625825226444814 0 -0.01564759524184545 0.0077019848599266241 0 -0.016108590433991127 0.0078435135442144772 0 -0.016122433164922109 0.0078623733617835482 0 -0.01606158049673832 0.0079425266961753085 0 -0.016048069554128439 0.0075908577718551721 0 -0.015977350734640437 0.007609677616583049 0 -0.015825356125884704 0.0076068573650189351 0 -0.016108590433991127 0.0078435135442144772 0 -0.016002463979306051 0.0076880320100736494 0 -0.015868914562442517 0.0076009933083376292 0 -0.016048069554128439 0.0075908577718551721 0 -0.016108590433991127 0.0078435135442144772 0 -0.016002463979306051 0.0076880320100736494 0 -0.016122433164922109 0.0078623733617835482 0 -0.016002463979306051 0.0076880320100736494 0 -0.016036778710855425 0.0075933473758738228 0 -0.016122433164922109 0.0078623733617835482 0 -0.015831403232436786 0.0075390829820471987 0 -0.016002463979306051 0.0076880320100736494 0 -0.016036778710855425 0.0075933473758738228 0 -0.014926790960635671 0.010488272780598247 0 -0.014938710690550555 0.010322382591280181 0 -0.014927108098062008 0.010589405549273999 0 -0.014926790960635671 0.010488272780598247 0 -0.014938710690550555 0.010322382591280181 0 -0.015036901245750928 0.01002096458954199 0 -0.014927923246118044 0.0099593193340141439 0 -0.014938710690550555 0.010322382591280181 0 -0.015036901245750928 0.01002096458954199 0 -0.016036778710855425 0.0075933473758738228 0 -0.016122433164922109 0.0078623733617835482 0 -0.016146315634529524 0.0080836601201197573 0 -0.015346834123632053 0.0090652739146766456 0 -0.015549325915462632 0.0090163178872252232 0 -0.014927923246118044 0.0099593193340141439 0 -0.014928794948744894 0.010464443169190395 0 -0.014799601095767832 0.010832351788209434 0 -0.014927923246118044 0.0099593193340141439 0 -0.014938710690550555 0.010322382591280181 0 -0.014928794948744894 0.010464443169190395 0 -0.014938710690550555 0.010322382591280181 0 -0.014928794948744894 0.010464443169190395 0 -0.01492571690780618 0.010584579936607037 0 -0.014938710690550555 0.010322382591280181 0 -0.014927108098062008 0.010589405549273999 0 -0.01492571690780618 0.010584579936607037 0 -0.014928794948744894 0.010464443169190395 0 -0.01492571690780618 0.010584579936607037 0 -0.014876930141866283 0.010855939603998112 0 -0.014927108098062008 0.010589405549273999 0 -0.01492571690780618 0.010584579936607037 0 -0.014905344218733324 0.010861577839229565 0 -0.01492571690780618 0.010584579936607037 0 -0.014905344218733324 0.010861577839229565 0 -0.014876930141866283 0.010855939603998112 0 -0.014776580993440471 0.011178793101850612 0 -0.014838965623384194 0.01113948856604809 0 -0.014876930141866283 0.010855939603998112 0 -0.014838965623384194 0.01113948856604809 0 -0.014905344218733324 0.010861577839229565 0 -0.014876930141866283 0.010855939603998112 0 -0.014928794948744894 0.010464443169190395 0 -0.014876930141866283 0.010855939603998112 0 -0.014799601095767832 0.010832351788209434 0 -0.014776580993440471 0.011178793101850612 0 -0.014876930141866283 0.010855939603998112 0 -0.014799601095767832 0.010832351788209434 0 -0.014799601095767832 0.010832351788209434 0 -0.014425185521113862 0.011041681780587214 0 -0.014615857129333597 0.011375613393376066 0 -0.014927923246118044 0.0099593193340141439 0 -0.014799601095767832 0.010832351788209434 0 -0.014425185521113862 0.011041681780587214 0 -0.015641822525297298 0.0092139345038317819 0 -0.015494474351142659 0.009083008423015286 0 -0.015689836403846486 0.0098060523064232002 0 -0.015641822525297298 0.0092139345038317819 0 -0.015503494611525559 0.0093482500859198327 0 -0.015494474351142659 0.009083008423015286 0 -0.015503494611525559 0.0093482500859198327 0 -0.01562685374410084 0.0087309558610774319 0 -0.015494474351142659 0.009083008423015286 0 -0.014948141790480268 0.0099743613084101283 0 -0.015048617037708855 0.010140249412743562 0 -0.014927923246118044 0.0099593193340141439 0 -0.015503494611525559 0.0093482500859198327 0 -0.015036901245750928 0.01002096458954199 0 -0.014927923246118044 0.0099593193340141439 0 -0.015641822525297298 0.0092139345038317819 0 -0.015503494611525559 0.0093482500859198327 0 -0.015549325915462632 0.0090163178872252232 0 -0.015523020230864241 0.0087964854306556185 0 -0.015503494611525559 0.0093482500859198327 0 -0.015036901245750928 0.01002096458954199 0 -0.01562685374410084 0.0087309558610774319 0 -0.016146315634529524 0.0080836601201197573 0 -0.01562685374410084 0.0087309558610774319 0 -0.015896065122450682 0.0081799733188414655 0 -0.01562685374410084 0.0087309558610774319 0 -0.015896065122450682 0.0081799733188414655 0 -0.015526432161998033 0.0078032013393348832 0 -0.015977350734640437 0.007609677616583049 0 -0.015528277585046069 0.0075758207404563885 0 -0.015896065122450682 0.0081799733188414655 0 -0.01606158049673832 0.0079425266961753085 0 -0.015526432161998033 0.0078032013393348832 0 -0.016146315634529524 0.0080836601201197573 0 -0.015896065122450682 0.0081799733188414655 0 -0.01606158049673832 0.0079425266961753085 0 -0.016122433164922109 0.0078623733617835482 0 -0.016146315634529524 0.0080836601201197573 0 -0.01606158049673832 0.0079425266961753085 0 -0.015526432161998033 0.0078032013393348832 0 -0.015315843245910933 0.0082282838808486278 0 -0.014999807100291798 0.0074974151105362055 0 -0.015315843245910933 0.0082282838808486278 0 -0.014999911952739886 0.0083067695623523334 0 -0.014999807100291798 0.0074974151105362055 0 -0.015528277585046069 0.0075758207404563885 0 -0.015000029352169215 0.0074969140341631215 0 -0.01562685374410084 0.0087309558610774319 0 -0.015526432161998033 0.0078032013393348832 0 -0.015315843245910933 0.0082282838808486278 0 -0.01562685374410084 0.0087309558610774319 0 -0.015315843245910933 0.0082282838808486278 0 -0.015494474351142659 0.009083008423015286 0 -0.015315843245910933 0.0082282838808486278 0 -0.014999911952739886 0.0083067695623523334 0 -0.015494474351142659 0.009083008423015286 0 -0.014999911952739886 0.0083067695623523334 0 -0.015494474351142659 0.009083008423015286 0 -0.014999901288528392 0.0091162198825413022 0 -0.015494474351142659 0.009083008423015286 0 -0.014999901288528392 0.0091162198825413022 0 -0.015293498965865999 0.0095919034942364388 0 -0.015494474351142659 0.009083008423015286 0 -0.015293498965865999 0.0095919034942364388 0 -0.015689836403846486 0.0098060523064232002 0 -0.014999901288528392 0.0091162198825413022 0 -0.015293498965865999 0.0095919034942364388 0 -0.014999886527968064 0.009925575667877308 0 -0.014999886527968064 0.009925575667877308 0 -0.015245704196829309 0.010150636709244714 0 -0.014999436603848799 0.010736050866476757 0 -0.015293498965865999 0.0095919034942364388 0 -0.014999886527968064 0.009925575667877308 0 -0.015245704196829309 0.010150636709244714 0 -0.015245704196829309 0.010150636709244714 0 -0.015689836403846486 0.0098060523064232002 0 -0.01519670204912668 0.010935713347014507 0 -0.015178770452806099 0.010630275183351721 0 -0.015179700564907658 0.010921237750039654 0 -0.015293498965865999 0.0095919034942364388 0 -0.015245704196829309 0.010150636709244714 0 -0.015689836403846486 0.0098060523064232002 0 -0.015048617037708855 0.010140249412743562 0 -0.015178770452806099 0.010630275183351721 0 -0.014425185521113862 0.011041681780587214 0 -0.014615857129333597 0.011375613393376066 0 -0.014701147590915455 0.011479946978769492 0 -0.014615857129333597 0.011375613393376066 0 -0.014711190656318594 0.011454418041677163 0 -0.014697263589714691 0.011565008933985965 0 -0.014697521248488084 0.011480639084630921 0 -0.014615857129333597 0.011375613393376066 0 -0.014697263589714691 0.011565008933985965 0 -0.014615857129333597 0.011375613393376066 0 -0.014711190656318594 0.011454418041677163 0 -0.014701147590915455 0.011479946978769492 0 -0.014711190656318594 0.011454418041677163 0 -0.014701147590915455 0.011479946978769492 0 -0.014939787194843403 0.011224838090852882 0 -0.014711190656318594 0.011454418041677163 0 -0.014838518879753486 0.011515580639719004 0 -0.014939787194843403 0.011224838090852882 0 -0.014838518879753486 0.011515580639719004 0 -0.014991246134590864 0.01141809430321912 0 -0.014939787194843403 0.011224838090852882 0 -0.014747915857000754 0.011755312825450188 0 -0.014838518879753486 0.011515580639719004 0 -0.014697263589714691 0.011565008933985965 0 -0.014711190656318594 0.011454418041677163 0 -0.014838518879753486 0.011515580639719004 0 -0.014697263589714691 0.011565008933985965 0 -0.014805137464574661 0.012009687314888178 0 -0.014747915857000754 0.011755312825450188 0 -0.014858987209707492 0.011777603887492032 0 -0.014747915857000754 0.011755312825450188 0 -0.014838518879753486 0.011515580639719004 0 -0.014858987209707492 0.011777603887492032 0 -0.014838518879753486 0.011515580639719004 0 -0.014952586597277889 0.011659657757311433 0 -0.014991246134590864 0.01141809430321912 0 -0.014838518879753486 0.011515580639719004 0 -0.014858987209707492 0.011777603887492032 0 -0.014952586597277889 0.011659657757311433 0 -0.015009628928636063 0.011654833777501455 0 -0.014952586597277889 0.011659657757311433 0 -0.014991246134590864 0.01141809430321912 0 -0.015009628928636063 0.011654833777501455 0 -0.014991246134590864 0.01141809430321912 0 -0.015030536962652143 0.011437079306789064 0 -0.014991246134590864 0.01141809430321912 0 -0.01508811112228577 0.011180428837788386 0 -0.014939787194843403 0.011224838090852882 0 -0.014991246134590864 0.01141809430321912 0 -0.01508811112228577 0.011180428837788386 0 -0.015030536962652143 0.011437079306789064 0 -0.014890181029176334 0.011725652046476178 0 -0.014997083661912193 0.011002881423757209 0 -0.014943032830367946 0.011522016742881591 0 -0.015030536962652143 0.011437079306789064 0 -0.01500260094791755 0.011252308890235629 0 -0.014636754156642956 0.011897185436933966 0 -0.01500260094791755 0.011252308890235629 0 -0.015027285634212508 0.010920442913150844 0 -0.01508811112228577 0.011180428837788386 0 -0.015030536962652143 0.011437079306789064 0 -0.01500260094791755 0.011252308890235629 0 -0.01500010845195395 0.011544592703640087 0 -0.015027285634212508 0.010920442913150844 0 -0.014999436603848799 0.010736050866476757 0 -0.01508811112228577 0.011180428837788386 0 -0.01500260094791755 0.011252308890235629 0 -0.015027285634212508 0.010920442913150844 0 -0.01508811112228577 0.011180428837788386 0 -0.015027285634212508 0.010920442913150844 0 -0.01519670204912668 0.010935713347014507 0 -0.015027285634212508 0.010920442913150844 0 -0.014999436603848799 0.010736050866476757 0 -0.01519670204912668 0.010935713347014507 0 -0.015245704196829309 0.010150636709244714 0 -0.014999436603848799 0.010736050866476757 0 -0.01519670204912668 0.010935713347014507 0 -0.014701147590915455 0.011479946978769492 0 -0.014939787194843403 0.011224838090852882 0 -0.01519670204912668 0.010935713347014507 0 -0.01508811112228577 0.011180428837788386 0 -0.014939787194843403 0.011224838090852882 0 -0.01519670204912668 0.010935713347014507 0 -0.014999889122399622 0.0043284880535681787 0 -0.015418701260536573 0.0036973694032713289 0 -0.015376092244888003 0.0041924892703468428 0 -0.015418701260536573 0.0036973694032713289 0 -0.0157074625169112 0.0038359487293284727 0 -0.015376092244888003 0.0041924892703468428 0 -0.01500052901339818 0.0043298669018106781 0 -0.015084574714698012 0.0045960182475293645 0 -0.014999889122399622 0.0043284880535681787 0 -0.015418701260536573 0.0036973694032713289 0 -0.014999838358781324 0.0034605760002940924 0 -0.015418701260536573 0.0036973694032713289 0 -0.015764471631447213 0.0033669795841449988 0 -0.0157074625169112 0.0038359487293284727 0 -0.015418701260536573 0.0036973694032713289 0 -0.015764471631447213 0.0033669795841449988 0 -0.01564797654797899 0.0029867585382262348 0 -0.015764471631447213 0.0033669795841449988 0 -0.015997311493530578 0.0034032447231583684 0 -0.015971408236908954 0.0029728982687882649 0 -0.01494558797924378 0.0038139424452497514 0 -0.015262183681456537 0.0035629851368093345 0 -0.014305605238233073 0.0038670907059132117 0 -0.014442088083766664 0.0039731270610470935 0 -0.014480678202535274 0.0037627661215327308 0 -0.015764471631447213 0.0033669795841449988 0 -0.0157074625169112 0.0038359487293284727 0 -0.015997311493530578 0.0034032447231583684 0 -0.01494558797924378 0.0038139424452497514 0 -0.015084574714698012 0.0045960182475293645 0 -0.014305605238233073 0.0038670907059132117 0 -0.014267899675280672 0.0040435386564239683 0 -0.014147206641865603 0.0039519437622170493 0 -0.014385662582712356 0.0049011531048477617 0 -0.015084574714698012 0.0045960182475293645 0 -0.014305605238233073 0.0038670907059132117 0 -0.014442088083766664 0.0039731270610470935 0 -0.014267899675280672 0.0040435386564239683 0 -0.014442088083766664 0.0039731270610470935 0 -0.014398782297385315 0.0041498068024704857 0 -0.014267899675280672 0.0040435386564239683 0 -0.01374376439440695 0.0056177258173422413 0 -0.014708044261191275 0.0058486991762844867 0 -0.014281059566983528 0.0051238275006265021 0 -0.014133199985177137 0.0049143447454330618 0 -0.014385662582712356 0.0049011531048477617 0 -0.014708044261191275 0.0058486991762844867 0 -0.014281059566983528 0.0051238275006265021 0 -0.014909435794627094 0.0054381969985508151 0 -0.014708044261191275 0.0058486991762844867 0 -0.015008352794403235 0.0056119284386159452 0 -0.014909435794627094 0.0054381969985508151 0 -0.015150756565208463 0.0055626708748479367 0 -0.015008352794403235 0.0056119284386159452 0 -0.014909435794627094 0.0054381969985508151 0 -0.015150756565208463 0.0055626708748479367 0 -0.015097747230866 0.0054774095746621017 0 -0.015008352794403235 0.0056119284386159452 0 -0.014708044261191275 0.0058486991762844867 0 -0.015008352794403235 0.0056119284386159452 0 -0.015088802081005832 0.0056315266089986687 0 -0.015097747230866 0.0054774095746621017 0 -0.015008352794403235 0.0056119284386159452 0 -0.015088802081005832 0.0056315266089986687 0 -0.015084574714698012 0.0045960182475293645 0 -0.015025016644631165 0.0052576604844428252 0 -0.015097747230866 0.0054774095746621017 0 -0.015088802081005832 0.0056315266089986687 0 -0.014969660725914566 0.0050833165459755322 0 -0.014999838175503448 0.0043298064891613723 0 -0.015629830937546416 0.0048079142368836481 0 -0.014969732981672514 0.0050819205848446954 0 -0.015079055238828035 0.0053399070564689307 0 -0.014999811261099297 0.005912611872019127 0 -0.015147585258898167 0.0056548797944162583 0 -0.014969660725914566 0.0050833165459755322 0 -0.015079055238828035 0.0053399070564689307 0 -0.014999811261099297 0.005912611872019127 0 -0.015150756565208463 0.0055626708748479367 0 -0.015097747230866 0.0054774095746621017 0 -0.015079055238828035 0.0053399070564689307 0 -0.015097747230866 0.0054774095746621017 0 -0.014969660725914566 0.0050833165459755322 0 -0.015079055238828035 0.0053399070564689307 0 -0.015150756565208463 0.0055626708748479367 0 -0.015079055238828035 0.0053399070564689307 0 -0.015147585258898167 0.0056548797944162583 0 -0.014999811261099297 0.005912611872019127 0 -0.015147585258898167 0.0056548797944162583 0 -0.01529014790485661 0.0057790831360166389 0 -0.015150756565208463 0.0055626708748479367 0 -0.015147585258898167 0.0056548797944162583 0 -0.01529014790485661 0.0057790831360166389 0 -0.015150756565208463 0.0055626708748479367 0 -0.01529014790485661 0.0057790831360166389 0 -0.014909435794627094 0.0054381969985508151 0 -0.01529014790485661 0.0057790831360166389 0 -0.014457629296652992 0.0043529647317536915 0 -0.014909435794627094 0.0054381969985508151 0 -0.01529014790485661 0.0057790831360166389 0 -0.015531625768412619 0.0067267870730127318 0 -0.015911394947721747 0.0065675728027135456 0 -0.015237134813670556 0.0057129017640088061 0 -0.015096898709850936 0.0054598329597188751 0 -0.01529014790485661 0.0057790831360166389 0 -0.014999821694370532 0.0067053361818690789 0 -0.015531625768412619 0.0067267870730127318 0 -0.014999811261099297 0.005912611872019127 0 -0.01529014790485661 0.0057790831360166389 0 -0.014999821694370532 0.0067053361818690789 0 -0.014999821694370532 0.0067053361818690789 0 -0.015531625768412619 0.0067267870730127318 0 -0.015295293899483024 0.0070715162764865671 0 -0.015576703477695812 0.0073568263090332629 0 -0.015531625768412619 0.0067267870730127318 0 -0.015295293899483024 0.0070715162764865671 0 -0.015576703477695812 0.0073568263090332629 0 -0.015531625768412619 0.0067267870730127318 0 -0.015822928191016054 0.007030274989053272 0 -0.015576703477695812 0.0073568263090332629 0 -0.015295293899483024 0.0070715162764865671 0 -0.015000012521795114 0.0074965004942220874 0 -0.014999821694370532 0.0067053361818690789 0 -0.015295293899483024 0.0070715162764865671 0 -0.015000012521795114 0.0074965004942220874 0 -0.015911157012389567 0.0072882708102562218 0 -0.015942882963628818 0.0071423496708164259 0 -0.015822928191016054 0.007030274989053272 0 -0.015911157012389567 0.0072882708102562218 0 -0.015942882963628818 0.0071423496708164259 0 -0.015971792655259203 0.0072554758586291963 0 -0.015911157012389567 0.0072882708102562218 0 -0.015576703477695812 0.0073568263090332629 0 -0.015822928191016054 0.007030274989053272 0 -0.015531625768412619 0.0067267870730127318 0 -0.015822928191016054 0.007030274989053272 0 -0.015911394947721747 0.0065675728027135456 0 -0.015822928191016054 0.007030274989053272 0 -0.015943872557922949 0.0069377649001960062 0 -0.015911394947721747 0.0065675728027135456 0 -0.015942882963628818 0.0071423496708164259 0 -0.015822928191016054 0.007030274989053272 0 -0.015943872557922949 0.0069377649001960062 0 -0.015942882963628818 0.0071423496708164259 0 -0.015943872557922949 0.0069377649001960062 0 -0.015975843896877038 0.0071502464327482217 0 -0.014457629296652992 0.0043529647317536915 0 -0.012707469977673915 0.0041811437427702186 0 -0.01240567604993798 0.0033586375092726209 0 -0.015943872557922949 0.0069377649001960062 0 -0.015911394947721747 0.0065675728027135456 0 -0.015989396636596924 0.0070847967816511058 0 -0.015096898709850936 0.0054598329597188751 0 -0.014227774866337405 0.005268368665964457 0 -0.014457629296652992 0.0043529647317536915 0 -0.01355304737788908 0.0048468945201220644 0 -0.012707469977673915 0.0041811437427702186 0 -0.014457629296652992 0.0043529647317536915 0 -0.014281059566983528 0.0051238275006265021 0 -0.014909435794627094 0.0054381969985508151 0 -0.014457629296652992 0.0043529647317536915 0 -0.014281059566983528 0.0051238275006265021 0 -0.01355304737788908 0.0048468945201220644 0 -0.01374376439440695 0.0056177258173422413 0 -0.014281059566983528 0.0051238275006265021 0 -0.01355304737788908 0.0048468945201220644 0 -0.01374376439440695 0.0056177258173422413 0 -0.01355304737788908 0.0048468945201220644 0 -0.012429532313664579 0.0049386964339173051 0 -0.014133199985177137 0.0049143447454330618 0 -0.013152113496250417 0.0043220881390205147 0 -0.013152113496250417 0.0043220881390205147 0 -0.01276093003274404 0.0044079895467640665 0 -0.012311173187449386 0.0043869005417011683 0 -0.012029475988957259 0.0041421757314157211 0 -0.012267259112437775 0.0040277493322443915 0 -0.012311173187449386 0.0043869005417011683 0 -0.012707469977673915 0.0041811437427702186 0 -0.012267259112437775 0.0040277493322443915 0 -0.013152113496250417 0.0043220881390205147 0 -0.012485379736608964 0.0040360177556613809 0 -0.01355304737788908 0.0048468945201220644 0 -0.012429532313664579 0.0049386964339173051 0 -0.012707469977673915 0.0041811437427702186 0 -0.012010575560604827 0.0041109282386369754 0 -0.01180506618363909 0.0040834383663150252 0 -0.011717003542325653 0.0041873136060574792 0 -0.01180506618363909 0.0040834383663150252 0 -0.0115533620823721 0.0039457018431001819 0 -0.011571739334685605 0.00409174573048794 0 -0.01180506618363909 0.0040834383663150252 0 -0.012029475988957259 0.0041421757314157211 0 -0.011792949964374886 0.0039020737069126827 0 -0.012010575560604827 0.0041109282386369754 0 -0.01180506618363909 0.0040834383663150252 0 -0.012029475988957259 0.0041421757314157211 0 -0.011792949964374886 0.0039020737069126827 0 -0.011568230599937491 0.0037428992803463209 0 -0.0115533620823721 0.0039457018431001819 0 -0.01180506618363909 0.0040834383663150252 0 -0.011792949964374886 0.0039020737069126827 0 -0.0115533620823721 0.0039457018431001819 0 -0.012090597656596357 0.0037582108021272029 0 -0.01176338062741617 0.00360036668558997 0 -0.01240567604993798 0.0033586375092726209 0 -0.011792949964374886 0.0039020737069126827 0 -0.01176338062741617 0.00360036668558997 0 -0.011568230599937491 0.0037428992803463209 0 -0.012029475988957259 0.0041421757314157211 0 -0.011792949964374886 0.0039020737069126827 0 -0.012090597656596357 0.0037582108021272029 0 -0.011792949964374886 0.0039020737069126827 0 -0.012090597656596357 0.0037582108021272029 0 -0.01176338062741617 0.00360036668558997 0 -0.012707469977673915 0.0041811437427702186 0 -0.012267259112437775 0.0040277493322443915 0 -0.01240567604993798 0.0033586375092726209 0 -0.012029475988957259 0.0041421757314157211 0 -0.012090597656596357 0.0037582108021272029 0 -0.012267259112437775 0.0040277493322443915 0 -0.012090597656596357 0.0037582108021272029 0 -0.012267259112437775 0.0040277493322443915 0 -0.01240567604993798 0.0033586375092726209 0 -0.015943872557922949 0.0069377649001960062 0 -0.015989396636596924 0.0070847967816511058 0 -0.015975843896877038 0.0071502464327482217 0 -0.015989396636596924 0.0070847967816511058 0 -0.015975843896877038 0.0071502464327482217 0 -0.015951560957425101 0.0072856539195431591 0 -0.015989396636596924 0.0070847967816511058 0 -0.015951560957425101 0.0072856539195431591 0 -0.01594127831288521 0.0073550920926769943 0 -0.015951560957425101 0.0072856539195431591 0 -0.015928516792504864 0.0074010975664901505 0 -0.01594127831288521 0.0073550920926769943 0 -0.01176338062741617 0.00360036668558997 0 -0.01240567604993798 0.0033586375092726209 0 -0.0114124397474852 0.0032644493275513914 0 -0.014227774866337405 0.005268368665964457 0 -0.013567320106424821 0.005075334411294978 0 -0.015951560957425101 0.0072856539195431591 0 -0.015930417356804262 0.0074129579043211626 0 -0.015971792655259203 0.0072554758586291963 0 -0.015825356125884704 0.0076068573650189351 0 -0.015972097051563824 0.0073227629368181491 0 -0.015930417356804262 0.0074129579043211626 0 -0.015972097051563824 0.0073227629368181491 0 -0.015930417356804262 0.0074129579043211626 0 -0.015971792655259203 0.0072554758586291963 0 -0.015951560957425101 0.0072856539195431591 0 -0.015928516792504864 0.0074010975664901505 0 -0.015930417356804262 0.0074129579043211626 0 -0.015928516792504864 0.0074010975664901505 0 -0.015930417356804262 0.0074129579043211626 0 -0.015906610706062415 0.007533004275087329 0 -0.015972097051563824 0.0073227629368181491 0 -0.015911157012389567 0.0072882708102562218 0 -0.015971792655259203 0.0072554758586291963 0 -0.015942882963628818 0.0071423496708164259 0 -0.015975843896877038 0.0071502464327482217 0 -0.015971792655259203 0.0072554758586291963 0 -0.015975843896877038 0.0071502464327482217 0 -0.015951560957425101 0.0072856539195431591 0 -0.015971792655259203 0.0072554758586291963 0 -0.015989340517786707 0.0074541662273755402 0 -0.01594127831288521 0.0073550920926769943 0 -0.016027287606271669 0.0074497291686553167 0 -0.015575247753050794 0.007986587050891187 0 -0.015327455831576213 0.0078625825226444814 0 -0.015030373508141121 0.0082707324565507809 0 -0.015947281397972649 0.0076088488666300191 0 -0.013839400074283357 0.0067225557936944381 0 -0.015575247753050794 0.007986587050891187 0 -0.015327455831576213 0.0078625825226444814 0 -0.01564759524184545 0.0077019848599266241 0 -0.015928516792504864 0.0074010975664901505 0 -0.015906610706062415 0.007533004275087329 0 -0.01594127831288521 0.0073550920926769943 0 -0.015575247753050794 0.007986587050891187 0 -0.01564759524184545 0.0077019848599266241 0 -0.015906610706062415 0.007533004275087329 0 -0.015989340517786707 0.0074541662273755402 0 -0.015906610706062415 0.007533004275087329 0 -0.01594127831288521 0.0073550920926769943 0 -0.015825356125884704 0.0076068573650189351 0 -0.01564759524184545 0.0077019848599266241 0 -0.015906610706062415 0.007533004275087329 0 -0.015825356125884704 0.0076068573650189351 0 -0.015930417356804262 0.0074129579043211626 0 -0.015906610706062415 0.007533004275087329 0 -0.015947281397972649 0.0076088488666300191 0 -0.015799930956468266 0.007613038103696991 0 -0.0114124397474852 0.0032644493275513914 0 -0.011070911366451882 0.0034480562442357325 0 -0.011433416558471968 0.0035268158336628961 0 -0.01176338062741617 0.00360036668558997 0 -0.0114124397474852 0.0032644493275513914 0 -0.011433416558471968 0.0035268158336628961 0 -0.013567320106424821 0.005075334411294978 0 -0.013839400074283357 0.0067225557936944381 0 -0.0114124397474852 0.0032644493275513914 0 -0.011070911366451882 0.0034480562442357325 0 -0.010911090985420015 0.0032065919378811412 0 -0.011070911366451882 0.0034480562442357325 0 -0.011054225274737772 0.0036879400239487013 0 -0.010821280070276577 0.0035683109734403699 0 -0.011070911366451882 0.0034480562442357325 0 -0.011054225274737772 0.0036879400239487013 0 -0.011310130465062102 0.0037062717452470226 0 -0.011070911366451882 0.0034480562442357325 0 -0.011433416558471968 0.0035268158336628961 0 -0.011310130465062102 0.0037062717452470226 0 -0.01176338062741617 0.00360036668558997 0 -0.011433416558471968 0.0035268158336628961 0 -0.011568230599937491 0.0037428992803463209 0 -0.011433416558471968 0.0035268158336628961 0 -0.011310130465062102 0.0037062717452470226 0 -0.011568230599937491 0.0037428992803463209 0 -0.011310130465062102 0.0037062717452470226 0 -0.011568230599937491 0.0037428992803463209 0 -0.0115533620823721 0.0039457018431001819 0 -0.0115533620823721 0.0039457018431001819 0 -0.011233715223644211 0.0039027654849275151 0 -0.011571739334685605 0.00409174573048794 0 -0.011310130465062102 0.0037062717452470226 0 -0.0115533620823721 0.0039457018431001819 0 -0.011233715223644211 0.0039027654849275151 0 -0.011233715223644211 0.0039027654849275151 0 -0.011012900432644813 0.0040252891747338173 0 -0.010874517125246497 0.0038136490979404202 0 -0.011054225274737772 0.0036879400239487013 0 -0.011233715223644211 0.0039027654849275151 0 -0.010874517125246497 0.0038136490979404202 0 -0.011054225274737772 0.0036879400239487013 0 -0.011310130465062102 0.0037062717452470226 0 -0.011233715223644211 0.0039027654849275151 0 -0.011233715223644211 0.0039027654849275151 0 -0.011012900432644813 0.0040252891747338173 0 -0.011370606849861355 0.0041354727145728569 0 -0.011012900432644813 0.0040252891747338173 0 -0.011182001618951092 0.004237859613383437 0 -0.011370606849861355 0.0041354727145728569 0 -0.011012900432644813 0.0040252891747338173 0 -0.011182001618951092 0.004237859613383437 0 -0.010811888852689452 0.0041295848088569714 0 -0.011182001618951092 0.004237859613383437 0 -0.011036634812524515 0.0043840353269272202 0 -0.010811888852689452 0.0041295848088569714 0 -0.011182001618951092 0.004237859613383437 0 -0.011370606849861355 0.0041354727145728569 0 -0.011487508708934169 0.0043426493818656473 0 -0.011182001618951092 0.004237859613383437 0 -0.011487508708934169 0.0043426493818656473 0 -0.011267444033396063 0.0043896329170453486 0 -0.011233715223644211 0.0039027654849275151 0 -0.011370606849861355 0.0041354727145728569 0 -0.011571739334685605 0.00409174573048794 0 -0.011370606849861355 0.0041354727145728569 0 -0.011571739334685605 0.00409174573048794 0 -0.011717003542325653 0.0041873136060574792 0 -0.013152113496250417 0.0043220881390205147 0 -0.013228906656772656 0.0040506357345365699 0 -0.01180506618363909 0.0040834383663150252 0 -0.011571739334685605 0.00409174573048794 0 -0.011717003542325653 0.0041873136060574792 0 -0.014442088083766664 0.0039731270610470935 0 -0.014398782297385315 0.0041498068024704857 0 -0.014630405654486197 0.0040905652087021216 0 -0.014398782297385315 0.0041498068024704857 0 -0.014537939509373788 0.0042561264960884505 0 -0.014630405654486197 0.0040905652087021216 0 -0.014442088083766664 0.0039731270610470935 0 -0.014630405654486197 0.0040905652087021216 0 -0.014587031484647957 0.0039066725323502575 0 -0.011370606849861355 0.0041354727145728569 0 -0.011717003542325653 0.0041873136060574792 0 -0.011487508708934169 0.0043426493818656473 0 -0.014630405654486197 0.0040905652087021216 0 -0.014587031484647957 0.0039066725323502575 0 -0.014741533625645006 0.0039095867106758997 0 -0.013228906656772656 0.0040506357345365699 0 -0.012983534828690985 0.004372112308550345 0 -0.014741533625645006 0.0039095867106758997 0 -0.014651044474056296 0.0037881283540070225 0 -0.014761978995993191 0.0037125947083122435 0 -0.014651044474056296 0.0037881283540070225 0 -0.014480678202535274 0.0037627661215327308 0 -0.01468966823307895 0.003615069939985522 0 -0.014587031484647957 0.0039066725323502575 0 -0.014741533625645006 0.0039095867106758997 0 -0.014651044474056296 0.0037881283540070225 0 -0.014587031484647957 0.0039066725323502575 0 -0.014651044474056296 0.0037881283540070225 0 -0.014480678202535274 0.0037627661215327308 0 -0.014442088083766664 0.0039731270610470935 0 -0.014587031484647957 0.0039066725323502575 0 -0.014480678202535274 0.0037627661215327308 0 -0.015262183681456537 0.0035629851368093345 0 -0.015286634907635606 0.0034884144518588798 0 -0.015997311493530578 0.0034032447231583684 0 -0.016169504757589132 0.0029737338340793153 0 -0.015971408236908954 0.0029728982687882649 0 -0.014651044474056296 0.0037881283540070225 0 -0.014761978995993191 0.0037125947083122435 0 -0.01468966823307895 0.003615069939985522 0 -0.015286634907635606 0.0034884144518588798 0 -0.015908331034729183 0.0013912181103516634 0 -0.01468966823307895 0.003615069939985522 0 -0.014937453543476843 0.0036807010623609079 0 -0.015072817917727327 0.0034065319277762282 0 -0.014814121821161383 0.0033494002297720848 0 -0.01388769807723746 0.0029998106166943092 0 -0.014761978995993191 0.0037125947083122435 0 -0.01468966823307895 0.003615069939985522 0 -0.014937453543476843 0.0036807010623609079 0 -0.01388769807723746 0.0029998106166943092 0 -0.015908331034729183 0.0013912181103516634 0 -0.016208299013652429 -0.00059192587644784744 0 -0.014896185375417689 -0.00047739073174095744 0 -0.015871461100620963 0.00010310256829354611 0 -0.01388769807723746 0.0029998106166943092 0 -0.012817617219151874 0.0019596368077661888 0 -0.011329023170506753 0.0045964940492150309 0 -0.011036634812524515 0.0043840353269272202 0 -0.01080413842146878 0.0046249390337925311 0 -0.011182001618951092 0.004237859613383437 0 -0.011036634812524515 0.0043840353269272202 0 -0.011267444033396063 0.0043896329170453486 0 -0.014741533625645006 0.0039095867106758997 0 -0.014761978995993191 0.0037125947083122435 0 -0.014861190493721478 0.0036942796622275536 0 -0.011487508708934169 0.0043426493818656473 0 -0.011329023170506753 0.0045964940492150309 0 -0.011267444033396063 0.0043896329170453486 0 -0.012983534828690985 0.004372112308550345 0 -0.01388769807723746 0.0029998106166943092 0 -0.011329023170506753 0.0045964940492150309 0 -0.011036634812524515 0.0043840353269272202 0 -0.011267444033396063 0.0043896329170453486 0 -0.010116563261635451 0.0041838429232691193 0 -0.010642217738664713 0.0042548956670474822 0 -0.010494163244220357 0.0040923586639660444 0 -0.011036634812524515 0.0043840353269272202 0 -0.010642217738664713 0.0042548956670474822 0 -0.01080413842146878 0.0046249390337925311 0 -0.011036634812524515 0.0043840353269272202 0 -0.010642217738664713 0.0042548956670474822 0 -0.010811888852689452 0.0041295848088569714 0 -0.010116563261635451 0.0041838429232691193 0 -0.010642217738664713 0.0042548956670474822 0 -0.01080413842146878 0.0046249390337925311 0 -0.012817617219151874 0.0019596368077661888 0 -0.011689312487994236 0.0020372409015982605 0 -0.014896185375417689 -0.00047739073174095744 0 -0.013206522431705014 -0.00033393457822240521 0 -0.014089465816541608 0.00016513571951723793 0 -0.010116563261635451 0.0041838429232691193 0 -0.010032464281860323 0.0045245364333279803 0 -0.0097243386259278208 0.0042028432161907861 0 -0.010116563261635451 0.0041838429232691193 0 -0.01080413842146878 0.0046249390337925311 0 -0.010032464281860323 0.0045245364333279803 0 -0.010032464281860323 0.0045245364333279803 0 -0.0095464580295112761 0.0042928236494373315 0 -0.0091889840548488363 0.0041722313743494813 0 -0.011689312487994236 0.0020372409015982605 0 -0.01025785227788524 0.0026578420505866465 0 -0.013206522431705014 -0.00033393457822240521 0 -0.011636352425301394 3.9113819131695961e-05 0 -0.012478606820057074 0.00039674644043346716 0 -0.0095464580295112761 0.0042928236494373315 0 -0.0094002968616913856 0.0040184397751822374 0 -0.0097243386259278208 0.0042028432161907861 0 -0.010032464281860323 0.0045245364333279803 0 -0.0095464580295112761 0.0042928236494373315 0 -0.0097243386259278208 0.0042028432161907861 0 -0.0095464580295112761 0.0042928236494373315 0 -0.0092586256615823509 0.0040577394002684741 0 -0.0094002968616913856 0.0040184397751822374 0 -0.0092586256615823509 0.0040577394002684741 0 -0.009170378183554137 0.003896162102332814 0 -0.0094002968616913856 0.0040184397751822374 0 -0.0091690573662375398 0.0038728254560160629 0 -0.01025785227788524 0.0026578420505866465 0 -0.0094002968616913856 0.0040184397751822374 0 -0.0095581984240835343 0.0040104647530884233 0 -0.0093542500572742927 0.0040101773578246919 0 -0.009170378183554137 0.003896162102332814 0 -0.0094002968616913856 0.0040184397751822374 0 -0.0091227554577515534 0.003877209305254624 0 -0.0093743863497673871 0.004024420016286087 0 -0.0091542216732036531 0.0040109495614178581 0 -0.0094002968616913856 0.0040184397751822374 0 -0.0090237167880932775 0.0038853715518296804 0 -0.0091227554577515534 0.003877209305254624 0 -0.010116563261635451 0.0041838429232691193 0 -0.0097243386259278208 0.0042028432161907861 0 -0.0095581984240835343 0.0040104647530884233 0 -0.0094002968616913856 0.0040184397751822374 0 -0.0097243386259278208 0.0042028432161907861 0 -0.0095581984240835343 0.0040104647530884233 0 -0.010116563261635451 0.0041838429232691193 0 -0.0095581984240835343 0.0040104647530884233 0 -0.0095092183378141116 0.0038634181493105678 0 -0.010093113472466959 0.0041735513674112379 0 -0.0099995834671595656 0.0040595908252015938 0 -0.0095581984240835343 0.0040104647530884233 0 -0.0093542500572742927 0.0040101773578246919 0 -0.0095092183378141116 0.0038634181493105678 0 -0.0094002968616913856 0.0040184397751822374 0 -0.0093542500572742927 0.0040101773578246919 0 -0.0092782213539009672 0.0040957167643449165 0 -0.0093542500572742927 0.0040101773578246919 0 -0.0094506610353013044 0.0039656094955223629 0 -0.0095092183378141116 0.0038634181493105678 0 -0.0093542500572742927 0.0040101773578246919 0 -0.0094506610353013044 0.0039656094955223629 0 -0.0096109630693764318 0.0040048853714140398 0 -0.0099995834671595656 0.0040595908252015938 0 -0.0095939388628790076 0.0036236127008006901 0 -0.0094506610353013044 0.0039656094955223629 0 -0.0095092183378141116 0.0038634181493105678 0 -0.0093464542312411466 0.0041468882722130486 0 -0.010377167924456367 0.0040259291978051647 0 -0.010494163244220357 0.0040923586639660444 0 -0.010643079923317011 0.0039648537486986074 0 -0.010377167924456367 0.0040259291978051647 0 -0.010643079923317011 0.0039648537486986074 0 -0.010560321222803747 0.00374667284524748 0 -0.010116563261635451 0.0041838429232691193 0 -0.010377167924456367 0.0040259291978051647 0 -0.010494163244220357 0.0040923586639660444 0 -0.010494163244220357 0.0040923586639660444 0 -0.010811888852689452 0.0041295848088569714 0 -0.010643079923317011 0.0039648537486986074 0 -0.010642217738664713 0.0042548956670474822 0 -0.010494163244220357 0.0040923586639660444 0 -0.010811888852689452 0.0041295848088569714 0 -0.011012900432644813 0.0040252891747338173 0 -0.010643079923317011 0.0039648537486986074 0 -0.010874517125246497 0.0038136490979404202 0 -0.011012900432644813 0.0040252891747338173 0 -0.010811888852689452 0.0041295848088569714 0 -0.010643079923317011 0.0039648537486986074 0 -0.010643079923317011 0.0039648537486986074 0 -0.010874517125246497 0.0038136490979404202 0 -0.010560321222803747 0.00374667284524748 0 -0.010874517125246497 0.0038136490979404202 0 -0.010560321222803747 0.00374667284524748 0 -0.010821280070276577 0.0035683109734403699 0 -0.010560321222803747 0.00374667284524748 0 -0.010610109451710092 0.0035264443182558619 0 -0.010821280070276577 0.0035683109734403699 0 -0.010560321222803747 0.00374667284524748 0 -0.010610109451710092 0.0035264443182558619 0 -0.01042015362447689 0.0035466617725731643 0 -0.011054225274737772 0.0036879400239487013 0 -0.010874517125246497 0.0038136490979404202 0 -0.010821280070276577 0.0035683109734403699 0 -0.010610109451710092 0.0035264443182558619 0 -0.010821280070276577 0.0035683109734403699 0 -0.010754885145839929 0.0034042712488086984 0 -0.011070911366451882 0.0034480562442357325 0 -0.010888933560880597 0.0034066947524865583 0 -0.010911090985420015 0.0032065919378811412 0 -0.011070911366451882 0.0034480562442357325 0 -0.010821280070276577 0.0035683109734403699 0 -0.010888933560880597 0.0034066947524865583 0 -0.010888933560880597 0.0034066947524865583 0 -0.010754885145839929 0.0034042712488086984 0 -0.010911090985420015 0.0032065919378811412 0 -0.010821280070276577 0.0035683109734403699 0 -0.010888933560880597 0.0034066947524865583 0 -0.010754885145839929 0.0034042712488086984 0 -0.010610109451710092 0.0035264443182558619 0 -0.010538745352933082 0.0033323717700782999 0 -0.01042015362447689 0.0035466617725731643 0 -0.010610109451710092 0.0035264443182558619 0 -0.010754885145839929 0.0034042712488086984 0 -0.010538745352933082 0.0033323717700782999 0 -0.010754885145839929 0.0034042712488086984 0 -0.010538745352933082 0.0033323717700782999 0 -0.010911090985420015 0.0032065919378811412 0 -0.012075331619395564 0.0060021570163351955 0 -0.013839400074283357 0.0067225557936944381 0 -0.01386743916418128 0.0086730282284723376 0 -0.014091020729129371 0.0080082143614767683 0 -0.01454369885714361 0.0082050957179182378 0 -0.01386743916418128 0.0086730282284723376 0 -0.015090078511961912 0.008369840093829824 0 -0.01454369885714361 0.0082050957179182378 0 -0.01386743916418128 0.0086730282284723376 0 -0.014091020729129371 0.0080082143614767683 0 -0.01361755537008995 0.0081008615310486452 0 -0.01362374763420999 0.0076440170511285254 0 -0.014091020729129371 0.0080082143614767683 0 -0.01361755537008995 0.0081008615310486452 0 -0.014530782444082086 0.0075836620879143031 0 -0.014091020729129371 0.0080082143614767683 0 -0.01454369885714361 0.0082050957179182378 0 -0.014530782444082086 0.0075836620879143031 0 -0.014949789241531841 0.007829178063904367 0 -0.01454369885714361 0.0082050957179182378 0 -0.015327455831576213 0.0078625825226444814 0 -0.014949789241531841 0.007829178063904367 0 -0.015030373508141121 0.0082707324565507809 0 -0.014949789241531841 0.007829178063904367 0 -0.015030373508141121 0.0082707324565507809 0 -0.01454369885714361 0.0082050957179182378 0 -0.013839400074283357 0.0067225557936944381 0 -0.015030137458540637 0.0079940172489095587 0 -0.012857036089836177 0.0080003697550661574 0 -0.013238614512196467 0.0082967313533627764 0 -0.012672700075373723 0.0089170298600796151 0 -0.0095474863927244701 0.0051519973960836253 0 -0.0093987501154355474 0.0046527758272731472 0 -0.0096162602552845606 0.0048263430370441467 0 -0.012276951115024165 0.0077725070062478994 0 -0.012857036089836177 0.0080003697550661574 0 -0.012672700075373723 0.0089170298600796151 0 -0.010268964485844075 0.0073415511152653727 0 -0.011271536146128525 0.005342627047720633 0 -0.012857036089836177 0.0080003697550661574 0 -0.013256541149668769 0.0078575951988466911 0 -0.013238614512196467 0.0082967313533627764 0 -0.013256541149668769 0.0078575951988466911 0 -0.01361755537008995 0.0081008615310486452 0 -0.013238614512196467 0.0082967313533627764 0 -0.01362374763420999 0.0076440170511285254 0 -0.013256541149668769 0.0078575951988466911 0 -0.01361755537008995 0.0081008615310486452 0 -0.01386743916418128 0.0086730282284723376 0 -0.01361755537008995 0.0081008615310486452 0 -0.013238614512196467 0.0082967313533627764 0 -0.010538745352933082 0.0033323717700782999 0 -0.01023142373893692 0.0034322265095310884 0 -0.01042015362447689 0.0035466617725731643 0 -0.012075331619395564 0.0060021570163351955 0 -0.011271536146128525 0.005342627047720633 0 -0.01386743916418128 0.0086730282284723376 0 -0.013238614512196467 0.0082967313533627764 0 -0.012672700075373723 0.0089170298600796151 0 -0.0093987501154355474 0.0046527758272731472 0 -0.0096117386736964128 0.0046979565865299232 0 -0.0096162602552845606 0.0048263430370441467 0 -0.0093987501154355474 0.0046527758272731472 0 -0.0095076402864611356 0.004413222808632997 0 -0.0095855609944870083 0.0046034436064355221 0 -0.0093987501154355474 0.0046527758272731472 0 -0.0095855609944870083 0.0046034436064355221 0 -0.0096117386736964128 0.0046979565865299232 0 -0.0095076402864611356 0.004413222808632997 0 -0.0093464542312411466 0.0041468882722130486 0 -0.009560674680922308 0.0042076875679298818 0 -0.011271536146128525 0.005342627047720633 0 -0.0095939388628790076 0.0036236127008006901 0 -0.0093987501154355474 0.0046527758272731472 0 -0.0095076402864611356 0.004413222808632997 0 -0.0093464542312411466 0.0041468882722130486 0 -0.01023142373893692 0.0034322265095310884 0 -0.01042015362447689 0.0035466617725731643 0 -0.010327215344998385 0.0037504348895235208 0 -0.010560321222803747 0.00374667284524748 0 -0.01042015362447689 0.0035466617725731643 0 -0.010327215344998385 0.0037504348895235208 0 -0.010377167924456367 0.0040259291978051647 0 -0.010560321222803747 0.00374667284524748 0 -0.010327215344998385 0.0037504348895235208 0 -0.0094506610353013044 0.0039656094955223629 0 -0.0093464542312411466 0.0041468882722130486 0 -0.009560674680922308 0.0042076875679298818 0 -0.0094506610353013044 0.0039656094955223629 0 -0.009560674680922308 0.0042076875679298818 0 -0.0096109630693764318 0.0040048853714140398 0 -0.0095172704533846436 0.0047421626092751324 0 -0.0093503383418936051 0.0043159462397201354 0 -0.009560674680922308 0.0042076875679298818 0 -0.0099033450520758966 0.0043509592327860393 0 -0.0096109630693764318 0.0040048853714140398 0 -0.0090321332844814223 0.005220412475496373 0 -0.0094915453089628576 0.0052074309961987969 0 -0.0092690212063167368 0.0046054304056666728 0 -0.0090321332844814223 0.005220412475496373 0 -0.0092690212063167368 0.0046054304056666728 0 -0.0090546410062504624 0.0045539157742642078 0 -0.0095076402864611356 0.004413222808632997 0 -0.009560674680922308 0.0042076875679298818 0 -0.0096814157548074341 0.0045021119691909216 0 -0.009560674680922308 0.0042076875679298818 0 -0.0099033450520758966 0.0043509592327860393 0 -0.0096814157548074341 0.0045021119691909216 0 -0.0099033450520758966 0.0043509592327860393 0 -0.0096814157548074341 0.0045021119691909216 0 -0.0098178597832742093 0.0046346956041856532 0 -0.0095076402864611356 0.004413222808632997 0 -0.0096814157548074341 0.0045021119691909216 0 -0.0095855609944870083 0.0046034436064355221 0 -0.0096814157548074341 0.0045021119691909216 0 -0.0095855609944870083 0.0046034436064355221 0 -0.0097141169833170164 0.0046643480392001557 0 -0.0095855609944870083 0.0046034436064355221 0 -0.0096117386736964128 0.0046979565865299232 0 -0.0097141169833170164 0.0046643480392001557 0 -0.0096117386736964128 0.0046979565865299232 0 -0.0097450257022986403 0.0047671894436561871 0 -0.0097141169833170164 0.0046643480392001557 0 -0.0096117386736964128 0.0046979565865299232 0 -0.0096162602552845606 0.0048263430370441467 0 -0.0097450257022986403 0.0047671894436561871 0 -0.0096162602552845606 0.0048263430370441467 0 -0.0097450257022986403 0.0047671894436561871 0 -0.0097650263709452272 0.0048719893090826165 0 -0.0098210091580588754 0.0048007282809936743 0 -0.0097450257022986403 0.0047671894436561871 0 -0.0097917025957335244 0.0047222430987573505 0 -0.0098210091580588754 0.0048007282809936743 0 -0.0097450257022986403 0.0047671894436561871 0 -0.0097650263709452272 0.0048719893090826165 0 -0.0098210091580588754 0.0048007282809936743 0 -0.0099045476213529115 0.0048247391891497052 0 -0.0097650263709452272 0.0048719893090826165 0 -0.0097450257022986403 0.0047671894436561871 0 -0.0097917025957335244 0.0047222430987573505 0 -0.0097141169833170164 0.0046643480392001557 0 -0.0097917025957335244 0.0047222430987573505 0 -0.0098178597832742093 0.0046346956041856532 0 -0.0098608113292677213 0.0047450269972335408 0 -0.0098210091580588754 0.0048007282809936743 0 -0.0097917025957335244 0.0047222430987573505 0 -0.0098608113292677213 0.0047450269972335408 0 -0.0096814157548074341 0.0045021119691909216 0 -0.0098178597832742093 0.0046346956041856532 0 -0.0097141169833170164 0.0046643480392001557 0 -0.0097917025957335244 0.0047222430987573505 0 -0.0098178597832742093 0.0046346956041856532 0 -0.0097141169833170164 0.0046643480392001557 0 -0.0090321332844814223 0.005220412475496373 0 -0.0091472365026005649 0.005910231937662185 0 -0.0092172627869747982 0.0058737559460829347 0 -0.0099033450520758966 0.0043509592327860393 0 -0.0099451126426572476 0.0047074597017341731 0 -0.010168429132361999 0.0047931346564826158 0 -0.0099033450520758966 0.0043509592327860393 0 -0.0098178597832742093 0.0046346956041856532 0 -0.0099451126426572476 0.0047074597017341731 0 -0.0095172704533846436 0.0047421626092751324 0 -0.0092647749583102505 0.0057380037735914628 0 -0.0093454860475317217 0.0064527650925189335 0 -0.0092647749583102505 0.0057380037735914628 0 -0.0099451126426572476 0.0047074597017341731 0 -0.0099923419330116819 0.0048532675460906905 0 -0.010168429132361999 0.0047931346564826158 0 -0.0098608113292677213 0.0047450269972335408 0 -0.0099451126426572476 0.0047074597017341731 0 -0.0099045476213529115 0.0048247391891497052 0 -0.0098178597832742093 0.0046346956041856532 0 -0.0098608113292677213 0.0047450269972335408 0 -0.0099451126426572476 0.0047074597017341731 0 -0.0099451126426572476 0.0047074597017341731 0 -0.0099045476213529115 0.0048247391891497052 0 -0.0099923419330116819 0.0048532675460906905 0 -0.0098210091580588754 0.0048007282809936743 0 -0.0098608113292677213 0.0047450269972335408 0 -0.0099045476213529115 0.0048247391891497052 0 -0.0099045476213529115 0.0048247391891497052 0 -0.0099914999422279459 0.004887513762366443 0 -0.0097650263709452272 0.0048719893090826165 0 -0.0088026939454817574 0.0081970012909081107 0 -0.0093454860475317217 0.0064527650925189335 0 -0.0077443703718636262 0.0082602485606499115 0 -0.0078442365135765815 0.0070897592068654295 0 -0.0083846047852528856 0.0077351471807232119 0 -0.0099045476213529115 0.0048247391891497052 0 -0.0099923419330116819 0.0048532675460906905 0 -0.0099914999422279459 0.004887513762366443 0 -0.0078442365135765815 0.0070897592068654295 0 -0.0083846047852528856 0.0077351471807232119 0 -0.0085367199833414516 0.0067151506733278184 0 -0.0099923419330116819 0.0048532675460906905 0 -0.0099888725199314549 0.0048904640862157305 0 -0.010168429132361999 0.0047931346564826158 0 -0.0093811667858009484 0.0062392619622064971 0 -0.0093454860475317217 0.0064527650925189335 0 -0.0098496580812678682 0.0084012538980458261 0 -0.0083758696596687946 0.0082161679822946518 0 -0.0099341235021388925 0.0073642004262835428 0 -0.0095474863927244701 0.0051519973960836253 0 -0.0096162602552845606 0.0048263430370441467 0 -0.0097650263709452272 0.0048719893090826165 0 -0.0095474863927244701 0.0051519973960836253 0 -0.0099914999422279459 0.004887513762366443 0 -0.0097650263709452272 0.0048719893090826165 0 -0.010268964485844075 0.0073415511152653727 0 -0.0093454860475317217 0.0064527650925189335 0 -0.00963931364613216 0.0065195328846755201 0 -0.0094913822787288035 0.0061474088329855426 0 -0.0098011061473715355 0.0058408309028803616 0 -0.00963931364613216 0.0065195328846755201 0 -0.0094913822787288035 0.0061474088329855426 0 -0.0092752744297987938 0.0064673509209588068 0 -0.0092752744297987938 0.0064673509209588068 0 -0.0091260864230295804 0.0059224936438678705 0 -0.0092172627869747982 0.0058737559460829347 0 -0.0094913822787288035 0.0061474088329855426 0 -0.0092752744297987938 0.0064673509209588068 0 -0.0092172627869747982 0.0058737559460829347 0 -0.0083846047852528856 0.0077351471807232119 0 -0.0092670364831874182 0.0080276423029793029 0 -0.0085367199833414516 0.0067151506733278184 0 -0.009270155204855024 0.0071781852835633726 0 -0.0092647749583102505 0.0057380037735914628 0 -0.0092647749583102505 0.0057380037735914628 0 -0.0092238737752830483 0.0057732021697098962 0 -0.0092172627869747982 0.0058737559460829347 0 -0.0094915453089628576 0.0052074309961987969 0 -0.0098011061473715355 0.0058408309028803616 0 -0.0094913822787288035 0.0061474088329855426 0 -0.0092172627869747982 0.0058737559460829347 0 -0.0098011061473715355 0.0058408309028803616 0 -0.009421931874858628 0.0051032359813833498 0 -0.0097912281632088309 0.0048405698829036385 0 -0.0097296301790183466 0.0057620545824312204 0 -0.0094579016917100498 0.005155576025213526 0 -0.0097669271240569521 0.0058031015807280487 0 -0.0090321332844814223 0.005220412475496373 0 -0.0092172627869747982 0.0058737559460829347 0 -0.0094915453089628576 0.0052074309961987969 0 -0.009421931874858628 0.0051032359813833498 0 -0.0094846944799537366 0.0045771193636263393 0 -0.0091327404994118108 0.0044580076074451904 0 -0.0094579016917100498 0.005155576025213526 0 -0.0092064956628287193 0.0045245913259847953 0 -0.009421931874858628 0.0051032359813833498 0 -0.0097912281632088309 0.0048405698829036385 0 -0.0094846944799537366 0.0045771193636263393 0 -0.0097912281632088309 0.0048405698829036385 0 -0.0097334211853467092 0.004243423894322273 0 -0.010080584946020666 0.0044205407920568738 0 -0.0097912281632088309 0.0048405698829036385 0 -0.0097334211853467092 0.004243423894322273 0 -0.0094846944799537366 0.0045771193636263393 0 -0.0097334211853467092 0.004243423894322273 0 -0.0098180444299861523 0.0037358240232682818 0 -0.010256696613231083 0.0039126397666793006 0 -0.0097334211853467092 0.004243423894322273 0 -0.0094084835708411006 0.0038651860330806481 0 -0.0098180444299861523 0.0037358240232682818 0 -0.0094084835708411006 0.0038651860330806481 0 -0.0093721562698982491 0.0042538663934315107 0 -0.0091985868399602818 0.0040344513191692384 0 -0.0097334211853467092 0.004243423894322273 0 -0.0094084835708411006 0.0038651860330806481 0 -0.0093721562698982491 0.0042538663934315107 0 -0.0093721562698982491 0.0042538663934315107 0 -0.0094846944799537366 0.0045771193636263393 0 -0.0091327404994118108 0.0044580076074451904 0 -0.0097334211853467092 0.004243423894322273 0 -0.0093721562698982491 0.0042538663934315107 0 -0.0094846944799537366 0.0045771193636263393 0 -0.0093721562698982491 0.0042538663934315107 0 -0.0091327404994118108 0.0044580076074451904 0 -0.0091985868399602818 0.0040344513191692384 0 -0.0093538693156071211 0.0040623021738714271 0 -0.0093503383418936051 0.0043159462397201354 0 -0.0092064956628287193 0.0045245913259847953 0 -0.0091542216732036531 0.0040109495614178581 0 -0.0092690212063167368 0.0046054304056666728 0 -0.0090546410062504624 0.0045539157742642078 0 -0.0092782213539009672 0.0040957167643449165 0 -0.0093542500572742927 0.0040101773578246919 0 -0.0090546410062504624 0.0045539157742642078 0 -0.0092782213539009672 0.0040957167643449165 0 -0.0090237167880932775 0.0038853715518296804 0 -0.0091985868399602818 0.0040344513191692384 0 -0.0091194272119119284 0.0038441221257267256 0 -0.0091327404994118108 0.0044580076074451904 0 -0.0090237167880932775 0.0038853715518296804 0 -0.0091985868399602818 0.0040344513191692384 0 -0.0094084835708411006 0.0038651860330806481 0 -0.0091985868399602818 0.0040344513191692384 0 -0.0091194272119119284 0.0038441221257267256 0 -0.0091194272119119284 0.0038441221257267256 0 -0.0091287522314129153 0.0037349699101480319 0 -0.0092367550582082673 0.0035306804042713209 0 -0.0094084835708411006 0.0038651860330806481 0 -0.0091194272119119284 0.0038441221257267256 0 -0.0092367550582082673 0.0035306804042713209 0 -0.0090237167880932775 0.0038853715518296804 0 -0.0091194272119119284 0.0038441221257267256 0 -0.0091227554577515534 0.003877209305254624 0 -0.0091194272119119284 0.0038441221257267256 0 -0.0091227554577515534 0.003877209305254624 0 -0.0091287522314129153 0.0037349699101480319 0 -0.009170378183554137 0.003896162102332814 0 -0.0091227554577515534 0.003877209305254624 0 -0.0091287522314129153 0.0037349699101480319 0 -0.009170378183554137 0.003896162102332814 0 -0.0091287522314129153 0.0037349699101480319 0 -0.0090870792530688468 0.0033985443580558036 0 -0.0092586256615823509 0.0040577394002684741 0 -0.009170378183554137 0.003896162102332814 0 -0.0090870792530688468 0.0033985443580558036 0 -0.0091287522314129153 0.0037349699101480319 0 -0.0092367550582082673 0.0035306804042713209 0 -0.0090870792530688468 0.0033985443580558036 0 -0.0095921339119438946 0.0034347868843583543 0 -0.01017160669428686 0.0031794869340162069 0 -0.0094072402009427961 0.0026529141728566692 0 -0.0092367550582082673 0.0035306804042713209 0 -0.0095921339119438946 0.0034347868843583543 0 -0.0094072402009427961 0.0026529141728566692 0 -0.0095921339119438946 0.0034347868843583543 0 -0.01017160669428686 0.0031794869340162069 0 -0.0098180444299861523 0.0037358240232682818 0 -0.01017160669428686 0.0031794869340162069 0 -0.0098180444299861523 0.0037358240232682818 0 -0.010256696613231083 0.0039126397666793006 0 -0.0094084835708411006 0.0038651860330806481 0 -0.0095921339119438946 0.0034347868843583543 0 -0.0098180444299861523 0.0037358240232682818 0 -0.0094084835708411006 0.0038651860330806481 0 -0.0092367550582082673 0.0035306804042713209 0 -0.0095921339119438946 0.0034347868843583543 0 -0.010481157242728975 0.0011373009692378412 0 -0.010449368011070199 0.001096908575176122 0 -0.010609542640169578 0.0010224618483567502 0 -0.010481157242728975 0.0011373009692378412 0 -0.010361136334455902 0.0018288317521203308 0 -0.010449368011070199 0.001096908575176122 0 -0.010481157242728975 0.0011373009692378412 0 -0.010361136334455902 0.0018288317521203308 0 -0.010614871127388473 0.0010596638006260936 0 -0.010395593280458566 0.0018014017025000364 0 -0.0099972982089133154 0.0018806142220487757 0 -0.01017160669428686 0.0031794869340162069 0 -0.010361136334455902 0.0018288317521203308 0 -0.0094072402009427961 0.0026529141728566692 0 -0.0099972982089133154 0.0018806142220487757 0 -0.010081306096336427 0.0018997139006277865 0 -0.0092367550582082673 0.0035306804042713209 0 -0.0094072402009427961 0.0026529141728566692 0 -0.0090870792530688468 0.0033985443580558036 0 -0.010449368011070199 0.001096908575176122 0 -0.010808592106900553 0.0005475747653242726 0 -0.010609542640169578 0.0010224618483567502 0 -0.010808592106900553 0.0005475747653242726 0 -0.010609542640169578 0.0010224618483567502 0 -0.01130621031905666 0.0007957978505479565 0 -0.011636352425301394 3.9113819131695961e-05 0 -0.010808592106900553 0.0005475747653242726 0 -0.01130621031905666 0.0007957978505479565 0 -0.01025785227788524 0.0026578420505866465 0 -0.010081306096336427 0.0018997139006277865 0 -0.010850700059412289 0.00114592158366793 0 -0.010609542640169578 0.0010224618483567502 0 -0.01130621031905666 0.0007957978505479565 0 -0.010850700059412289 0.00114592158366793 0 -0.011558334673634117 0.0015408384739177543 0 -0.01130621031905666 0.0007957978505479565 0 -0.010481157242728975 0.0011373009692378412 0 -0.010609542640169578 0.0010224618483567502 0 -0.010625218851799215 0.00095772559220019999 0 -0.010850700059412289 0.00114592158366793 0 -0.010609542640169578 0.0010224618483567502 0 -0.010625218851799215 0.00095772559220019999 0 -0.010850700059412289 0.00114592158366793 0 -0.010625218851799215 0.00095772559220019999 0 -0.010695944982418241 0.00091799952881625399 0 -0.010625218851799215 0.00095772559220019999 0 -0.010695944982418241 0.00091799952881625399 0 -0.010647674666418871 0.00076796895657911958 0 -0.010625218851799215 0.00095772559220019999 0 -0.010647674666418871 0.00076796895657911958 0 -0.01065138460675071 0.00064104557439455658 0 -0.010625218851799215 0.00095772559220019999 0 -0.01065138460675071 0.00064104557439455658 0 -0.010595662773822699 0.00075353368698925641 0 -0.010850700059412289 0.00114592158366793 0 -0.011135726153619317 0.0019839847592905717 0 -0.011558334673634117 0.0015408384739177543 0 -0.010779195069355412 0.0012157151250839033 0 -0.011267023485183464 0.001038864796395918 0 -0.010850700059412289 0.00114592158366793 0 -0.010695944982418241 0.00091799952881625399 0 -0.01048923387839437 0.00065549578450201562 0 -0.010695944982418241 0.00091799952881625399 0 -0.010647674666418871 0.00076796895657911958 0 -0.01048923387839437 0.00065549578450201562 0 -0.011267023485183464 0.001038864796395918 0 -0.011196023486934485 0.0010148990518579004 0 -0.010497294283000851 0.00059397128155240823 0 -0.010591902978000617 0.00056648394763035125 0 -0.010655904333955576 0.00048398828875200416 0 -0.010591902978000617 0.00056648394763035125 0 -0.010620548229196934 0.00062442045102143471 0 -0.010646499107703341 0.00053872010131770891 0 -0.010591902978000617 0.00056648394763035125 0 -0.010536064695342021 0.00065264204527867376 0 -0.010620548229196934 0.00062442045102143471 0 -0.010497294283000851 0.00059397128155240823 0 -0.010591902978000617 0.00056648394763035125 0 -0.010536064695342021 0.00065264204527867376 0 -0.010647674666418871 0.00076796895657911958 0 -0.010536064695342021 0.00065264204527867376 0 -0.010620548229196934 0.00062442045102143471 0 -0.010647674666418871 0.00076796895657911958 0 -0.01048923387839437 0.00065549578450201562 0 -0.010536064695342021 0.00065264204527867376 0 -0.010647674666418871 0.00076796895657911958 0 -0.010620548229196934 0.00062442045102143471 0 -0.010654790898757168 0.00061696454875610795 0 -0.010620548229196934 0.00062442045102143471 0 -0.010646499107703341 0.00053872010131770891 0 -0.010654790898757168 0.00061696454875610795 0 -0.010646499107703341 0.00053872010131770891 0 -0.010655904333955576 0.00048398828875200416 0 -0.010704049915011535 0.00044099627181811883 0 -0.010646499107703341 0.00053872010131770891 0 -0.010654790898757168 0.00061696454875610795 0 -0.010704049915011535 0.00044099627181811883 0 -0.010591902978000617 0.00056648394763035125 0 -0.010646499107703341 0.00053872010131770891 0 -0.010655904333955576 0.00048398828875200416 0 -0.01065138460675071 0.00064104557439455658 0 -0.010595662773822699 0.00075353368698925641 0 -0.010664669142056597 0.00036016524204201438 0 -0.010647674666418871 0.00076796895657911958 0 -0.01065138460675071 0.00064104557439455658 0 -0.010654790898757168 0.00061696454875610795 0 -0.01065138460675071 0.00064104557439455658 0 -0.010654790898757168 0.00061696454875610795 0 -0.010704049915011535 0.00044099627181811883 0 -0.01065138460675071 0.00064104557439455658 0 -0.010704049915011535 0.00044099627181811883 0 -0.010664669142056597 0.00036016524204201438 0 -0.010595662773822699 0.00075353368698925641 0 -0.010701676976713643 0.00034519830356096175 0 -0.010664669142056597 0.00036016524204201438 0 -0.010481157242728975 0.0011373009692378412 0 -0.010595662773822699 0.00075353368698925641 0 -0.010614871127388473 0.0010596638006260936 0 -0.010481157242728975 0.0011373009692378412 0 -0.010625218851799215 0.00095772559220019999 0 -0.010595662773822699 0.00075353368698925641 0 -0.010595662773822699 0.00075353368698925641 0 -0.010614871127388473 0.0010596638006260936 0 -0.010701676976713643 0.00034519830356096175 0 -0.010614871127388473 0.0010596638006260936 0 -0.010701676976713643 0.00034519830356096175 0 -0.011247283865528626 0.00059464685942371026 0 -0.010701676976713643 0.00034519830356096175 0 -0.010712496676118901 -7.4908110233604073e-05 0 -0.010918788005213988 -0.0004864566850054898 0 -0.010701676976713643 0.00034519830356096175 0 -0.010712496676118901 -7.4908110233604073e-05 0 -0.010664669142056597 0.00036016524204201438 0 -0.010712496676118901 -7.4908110233604073e-05 0 -0.010921518450797245 -0.00058863034712783161 0 -0.010918788005213988 -0.0004864566850054898 0 -0.010921518450797245 -0.00058863034712783161 0 -0.011008101133371789 -0.00061709013260802682 0 -0.010913001783056342 -0.00065008688569817899 0 -0.010712496676118901 -7.4908110233604073e-05 0 -0.011008101133371789 -0.00061709013260802682 0 -0.011119727430390833 -0.00066144416715579676 0 -0.010712496676118901 -7.4908110233604073e-05 0 -0.010921518450797245 -0.00058863034712783161 0 -0.011008101133371789 -0.00061709013260802682 0 -0.011008101133371789 -0.00061709013260802682 0 -0.01118174132790936 -0.00064830282654449866 0 -0.011113931475551224 -0.00063260389918895455 0 -0.010913001783056342 -0.00065008688569817899 0 -0.010951047547308256 -0.00058390281646028932 0 -0.011113931475551224 -0.00063260389918895455 0 -0.011008101133371789 -0.00061709013260802682 0 -0.010913001783056342 -0.00065008688569817899 0 -0.011113931475551224 -0.00063260389918895455 0 -0.011367218502072634 -0.00065173424078540871 0 -0.011119727430390833 -0.00066144416715579676 0 -0.011678455660833656 -0.00068427464625890914 0 -0.011083344793466066 0.0010061680619865437 0 -0.011758038497775522 0.001147239955275941 0 -0.011861876035230026 0.0012369557135586465 0 -0.011131082079907859 0.00017463258044337374 0 -0.011750910016813739 0.00027237488522777696 0 -0.011367218502072634 -0.00065173424078540871 0 -0.01118174132790936 -0.00064830282654449866 0 -0.011119727430390833 -0.00066144416715579676 0 -0.011008101133371789 -0.00061709013260802682 0 -0.01118174132790936 -0.00064830282654449866 0 -0.011119727430390833 -0.00066144416715579676 0 -0.011083344793466066 0.0010061680619865437 0 -0.011178472677440383 0.00062948975329562976 0 -0.011758038497775522 0.001147239955275941 0 -0.011481639051595254 0.00079945364902442762 0 -0.011734535223304291 0.0011937897994131071 0 -0.011083344793466066 0.0010061680619865437 0 -0.011178472677440383 0.00062948975329562976 0 -0.010864374183632298 0.00019581527853234409 0 -0.011178472677440383 0.00062948975329562976 0 -0.011077271642291015 0.0002317952193058846 0 -0.011758038497775522 0.001147239955275941 0 -0.011178472677440383 0.00062948975329562976 0 -0.011077271642291015 0.0002317952193058846 0 -0.010864374183632298 0.00019581527853234409 0 -0.010712496676118901 -7.4908110233604073e-05 0 -0.011083344793466066 0.0010061680619865437 0 -0.010864374183632298 0.00019581527853234409 0 -0.010769976195024384 -2.7538864618014489e-05 0 -0.011131082079907859 0.00017463258044337374 0 -0.010712496676118901 -7.4908110233604073e-05 0 -0.010864374183632298 0.00019581527853234409 0 -0.010664669142056597 0.00036016524204201438 0 -0.010704049915011535 0.00044099627181811883 0 -0.010864374183632298 0.00019581527853234409 0 -0.010664669142056597 0.00036016524204201438 0 -0.010704049915011535 0.00044099627181811883 0 -0.010864374183632298 0.00019581527853234409 0 -0.010823141677518074 0.00032323978686514364 0 -0.010497294283000851 0.00059397128155240823 0 -0.010655904333955576 0.00048398828875200416 0 -0.011077271642291015 0.0002317952193058846 0 -0.011267023485183464 0.001038864796395918 0 -0.011481639051595254 0.00079945364902442762 0 -0.010655904333955576 0.00048398828875200416 0 -0.011077271642291015 0.0002317952193058846 0 -0.010823141677518074 0.00032323978686514364 0 -0.011797665798040922 0.00085692768703583887 0 -0.011927640779602389 0.0014329252264917432 0 -0.012025154234528138 0.001117187937368427 0 -0.011077271642291015 0.0002317952193058846 0 -0.010864374183632298 0.00019581527853234409 0 -0.010823141677518074 0.00032323978686514364 0 -0.010655904333955576 0.00048398828875200416 0 -0.010704049915011535 0.00044099627181811883 0 -0.010823141677518074 0.00032323978686514364 0 -0.012025154234528138 0.001117187937368427 0 -0.012159139180714585 0.0013483127467112804 0 -0.012345800790013659 0.00097974795460900946 0 -0.011927640779602389 0.0014329252264917432 0 -0.012025154234528138 0.001117187937368427 0 -0.012159139180714585 0.0013483127467112804 0 -0.012159139180714585 0.0013483127467112804 0 -0.012610706592751538 0.0014499768438262248 0 -0.012345800790013659 0.00097974795460900946 0 -0.012610706592751538 0.0014499768438262248 0 -0.012366167658162008 0.0015748469606765775 0 -0.012713986235065628 0.0018244213627407254 0 -0.012159139180714585 0.0013483127467112804 0 -0.012610706592751538 0.0014499768438262248 0 -0.012366167658162008 0.0015748469606765775 0 -0.011927640779602389 0.0014329252264917432 0 -0.011862885299370268 0.0013944612270585736 0 -0.011758038497775522 0.001147239955275941 0 -0.011927640779602389 0.0014329252264917432 0 -0.012159139180714585 0.0013483127467112804 0 -0.011862885299370268 0.0013944612270585736 0 -0.012159139180714585 0.0013483127467112804 0 -0.012366167658162008 0.0015748469606765775 0 -0.011862885299370268 0.0013944612270585736 0 -0.011862885299370268 0.0013944612270585736 0 -0.01249057415887034 0.0019085487930082738 0 -0.012449104564476506 0.0024127774571495388 0 -0.011862885299370268 0.0013944612270585736 0 -0.011758038497775522 0.001147239955275941 0 -0.011831298766134767 0.0011589446690958159 0 -0.012366167658162008 0.0015748469606765775 0 -0.011862885299370268 0.0013944612270585736 0 -0.01249057415887034 0.0019085487930082738 0 -0.011878106698102069 0.0014116911967464697 0 -0.012153281639255862 0.0017682538778543211 0 -0.01249057415887034 0.0019085487930082738 0 -0.012869214841313066 0.0022800372442524715 0 -0.012713986235065628 0.0018244213627407254 0 -0.012366167658162008 0.0015748469606765775 0 -0.01249057415887034 0.0019085487930082738 0 -0.012713986235065628 0.0018244213627407254 0 -0.01249057415887034 0.0019085487930082738 0 -0.012449104564476506 0.0024127774571495388 0 -0.012869214841313066 0.0022800372442524715 0 -0.012449104564476506 0.0024127774571495388 0 -0.012869214841313066 0.0022800372442524715 0 -0.012874882921089879 0.0025025003965378143 0 -0.011758038497775522 0.001147239955275941 0 -0.011831298766134767 0.0011589446690958159 0 -0.011861876035230026 0.0012369557135586465 0 -0.013224343125031667 0.0023798190527703949 0 -0.01331841064726568 0.0021761702752176623 0 -0.013506277252031127 0.0023989599065159456 0 -0.01308542126234793 0.0022871447075413554 0 -0.013224343125031667 0.0023798190527703949 0 -0.01331841064726568 0.0021761702752176623 0 -0.013224343125031667 0.0023798190527703949 0 -0.013245747378894003 0.0024803253719710202 0 -0.013016388953498598 0.0024666253823036866 0 -0.01308542126234793 0.0022871447075413554 0 -0.013224343125031667 0.0023798190527703949 0 -0.013016388953498598 0.0024666253823036866 0 -0.012869214841313066 0.0022800372442524715 0 -0.012874882921089879 0.0025025003965378143 0 -0.013016388953498598 0.0024666253823036866 0 -0.01308542126234793 0.0022871447075413554 0 -0.012869214841313066 0.0022800372442524715 0 -0.013016388953498598 0.0024666253823036866 0 -0.01308542126234793 0.0022871447075413554 0 -0.012869214841313066 0.0022800372442524715 0 -0.013012372292800233 0.0020588562471980524 0 -0.013012372292800233 0.0020588562471980524 0 -0.012713986235065628 0.0018244213627407254 0 -0.013155614390521613 0.0017504404709512849 0 -0.012869214841313066 0.0022800372442524715 0 -0.013012372292800233 0.0020588562471980524 0 -0.012713986235065628 0.0018244213627407254 0 -0.013012372292800233 0.0020588562471980524 0 -0.01331841064726568 0.0021761702752176623 0 -0.013155614390521613 0.0017504404709512849 0 -0.01331841064726568 0.0021761702752176623 0 -0.013155614390521613 0.0017504404709512849 0 -0.013651856198869073 0.0020161437755025755 0 -0.01308542126234793 0.0022871447075413554 0 -0.013012372292800233 0.0020588562471980524 0 -0.01331841064726568 0.0021761702752176623 0 -0.012610706592751538 0.0014499768438262248 0 -0.012713986235065628 0.0018244213627407254 0 -0.013155614390521613 0.0017504404709512849 0 -0.012610706592751538 0.0014499768438262248 0 -0.013155614390521613 0.0017504404709512849 0 -0.013029210510615482 0.0012153202777313247 0 -0.012610706592751538 0.0014499768438262248 0 -0.013029210510615482 0.0012153202777313247 0 -0.012345800790013659 0.00097974795460900946 0 -0.013155614390521613 0.0017504404709512849 0 -0.013029210510615482 0.0012153202777313247 0 -0.013742713275698332 0.0017314598256377763 0 -0.012972946165257081 0.0015713587908143039 0 -0.013673287722741404 0.0017199019200682879 0 -0.012979471801455244 0.0019404648204432702 0 -0.013295828064278878 0.0014615907197123084 0 -0.013742713275698332 0.0017314598256377763 0 -0.013980999519099377 0.0023520259467498272 0 -0.015520523385993903 0.0021760786172459658 0 -0.015979735186718982 0.0027091123799279962 0 -0.013453398261331587 0.0017283735020024642 0 -0.014871012917478723 0.0018921637916146142 0 -0.013295828064278878 0.0014615907197123084 0 -0.012895046364665458 0.0011364016845579086 0 -0.013799107942830059 0.0010945958073766485 0 -0.013295828064278878 0.0014615907197123084 0 -0.012895046364665458 0.0011364016845579086 0 -0.012395954762790715 0.0015281876990794572 0 -0.012979471801455244 0.0019404648204432702 0 -0.013295828064278878 0.0014615907197123084 0 -0.012395954762790715 0.0015281876990794572 0 -0.012972946165257081 0.0015713587908143039 0 -0.012259555819428598 0.0015499226481325737 0 -0.012979471801455244 0.0019404648204432702 0 -0.012092743074542146 0.0020204189929525309 0 -0.012395954762790715 0.0015281876990794572 0 -0.011267023485183464 0.001038864796395918 0 -0.012259555819428598 0.0015499226481325737 0 -0.011135726153619317 0.0019839847592905717 0 -0.012092743074542146 0.0020204189929525309 0 -0.011558334673634117 0.0015408384739177543 0 -0.011797665798040922 0.00085692768703583887 0 -0.012025154234528138 0.001117187937368427 0 -0.012345800790013659 0.00097974795460900946 0 -0.011558334673634117 0.0015408384739177543 0 -0.012395954762790715 0.0015281876990794572 0 -0.011942563152563535 0.0013469306472760998 0 -0.012895046364665458 0.0011364016845579086 0 -0.012395954762790715 0.0015281876990794572 0 -0.011942563152563535 0.0013469306472760998 0 -0.012092743074542146 0.0020204189929525309 0 -0.011558334673634117 0.0015408384739177543 0 -0.012395954762790715 0.0015281876990794572 0 -0.013453398261331587 0.0017283735020024642 0 -0.012054215146662207 0.0013892306865425285 0 -0.011942563152563535 0.0013469306472760998 0 -0.012478606820057074 0.00039674644043346716 0 -0.013447462609688106 0.00090063047433665581 0 -0.011942563152563535 0.0013469306472760998 0 -0.01130621031905666 0.0007957978505479565 0 -0.01183992203965999 0.00065486325997708033 0 -0.011558334673634117 0.0015408384739177543 0 -0.011942563152563535 0.0013469306472760998 0 -0.01130621031905666 0.0007957978505479565 0 -0.011636352425301394 3.9113819131695961e-05 0 -0.01130621031905666 0.0007957978505479565 0 -0.01183992203965999 0.00065486325997708033 0 -0.011636352425301394 3.9113819131695961e-05 0 -0.01183992203965999 0.00065486325997708033 0 -0.012478606820057074 0.00039674644043346716 0 -0.011942563152563535 0.0013469306472760998 0 -0.01183992203965999 0.00065486325997708033 0 -0.012478606820057074 0.00039674644043346716 0 -0.013206522431705014 -0.00033393457822240521 0 -0.013447462609688106 0.00090063047433665581 0 -0.014089465816541608 0.00016513571951723793 0 -0.013206522431705014 -0.00033393457822240521 0 -0.012478606820057074 0.00039674644043346716 0 -0.013447462609688106 0.00090063047433665581 0 -0.013447462609688106 0.00090063047433665581 0 -0.01477523936201491 0.00062273088486963812 0 -0.014089465816541608 0.00016513571951723793 0 -0.013447462609688106 0.00090063047433665581 0 -0.01477523936201491 0.00062273088486963812 0 -0.014413072723154976 0.0015096357385059333 0 -0.014896185375417689 -0.00047739073174095744 0 -0.01477523936201491 0.00062273088486963812 0 -0.014089465816541608 0.00016513571951723793 0 -0.01477523936201491 0.00062273088486963812 0 -0.014413072723154976 0.0015096357385059333 0 -0.015520523385993903 0.0021760786172459658 0 -0.013980999519099377 0.0023520259467498272 0 -0.014413072723154976 0.0015096357385059333 0 -0.015520523385993903 0.0021760786172459658 0 -0.013980999519099377 0.0023520259467498272 0 -0.013447462609688106 0.00090063047433665581 0 -0.014413072723154976 0.0015096357385059333 0 -0.013980999519099377 0.0023520259467498272 0 -0.011942563152563535 0.0013469306472760998 0 -0.013447462609688106 0.00090063047433665581 0 -0.016125003168345132 0.0024826193636762082 0 -0.016151650318976783 0.002590841634678074 0 -0.016149667244628737 0.0026190782856381806 0 -0.016125003168345132 0.0024826193636762082 0 -0.015983895332271521 0.0023944901953149938 0 -0.016151650318976783 0.002590841634678074 0 -0.016125003168345132 0.0024826193636762082 0 -0.015520523385993903 0.0021760786172459658 0 -0.015983895332271521 0.0023944901953149938 0 -0.01477523936201491 0.00062273088486963812 0 -0.015520523385993903 0.0021760786172459658 0 -0.016047757071459435 0.0010279957452881639 0 -0.015612796363714463 0.0021897756617475189 0 -0.015987459931719145 0.0016971974110067832 0 -0.01477523936201491 0.00062273088486963812 0 -0.016047757071459435 0.0010279957452881639 0 -0.016625889568430263 -0.00012430548969632755 0 -0.015100650567414959 0.00025657990554241546 0 -0.015908331034729183 0.0013912181103516634 0 -0.014896185375417689 -0.00047739073174095744 0 -0.01477523936201491 0.00062273088486963812 0 -0.015871461100620963 0.00010310256829354611 0 -0.015987459931719145 0.0016971974110067832 0 -0.015908331034729183 0.0013912181103516634 0 -0.016169504757589132 0.0029737338340793153 0 -0.01616615440895542 0.0026210348026831261 0 -0.016151650318976783 0.002590841634678074 0 -0.015983895332271521 0.0023944901953149938 0 -0.01616615440895542 0.0026210348026831261 0 -0.016151650318976783 0.002590841634678074 0 -0.016169504757589132 0.0029737338340793153 0 -0.015971408236908954 0.0029728982687882649 0 -0.016149667244628737 0.0026190782856381806 0 -0.016169504757589132 0.0029737338340793153 0 -0.016151650318976783 0.002590841634678074 0 -0.016149667244628737 0.0026190782856381806 0 -0.015971408236908954 0.0029728982687882649 0 -0.016149667244628737 0.0026190782856381806 0 -0.015930433770286325 0.0025483879863595804 0 -0.016149667244628737 0.0026190782856381806 0 -0.016222899614933416 0.0023832338290927808 0 -0.015930433770286325 0.0025483879863595804 0 -0.016125003168345132 0.0024826193636762082 0 -0.016149667244628737 0.0026190782856381806 0 -0.016222899614933416 0.0023832338290927808 0 -0.016222899614933416 0.0023832338290927808 0 -0.015718789306911094 0.0018627465258364557 0 -0.015930433770286325 0.0025483879863595804 0 -0.014698294526167907 0.0012198972557958387 0 -0.015187883946850124 0.0018312407361658698 0 -0.015718789306911094 0.0018627465258364557 0 -0.015432281534659262 0.0018140592281811938 0 -0.015669835040288467 0.0018465203464744795 0 -0.014698294526167907 0.0012198972557958387 0 -0.014413902834680189 0.001684678204247273 0 -0.015187883946850124 0.0018312407361658698 0 -0.014698294526167907 0.0012198972557958387 0 -0.013990183076009381 0.0014778173656896756 0 -0.014413902834680189 0.001684678204247273 0 -0.015432281534659262 0.0018140592281811938 0 -0.014871012917478723 0.0018921637916146142 0 -0.016125003168345132 0.0024826193636762082 0 -0.016222899614933416 0.0023832338290927808 0 -0.015979735186718982 0.0027091123799279962 0 -0.014698294526167907 0.0012198972557958387 0 -0.013990183076009381 0.0014778173656896756 0 -0.013799107942830059 0.0010945958073766485 0 -0.016125003168345132 0.0024826193636762082 0 -0.015520523385993903 0.0021760786172459658 0 -0.015979735186718982 0.0027091123799279962 0 -0.013295828064278878 0.0014615907197123084 0 -0.013990183076009381 0.0014778173656896756 0 -0.013742713275698332 0.0017314598256377763 0 -0.013295828064278878 0.0014615907197123084 0 -0.013990183076009381 0.0014778173656896756 0 -0.013799107942830059 0.0010945958073766485 0 -0.013742713275698332 0.0017314598256377763 0 -0.01407933685526843 0.0019689871472758913 0 -0.014413902834680189 0.001684678204247273 0 -0.013990183076009381 0.0014778173656896756 0 -0.013742713275698332 0.0017314598256377763 0 -0.014413902834680189 0.001684678204247273 0 -0.01407933685526843 0.0019689871472758913 0 -0.014264301232648598 0.0021532289124077727 0 -0.01456888760736076 0.002090086538349769 0 -0.013742713275698332 0.0017314598256377763 0 -0.01407933685526843 0.0019689871472758913 0 -0.013651856198869073 0.0020161437755025755 0 -0.013155614390521613 0.0017504404709512849 0 -0.013742713275698332 0.0017314598256377763 0 -0.013651856198869073 0.0020161437755025755 0 -0.01331841064726568 0.0021761702752176623 0 -0.013651856198869073 0.0020161437755025755 0 -0.013621552526367006 0.0022391936524444938 0 -0.01331841064726568 0.0021761702752176623 0 -0.013621552526367006 0.0022391936524444938 0 -0.013506277252031127 0.0023989599065159456 0 -0.013651856198869073 0.0020161437755025755 0 -0.013621552526367006 0.0022391936524444938 0 -0.014010257547512379 0.0022696768446692776 0 -0.014010257547512379 0.0022696768446692776 0 -0.014260985069710594 0.0024549972395218741 0 -0.01447216126064481 0.0023165276811717614 0 -0.014264301232648598 0.0021532289124077727 0 -0.014010257547512379 0.0022696768446692776 0 -0.01447216126064481 0.0023165276811717614 0 -0.01407933685526843 0.0019689871472758913 0 -0.014264301232648598 0.0021532289124077727 0 -0.014010257547512379 0.0022696768446692776 0 -0.01407933685526843 0.0019689871472758913 0 -0.013651856198869073 0.0020161437755025755 0 -0.014010257547512379 0.0022696768446692776 0 -0.014010257547512379 0.0022696768446692776 0 -0.014040982086706797 0.0024216512769748696 0 -0.014260985069710594 0.0024549972395218741 0 -0.013621552526367006 0.0022391936524444938 0 -0.014010257547512379 0.0022696768446692776 0 -0.013831557855187639 0.0024098420943519327 0 -0.014010257547512379 0.0022696768446692776 0 -0.013831557855187639 0.0024098420943519327 0 -0.014040982086706797 0.0024216512769748696 0 -0.013831557855187639 0.0024098420943519327 0 -0.014040982086706797 0.0024216512769748696 0 -0.014058103058338963 0.0025576510301388612 0 -0.014058103058338963 0.0025576510301388612 0 -0.01430585142745109 0.0025643619508885678 0 -0.014260985069710594 0.0024549972395218741 0 -0.014040982086706797 0.0024216512769748696 0 -0.014058103058338963 0.0025576510301388612 0 -0.014260985069710594 0.0024549972395218741 0 -0.014058103058338963 0.0025576510301388612 0 -0.01430585142745109 0.0025643619508885678 0 -0.014216272629043574 0.0027369056469430698 0 -0.014058103058338963 0.0025576510301388612 0 -0.014216272629043574 0.0027369056469430698 0 -0.013970958765951849 0.0026867043157754039 0 -0.014058103058338963 0.0025576510301388612 0 -0.013773169710272084 0.0025462060976348903 0 -0.013970958765951849 0.0026867043157754039 0 -0.013831557855187639 0.0024098420943519327 0 -0.014058103058338963 0.0025576510301388612 0 -0.013773169710272084 0.0025462060976348903 0 -0.013773169710272084 0.0025462060976348903 0 -0.013506277252031127 0.0023989599065159456 0 -0.013471447256942725 0.0025717006355379379 0 -0.013831557855187639 0.0024098420943519327 0 -0.013773169710272084 0.0025462060976348903 0 -0.013506277252031127 0.0023989599065159456 0 -0.013224343125031667 0.0023798190527703949 0 -0.013506277252031127 0.0023989599065159456 0 -0.013245747378894003 0.0024803253719710202 0 -0.013506277252031127 0.0023989599065159456 0 -0.013245747378894003 0.0024803253719710202 0 -0.013471447256942725 0.0025717006355379379 0 -0.013621552526367006 0.0022391936524444938 0 -0.013831557855187639 0.0024098420943519327 0 -0.013506277252031127 0.0023989599065159456 0 -0.016632362839285493 0.00042715187262681501 0 -0.017027253088994901 0.00033064110659830495 0 -0.016406833487248033 0.0010208447799633733 0 -0.016632362839285493 0.00042715187262681501 0 -0.016352853729330055 0.00067778319706855283 0 -0.016428581098524742 0.00027233699064060175 0 -0.016632362839285493 0.00042715187262681501 0 -0.016679751298167469 0.00011014301391445427 0 -0.016428581098524742 0.00027233699064060175 0 -0.016679751298167469 0.00011014301391445427 0 -0.016804014501105365 0.00023419687863739607 0 -0.016877806879617031 7.9725546605560456e-05 0 -0.016632362839285493 0.00042715187262681501 0 -0.016679751298167469 0.00011014301391445427 0 -0.016804014501105365 0.00023419687863739607 0 -0.016632362839285493 0.00042715187262681501 0 -0.016804014501105365 0.00023419687863739607 0 -0.017027253088994901 0.00033064110659830495 0 -0.016804014501105365 0.00023419687863739607 0 -0.016877806879617031 7.9725546605560456e-05 0 -0.017027253088994901 0.00033064110659830495 0 -0.015248063224295384 0.0019626912091002735 0 -0.014527407816080156 0.0025160269120308317 0 -0.016877806879617031 7.9725546605560456e-05 0 -0.017027253088994901 0.00033064110659830495 0 -0.017044717694312116 -0.00011417302721158605 0 -0.015786579516890924 0.0014250039502156434 0 -0.015587376076365395 0.0017194384940543686 0 -0.014849152367040912 0.0022452540420223452 0 -0.014685778836697834 0.0025080741800633899 0 -0.01430585142745109 0.0025643619508885678 0 -0.014216272629043574 0.0027369056469430698 0 -0.014685778836697834 0.0025080741800633899 0 -0.01430585142745109 0.0025643619508885678 0 -0.014260985069710594 0.0024549972395218741 0 -0.014685778836697834 0.0025080741800633899 0 -0.01447216126064481 0.0023165276811717614 0 -0.014793228962125893 0.0022433729478254548 0 -0.014685778836697834 0.0025080741800633899 0 -0.014260985069710594 0.0024549972395218741 0 -0.01447216126064481 0.0023165276811717614 0 -0.014264301232648598 0.0021532289124077727 0 -0.01447216126064481 0.0023165276811717614 0 -0.01456888760736076 0.002090086538349769 0 -0.01447216126064481 0.0023165276811717614 0 -0.014793228962125893 0.0022433729478254548 0 -0.01456888760736076 0.002090086538349769 0 -0.015786579516890924 0.0014250039502156434 0 -0.015587376076365395 0.0017194384940543686 0 -0.016406833487248033 0.0010208447799633733 0 -0.015248063224295384 0.0019626912091002735 0 -0.015858166889847022 0.0015746345668146869 0 -0.016298901118793462 0.0010198783107685599 0 -0.01640369519026582 0.0010037346288918343 0 -0.016632362839285493 0.00042715187262681501 0 -0.016406833487248033 0.0010208447799633733 0 -0.016352853729330055 0.00067778319706855283 0 -0.015786579516890924 0.0014250039502156434 0 -0.016406833487248033 0.0010208447799633733 0 -0.016538456326061202 0.00087777365175980063 0 -0.014685778836697834 0.0025080741800633899 0 -0.014793228962125893 0.0022433729478254548 0 -0.015258269294828904 0.0022515317115131242 0 -0.015258269294828904 0.0022515317115131242 0 -0.014985307189520571 0.0020232931905468719 0 -0.015333920877941167 0.0019317330434810293 0 -0.014793228962125893 0.0022433729478254548 0 -0.015258269294828904 0.0022515317115131242 0 -0.014985307189520571 0.0020232931905468719 0 -0.014985307189520571 0.0020232931905468719 0 -0.015187883946850124 0.0018312407361658698 0 -0.015333920877941167 0.0019317330434810293 0 -0.01407933685526843 0.0019689871472758913 0 -0.01456888760736076 0.002090086538349769 0 -0.01469613183309464 0.0018978311004725597 0 -0.014793228962125893 0.0022433729478254548 0 -0.014985307189520571 0.0020232931905468719 0 -0.01456888760736076 0.002090086538349769 0 -0.014985307189520571 0.0020232931905468719 0 -0.01456888760736076 0.002090086538349769 0 -0.01469613183309464 0.0018978311004725597 0 -0.01407933685526843 0.0019689871472758913 0 -0.014413902834680189 0.001684678204247273 0 -0.01469613183309464 0.0018978311004725597 0 -0.014413902834680189 0.001684678204247273 0 -0.01469613183309464 0.0018978311004725597 0 -0.015187883946850124 0.0018312407361658698 0 -0.014985307189520571 0.0020232931905468719 0 -0.01469613183309464 0.0018978311004725597 0 -0.015187883946850124 0.0018312407361658698 0 -0.015187883946850124 0.0018312407361658698 0 -0.015805364254229497 0.0017107465464446788 0 -0.015718789306911094 0.0018627465258364557 0 -0.015187883946850124 0.0018312407361658698 0 -0.015805364254229497 0.0017107465464446788 0 -0.015333920877941167 0.0019317330434810293 0 -0.015805364254229497 0.0017107465464446788 0 -0.015452918082197304 0.0013731052323391363 0 -0.015512495673574106 0.0020114059145028215 0 -0.015805364254229497 0.0017107465464446788 0 -0.015810500585739507 0.0011023688367264111 0 -0.015452918082197304 0.0013731052323391363 0 -0.016538456326061202 0.00087777365175980063 0 -0.015805364254229497 0.0017107465464446788 0 -0.016142346944235622 0.0010309717878753972 0 -0.015258269294828904 0.0022515317115131242 0 -0.015805364254229497 0.0017107465464446788 0 -0.015333920877941167 0.0019317330434810293 0 -0.015858166889847022 0.0015746345668146869 0 -0.015823654143638448 0.00168701253232276 0 -0.015805364254229497 0.0017107465464446788 0 -0.015810500585739507 0.0011023688367264111 0 -0.016142346944235622 0.0010309717878753972 0 -0.016538456326061202 0.00087777365175980063 0 -0.016142346944235622 0.0010309717878753972 0 -0.016362454324778723 0.00088443374815854706 0 -0.016406833487248033 0.0010208447799633733 0 -0.016538456326061202 0.00087777365175980063 0 -0.016362454324778723 0.00088443374815854706 0 -0.016406833487248033 0.0010208447799633733 0 -0.016362454324778723 0.00088443374815854706 0 -0.016352853729330055 0.00067778319706855283 0 -0.016352853729330055 0.00067778319706855283 0 -0.016167795223024965 0.00079642351643952622 0 -0.016201536264571513 0.00051818254045911318 0 -0.016362454324778723 0.00088443374815854706 0 -0.016352853729330055 0.00067778319706855283 0 -0.016167795223024965 0.00079642351643952622 0 -0.016167795223024965 0.00079642351643952622 0 -0.015933442081596895 0.00059434807991607069 0 -0.016201536264571513 0.00051818254045911318 0 -0.015810500585739507 0.0011023688367264111 0 -0.016142346944235622 0.0010309717878753972 0 -0.016167795223024965 0.00079642351643952622 0 -0.016142346944235622 0.0010309717878753972 0 -0.016362454324778723 0.00088443374815854706 0 -0.016167795223024965 0.00079642351643952622 0 -0.015810500585739507 0.0011023688367264111 0 -0.016167795223024965 0.00079642351643952622 0 -0.015933442081596895 0.00059434807991607069 0 -0.015810500585739507 0.0011023688367264111 0 -0.015933442081596895 0.00059434807991607069 0 -0.015514045138527955 0.00065975814961806564 0 -0.015933442081596895 0.00059434807991607069 0 -0.01579363418543242 0.00020173849565068702 0 -0.015514045138527955 0.00065975814961806564 0 -0.015933442081596895 0.00059434807991607069 0 -0.01579363418543242 0.00020173849565068702 0 -0.016136836914100883 0.00022124318545759685 0 -0.01579363418543242 0.00020173849565068702 0 -0.016136836914100883 0.00022124318545759685 0 -0.016037020168494849 -0.00010769040253680056 0 -0.016136836914100883 0.00022124318545759685 0 -0.016428581098524742 0.00027233699064060175 0 -0.016446043178206676 -0.00017534086094365866 0 -0.016136836914100883 0.00022124318545759685 0 -0.016428581098524742 0.00027233699064060175 0 -0.016201536264571513 0.00051818254045911318 0 -0.016352853729330055 0.00067778319706855283 0 -0.016428581098524742 0.00027233699064060175 0 -0.016201536264571513 0.00051818254045911318 0 -0.015933442081596895 0.00059434807991607069 0 -0.016136836914100883 0.00022124318545759685 0 -0.016201536264571513 0.00051818254045911318 0 -0.01545915089590106 4.7027118922777146e-05 0 -0.015514045138527955 0.00065975814961806564 0 -0.014999857403340396 -1.6009219020144254e-05 0 -0.01579363418543242 0.00020173849565068702 0 -0.01545915089590106 4.7027118922777146e-05 0 -0.015514045138527955 0.00065975814961806564 0 -0.015514045138527955 0.00065975814961806564 0 -0.014999831489572516 0.00085320225187640402 0 -0.015452918082197304 0.0013731052323391363 0 -0.015514045138527955 0.00065975814961806564 0 -0.014999831489572516 0.00085320225187640402 0 -0.014999857403340396 -1.6009219020144254e-05 0 -0.014999831489572516 0.00085320225187640402 0 -0.015452918082197304 0.0013731052323391363 0 -0.014999896737395256 0.0017223228861135836 0 -0.015810500585739507 0.0011023688367264111 0 -0.015514045138527955 0.00065975814961806564 0 -0.015452918082197304 0.0013731052323391363 0 -0.015452918082197304 0.0013731052323391363 0 -0.014999896737395256 0.0017223228861135836 0 -0.015512495673574106 0.0020114059145028215 0 -0.014999896737395256 0.0017223228861135836 0 -0.014999840321551534 0.002591215345897483 0 -0.015512495673574106 0.0020114059145028215 0 -0.015512495673574106 0.0020114059145028215 0 -0.015618220579632521 0.0024013057810488782 0 -0.015396742123795893 0.0026689684855608488 0 -0.014999840321551534 0.002591215345897483 0 -0.015512495673574106 0.0020114059145028215 0 -0.015396742123795893 0.0026689684855608488 0 -0.015512495673574106 0.0020114059145028215 0 -0.015718789306911094 0.0018627465258364557 0 -0.015618220579632521 0.0024013057810488782 0 -0.015805364254229497 0.0017107465464446788 0 -0.015512495673574106 0.0020114059145028215 0 -0.015718789306911094 0.0018627465258364557 0 -0.015718789306911094 0.0018627465258364557 0 -0.015618220579632521 0.0024013057810488782 0 -0.015930433770286325 0.0025483879863595804 0 -0.015618220579632521 0.0024013057810488782 0 -0.01564797654797899 0.0029867585382262348 0 -0.015396742123795893 0.0026689684855608488 0 -0.015971408236908954 0.0029728982687882649 0 -0.015930433770286325 0.0025483879863595804 0 -0.01564797654797899 0.0029867585382262348 0 -0.015618220579632521 0.0024013057810488782 0 -0.015930433770286325 0.0025483879863595804 0 -0.01564797654797899 0.0029867585382262348 0 -0.015764471631447213 0.0033669795841449988 0 -0.015971408236908954 0.0029728982687882649 0 -0.01564797654797899 0.0029867585382262348 0 -0.015418701260536573 0.0036973694032713289 0 -0.01564797654797899 0.0029867585382262348 0 -0.015349705902645934 0.0032336424651668769 0 -0.015418701260536573 0.0036973694032713289 0 -0.015349705902645934 0.0032336424651668769 0 -0.014999838358781324 0.0034605760002940924 0 -0.014999840321551534 0.002591215345897483 0 -0.014999838358781324 0.0034605760002940924 0 -0.015396742123795893 0.0026689684855608488 0 -0.015349705902645934 0.0032336424651668769 0 -0.014999838358781324 0.0034605760002940924 0 -0.015396742123795893 0.0026689684855608488 0 -0.01564797654797899 0.0029867585382262348 0 -0.015349705902645934 0.0032336424651668769 0 -0.015396742123795893 0.0026689684855608488 0 -0.0018080922770825627 0.0058900331648238588 0 0.00040625425052701845 0.0053626299680571742 0 -0.0013959276089744804 0.0037149493884306418 0 -0.0029603003329510573 0.0047286982902877044 0 -0.0018080922770825627 0.0058900331648238588 0 -0.0013959276089744804 0.0037149493884306418 0 -0.0029603003329510573 0.0047286982902877044 0 -0.0018080922770825627 0.0058900331648238588 0 -0.0033727080879192247 0.0060464133909667456 0 -0.0018080922770825627 0.0058900331648238588 0 -0.0033727080879192247 0.0060464133909667456 0 -0.0025873505229533664 0.0077486993359433621 0 -0.0018080922770825627 0.0058900331648238588 0 0.00040625425052701845 0.0053626299680571742 0 -0.0016417650712521764 0.0075770685744982382 0 -0.0018080922770825627 0.0058900331648238588 0 -0.0016417650712521764 0.0075770685744982382 0 -0.0025873505229533664 0.0077486993359433621 0 -0.001837408886296804 0.0076848286134136292 0 -0.0016417650712521764 0.0075770685744982382 0 -0.0018143133290759955 0.0078062698720955505 0 -0.0001231916394280248 0.0067162224602571327 0 -0.0017126015174677748 0.0074928624663637092 0 -0.0017224786455786131 0.0076813440594781165 0 -0.0017230050720573264 0.0080450272526475571 0 -0.0018143133290759955 0.0078062698720955505 0 -0.0081046787522122184 0.0058235530418658176 0 -0.0075375832210571843 0.0064302908278390733 0 -0.0017224786455786131 0.0076813440594781165 0 -0.001837408886296804 0.0076848286134136292 0 -0.0018143133290759955 0.0078062698720955505 0 -0.0081046787522122184 0.0058235530418658176 0 -0.0049437729483330153 0.0028358895169827403 0 -0.0017224786455786131 0.0076813440594781165 0 -0.001837408886296804 0.0076848286134136292 0 -0.0017688690893395138 0.0074068592906840888 0 0.00040625425052701845 0.0053626299680571742 0 0.0002111489478752345 0.0035904248859726109 0 -0.0013959276089744804 0.0037149493884306418 0 0.00040625425052701845 0.0053626299680571742 0 0.0002111489478752345 0.0035904248859726109 0 0.00174958541630096 0.003248150613662279 0 -0.0001231916394280248 0.0067162224602571327 0 -0.0049437729483330153 0.0028358895169827403 0 0.0002111489478752345 0.0035904248859726109 0 0.00174958541630096 0.003248150613662279 0 -0.00021325006432267423 0.0020001194591143709 0 -0.0063022354961178844 -0.00081875619719657257 0 -0.0064906864730629584 -0.00014103644682281682 0 -0.0061592790776055159 -1.5823879178190493e-05 0 -0.0049437729483330153 0.0028358895169827403 0 -0.0030906505589467091 0.00060137132894405728 0 -0.0063022354961178844 -0.00081875619719657257 0 -0.0064906864730629584 -0.00014103644682281682 0 -0.0068722673766040097 -0.00015492174362202618 0 -0.0049437729483330153 0.0028358895169827403 0 -0.010587111610987274 -0.00036891933132145345 0 0.00174958541630096 0.003248150613662279 0 -0.00021325006432267423 0.0020001194591143709 0 0.0012799845984621302 0.0010413075002676168 0 -0.00021325006432267423 0.0020001194591143709 0 -0.0018059258842776649 0.0012054967009736805 0 -0.00051810809654691476 0.00035795242378687585 0 -0.00021325006432267423 0.0020001194591143709 0 -0.0013959276089744804 0.0037149493884306418 0 -0.0018059258842776649 0.0012054967009736805 0 0.0002111489478752345 0.0035904248859726109 0 -0.00021325006432267423 0.0020001194591143709 0 -0.0013959276089744804 0.0037149493884306418 0 -0.0029603003329510573 0.0047286982902877044 0 -0.0013959276089744804 0.0037149493884306418 0 -0.0037405337253456437 0.0036134000632232956 0 -0.0012916379381496743 0.0036599523778813592 0 -0.0034455057055699833 0.0030371349546867627 0 -0.0013959276089744804 0.0037149493884306418 0 -0.0018059258842776649 0.0012054967009736805 0 -0.0027561286244532465 0.0021712460304174862 0 -0.0018059258842776649 0.0012054967009736805 0 -0.0027782442435675347 0.00069592905597264522 0 -0.0027561286244532465 0.0021712460304174862 0 -0.0027782442435675347 0.00069592905597264522 0 -0.0019477062111790855 -0.00059499558432249964 0 -0.0022741808711232258 9.4960537194765924e-05 0 -0.0024416625220599576 0.00032338243292272196 0 -0.0041636313902591237 0.0013370105147623948 0 -0.0027782442435675347 0.00069592905597264522 0 -0.0027561286244532465 0.0021712460304174862 0 -0.0050369729822013895 0.0013179057688071387 0 -0.0034455057055699833 0.0030371349546867627 0 -0.0041636313902591237 0.0013370105147623948 0 -0.0037405337253456437 0.0036134000632232956 0 -0.0055956084978342939 0.0031467270511074865 0 -0.0053035667899563365 0.0041321649772677336 0 -0.0037405337253456437 0.0036134000632232956 0 -0.0053035667899563365 0.0041321649772677336 0 -0.0045301076422902672 0.0049640667578853305 0 -0.0029603003329510573 0.0047286982902877044 0 -0.0037405337253456437 0.0036134000632232956 0 -0.0045301076422902672 0.0049640667578853305 0 -0.0013682121665735982 0.00058932965255193163 0 -0.0041636313902591237 0.0013370105147623948 0 -0.0019498988833416722 0.0011357005075841406 0 -0.0021859748670036714 0.0017197859297145776 0 -0.0030830399757542769 0.0014319053437759075 0 -0.0023071875821225412 0.0044211247012127678 0 -0.0041636313902591237 0.0013370105147623948 0 -0.0010656704873828948 -0.00069785999575404237 0 -0.0019477062111790855 -0.00059499558432249964 0 -0.0016763255564945507 -0.0002259631747000384 0 -0.0019477062111790855 -0.00059499558432249964 0 -0.0016763255564945507 -0.0002259631747000384 0 -0.0022741808711232258 9.4960537194765924e-05 0 -0.0053035667899563365 0.0041321649772677336 0 -0.0062776225420044423 0.0039335118470075698 0 -0.0063279771281026928 0.0050067518976922836 0 -0.0055956084978342939 0.0031467270511074865 0 -0.0053035667899563365 0.0041321649772677336 0 -0.0062776225420044423 0.0039335118470075698 0 -0.0023071875821225412 0.0044211247012127678 0 -0.0037873113095822182 0.0082696184227195602 0 -0.0072183207035903876 0.003631333482686197 0 -0.0055956084978342939 0.0031467270511074865 0 -0.0062776225420044423 0.0039335118470075698 0 -0.0072183207035903876 0.003631333482686197 0 -0.0062776225420044423 0.0039335118470075698 0 -0.0063279771281026928 0.0050067518976922836 0 -0.00084041910804739353 0.010718073942325122 0 -0.00079106251184514909 0.010674111987099088 0 -0.0010073393505785286 0.010708738379143008 0 -0.00079106251184514909 0.010674111987099088 0 -0.0010073393505785286 0.010708738379143008 0 -0.00092703745486627856 0.010601447565735757 0 -0.0063279771281026928 0.0050067518976922836 0 -0.0053363848487409408 0.0065469231675849933 0 -0.0045301076422902672 0.0049640667578853305 0 -0.0053035667899563365 0.0041321649772677336 0 -0.0063279771281026928 0.0050067518976922836 0 -0.0045301076422902672 0.0049640667578853305 0 -0.0010073393505785286 0.010708738379143008 0 -0.0013592349805396575 0.010601000015351969 0 -0.00092703745486627856 0.010601447565735757 0 -0.0037873113095822182 0.0082696184227195602 0 -0.0033532818285366252 0.0084961820921575781 0 -0.0013592349805396575 0.010601000015351969 0 -0.00092703745486627856 0.010601447565735757 0 -0.00090895904074982982 0.010423923887255765 0 -0.0029603003329510573 0.0047286982902877044 0 -0.0045301076422902672 0.0049640667578853305 0 -0.0033727080879192247 0.0060464133909667456 0 -0.0053363848487409408 0.0065469231675849933 0 -0.0045301076422902672 0.0049640667578853305 0 -0.0033727080879192247 0.0060464133909667456 0 -0.0033727080879192247 0.0060464133909667456 0 -0.0041132796042603233 0.0081488317379919753 0 -0.0025873505229533664 0.0077486993359433621 0 -0.0053363848487409408 0.0065469231675849933 0 -0.0033727080879192247 0.0060464133909667456 0 -0.0041132796042603233 0.0081488317379919753 0 -0.0033532818285366252 0.0084961820921575781 0 -0.0029660826739325782 0.0091931801063814145 0 -0.0018468927616765191 0.010297555944575622 0 -0.0011643346978261516 0.010089003964412228 0 -0.0017065582178928745 0.0097680341093226465 0 -0.0018468927616765191 0.010297555944575622 0 -0.0026085510664109433 0.0093637415149009987 0 -0.0017065582178928745 0.0097680341093226465 0 -0.0029660826739325782 0.0091931801063814145 0 -0.0026772178824939572 0.0093496256628824801 0 -0.0041132796042603233 0.0081488317379919753 0 -0.0026085510664109433 0.0093637415149009987 0 -0.0025873505229533664 0.0077486993359433621 0 -0.0013592349805396575 0.010601000015351969 0 -0.00090895904074982982 0.010423923887255765 0 -0.0011643346978261516 0.010089003964412228 0 -0.00056615777807116898 0.010259965183580189 0 -0.00090895904074982982 0.010423923887255765 0 -0.0011643346978261516 0.010089003964412228 0 -0.0013592349805396575 0.010601000015351969 0 -0.0018468927616765191 0.010297555944575622 0 -0.0011643346978261516 0.010089003964412228 0 -0.00056615777807116898 0.010259965183580189 0 -0.0011643346978261516 0.010089003964412228 0 -0.00082809835723677953 0.0099640229748738374 0 -0.0011643346978261516 0.010089003964412228 0 -0.00082809835723677953 0.0099640229748738374 0 -0.0013421380389418848 0.0096197021402995141 0 -0.0011643346978261516 0.010089003964412228 0 -0.0013421380389418848 0.0096197021402995141 0 -0.0017065582178928745 0.0097680341093226465 0 -0.00081051901427318571 0.009758107080952318 0 -0.00082809835723677953 0.0099640229748738374 0 -0.0013421380389418848 0.0096197021402995141 0 -0.0026085510664109433 0.0093637415149009987 0 -0.0017065582178928745 0.0097680341093226465 0 -0.0019986200682998376 0.0094026323813918653 0 -0.0019214858056489212 0.0092098594179620599 0 -0.0013421380389418848 0.0096197021402995141 0 -0.0019986200682998376 0.0094026323813918653 0 -0.0013421380389418848 0.0096197021402995141 0 -0.0017065582178928745 0.0097680341093226465 0 -0.0019986200682998376 0.0094026323813918653 0 -0.0019214858056489212 0.0092098594179620599 0 -0.0019986200682998376 0.0094026323813918653 0 -0.0023365139458099969 0.0092027778668474104 0 -0.0026085510664109433 0.0093637415149009987 0 -0.0019986200682998376 0.0094026323813918653 0 -0.0023365139458099969 0.0092027778668474104 0 -0.0026085510664109433 0.0093637415149009987 0 -0.0023365139458099969 0.0092027778668474104 0 -0.0023810806458648961 0.0090771247962555118 0 -0.0023365139458099969 0.0092027778668474104 0 -0.0024907855017185674 0.0089923336819787199 0 -0.0023810806458648961 0.0090771247962555118 0 -0.0024907855017185674 0.0089923336819787199 0 -0.0023810806458648961 0.0090771247962555118 0 -0.0022414774359205232 0.0087903149073775676 0 -0.0023810806458648961 0.0090771247962555118 0 -0.0021840720536181199 0.0085317754615296115 0 -0.0022414774359205232 0.0087903149073775676 0 -0.0026085510664109433 0.0093637415149009987 0 -0.0023810806458648961 0.0090771247962555118 0 -0.0021840720536181199 0.0085317754615296115 0 -0.0026085510664109433 0.0093637415149009987 0 -0.0021840720536181199 0.0085317754615296115 0 -0.0025873505229533664 0.0077486993359433621 0 -0.0021840720536181199 0.0085317754615296115 0 -0.0019401695665190496 0.0082891186645007147 0 -0.0022414774359205232 0.0087903149073775676 0 -0.0021840720536181199 0.0085317754615296115 0 -0.0016417650712521764 0.0075770685744982382 0 -0.0019401695665190496 0.0082891186645007147 0 -0.0021840720536181199 0.0085317754615296115 0 -0.0016417650712521764 0.0075770685744982382 0 -0.0025873505229533664 0.0077486993359433621 0 -0.0017230050720573264 0.0080450272526475571 0 -0.0018143133290759955 0.0078062698720955505 0 -0.0019401695665190496 0.0082891186645007147 0 -0.0016417650712521764 0.0075770685744982382 0 -0.0018143133290759955 0.0078062698720955505 0 -0.0019401695665190496 0.0082891186645007147 0 -0.0017230050720573264 0.0080450272526475571 0 -0.0019401695665190496 0.0082891186645007147 0 -0.0020168887684326561 0.0085750144647540119 0 -0.0019401695665190496 0.0082891186645007147 0 -0.0021413266481831207 0.0086372366772740627 0 -0.0020168887684326561 0.0085750144647540119 0 -0.0021413266481831207 0.0086372366772740627 0 -0.0023984657988352599 0.0088094362520965697 0 -0.0020168887684326561 0.0085750144647540119 0 -0.0019401695665190496 0.0082891186645007147 0 -0.0021413266481831207 0.0086372366772740627 0 -0.0022414774359205232 0.0087903149073775676 0 -0.0021413266481831207 0.0086372366772740627 0 -0.0022414774359205232 0.0087903149073775676 0 -0.0023984657988352599 0.0088094362520965697 0 -0.0024907855017185674 0.0089923336819787199 0 -0.0022414774359205232 0.0087903149073775676 0 -0.0023984657988352599 0.0088094362520965697 0 -0.0023984657988352599 0.0088094362520965697 0 -0.0024696388693146651 0.0087775098074613714 0 -0.0020168887684326561 0.0085750144647540119 0 -0.007523021015923669 0.008072388709343176 0 -0.0075413408279496504 0.0073100960956826557 0 -0.012786021081400464 0.0073286683163844984 0 -0.013002878832177319 0.0061002090757398836 0 -0.012134439062481978 0.0066827704188869861 0 -0.013002878832177319 0.0061002090757398836 0 -0.012122852596117761 0.006019953771369259 0 -0.012422234930799265 0.0054355156298030744 0 -0.013002878832177319 0.0061002090757398836 0 -0.012122852596117761 0.006019953771369259 0 -0.012134439062481978 0.0066827704188869861 0 -0.012122852596117761 0.006019953771369259 0 -0.012134439062481978 0.0066827704188869861 0 -0.011400167512513234 0.0064266936266775595 0 -0.012134439062481978 0.0066827704188869861 0 -0.011558919264937836 0.0068988174103395633 0 -0.011400167512513234 0.0064266936266775595 0 -0.012786021081400464 0.0073286683163844984 0 -0.012134439062481978 0.0066827704188869861 0 -0.011925631892776078 0.0072949810971742251 0 -0.011558919264937836 0.0068988174103395633 0 -0.011925631892776078 0.0072949810971742251 0 -0.01107372733575716 0.0073518299247805601 0 -0.012134439062481978 0.0066827704188869861 0 -0.011558919264937836 0.0068988174103395633 0 -0.011925631892776078 0.0072949810971742251 0 -0.011558919264937836 0.0068988174103395633 0 -0.01107372733575716 0.0073518299247805601 0 -0.011187779787205487 0.0068839671169137074 0 -0.011187779787205487 0.0068839671169137074 0 -0.010999163121976314 0.0070659939237266278 0 -0.011068833016150741 0.0067092986236514706 0 -0.01107372733575716 0.0073518299247805601 0 -0.011187779787205487 0.0068839671169137074 0 -0.010999163121976314 0.0070659939237266278 0 -0.011187779787205487 0.0068839671169137074 0 -0.011068833016150741 0.0067092986236514706 0 -0.011400167512513234 0.0064266936266775595 0 -0.011558919264937836 0.0068988174103395633 0 -0.011187779787205487 0.0068839671169137074 0 -0.011400167512513234 0.0064266936266775595 0 -0.010925320845182031 0.0068529398247099398 0 -0.011012325015077559 0.006394347152218937 0 -0.011068833016150741 0.0067092986236514706 0 -0.011012325015077559 0.006394347152218937 0 -0.011068833016150741 0.0067092986236514706 0 -0.011400167512513234 0.0064266936266775595 0 -0.010925320845182031 0.0068529398247099398 0 -0.010999163121976314 0.0070659939237266278 0 -0.011068833016150741 0.0067092986236514706 0 -0.011012325015077559 0.006394347152218937 0 -0.011400167512513234 0.0064266936266775595 0 -0.011171561009601974 0.0056979299527083202 0 -0.011012325015077559 0.006394347152218937 0 -0.011171561009601974 0.0056979299527083202 0 -0.010673443387810755 0.0063782321437101906 0 -0.011400167512513234 0.0064266936266775595 0 -0.011708313084482615 0.0055034432063757752 0 -0.011171561009601974 0.0056979299527083202 0 -0.012122852596117761 0.006019953771369259 0 -0.011400167512513234 0.0064266936266775595 0 -0.011708313084482615 0.0055034432063757752 0 -0.011380915581358102 0.005027283479603544 0 -0.011880322830091243 0.0044635426663900022 0 -0.011352676979953538 0.0044451098196584861 0 -0.011708313084482615 0.0055034432063757752 0 -0.011171561009601974 0.0056979299527083202 0 -0.011380915581358102 0.005027283479603544 0 -0.011171561009601974 0.0056979299527083202 0 -0.011380915581358102 0.005027283479603544 0 -0.010864562109963867 0.0053635252329670693 0 -0.011380915581358102 0.005027283479603544 0 -0.010864562109963867 0.0053635252329670693 0 -0.011352676979953538 0.0044451098196584861 0 -0.011708313084482615 0.0055034432063757752 0 -0.011380915581358102 0.005027283479603544 0 -0.011880322830091243 0.0044635426663900022 0 -0.011708313084482615 0.0055034432063757752 0 -0.011880322830091243 0.0044635426663900022 0 -0.012422234930799265 0.0054355156298030744 0 -0.013377775152142894 0.0049759918005876326 0 -0.011880322830091243 0.0044635426663900022 0 -0.012422234930799265 0.0054355156298030744 0 -0.013377775152142894 0.0049759918005876326 0 -0.011880322830091243 0.0044635426663900022 0 -0.012693964197783415 0.0035238462667177089 0 -0.0075375832210571843 0.0064302908278390733 0 -0.0075413408279496504 0.0073100960956826557 0 -0.013377775152142894 0.0049759918005876326 0 -0.013002878832177319 0.0061002090757398836 0 -0.012422234930799265 0.0054355156298030744 0 -0.012122852596117761 0.006019953771369259 0 -0.011708313084482615 0.0055034432063757752 0 -0.012422234930799265 0.0054355156298030744 0 -0.00963931364613216 0.0065195328846755201 0 -0.0098011061473715355 0.0058408309028803616 0 -0.010126992672054861 0.0064639693009079721 0 -0.0097669271240569521 0.0058031015807280487 0 -0.010094405455128108 0.0064559952532555901 0 -0.0097296301790183466 0.0057620545824312204 0 -0.010057647657298094 0.0064523215461204427 0 -0.010369107240224901 0.0056189394068861271 0 -0.010673443387810755 0.0063782321437101906 0 -0.010864562109963867 0.0053635252329670693 0 -0.010369107240224901 0.0056189394068861271 0 -0.010057647657298094 0.0064523215461204427 0 -0.010673443387810755 0.0063782321437101906 0 -0.010369107240224901 0.0056189394068861271 0 -0.010925320845182031 0.0068529398247099398 0 -0.011012325015077559 0.006394347152218937 0 -0.010673443387810755 0.0063782321437101906 0 -0.011171561009601974 0.0056979299527083202 0 -0.010673443387810755 0.0063782321437101906 0 -0.010864562109963867 0.0053635252329670693 0 -0.010864562109963867 0.0053635252329670693 0 -0.010710760500108142 0.0047860883708332668 0 -0.011352676979953538 0.0044451098196584861 0 -0.010864562109963867 0.0053635252329670693 0 -0.010710760500108142 0.0047860883708332668 0 -0.010369107240224901 0.0056189394068861271 0 -0.0097912281632088309 0.0048405698829036385 0 -0.0097296301790183466 0.0057620545824312204 0 -0.010238905305297369 0.0049060662778016356 0 -0.0097296301790183466 0.0057620545824312204 0 -0.010369107240224901 0.0056189394068861271 0 -0.010238905305297369 0.0049060662778016356 0 -0.010710760500108142 0.0047860883708332668 0 -0.010369107240224901 0.0056189394068861271 0 -0.010238905305297369 0.0049060662778016356 0 -0.0097912281632088309 0.0048405698829036385 0 -0.010238905305297369 0.0049060662778016356 0 -0.010080584946020666 0.0044205407920568738 0 -0.010256696613231083 0.0039126397666793006 0 -0.010080584946020666 0.0044205407920568738 0 -0.010488815161706444 0.004286746235912053 0 -0.0097334211853467092 0.004243423894322273 0 -0.010256696613231083 0.0039126397666793006 0 -0.010080584946020666 0.0044205407920568738 0 -0.010238905305297369 0.0049060662778016356 0 -0.010080584946020666 0.0044205407920568738 0 -0.010488815161706444 0.004286746235912053 0 -0.010710760500108142 0.0047860883708332668 0 -0.010238905305297369 0.0049060662778016356 0 -0.010488815161706444 0.004286746235912053 0 -0.010488815161706444 0.004286746235912053 0 -0.010981352344705568 0.0040806398014778967 0 -0.010689975564060429 0.0035105371444586466 0 -0.010256696613231083 0.0039126397666793006 0 -0.010488815161706444 0.004286746235912053 0 -0.010689975564060429 0.0035105371444586466 0 -0.010710760500108142 0.0047860883708332668 0 -0.010488815161706444 0.004286746235912053 0 -0.010981352344705568 0.0040806398014778967 0 -0.010710760500108142 0.0047860883708332668 0 -0.010981352344705568 0.0040806398014778967 0 -0.011352676979953538 0.0044451098196584861 0 -0.010981352344705568 0.0040806398014778967 0 -0.011421549142900257 0.0038870691557046783 0 -0.011352676979953538 0.0044451098196584861 0 -0.010981352344705568 0.0040806398014778967 0 -0.011421549142900257 0.0038870691557046783 0 -0.01115690263302933 0.0034244268730818607 0 -0.011421549142900257 0.0038870691557046783 0 -0.01115690263302933 0.0034244268730818607 0 -0.011688573008669857 0.0033373998206161362 0 -0.01115690263302933 0.0034244268730818607 0 -0.011688573008669857 0.0033373998206161362 0 -0.011601077336941547 0.0024569840525830106 0 -0.010641682909174471 0.0019474125325093727 0 -0.010462437099712122 0.00076794473181951363 0 -0.01115690263302933 0.0034244268730818607 0 -0.010823262712112003 0.0028441622639601366 0 -0.011601077336941547 0.0024569840525830106 0 -0.010981352344705568 0.0040806398014778967 0 -0.01115690263302933 0.0034244268730818607 0 -0.010689975564060429 0.0035105371444586466 0 -0.01115690263302933 0.0034244268730818607 0 -0.010689975564060429 0.0035105371444586466 0 -0.010823262712112003 0.0028441622639601366 0 -0.01017160669428686 0.0031794869340162069 0 -0.010689975564060429 0.0035105371444586466 0 -0.010823262712112003 0.0028441622639601366 0 -0.01017160669428686 0.0031794869340162069 0 -0.010361136334455902 0.0018288317521203308 0 -0.010823262712112003 0.0028441622639601366 0 -0.01017160669428686 0.0031794869340162069 0 -0.010256696613231083 0.0039126397666793006 0 -0.010689975564060429 0.0035105371444586466 0 -0.012693964197783415 0.0035238462667177089 0 -0.010533544466325082 0.0025366501007883877 0 -0.012599361009622761 0.0019342387590025949 0 -0.013863599867225405 0.0033905665272433274 0 -0.01419143916693053 0.0014780745761277193 0 -0.012599361009622761 0.0019342387590025949 0 -0.013863599867225405 0.0033905665272433274 0 -0.012693964197783415 0.0035238462667177089 0 -0.012599361009622761 0.0019342387590025949 0 -0.013863599867225405 0.0033905665272433274 0 -0.013377775152142894 0.0049759918005876326 0 -0.012693964197783415 0.0035238462667177089 0 -0.011880322830091243 0.0044635426663900022 0 -0.012693964197783415 0.0035238462667177089 0 -0.010533544466325082 0.0025366501007883877 0 -0.011840955760590841 0.0044008430789759393 0 -0.011164965145134294 0.0032897737965987247 0 -0.011880322830091243 0.0044635426663900022 0 -0.011352676979953538 0.0044451098196584861 0 -0.011753933267979595 0.0040510286914467028 0 -0.011421549142900257 0.0038870691557046783 0 -0.011352676979953538 0.0044451098196584861 0 -0.011753933267979595 0.0040510286914467028 0 -0.010533544466325082 0.0025366501007883877 0 -0.011089481042396871 0.00080748244670818996 0 -0.0095679102705606926 0.00056141889947248385 0 -0.010533544466325082 0.0025366501007883877 0 -0.011089481042396871 0.00080748244670818996 0 -0.012599361009622761 0.0019342387590025949 0 -0.011421549142900257 0.0038870691557046783 0 -0.011753933267979595 0.0040510286914467028 0 -0.011688573008669857 0.0033373998206161362 0 -0.011164965145134294 0.0032897737965987247 0 -0.010641682909174471 0.0019474125325093727 0 -0.011089481042396871 0.00080748244670818996 0 -0.0095679102705606926 0.00056141889947248385 0 -0.01026066861740091 -0.00074388586076046552 0 -0.0095679102705606926 0.00056141889947248385 0 -0.01026066861740091 -0.00074388586076046552 0 -0.0092969216266000406 -0.00095369264364699412 0 -0.011089481042396871 0.00080748244670818996 0 -0.011602954358002068 -0.00045078151669822092 0 -0.01026066861740091 -0.00074388586076046552 0 -0.011089481042396871 0.00080748244670818996 0 -0.013087241853309508 -0.00015438761324156072 0 -0.011602954358002068 -0.00045078151669822092 0 -0.011089481042396871 0.00080748244670818996 0 -0.012599361009622761 0.0019342387590025949 0 -0.013087241853309508 -0.00015438761324156072 0 -0.01419143916693053 0.0014780745761277193 0 -0.012599361009622761 0.0019342387590025949 0 -0.013087241853309508 -0.00015438761324156072 0 -0.0068722673766040097 -0.00015492174362202618 0 -0.0068804016615450171 0.00046272877003908185 0 -0.0065771663941905515 0.00020472628784562219 0 -0.010587111610987274 -0.00036891933132145345 0 -0.010329642461123015 -0.00067685990333883758 0 -0.0064906864730629584 -0.00014103644682281682 0 -0.0068722673766040097 -0.00015492174362202618 0 -0.0065771663941905515 0.00020472628784562219 0 -0.0068722673766040097 -0.00015492174362202618 0 -0.0068804016615450171 0.00046272877003908185 0 -0.0075312539917504482 0.00063374202522861766 0 -0.0068804016615450171 0.00046272877003908185 0 -0.0065771663941905515 0.00020472628784562219 0 -0.006407489749791561 0.00071028454037307934 0 -0.0068804016615450171 0.00046272877003908185 0 -0.0070096937509460354 0.00094721597933450472 0 -0.0075312539917504482 0.00063374202522861766 0 -0.0068804016615450171 0.00046272877003908185 0 -0.0070096937509460354 0.00094721597933450472 0 -0.006407489749791561 0.00071028454037307934 0 -0.0070096937509460354 0.00094721597933450472 0 -0.0064888679380376525 0.0012635999129635242 0 -0.006407489749791561 0.00071028454037307934 0 -0.0087054451518006493 -0.00019026983283852467 0 -0.0080502663625529134 -0.0013828271302688227 0 -0.010578649059194005 -0.0013785587924894545 0 -0.010686014568581663 -0.0012269870857797508 0 -0.010265692884100709 -0.0013473638826873872 0 -0.010789158838142543 -0.001461734507140875 0 -0.010578649059194005 -0.0013785587924894545 0 -0.010648744640626 -0.0016247348837025719 0 -0.010789158838142543 -0.001461734507140875 0 -0.010578649059194005 -0.0013785587924894545 0 -0.010626452993212644 -0.0013142463161519141 0 -0.010578649059194005 -0.0013785587924894545 0 -0.010265692884100709 -0.0013473638826873872 0 -0.010648744640626 -0.0016247348837025719 0 -0.0087054451518006493 -0.00019026983283852467 0 -0.010329642461123015 -0.00067685990333883758 0 -0.010320940591474646 -0.0010568614601874017 0 -0.010329642461123015 -0.00067685990333883758 0 -0.013087241853309508 -0.00015438761324156072 0 -0.011962680760054812 -0.001735103106983622 0 -0.011602954358002068 -0.00045078151669822092 0 -0.010329642461123015 -0.00067685990333883758 0 -0.010736539520509894 -0.0010968530228898413 0 -0.011962680760054812 -0.001735103106983622 0 -0.011602954358002068 -0.00045078151669822092 0 -0.01026066861740091 -0.00074388586076046552 0 -0.01026066861740091 -0.00074388586076046552 0 -0.0092969216266000406 -0.00095369264364699412 0 -0.0096663460854211798 -0.0014497048829238679 0 -0.010265692884100709 -0.0013473638826873872 0 -0.0097422441908927692 -0.0017962382303039594 0 -0.0096663460854211798 -0.0014497048829238679 0 -0.01026066861740091 -0.00074388586076046552 0 -0.010265692884100709 -0.0013473638826873872 0 -0.0096663460854211798 -0.0014497048829238679 0 -0.010686014568581663 -0.0012269870857797508 0 -0.01026066861740091 -0.00074388586076046552 0 -0.010265692884100709 -0.0013473638826873872 0 -0.0095962997858207114 -0.0018081996052086065 0 -0.010010554268061024 -0.0020129217645563514 0 -0.010265692884100709 -0.0013473638826873872 0 -0.0097422441908927692 -0.0017962382303039594 0 -0.010648744640626 -0.0016247348837025719 0 -0.0097422441908927692 -0.0017962382303039594 0 -0.00879974568043837 -0.0018317195556710984 0 -0.008844847196813178 -0.0022655061017169873 0 -0.0097422441908927692 -0.0017962382303039594 0 -0.0092617983609892332 -0.0015706745601812143 0 -0.0097095090009112033 -0.0013916847981014834 0 -0.0097422441908927692 -0.0017962382303039594 0 -0.0092617983609892332 -0.0015706745601812143 0 -0.00879974568043837 -0.0018317195556710984 0 -0.00879974568043837 -0.0018317195556710984 0 -0.0082919039888107657 -0.0017825633808432773 0 -0.008597964144203175 -0.0015398080802725381 0 -0.0092617983609892332 -0.0015706745601812143 0 -0.00879974568043837 -0.0018317195556710984 0 -0.008597964144203175 -0.0015398080802725381 0 -0.00879974568043837 -0.0018317195556710984 0 -0.0083039681462202999 -0.0019755803089776609 0 -0.0085422467504742694 -0.0020852356815185035 0 -0.0082601098833887301 -0.0019320311085759716 0 -0.0077244423022247728 -0.0014811070460859748 0 -0.0082919039888107657 -0.0017825633808432773 0 -0.0083039681462202999 -0.0019755803089776609 0 -0.0079871975651224711 -0.001753578784641222 0 -0.00879974568043837 -0.0018317195556710984 0 -0.0082919039888107657 -0.0017825633808432773 0 -0.0083039681462202999 -0.0019755803089776609 0 -0.010789158838142543 -0.001461734507140875 0 -0.010648744640626 -0.0016247348837025719 0 -0.010894249859165974 -0.0015182392499707277 0 -0.0083039681462202999 -0.0019755803089776609 0 -0.0085422467504742694 -0.0020852356815185035 0 -0.0077531932411560008 -0.0025378950087907473 0 -0.010010554268061024 -0.0020129217645563514 0 -0.0080502663625529134 -0.0013828271302688227 0 -0.008844847196813178 -0.0022655061017169873 0 -0.0085422467504742694 -0.0020852356815185035 0 -0.0077531932411560008 -0.0025378950087907473 0 -0.00879974568043837 -0.0018317195556710984 0 -0.008844847196813178 -0.0022655061017169873 0 -0.0085422467504742694 -0.0020852356815185035 0 -0.010361136334455902 0.0018288317521203308 0 -0.01092077626959528 0.0014208752177488169 0 -0.011046177334969992 0.0020316846143594836 0 -0.010361136334455902 0.0018288317521203308 0 -0.010614871127388473 0.0010596638006260936 0 -0.01092077626959528 0.0014208752177488169 0 -0.010361136334455902 0.0018288317521203308 0 -0.010823262712112003 0.0028441622639601366 0 -0.011046177334969992 0.0020316846143594836 0 -0.010823262712112003 0.0028441622639601366 0 -0.011046177334969992 0.0020316846143594836 0 -0.011601077336941547 0.0024569840525830106 0 -0.01092077626959528 0.0014208752177488169 0 -0.011046177334969992 0.0020316846143594836 0 -0.011423413643798928 0.0014697990786589968 0 -0.011046177334969992 0.0020316846143594836 0 -0.011601077336941547 0.0024569840525830106 0 -0.011423413643798928 0.0014697990786589968 0 -0.010462437099712122 0.00076794473181951363 0 -0.01056966824369703 -3.6815940537700083e-05 0 -0.0092969216266000406 -0.00095369264364699412 0 -0.0096663460854211798 -0.0014497048829238679 0 -0.0097127514106894117 -0.0015857709462037478 0 -0.0097422441908927692 -0.0017962382303039594 0 -0.0096663460854211798 -0.0014497048829238679 0 -0.0097481107534836339 -0.0015973737558650156 0 -0.0096663460854211798 -0.0014497048829238679 0 -0.0097481107534836339 -0.0015973737558650156 0 -0.0097127514106894117 -0.0015857709462037478 0 -0.0097422441908927692 -0.0017962382303039594 0 -0.0097481107534836339 -0.0015973737558650156 0 -0.0097095090009112033 -0.0013916847981014834 0 -0.0097481107534836339 -0.0015973737558650156 0 -0.009967500740190963 -0.0014197992810141397 0 -0.0097095090009112033 -0.0013916847981014834 0 -0.0097481107534836339 -0.0015973737558650156 0 -0.009967500740190963 -0.0014197992810141397 0 -0.0097127514106894117 -0.0015857709462037478 0 -0.01056966824369703 -3.6815940537700083e-05 0 -0.010789936572489608 -0.00040245209912838533 0 -0.01092077626959528 0.0014208752177488169 0 -0.011423413643798928 0.0014697990786589968 0 -0.011247283865528626 0.00059464685942371026 0 -0.009967500740190963 -0.0014197992810141397 0 -0.0097127514106894117 -0.0015857709462037478 0 -0.010365631285316606 -0.001408670661598433 0 -0.010614871127388473 0.0010596638006260936 0 -0.01092077626959528 0.0014208752177488169 0 -0.011247283865528626 0.00059464685942371026 0 -0.010921518450797245 -0.00058863034712783161 0 -0.010918788005213988 -0.0004864566850054898 0 -0.010610572785135164 -0.00074063940055091565 0 -0.010918788005213988 -0.0004864566850054898 0 -0.010290592674101161 -0.00096621391572559426 0 -0.010610572785135164 -0.00074063940055091565 0 -0.010701676976713643 0.00034519830356096175 0 -0.011247283865528626 0.00059464685942371026 0 -0.010918788005213988 -0.0004864566850054898 0 -0.010365631285316606 -0.001408670661598433 0 -0.010918788005213988 -0.0004864566850054898 0 -0.010290592674101161 -0.00096621391572559426 0 -0.010789936572489608 -0.00040245209912838533 0 -0.010891815316709711 -0.0004956898885742218 0 -0.009967500740190963 -0.0014197992810141397 0 -0.010365631285316606 -0.001408670661598433 0 -0.010290592674101161 -0.00096621391572559426 0 -0.010290592674101161 -0.00096621391572559426 0 -0.010010918872976364 -0.0010582574765444744 0 -0.010610572785135164 -0.00074063940055091565 0 -0.010290592674101161 -0.00096621391572559426 0 -0.0097095090009112033 -0.0013916847981014834 0 -0.010010918872976364 -0.0010582574765444744 0 -0.009967500740190963 -0.0014197992810141397 0 -0.010290592674101161 -0.00096621391572559426 0 -0.0097095090009112033 -0.0013916847981014834 0 -0.0097095090009112033 -0.0013916847981014834 0 -0.010010918872976364 -0.0010582574765444744 0 -0.0093998448670758183 -0.00095635937104551337 0 -0.0099505585586878581 -0.0010979629387482769 0 -0.0093005815867570063 -0.0012992418669945899 0 -0.010010918872976364 -0.0010582574765444744 0 -0.009962914720649016 -0.00085909059140702986 0 -0.0095299742774738027 -0.0010132931587697287 0 -0.009962914720649016 -0.00085909059140702986 0 -0.0095299742774738027 -0.0010132931587697287 0 -0.0099333628080920874 -0.00058309664835284501 0 -0.010010918872976364 -0.0010582574765444744 0 -0.009962914720649016 -0.00085909059140702986 0 -0.010349678042902717 -0.00071086664309429558 0 -0.009962914720649016 -0.00085909059140702986 0 -0.010349678042902717 -0.00071086664309429558 0 -0.0099333628080920874 -0.00058309664835284501 0 -0.010010918872976364 -0.0010582574765444744 0 -0.010349678042902717 -0.00071086664309429558 0 -0.010610572785135164 -0.00074063940055091565 0 -0.010349678042902717 -0.00071086664309429558 0 -0.010610572785135164 -0.00074063940055091565 0 -0.010677296734409467 -0.00064334103368494163 0 -0.010913001783056342 -0.00065008688569817899 0 -0.010677296734409467 -0.00064334103368494163 0 -0.010951047547308256 -0.00058390281646028932 0 -0.010913001783056342 -0.00065008688569817899 0 -0.010610572785135164 -0.00074063940055091565 0 -0.010677296734409467 -0.00064334103368494163 0 -0.010921518450797245 -0.00058863034712783161 0 -0.010913001783056342 -0.00065008688569817899 0 -0.010610572785135164 -0.00074063940055091565 0 -0.008597964144203175 -0.0015398080802725381 0 -0.0091359829466705431 -0.0012924292159142657 0 -0.0085648737485802592 -0.0010100722669530873 0 -0.0080906065395233342 -0.0015027029739368876 0 -0.0085648737485802592 -0.0010100722669530873 0 -0.0075915302061398647 -0.0015970710012952857 0 -0.0080906065395233342 -0.0015027029739368876 0 -0.008597964144203175 -0.0015398080802725381 0 -0.0085648737485802592 -0.0010100722669530873 0 -0.008189273774400237 -0.0017634599337593888 0 -0.0080204563696052913 -0.0017307907069205354 0 -0.0080906065395233342 -0.0015027029739368876 0 -0.0081089283421841869 -0.0016693124797332504 0 -0.008597964144203175 -0.0015398080802725381 0 -0.0082919039888107657 -0.0017825633808432773 0 -0.0081089283421841869 -0.0016693124797332504 0 -0.008597964144203175 -0.0015398080802725381 0 -0.0082919039888107657 -0.0017825633808432773 0 -0.0081089283421841869 -0.0016693124797332504 0 -0.0078339944576736112 -0.001759085371096225 0 -0.0080906065395233342 -0.0015027029739368876 0 -0.0081089283421841869 -0.0016693124797332504 0 -0.0079370087055260774 -0.001632229838183827 0 -0.0092617983609892332 -0.0015706745601812143 0 -0.008597964144203175 -0.0015398080802725381 0 -0.0091359829466705431 -0.0012924292159142657 0 -0.0092617983609892332 -0.0015706745601812143 0 -0.0097095090009112033 -0.0013916847981014834 0 -0.0091359829466705431 -0.0012924292159142657 0 -0.0097095090009112033 -0.0013916847981014834 0 -0.0091359829466705431 -0.0012924292159142657 0 -0.0093998448670758183 -0.00095635937104551337 0 -0.0091359829466705431 -0.0012924292159142657 0 -0.0093998448670758183 -0.00095635937104551337 0 -0.0085648737485802592 -0.0010100722669530873 0 -0.0093005815867570063 -0.0012992418669945899 0 -0.0083540969251305781 -0.0014891391682753821 0 -0.0092521167869108085 -0.0016625440081469477 0 -0.0088318017260628646 -0.0011055275145479793 0 -0.0083330648762557722 -0.0015010590116325319 0 -0.010010918872976364 -0.0010582574765444744 0 -0.0092521167869108085 -0.0016625440081469477 0 -0.0095299742774738027 -0.0010132931587697287 0 -0.0095299742774738027 -0.0010132931587697287 0 -0.0088318017260628646 -0.0011055275145479793 0 -0.0092940601810730938 -0.00059530900830972349 0 -0.0092521167869108085 -0.0016625440081469477 0 -0.0095299742774738027 -0.0010132931587697287 0 -0.0088318017260628646 -0.0011055275145479793 0 -0.0088318017260628646 -0.0011055275145479793 0 -0.0083330648762557722 -0.0015010590116325319 0 -0.0079869792242602995 -0.0012182148732706856 0 -0.0083330648762557722 -0.0015010590116325319 0 -0.0081159730765793508 -0.0019727239656676509 0 -0.0077727592476191931 -0.0017441090795444285 0 -0.0092521167869108085 -0.0016625440081469477 0 -0.0083330648762557722 -0.0015010590116325319 0 -0.0081159730765793508 -0.0019727239656676509 0 -0.0083540969251305781 -0.0014891391682753821 0 -0.0076753419757994382 -0.0015823030803647394 0 -0.0081159730765793508 -0.0019727239656676509 0 -0.0077727592476191931 -0.0017441090795444285 0 -0.0075915302061398647 -0.0015970710012952857 0 -0.0077727592476191931 -0.0017441090795444285 0 -0.0079869792242602995 -0.0012182148732706856 0 -0.0073172407902715548 -0.001937603799701865 0 -0.0083330648762557722 -0.0015010590116325319 0 -0.0077727592476191931 -0.0017441090795444285 0 -0.0079869792242602995 -0.0012182148732706856 0 -0.0079869792242602995 -0.0012182148732706856 0 -0.0073172407902715548 -0.001937603799701865 0 -0.0070116968505120085 -0.00085740039237339931 0 -0.0071979373665333564 -0.0020269499062850081 0 -0.0065327857345915475 -0.0022518324870563779 0 -0.0073172407902715548 -0.001937603799701865 0 -0.0055997261026793244 -0.0028343024225550373 0 -0.0058001344103536245 -0.0015455991532414095 0 -0.0073172407902715548 -0.001937603799701865 0 -0.0076102407123695599 -0.0017130034033117276 0 -0.0075718092522653255 -0.0016803476516804121 0 -0.0076102407123695599 -0.0017130034033117276 0 -0.0075718092522653255 -0.0016803476516804121 0 -0.007578863089117263 -0.0016728463407981789 0 -0.0075718092522653255 -0.0016803476516804121 0 -0.007578863089117263 -0.0016728463407981789 0 -0.0075954073572953975 -0.0016383282080185732 0 -0.0075718092522653255 -0.0016803476516804121 0 -0.0075915302061398647 -0.0015970710012952857 0 -0.0075954073572953975 -0.0016383282080185732 0 -0.0077727592476191931 -0.0017441090795444285 0 -0.0073172407902715548 -0.001937603799701865 0 -0.0075915302061398647 -0.0015970710012952857 0 -0.0073172407902715548 -0.001937603799701865 0 -0.0075718092522653255 -0.0016803476516804121 0 -0.0075915302061398647 -0.0015970710012952857 0 -0.0057072956989993326 -0.0025437357161685555 0 -0.0040239305952112373 -0.0013969796016074767 0 -0.0037977854311939782 -0.0033888816360165279 0 -0.0028153696409471607 -0.0029613983693714107 0 -0.0041890993377961218 -0.0017843239260689214 0 -0.0037977854311939782 -0.0033888816360165279 0 -0.0028153696409471607 -0.0029613983693714107 0 -0.001890030709224525 -0.0036765703246565695 0 -0.0065327857345915475 -0.0022518324870563779 0 -0.0057072956989993326 -0.0025437357161685555 0 -0.0055997261026793244 -0.0028343024225550373 0 -0.0041890993377961218 -0.0017843239260689214 0 -0.0058001344103536245 -0.0015455991532414095 0 -0.0055997261026793244 -0.0028343024225550373 0 -0.0037977854311939782 -0.0033888816360165279 0 -0.0041890993377961218 -0.0017843239260689214 0 -0.0074739011105839932 -0.001592140557427983 0 -0.007578863089117263 -0.0016728463407981789 0 -0.0075125571593605677 -0.0016988609439715699 0 -0.0076102407123695599 -0.0017130034033117276 0 -0.0074739011105839932 -0.001592140557427983 0 -0.007578863089117263 -0.0016728463407981789 0 -0.0074739011105839932 -0.001592140557427983 0 -0.0075125571593605677 -0.0016988609439715699 0 -0.007259149016547924 -0.0015924002879888946 0 -0.0067108247127025443 -0.00052963102847603622 0 -0.0040239305952112373 -0.0013969796016074767 0 -0.0053508715246780945 0.00037363967080190588 0 -0.0042139846875931704 0.00041389693236000563 0 -0.0039839336919274999 0.0014024942127816541 0 -0.0053247276290871092 -9.8025500087777938e-06 0 -0.004338253235303788 -0.00032559585829406524 0 -0.0042139846875931704 0.00041389693236000563 0 -0.0054798853812606484 -0.00018943525946460508 0 -0.0053508715246780945 0.00037363967080190588 0 -0.0042139846875931704 0.00041389693236000563 0 -0.0052916508056377147 -2.3915254553959997e-05 0 -0.0043470815777353136 0.00035407266971820676 0 -0.0067108247127025443 -0.00052963102847603622 0 -0.0070831946883604191 -0.0010990060746576336 0 -0.0054798853812606484 -0.00018943525946460508 0 -0.0053508715246780945 0.00037363967080190588 0 -0.0068364443359165234 -0.00078827374977171415 0 -0.0075125571593605677 -0.0016988609439715699 0 -0.0075745397376599678 -0.0016661591569019612 0 -0.0076130833256850567 -0.0016778527279912314 0 -0.007578863089117263 -0.0016728463407981789 0 -0.0075125571593605677 -0.0016988609439715699 0 -0.0075745397376599678 -0.0016661591569019612 0 -0.0053247276290871092 -9.8025500087777938e-06 0 -0.0055951550551814515 -0.00087684328442173658 0 -0.0065269001374279566 -0.00048286966916521714 0 -0.0053247276290871092 -9.8025500087777938e-06 0 -0.0055951550551814515 -0.00087684328442173658 0 -0.0049445323148772551 -0.0005751824957337411 0 -0.0052916508056377147 -2.3915254553959997e-05 0 -0.0070831946883604191 -0.0010990060746576336 0 -0.0055951550551814515 -0.00087684328442173658 0 -0.0049445323148772551 -0.0005751824957337411 0 -0.0045373211256719203 -0.0010904793082058125 0 -0.0053247276290871092 -9.8025500087777938e-06 0 -0.0049445323148772551 -0.0005751824957337411 0 -0.004338253235303788 -0.00032559585829406524 0 -0.0049445323148772551 -0.0005751824957337411 0 -0.0045373211256719203 -0.0010904793082058125 0 -0.004338253235303788 -0.00032559585829406524 0 -0.0080906065395233342 -0.0015027029739368876 0 -0.0077218754266757646 -0.0016078176747254312 0 -0.0075915302061398647 -0.0015970710012952857 0 -0.0077218754266757646 -0.0016078176747254312 0 -0.0075915302061398647 -0.0015970710012952857 0 -0.0075954073572953975 -0.0016383282080185732 0 -0.0077218754266757646 -0.0016078176747254312 0 -0.0075954073572953975 -0.0016383282080185732 0 -0.0076130833256850567 -0.0016778527279912314 0 -0.0075745397376599678 -0.0016661591569019612 0 -0.0075954073572953975 -0.0016383282080185732 0 -0.0076130833256850567 -0.0016778527279912314 0 -0.007578863089117263 -0.0016728463407981789 0 -0.0075745397376599678 -0.0016661591569019612 0 -0.0075954073572953975 -0.0016383282080185732 0 -0.0070831946883604191 -0.0010990060746576336 0 -0.0080204563696052913 -0.0017307907069205354 0 -0.0065269001374279566 -0.00048286966916521714 0 -0.0074884305489544209 -0.0012275658319893799 0 -0.0067145909238424083 -0.001358646326718717 0 -0.0055951550551814515 -0.00087684328442173658 0 -0.0065269001374279566 -0.00048286966916521714 0 -0.0061957534547193022 -0.0010859495086013762 0 -0.0070831946883604191 -0.0010990060746576336 0 -0.0077244423022247728 -0.0014811070460859748 0 -0.0065269001374279566 -0.00048286966916521714 0 -0.0061957534547193022 -0.0010859495086013762 0 -0.0067145909238424083 -0.001358646326718717 0 -0.0077218754266757646 -0.0016078176747254312 0 -0.0076130833256850567 -0.0016778527279912314 0 -0.0078339944576736112 -0.001759085371096225 0 -0.0075862289659142908 -0.0014529124542071936 0 -0.0079764278704773355 -0.0016214116046858033 0 -0.0079871975651224711 -0.001753578784641222 0 -0.0077218754266757646 -0.0016078176747254312 0 -0.0078339944576736112 -0.001759085371096225 0 -0.0079370087055260774 -0.001632229838183827 0 -0.0080906065395233342 -0.0015027029739368876 0 -0.0077218754266757646 -0.0016078176747254312 0 -0.0079370087055260774 -0.001632229838183827 0 -0.0081089283421841869 -0.0016693124797332504 0 -0.0078339944576736112 -0.001759085371096225 0 -0.0079370087055260774 -0.001632229838183827 0 -0.0082919039888107657 -0.0017825633808432773 0 -0.0079764278704773355 -0.0016214116046858033 0 -0.0079871975651224711 -0.001753578784641222 0 -0.0083039681462202999 -0.0019755803089776609 0 -0.0074884305489544209 -0.0012275658319893799 0 -0.0075756607252880585 -0.0019156186939420926 0 -0.0074884305489544209 -0.0012275658319893799 0 -0.0071649757067259118 -0.001661923468697542 0 -0.0067145909238424083 -0.001358646326718717 0 -0.0074884305489544209 -0.0012275658319893799 0 -0.0071649757067259118 -0.001661923468697542 0 -0.0075756607252880585 -0.0019156186939420926 0 -0.0071649757067259118 -0.001661923468697542 0 -0.0075756607252880585 -0.0019156186939420926 0 -0.0068743029989218165 -0.0021418056162558459 0 -0.0080502663625529134 -0.0013828271302688227 0 -0.005622469849498689 -0.00063538007986313309 0 -0.0083039681462202999 -0.0019755803089776609 0 -0.0075756607252880585 -0.0019156186939420926 0 -0.0077531932411560008 -0.0025378950087907473 0 -0.0080502663625529134 -0.0013828271302688227 0 -0.0068264076733185151 -0.0021227988029267424 0 -0.0075756607252880585 -0.0019156186939420926 0 -0.0077531932411560008 -0.0025378950087907473 0 -0.0068743029989218165 -0.0021418056162558459 0 -0.0067479805522747682 -0.0020885120725634186 0 -0.0059559413023425288 -0.001628004113936344 0 -0.0056773694338042649 -0.0022621348157333531 0 -0.0075452240819123377 -0.0025435517041747751 0 -0.0062586310175139458 -0.0026373563620805474 0 -0.0067479805522747682 -0.0020885120725634186 0 -0.0062586310175139458 -0.0026373563620805474 0 -0.0067479805522747682 -0.0020885120725634186 0 -0.0056773694338042649 -0.0022621348157333531 0 -0.0068264076733185151 -0.0021227988029267424 0 -0.0060439127360289698 -0.0016736219945447525 0 -0.0068743029989218165 -0.0021418056162558459 0 -0.0067145909238424083 -0.001358646326718717 0 -0.0059559413023425288 -0.001628004113936344 0 -0.0071649757067259118 -0.001661923468697542 0 -0.0068743029989218165 -0.0021418056162558459 0 -0.0067145909238424083 -0.001358646326718717 0 -0.0061957534547193022 -0.0010859495086013762 0 -0.0067145909238424083 -0.001358646326718717 0 -0.0059559413023425288 -0.001628004113936344 0 -0.0055951550551814515 -0.00087684328442173658 0 -0.0059559413023425288 -0.001628004113936344 0 -0.0050903940335305835 -0.0018592340317911587 0 -0.0055951550551814515 -0.00087684328442173658 0 -0.0061957534547193022 -0.0010859495086013762 0 -0.0059559413023425288 -0.001628004113936344 0 -0.0059559413023425288 -0.001628004113936344 0 -0.0050903940335305835 -0.0018592340317911587 0 -0.0056773694338042649 -0.0022621348157333531 0 -0.0055951550551814515 -0.00087684328442173658 0 -0.0050903940335305835 -0.0018592340317911587 0 -0.0045373211256719203 -0.0010904793082058125 0 -0.0050903940335305835 -0.0018592340317911587 0 -0.0045373211256719203 -0.0010904793082058125 0 -0.0042387265251005758 -0.0020281036557366753 0 -0.0050903940335305835 -0.0018592340317911587 0 -0.0049383451054207106 -0.0027371814252152918 0 -0.0042387265251005758 -0.0020281036557366753 0 -0.005622469849498689 -0.00063538007986313309 0 -0.0047846054856924411 -0.00086232973319207954 0 -0.0062586310175139458 -0.0026373563620805474 0 -0.0049383451054207106 -0.0027371814252152918 0 -0.0056773694338042649 -0.0022621348157333531 0 -0.0050903940335305835 -0.0018592340317911587 0 -0.0049383451054207106 -0.0027371814252152918 0 -0.0056773694338042649 -0.0022621348157333531 0 -0.0054558931464694432 0.001222659633306057 0 -0.004388669331722956 0.0011505393451553263 0 -0.0049798331687757966 0.00080972269897515588 0 -0.0049798331687757966 0.00080972269897515588 0 -0.0042575855829968881 0.00067137628898021021 0 -0.005187186085720631 0.00028792449657200341 0 -0.0030160423422693834 0.00043777671825641861 0 -0.0027361630329733873 0.00033480820366656378 0 -0.004388669331722956 0.0011505393451553263 0 -0.0042575855829968881 0.00067137628898021021 0 -0.0033233237703991243 0.0010636495357085269 0 -0.004388669331722956 0.0011505393451553263 0 -0.0049798331687757966 0.00080972269897515588 0 -0.0042575855829968881 0.00067137628898021021 0 -0.0018059258842776649 0.0012054967009736805 0 -0.0019373246790797955 -4.6586739683111749e-05 0 -0.00051810809654691476 0.00035795242378687585 0 -0.0018059258842776649 0.0012054967009736805 0 -0.0019373246790797955 -4.6586739683111749e-05 0 -0.0023274358666440413 0.0004503220454128451 0 -0.0027361630329733873 0.00033480820366656378 0 -0.0030906505589467091 0.00060137132894405728 0 -0.005187186085720631 0.00028792449657200341 0 -0.0061120463892473586 -9.1038714246756389e-05 0 -0.0060661414442878181 0.00026267340512629644 0 -0.005187186085720631 0.00028792449657200341 0 -0.0060661414442878181 0.00026267340512629644 0 -0.0058312913704609342 0.00077621059064221401 0 -0.00021325006432267423 0.0020001194591143709 0 -0.00051810809654691476 0.00035795242378687585 0 0.0012799845984621302 0.0010413075002676168 0 -0.0061592790776055159 -1.5823879178190493e-05 0 -0.0062902000357503473 5.4885418915653062e-05 0 -0.0060661414442878181 0.00026267340512629644 0 -0.0030906505589467091 0.00060137132894405728 0 -0.0046098668757777097 -5.1333446450846993e-05 0 -0.0064906864730629584 -0.00014103644682281682 0 -0.0061592790776055159 -1.5823879178190493e-05 0 -0.0062902000357503473 5.4885418915653062e-05 0 -0.0062902000357503473 5.4885418915653062e-05 0 -0.0065771663941905515 0.00020472628784562219 0 -0.0060661414442878181 0.00026267340512629644 0 -0.0064906864730629584 -0.00014103644682281682 0 -0.0062902000357503473 5.4885418915653062e-05 0 -0.0065771663941905515 0.00020472628784562219 0 -0.0065771663941905515 0.00020472628784562219 0 -0.0060661414442878181 0.00026267340512629644 0 -0.006407489749791561 0.00071028454037307934 0 -0.0060661414442878181 0.00026267340512629644 0 -0.006407489749791561 0.00071028454037307934 0 -0.0058312913704609342 0.00077621059064221401 0 -0.0064888679380376525 0.0012635999129635242 0 -0.006407489749791561 0.00071028454037307934 0 -0.0058312913704609342 0.00077621059064221401 0 -0.0049798331687757966 0.00080972269897515588 0 -0.005187186085720631 0.00028792449657200341 0 -0.0058312913704609342 0.00077621059064221401 0 -0.0064888679380376525 0.0012635999129635242 0 -0.0054558931464694432 0.001222659633306057 0 -0.0058312913704609342 0.00077621059064221401 0 -0.0054558931464694432 0.001222659633306057 0 -0.0049798331687757966 0.00080972269897515588 0 -0.0058312913704609342 0.00077621059064221401 0 -0.001600845004543336 5.0938906344892745e-05 0 -0.0018287425355997401 0.00031185565581082854 0 -0.0021377106990163471 0.00019455004687686064 0 -0.001600845004543336 5.0938906344892745e-05 0 -0.0018287425355997401 0.00031185565581082854 0 -0.0012064635380114135 0.00022144855428407563 0 -0.001600845004543336 5.0938906344892745e-05 0 -0.0012064635380114135 0.00022144855428407563 0 -0.0010456931154505247 -0.00026592969157758435 0 -0.00057992692443426929 -8.4692641999953194e-05 0 -0.0012064635380114135 0.00022144855428407563 0 -0.0010456931154505247 -0.00026592969157758435 0 -0.001600845004543336 5.0938906344892745e-05 0 -0.0010456931154505247 -0.00026592969157758435 0 -0.0016763255564945507 -0.0002259631747000384 0 -0.0010656704873828948 -0.00069785999575404237 0 -0.0010456931154505247 -0.00026592969157758435 0 -0.0016763255564945507 -0.0002259631747000384 0 -0.001600845004543336 5.0938906344892745e-05 0 -0.0016763255564945507 -0.0002259631747000384 0 -0.0021377106990163471 0.00019455004687686064 0 -0.0016763255564945507 -0.0002259631747000384 0 -0.0022741808711232258 9.4960537194765924e-05 0 -0.0021377106990163471 0.00019455004687686064 0 -0.0027782442435675347 0.00069592905597264522 0 -0.0022741808711232258 9.4960537194765924e-05 0 -0.0025043201103503053 0.00029633400469913674 0 -0.0022741808711232258 9.4960537194765924e-05 0 -0.0025043201103503053 0.00029633400469913674 0 -0.0021377106990163471 0.00019455004687686064 0 -0.0018059258842776649 0.0012054967009736805 0 -0.0027782442435675347 0.00069592905597264522 0 -0.0023274358666440413 0.0004503220454128451 0 -0.0027782442435675347 0.00069592905597264522 0 -0.0025043201103503053 0.00029633400469913674 0 -0.0023274358666440413 0.0004503220454128451 0 -0.0025043201103503053 0.00029633400469913674 0 -0.0023274358666440413 0.0004503220454128451 0 -0.0023721843505751508 0.00022869091360304381 0 -0.0030160423422693834 0.00043777671825641861 0 -0.0030600938679788371 -0.00022378635264400882 0 -0.0019373246790797955 -4.6586739683111749e-05 0 -0.0023721843505751508 0.00022869091360304381 0 -0.0024567877177832428 0.00021509396343867497 0 -0.0019373246790797955 -4.6586739683111749e-05 0 -0.0023274358666440413 0.0004503220454128451 0 -0.0023721843505751508 0.00022869091360304381 0 -0.0025043201103503053 0.00029633400469913674 0 -0.0023721843505751508 0.00022869091360304381 0 -0.0024197029601026603 0.00025386348972026348 0 -0.0023721843505751508 0.00022869091360304381 0 -0.0024567877177832428 0.00021509396343867497 0 -0.0024197029601026603 0.00025386348972026348 0 -0.0025043201103503053 0.00029633400469913674 0 -0.0021377106990163471 0.00019455004687686064 0 -0.0024197029601026603 0.00025386348972026348 0 -0.0030600938679788371 -0.00022378635264400882 0 -0.0023789380278214081 6.0921078340710487e-05 0 -0.0024567877177832428 0.00021509396343867497 0 -0.0024197029601026603 0.00025386348972026348 0 -0.0023300449014540064 0.0003752324019346187 0 -0.0018287425355997401 0.00031185565581082854 0 -0.0021377106990163471 0.00019455004687686064 0 -0.0023300449014540064 0.0003752324019346187 0 -0.0021377106990163471 0.00019455004687686064 0 -0.0024197029601026603 0.00025386348972026348 0 -0.0023300449014540064 0.0003752324019346187 0 -0.0030600938679788371 -0.00022378635264400882 0 -0.002073255122655568 -0.0009208073613878033 0 -0.0026420303023791084 0.00039265570383505345 0 -0.0023300449014540064 0.0003752324019346187 0 -0.0017706626588968573 0.00077654382899275539 0 -0.0035580647048273945 -0.0028267778091255039 0 -0.0032735064286250324 -0.0016506683200684027 0 -0.0021019632046102789 -0.0021799257526015515 0 -0.0047846054856924411 -0.00086232973319207954 0 -0.0030600938679788371 -0.00022378635264400882 0 -0.0035580647048273945 -0.0028267778091255039 0 -0.0042387265251005758 -0.0020281036557366753 0 -0.0032735064286250324 -0.0016506683200684027 0 -0.0049383451054207106 -0.0027371814252152918 0 -0.0035580647048273945 -0.0028267778091255039 0 -0.0042387265251005758 -0.0020281036557366753 0 -0.0045373211256719203 -0.0010904793082058125 0 -0.0042387265251005758 -0.0020281036557366753 0 -0.0032735064286250324 -0.0016506683200684027 0 -0.0045373211256719203 -0.0010904793082058125 0 -0.0032735064286250324 -0.0016506683200684027 0 -0.0031760032828999363 -0.0005630545397579482 0 -0.0032735064286250324 -0.0016506683200684027 0 -0.0022422223811671142 -0.0010160559508237132 0 -0.0031760032828999363 -0.0005630545397579482 0 -0.0022422223811671142 -0.0010160559508237132 0 -0.0021019632046102789 -0.0021799257526015515 0 -0.0015988876566026006 -0.0013129110416948504 0 -0.0032735064286250324 -0.0016506683200684027 0 -0.0022422223811671142 -0.0010160559508237132 0 -0.0021019632046102789 -0.0021799257526015515 0 -0.0022422223811671142 -0.0010160559508237132 0 -0.0015988876566026006 -0.0013129110416948504 0 -0.0017148788222845421 -0.00079807661834364039 0 -0.0018287425355997401 0.00031185565581082854 0 -0.0023300449014540064 0.0003752324019346187 0 -0.0017706626588968573 0.00077654382899275539 0 -0.0018287425355997401 0.00031185565581082854 0 -0.0012064635380114135 0.00022144855428407563 0 -0.0017706626588968573 0.00077654382899275539 0 -0.0012064635380114135 0.00022144855428407563 0 -0.0017706626588968573 0.00077654382899275539 0 -0.0010506349416760771 0.00058524565776001429 0 -0.0006479551774577337 0.0011604484521932424 0 -0.0017706626588968573 0.00077654382899275539 0 -0.0010506349416760771 0.00058524565776001429 0 -0.00046341065154552628 0.00020959451938718979 0 -0.0012064635380114135 0.00022144855428407563 0 -0.0010506349416760771 0.00058524565776001429 0 -0.00022992651973162626 0.00024421912977123494 0 -0.002073255122655568 -0.0009208073613878033 0 -0.00063996765497089227 -0.0015087463558370595 0 -0.0021019632046102789 -0.0021799257526015515 0 -0.0015988876566026006 -0.0013129110416948504 0 -0.00063996765497089227 -0.0015087463558370595 0 -0.0015988876566026006 -0.0013129110416948504 0 -0.0012220240412282185 -0.00079186385287803986 0 -0.00022992651973162626 0.00024421912977123494 0 -0.00029807036915535927 0.00036102323889539834 0 0.00083574739141063922 0.0012420163896561779 0 0.00086615662027947804 0.0014490647321115763 0 0.00074474930799514995 0.0014224826375399595 0 0.00086615662027947804 0.0014490647321115763 0 0.00071682780920221745 0.0014747909460051953 0 0.00074474930799514995 0.0014224826375399595 0 0.00092549707095828315 0.0016017325312346813 0 0.00086615662027947804 0.0014490647321115763 0 0.00071682780920221745 0.0014747909460051953 0 0.00072916889516022371 0.0015017595876256778 0 0.00081038001372676688 0.0014824401942338183 0 0.00071682780920221745 0.0014747909460051953 0 0.00074474930799514995 0.0014224826375399595 0 0.00067537227554535805 0.0014904053650791767 0 -0.0012220240412282185 -0.00079186385287803986 0 -0.0017148788222845421 -0.00079807661834364039 0 -0.0017973425426913495 -7.0508087392391429e-05 0 -0.00029807036915535927 0.00036102323889539834 0 -0.00037560234973603072 -0.00042117633037734283 0 -0.0015988876566026006 -0.0013129110416948504 0 -0.0012220240412282185 -0.00079186385287803986 0 -0.0017148788222845421 -0.00079807661834364039 0 -0.00037560234973603072 -0.00042117633037734283 0 -0.0035572907302074243 -0.00067135466284235629 0 -0.0022422223811671142 -0.0010160559508237132 0 -0.0017148788222845421 -0.00079807661834364039 0 -0.0017973425426913495 -7.0508087392391429e-05 0 -0.0022422223811671142 -0.0010160559508237132 0 -0.0017973425426913495 -7.0508087392391429e-05 0 -0.0031760032828999363 -0.0005630545397579482 0 -0.0019866004587601781 -0.00029421494761437732 0 -0.0033242510865095164 3.3911790002083622e-05 0 -0.002655686322400588 0.00053215774247906999 0 -0.00037560234973603072 -0.00042117633037734283 0 -0.0008363484271167223 -0.001291601927627373 0 0.001229237206495609 -0.0033335991400413648 0 0.0012328000066819762 -0.0030693975275292739 0 0.00094567713531151527 -0.0030031809416884736 0 0.001229237206495609 -0.0033335991400413648 0 0.0012328000066819762 -0.0030693975275292739 0 0.0014629127244826024 -0.0031318732115874952 0 0.0014629127244826024 -0.0031318732115874952 0 0.0015892253498958073 -0.0029696944957066278 0 0.0013723146669606468 -0.0029861739722665051 0 0.0012328000066819762 -0.0030693975275292739 0 0.0014629127244826024 -0.0031318732115874952 0 0.0013723146669606468 -0.0029861739722665051 0 0.0014469579240594256 -0.00072221015263954145 0 -0.00037560234973603072 -0.00042117633037734283 0 0.00085761697000517629 0.0013890072937633399 0 0.00081708876777466177 0.0014667049238079868 0 0.00071682780920221745 0.0014747909460051953 0 0.0016848184904951623 -0.0031896474732205 0 0.001229237206495609 -0.0033335991400413648 0 0.0014629127244826024 -0.0031318732115874952 0 0.00081708876777466177 0.0014667049238079868 0 0.00071682780920221745 0.0014747909460051953 0 0.00067537227554535805 0.0014904053650791767 0 0.0016848184904951623 -0.0031896474732205 0 0.0014629127244826024 -0.0031318732115874952 0 0.0015892253498958073 -0.0029696944957066278 0 -0.0045373211256719203 -0.0010904793082058125 0 -0.004338253235303788 -0.00032559585829406524 0 -0.0032821695794084177 -0.00071546998877760454 0 -0.004338253235303788 -0.00032559585829406524 0 -0.0032821695794084177 -0.00071546998877760454 0 -0.0033242510865095164 3.3911790002083622e-05 0 -0.0043250328543729209 -0.0010348959643604553 0 -0.0035572907302074243 -0.00067135466284235629 0 -0.0019866004587601781 -0.00029421494761437732 0 -0.0032821695794084177 -0.00071546998877760454 0 -0.0033242510865095164 3.3911790002083622e-05 0 -0.0033242510865095164 3.3911790002083622e-05 0 -0.0034384568719210656 0.00059559371712538994 0 -0.002655686322400588 0.00053215774247906999 0 -0.0033242510865095164 3.3911790002083622e-05 0 -0.0042139846875931704 0.00041389693236000563 0 -0.0034384568719210656 0.00059559371712538994 0 -0.004338253235303788 -0.00032559585829406524 0 -0.0033242510865095164 3.3911790002083622e-05 0 -0.0042139846875931704 0.00041389693236000563 0 -0.0042139846875931704 0.00041389693236000563 0 -0.0036612377303619041 0.0010242426010028541 0 -0.0039839336919274999 0.0014024942127816541 0 -0.0042139846875931704 0.00041389693236000563 0 -0.0036612377303619041 0.0010242426010028541 0 -0.0034384568719210656 0.00059559371712538994 0 -0.0036612377303619041 0.0010242426010028541 0 -0.0033118897338710054 0.0013599233405067774 0 -0.0039839336919274999 0.0014024942127816541 0 0.00063630587414278711 -0.0026427560603545907 0 0.00094567713531151527 -0.0030031809416884736 0 0.0010608250370965687 -0.0026752751823758427 0 -0.0036612377303619041 0.0010242426010028541 0 -0.0034384568719210656 0.00059559371712538994 0 -0.0033118897338710054 0.0013599233405067774 0 -0.0034384568719210656 0.00059559371712538994 0 -0.0033118897338710054 0.0013599233405067774 0 -0.002655686322400588 0.00053215774247906999 0 -0.001149709456556192 -0.0014843212366734972 0 -0.0008363484271167223 -0.001291601927627373 0 0.00065116142058711248 -0.0026636933226624302 0 0.0010608250370965687 -0.0026752751823758427 0 0.0010249024840700833 -0.0021624485753641127 0 0.00065116142058711248 -0.0026636933226624302 0 0.00053384464468389915 -0.002521876469001772 0 0.0010249024840700833 -0.0021624485753641127 0 -0.0011572069709476758 -0.0024077948050222307 0 0.00096588534015481261 -0.002223371633178975 0 -0.00089697106817534958 -0.0033636383888318217 0 0.00058327428413344567 -0.0022022618138029183 0 -0.00066798699429718221 -0.0025576568678133838 0 -0.001149709456556192 -0.0014843212366734972 0 0.0016162168499587583 -0.0026825889973473415 0 -0.001149709456556192 -0.0014843212366734972 0 -0.0011572069709476758 -0.0024077948050222307 0 -0.0013588047410489673 -0.0018415387785220493 0 -0.0019787404170763466 -0.0010670230587749095 0 -0.0028955417894657885 -0.0017942300630036311 0 -0.001149709456556192 -0.0014843212366734972 0 -0.0040239305952112373 -0.0013969796016074767 0 -0.0011572069709476758 -0.0024077948050222307 0 -0.0040239305952112373 -0.0013969796016074767 0 -0.0013293455974995782 -0.0031738511876241416 0 -0.0018738179880622831 -0.0030376061627906789 0 -0.001890030709224525 -0.0036765703246565695 0 -0.0013293455974995782 -0.0031738511876241416 0 -0.0018738179880622831 -0.0030376061627906789 0 -0.001790521694914177 -0.0025183234127255697 0 -0.00089697106817534958 -0.0033636383888318217 0 -0.001790521694914177 -0.0025183234127255697 0 -0.00066798699429718221 -0.0025576568678133838 0 -0.0011572069709476758 -0.0024077948050222307 0 -0.0014699411562679998 -0.0026654510691119246 0 -0.0028153696409471607 -0.0029613983693714107 0 -0.0018738179880622831 -0.0030376061627906789 0 -0.001790521694914177 -0.0025183234127255697 0 -0.0028153696409471607 -0.0029613983693714107 0 -0.001790521694914177 -0.0025183234127255697 0 -0.0029527300035066314 -0.0020456010907795048 0 -0.0028153696409471607 -0.0029613983693714107 0 -0.0018738179880622831 -0.0030376061627906789 0 -0.001890030709224525 -0.0036765703246565695 0 0.0013589440744584849 -0.0027889081703142528 0 0.0016029762070524968 -0.0027073683095392102 0 0.0015892253498958073 -0.0029696944957066278 0 0.001778720417289894 -0.0029139849746204062 0 0.0016029762070524968 -0.0027073683095392102 0 0.0015892253498958073 -0.0029696944957066278 0 0.0013589440744584849 -0.0027889081703142528 0 0.0013723146669606468 -0.0029861739722665051 0 0.0011677581658327289 -0.0028960413465634431 0 0.0013589440744584849 -0.0027889081703142528 0 0.0015892253498958073 -0.0029696944957066278 0 0.0013723146669606468 -0.0029861739722665051 0 0.0012328000066819762 -0.0030693975275292739 0 0.0013723146669606468 -0.0029861739722665051 0 0.0011677581658327289 -0.0028960413465634431 0 0.0012328000066819762 -0.0030693975275292739 0 0.0011677581658327289 -0.0028960413465634431 0 0.00094567713531151527 -0.0030031809416884736 0 0.0011677581658327289 -0.0028960413465634431 0 0.00094567713531151527 -0.0030031809416884736 0 0.0010608250370965687 -0.0026752751823758427 0 0.0013589440744584849 -0.0027889081703142528 0 0.0011677581658327289 -0.0028960413465634431 0 0.0010608250370965687 -0.0026752751823758427 0 0.0013589440744584849 -0.0027889081703142528 0 0.0010608250370965687 -0.0026752751823758427 0 0.0013666571149542376 -0.0024983323614509042 0 0.0010608250370965687 -0.0026752751823758427 0 0.0013666571149542376 -0.0024983323614509042 0 0.0010249024840700833 -0.0021624485753641127 0 0.0013589440744584849 -0.0027889081703142528 0 0.0016029762070524968 -0.0027073683095392102 0 0.0013666571149542376 -0.0024983323614509042 0 0.0017179260112641086 -0.0024734273449437197 0 0.0016029762070524968 -0.0027073683095392102 0 0.0013666571149542376 -0.0024983323614509042 0 0.0017179260112641086 -0.0024734273449437197 0 0.0013666571149542376 -0.0024983323614509042 0 0.0015600138016692814 -0.0022286980420459135 0 0.0015600138016692814 -0.0022286980420459135 0 0.0010249024840700833 -0.0021624485753641127 0 0.0014944891024938583 -0.001779106171224181 0 0.0015600138016692814 -0.0022286980420459135 0 0.0014944891024938583 -0.001779106171224181 0 0.0017559168767454748 -0.0020146914352750268 0 0.0013666571149542376 -0.0024983323614509042 0 0.0015600138016692814 -0.0022286980420459135 0 0.0010249024840700833 -0.0021624485753641127 0 0.00096588534015481261 -0.002223371633178975 0 0.0014100155594044105 -0.0017806247398557918 0 0.00058327428413344567 -0.0022022618138029183 0 0.00080827790299445659 -0.0015644960706938714 0 0.00010941698168096408 -0.001578285908451129 0 0.00058327428413344567 -0.0022022618138029183 0 0.00080827790299445659 -0.0015644960706938714 0 0.0014944891024938583 -0.001779106171224181 0 0.00080827790299445659 -0.0015644960706938714 0 0.00010941698168096408 -0.001578285908451129 0 0.00065239052497062056 -0.0012044709769045551 0 0.00080827790299445659 -0.0015644960706938714 0 0.0014944891024938583 -0.001779106171224181 0 0.0012173381244573042 -0.0012418098572205053 0 -0.001790521694914177 -0.0025183234127255697 0 -0.00091645858998221173 -0.0018465881172955222 0 -0.0029942144016673602 -0.0011248320845111913 0 -0.001790521694914177 -0.0025183234127255697 0 -0.0029527300035066314 -0.0020456010907795048 0 -0.0029942144016673602 -0.0011248320845111913 0 -0.001790521694914177 -0.0025183234127255697 0 -0.00091645858998221173 -0.0018465881172955222 0 -0.00066798699429718221 -0.0025576568678133838 0 0.00058327428413344567 -0.0022022618138029183 0 -0.00020021205471792736 -0.0020070396561747005 0 -0.00066798699429718221 -0.0025576568678133838 0 -0.00091645858998221173 -0.0018465881172955222 0 -0.00020021205471792736 -0.0020070396561747005 0 0.00010941698168096408 -0.001578285908451129 0 -0.00091645858998221173 -0.0018465881172955222 0 -0.00020021205471792736 -0.0020070396561747005 0 -0.00066798699429718221 -0.0025576568678133838 0 0.00058327428413344567 -0.0022022618138029183 0 -0.00020021205471792736 -0.0020070396561747005 0 0.00010941698168096408 -0.001578285908451129 0 0.00010941698168096408 -0.001578285908451129 0 -0.00025712937917527726 -0.0014262526189040832 0 0.00017477498609942731 -0.0012961895849258754 0 -0.00091453646491993152 -0.0018366240343537818 0 -0.0012469823270186563 -0.00084476626100550415 0 -0.00091645858998221173 -0.0018465881172955222 0 0.00010941698168096408 -0.001578285908451129 0 -0.00025712937917527726 -0.0014262526189040832 0 -0.00091645858998221173 -0.0018465881172955222 0 -0.002247312607246455 -4.9786894896574976e-05 0 -0.0029942144016673602 -0.0011248320845111913 0 -0.002247312607246455 -4.9786894896574976e-05 0 -0.0032210835966880211 0.00033536136300328705 0 -0.0029942144016673602 -0.0011248320845111913 0 -0.0012469823270186563 -0.00084476626100550415 0 -0.0015883809979044146 -0.00016640246537548019 0 -0.002247312607246455 -4.9786894896574976e-05 0 -0.0032127383131665926 0.00088777179340086701 0 -0.0032210835966880211 0.00033536136300328705 0 -0.00025712937917527726 -0.0014262526189040832 0 4.7640441863682692e-05 -0.0011606998954025779 0 -7.4271972080513138e-05 -0.0010553306016506472 0 -0.00025712937917527726 -0.0014262526189040832 0 4.7640441863682692e-05 -0.0011606998954025779 0 0.00017477498609942731 -0.0012961895849258754 0 0.00010941698168096408 -0.001578285908451129 0 0.00017477498609942731 -0.0012961895849258754 0 0.00065239052497062056 -0.0012044709769045551 0 4.7640441863682692e-05 -0.0011606998954025779 0 0.00017477498609942731 -0.0012961895849258754 0 0.00030224424707487631 -0.0010475796587739012 0 0.00017477498609942731 -0.0012961895849258754 0 0.00030224424707487631 -0.0010475796587739012 0 0.00065239052497062056 -0.0012044709769045551 0 0.00064029501127729847 -0.00084463654235381936 0 0.00030224424707487631 -0.0010475796587739012 0 0.00065239052497062056 -0.0012044709769045551 0 0.00064029501127729847 -0.00084463654235381936 0 0.00030224424707487631 -0.0010475796587739012 0 0.0002881463330594616 -0.00076864483149867316 0 4.5821214117757928e-05 -0.00082447741785976773 0 -7.4271972080513138e-05 -0.0010553306016506472 0 -0.00013807135066779499 -0.00065918372217882264 0 4.7640441863682692e-05 -0.0011606998954025779 0 0.00030224424707487631 -0.0010475796587739012 0 0.00010555458683669806 -0.00097392499446052763 0 4.7640441863682692e-05 -0.0011606998954025779 0 0.00010555458683669806 -0.00097392499446052763 0 -7.4271972080513138e-05 -0.0010553306016506472 0 0.00030224424707487631 -0.0010475796587739012 0 0.00010555458683669806 -0.00097392499446052763 0 0.0002881463330594616 -0.00076864483149867316 0 0.00010555458683669806 -0.00097392499446052763 0 4.5821214117757928e-05 -0.00082447741785976773 0 0.0002881463330594616 -0.00076864483149867316 0 0.00010555458683669806 -0.00097392499446052763 0 4.5821214117757928e-05 -0.00082447741785976773 0 -7.4271972080513138e-05 -0.0010553306016506472 0 0.0014944891024938583 -0.001779106171224181 0 0.0012173381244573042 -0.0012418098572205053 0 0.0017284935773164858 -0.0013586601656629031 0 0.0012173381244573042 -0.0012418098572205053 0 0.0017284935773164858 -0.0013586601656629031 0 0.0017429236860393377 -0.00099518725150721764 0 0.00080827790299445659 -0.0015644960706938714 0 0.0012173381244573042 -0.0012418098572205053 0 0.00065239052497062056 -0.0012044709769045551 0 0.0012173381244573042 -0.0012418098572205053 0 0.00065239052497062056 -0.0012044709769045551 0 0.0011132882350809513 -0.00091554438165847686 0 0.00064029501127729847 -0.00084463654235381936 0 0.00065239052497062056 -0.0012044709769045551 0 0.0011132882350809513 -0.00091554438165847686 0 0.00064029501127729847 -0.00084463654235381936 0 0.0011132882350809513 -0.00091554438165847686 0 0.00096320214316770797 -0.0006325316347105688 0 0.0011132882350809513 -0.00091554438165847686 0 0.0017429236860393377 -0.00099518725150721764 0 0.0014696767035731967 -0.00063776123906453307 0 0.0012173381244573042 -0.0012418098572205053 0 0.0011132882350809513 -0.00091554438165847686 0 0.0017429236860393377 -0.00099518725150721764 0 0.0014696767035731967 -0.00063776123906453307 0 0.0018294509453882089 -0.00038881292349799448 0 0.0019521587401990117 -0.00068299314641898079 0 0.0017429236860393377 -0.00099518725150721764 0 0.0014696767035731967 -0.00063776123906453307 0 0.0019521587401990117 -0.00068299314641898079 0 0.0018294509453882089 -0.00038881292349799448 0 0.0011182556588493729 -0.00031464429591933341 0 0.0016644547658539129 0.00016003890624035008 0 0.0014696767035731967 -0.00063776123906453307 0 0.0018294509453882089 -0.00038881292349799448 0 0.0011182556588493729 -0.00031464429591933341 0 0.0014696767035731967 -0.00063776123906453307 0 0.0011182556588493729 -0.00031464429591933341 0 0.00096320214316770797 -0.0006325316347105688 0 0.0011132882350809513 -0.00091554438165847686 0 0.0014696767035731967 -0.00063776123906453307 0 0.00096320214316770797 -0.0006325316347105688 0 0.00064029501127729847 -0.00084463654235381936 0 0.00096320214316770797 -0.0006325316347105688 0 0.00059150651879991492 -0.00053290687262703734 0 0.00064029501127729847 -0.00084463654235381936 0 0.00059150651879991492 -0.00053290687262703734 0 0.0002881463330594616 -0.00076864483149867316 0 0.0011182556588493729 -0.00031464429591933341 0 0.00096320214316770797 -0.0006325316347105688 0 0.00059150651879991492 -0.00053290687262703734 0 4.5821214117757928e-05 -0.00082447741785976773 0 8.3193317919578414e-05 -0.00066413915045865628 0 -0.00013807135066779499 -0.00065918372217882264 0 4.5821214117757928e-05 -0.00082447741785976773 0 8.3193317919578414e-05 -0.00066413915045865628 0 0.0002881463330594616 -0.00076864483149867316 0 8.3193317919578414e-05 -0.00066413915045865628 0 0.0002881463330594616 -0.00076864483149867316 0 0.00017899701595621247 -0.0004417245822668916 0 0.00059150651879991492 -0.00053290687262703734 0 0.0002881463330594616 -0.00076864483149867316 0 0.00017899701595621247 -0.0004417245822668916 0 8.3193317919578414e-05 -0.00066413915045865628 0 0.00017899701595621247 -0.0004417245822668916 0 -0.00013807135066779499 -0.00065918372217882264 0 0.00017899701595621247 -0.0004417245822668916 0 0.00051678920179044506 -0.00020931226133345224 0 0.00031744968148280029 9.9766158635153356e-06 0 0.00017899701595621247 -0.0004417245822668916 0 0.00031744968148280029 9.9766158635153356e-06 0 -0.00016599099886009043 -0.00017368010033467823 0 0.0011182556588493729 -0.00031464429591933341 0 0.00059150651879991492 -0.00053290687262703734 0 0.00051678920179044506 -0.00020931226133345224 0 0.0011182556588493729 -0.00031464429591933341 0 0.00051678920179044506 -0.00020931226133345224 0 0.00083853301651251632 0.0001227799338257501 0 0.00059150651879991492 -0.00053290687262703734 0 0.00017899701595621247 -0.0004417245822668916 0 0.00051678920179044506 -0.00020931226133345224 0 0.00051678920179044506 -0.00020931226133345224 0 0.00083853301651251632 0.0001227799338257501 0 0.00031744968148280029 9.9766158635153356e-06 0 0.00083853301651251632 0.0001227799338257501 0 0.00031744968148280029 9.9766158635153356e-06 0 0.00062184330119816923 0.0005876050381957397 0 0.00083853301651251632 0.0001227799338257501 0 0.00062184330119816923 0.0005876050381957397 0 0.0011566587947185543 0.00051171141778985239 0 0.00031744968148280029 9.9766158635153356e-06 0 0.00062184330119816923 0.0005876050381957397 0 -2.654744800097849e-05 0.00026188179300391839 0 0.00053112020070068041 0.00010063186810598162 0 -0.00074602055926058924 0.00053399034499914896 0 0.00031744968148280029 9.9766158635153356e-06 0 -2.654744800097849e-05 0.00026188179300391839 0 -0.00016599099886009043 -0.00017368010033467823 0 0.00047427604781561864 -0.00027592162377568648 0 0.00019966729395319837 -0.000400611005105491 0 0.00031482535490571703 -8.5850352323096641e-05 0 -0.00074602055926058924 0.00053399034499914896 0 -0.00068219336551379663 0.00041308370967877919 0 0.00047427604781561864 -0.00027592162377568648 0 0.0007105145672724768 -0.00013946941955824565 0 0.00055832603696348126 -0.00015016930782194037 0 0.00047427604781561864 -0.00027592162377568648 0 0.00055832603696348126 -0.00015016930782194037 0 0.00040482868497008622 -8.1607278925192818e-05 0 0.00062184330119816923 0.0005876050381957397 0 0.0011566587947185543 0.00051171141778985239 0 0.001421392951597329 0.001017034218922738 0 0.00053112020070068041 0.00010063186810598162 0 0.0018745840794260431 0.00033868907739120633 0 0.0011566587947185543 0.00051171141778985239 0 0.0016644547658539129 0.00016003890624035008 0 0.001421392951597329 0.001017034218922738 0 0.0016256929721187013 0.000336171608397974 0 0.0018745840794260431 0.00033868907739120633 0 0.0019516446445699998 0.00034225602338348117 0 0.002008369299363474 0.00024983783697119091 0 0.0016644547658539129 0.00016003890624035008 0 0.0019516446445699998 0.00034225602338348117 0 0.0016644547658539129 0.00016003890624035008 0 0.0018406310256587426 0.00037772659846534851 0 0.0019516446445699998 0.00034225602338348117 0 0.002008369299363474 0.00024983783697119091 0 0.0021044631894136232 0.00039129515363754518 0 0.002008369299363474 0.00024983783697119091 0 0.002081977387262911 8.2383522259081346e-05 0 0.002163553286606243 0.00025664647909117582 0 0.0018294509453882089 -0.00038881292349799448 0 0.0016644547658539129 0.00016003890624035008 0 0.0020901067851442153 -0.00019435975052101305 0 0.0016644547658539129 0.00016003890624035008 0 0.002081977387262911 8.2383522259081346e-05 0 0.0020901067851442153 -0.00019435975052101305 0 0.002008369299363474 0.00024983783697119091 0 0.0016644547658539129 0.00016003890624035008 0 0.002081977387262911 8.2383522259081346e-05 0 0.00083853301651251632 0.0001227799338257501 0 0.0011566587947185543 0.00051171141778985239 0 0.0016644547658539129 0.00016003890624035008 0 0.0011182556588493729 -0.00031464429591933341 0 0.00083853301651251632 0.0001227799338257501 0 0.0016644547658539129 0.00016003890624035008 0 -0.0055390443427892622 0.002368845619223688 0 -0.0050423300036914753 0.0024503071948914854 0 -0.0052893908173159863 0.0018960174931999605 0 -0.0053162919321126578 0.0026759573508565652 0 -0.0055390443427892622 0.002368845619223688 0 -0.0057935599906128558 0.0027840130865534316 0 -0.0053162919321126578 0.0026759573508565652 0 -0.0055390443427892622 0.002368845619223688 0 -0.0050423300036914753 0.0024503071948914854 0 -0.0053162919321126578 0.0026759573508565652 0 -0.0049973831848790905 0.0028716562888948028 0 -0.0050423300036914753 0.0024503071948914854 0 -0.0055390443427892622 0.002368845619223688 0 -0.0061049270530907475 0.0020969377809972392 0 -0.0057935599906128558 0.0027840130865534316 0 -0.0061049270530907475 0.0020969377809972392 0 -0.0057935599906128558 0.0027840130865534316 0 -0.006345048144700707 0.0028554438553070063 0 -0.0057935599906128558 0.0027840130865534316 0 -0.006345048144700707 0.0028554438553070063 0 -0.0057751179265247742 0.0032990389548651446 0 -0.0065468389209587625 0.0026330467220767179 0 -0.0059016797805529478 0.0020230068647219424 0 -0.0068617640828599917 0.0023220349457444018 0 -0.0068029287125743612 0.0025828810270561889 0 -0.0064770288268157774 0.0026093127592630582 0 -0.0072783718316946425 0.0017997866433428521 0 -0.0059016797805529478 0.0020230068647219424 0 -0.0057935599906128558 0.0027840130865534316 0 -0.0057751179265247742 0.0032990389548651446 0 -0.0053750459212447855 0.0029956743835459171 0 -0.0057751179265247742 0.0032990389548651446 0 -0.0053750459212447855 0.0029956743835459171 0 -0.0050135357191396016 0.0033434880283914909 0 -0.0053162919321126578 0.0026759573508565652 0 -0.0057935599906128558 0.0027840130865534316 0 -0.0053750459212447855 0.0029956743835459171 0 -0.0053162919321126578 0.0026759573508565652 0 -0.0053750459212447855 0.0029956743835459171 0 -0.0049973831848790905 0.0028716562888948028 0 -0.0053750459212447855 0.0029956743835459171 0 -0.0049973831848790905 0.0028716562888948028 0 -0.0050135357191396016 0.0033434880283914909 0 -0.004576652912152754 0.0030449265178499299 0 -0.0049973831848790905 0.0028716562888948028 0 -0.0050135357191396016 0.0033434880283914909 0 -0.004576652912152754 0.0030449265178499299 0 -0.0042782452251991683 0.0034049385553358985 0 -0.0050135357191396016 0.0033434880283914909 0 -0.004576652912152754 0.0030449265178499299 0 -0.0049973831848790905 0.0028716562888948028 0 -0.0045901312998099901 0.0026574463686412724 0 -0.004576652912152754 0.0030449265178499299 0 -0.0042037768209293837 0.0023683040410392999 0 -0.0042782452251991683 0.0034049385553358985 0 -0.0018979877953100941 0.00095210620337737959 0 -0.001779446480548405 0.0012970660642353349 0 -0.0020087270944451831 0.0012796724466583352 0 -0.0018979877953100941 0.00095210620337737959 0 -0.0019795077410127088 0.00091267388007235312 0 -0.0020087270944451831 0.0012796724466583352 0 -0.002545148467570976 0.0015028712286129983 0 -0.003401710549882466 0.0018462150600377697 0 -0.004576652912152754 0.0030449265178499299 0 -0.0042037768209293837 0.0023683040410392999 0 -0.0045901312998099901 0.0026574463686412724 0 -0.00074602055926058924 0.00053399034499914896 0 -0.0017831965673901975 0.00053625871797794312 0 -0.0014482152521089263 0.00087293012329865607 0 -0.0015558614682591491 0.00081899867932268115 0 -0.0015416659612328988 0.000598637071186057 0 -0.00074602055926058924 0.00053399034499914896 0 -0.002545148467570976 0.0015028712286129983 0 -0.0044562377211877927 0.0022368907964625466 0 -0.0042037768209293837 0.0023683040410392999 0 -0.0045901312998099901 0.0026574463686412724 0 -0.0041007873618945567 0.0020670686633770573 0 -0.0045029709566747249 0.002648969798161478 0 -0.0030570245742059039 0.001506688096527527 0 -0.0028854065047412493 0.0015938254978899993 0 -0.0028612826260765068 0.0012734587348226494 0 -0.0041007873618945567 0.0020670686633770573 0 -0.002545148467570976 0.0015028712286129983 0 -0.002545148467570976 0.0015028712286129983 0 -0.0017831965673901975 0.00053625871797794312 0 -0.0044939870019332214 0.0022790382782267422 0 -0.0050423300036914753 0.0024503071948914854 0 -0.0052893908173159863 0.0018960174931999605 0 -0.0044939870019332214 0.0022790382782267422 0 -0.0050423300036914753 0.0024503071948914854 0 -0.0045901312998099901 0.0026574463686412724 0 -0.0049973831848790905 0.0028716562888948028 0 -0.0050423300036914753 0.0024503071948914854 0 -0.0045901312998099901 0.0026574463686412724 0 -0.0041712309284649019 0.0025928843492887136 0 -0.0045999664257070586 0.0019386104844083196 0 -0.0052893908173159863 0.0018960174931999605 0 -0.0041007873618945567 0.0020670686633770573 0 -0.005302568227344184 0.0020192550086523828 0 -0.0045999664257070586 0.0019386104844083196 0 -0.003954180192274467 0.0018627848159155028 0 -0.0043787777235440549 0.0016746150591091542 0 -0.0045999664257070586 0.0019386104844083196 0 -0.0050022733091001706 0.0014351612746388985 0 -0.0052893908173159863 0.0018960174931999605 0 -0.0030570245742059039 0.001506688096527527 0 -0.0028612826260765068 0.0012734587348226494 0 -0.0029227586619543599 0.0010847753724433171 0 -0.0041712309284649019 0.0025928843492887136 0 -0.0045999664257070586 0.0019386104844083196 0 -0.003954180192274467 0.0018627848159155028 0 -0.0041007873618945567 0.0020670686633770573 0 -0.0030398016593836882 0.0013630119777473613 0 -0.0022909702504514823 0.00084645689192828415 0 -0.0023005437143688167 0.00081978024618272274 0 -0.0022865017762676112 0.00077413840643244158 0 -0.0030398016593836882 0.0013630119777473613 0 -0.0031595110782780158 0.0014481446103337871 0 -0.0017831965673901975 0.00053625871797794312 0 -0.0030398016593836882 0.0013630119777473613 0 0.00017899701595621247 -0.0004417245822668916 0 -0.00016599099886009043 -0.00017368010033467823 0 -0.00013807135066779499 -0.00065918372217882264 0 -0.0017831965673901975 0.00053625871797794312 0 -0.002391449897055743 0.00060951623380640929 0 -0.0039763954959300485 0.0018489036589857337 0 -0.0040041524193474383 0.0017359087562030136 0 -0.0037836151854877776 0.0014716345413761408 0 -0.0030398016593836882 0.0013630119777473613 0 -0.002391449897055743 0.00060951623380640929 0 -0.0040041524193474383 0.0017359087562030136 0 -0.0041161871634291941 0.0014991460072745484 0 -0.0037836151854877776 0.0014716345413761408 0 -0.003954180192274467 0.0018627848159155028 0 -0.0040041524193474383 0.0017359087562030136 0 -0.0043787777235440549 0.0016746150591091542 0 -0.0040041524193474383 0.0017359087562030136 0 -0.0041161871634291941 0.0014991460072745484 0 -0.0043787777235440549 0.0016746150591091542 0 -0.0041161871634291941 0.0014991460072745484 0 -0.0044214236206632333 0.0013638699114499693 0 -0.0040297759583250011 0.0012557624127702903 0 -0.0041161871634291941 0.0014991460072745484 0 -0.0037836151854877776 0.0014716345413761408 0 -0.0040297759583250011 0.0012557624127702903 0 -0.0044214236206632333 0.0013638699114499693 0 -0.0050022733091001706 0.0014351612746388985 0 -0.0046453027718819252 0.00099533102613889673 0 -0.0045999664257070586 0.0019386104844083196 0 -0.0043787777235440549 0.0016746150591091542 0 -0.0050022733091001706 0.0014351612746388985 0 -0.0043787777235440549 0.0016746150591091542 0 -0.0044214236206632333 0.0013638699114499693 0 -0.0050022733091001706 0.0014351612746388985 0 -0.0041161871634291941 0.0014991460072745484 0 -0.0043787777235440549 0.0016746150591091542 0 -0.0044214236206632333 0.0013638699114499693 0 -0.0050022733091001706 0.0014351612746388985 0 -0.006137611459183641 0.0014339390949386728 0 -0.0055747284378470747 0.00080924545798779742 0 -0.0050022733091001706 0.0014351612746388985 0 -0.0052893908173159863 0.0018960174931999605 0 -0.006137611459183641 0.0014339390949386728 0 -0.0055390443427892622 0.002368845619223688 0 -0.0061049270530907475 0.0020969377809972392 0 -0.0052893908173159863 0.0018960174931999605 0 -0.0061049270530907475 0.0020969377809972392 0 -0.0052893908173159863 0.0018960174931999605 0 -0.006137611459183641 0.0014339390949386728 0 -0.0061049270530907475 0.0020969377809972392 0 -0.006137611459183641 0.0014339390949386728 0 -0.0067191964547462756 0.0019000657286502892 0 -0.006137611459183641 0.0014339390949386728 0 -0.0055747284378470747 0.00080924545798779742 0 -0.0064978434984637682 0.00078327038444442668 0 -0.0056309083436930588 0.0009821087813760346 0 -0.0065123587691576995 0.0010056968432033409 0 -0.0056747613892510528 0.0011332759086420928 0 -0.006709281778125022 0.00072058256664213566 0 -0.0066273128075067548 0.0012346576282013118 0 -0.0050022733091001706 0.0014351612746388985 0 -0.0055747284378470747 0.00080924545798779742 0 -0.0046453027718819252 0.00099533102613889673 0 -0.0056309083436930588 0.0009821087813760346 0 -0.0047470841214266426 0.00097301257629065787 0 -0.0056747613892510528 0.0011332759086420928 0 -0.0046453027718819252 0.00099533102613889673 0 -0.0050097216058397525 0.00031245996548783612 0 -0.0056747613892510528 0.0011332759086420928 0 -0.0058572593983065406 0.0001213514546514145 0 -0.0050097216058397525 0.00031245996548783612 0 -0.0062162610397728949 0.00019665817314191598 0 -0.0072386341834855747 0.00082371754962951005 0 -0.0056747613892510528 0.0011332759086420928 0 -0.0058572593983065406 0.0001213514546514145 0 -0.006709281778125022 0.00072058256664213566 0 -0.0066583987727473516 0.00035495222498571339 0 -0.007425831730357586 8.6864446507012259e-06 0 -0.0076526008556275713 0.0008341481382095567 0 -0.0032127383131665926 0.00088777179340086701 0 -0.003738779846322223 0.0015554743052537095 0 -0.0035613903433406396 0.0011154506356190607 0 -0.0015883809979044146 -0.00016640246537548019 0 -0.002391449897055743 0.00060951623380640929 0 -0.0032127383131665926 0.00088777179340086701 0 -0.0035613903433406396 0.0011154506356190607 0 -0.0036116458957381262 0.00078888280075331216 0 -0.0035613903433406396 0.0011154506356190607 0 -0.0039852172716132919 0.00094847236513809056 0 -0.0036116458957381262 0.00078888280075331216 0 -0.0037836151854877776 0.0014716345413761408 0 -0.0035613903433406396 0.0011154506356190607 0 -0.0040297759583250011 0.0012557624127702903 0 -0.002391449897055743 0.00060951623380640929 0 -0.0033551015686633682 0.00141202003521292 0 -0.0035613903433406396 0.0011154506356190607 0 -0.0040297759583250011 0.0012557624127702903 0 -0.0039852172716132919 0.00094847236513809056 0 -0.0039852172716132919 0.00094847236513809056 0 -0.0041047892932357805 0.00056578702699662065 0 -0.0036116458957381262 0.00078888280075331216 0 -0.0039852172716132919 0.00094847236513809056 0 -0.0046453027718819252 0.00099533102613889673 0 -0.0041047892932357805 0.00056578702699662065 0 -0.0044214236206632333 0.0013638699114499693 0 -0.0040297759583250011 0.0012557624127702903 0 -0.0046453027718819252 0.00099533102613889673 0 -0.0040297759583250011 0.0012557624127702903 0 -0.0039852172716132919 0.00094847236513809056 0 -0.0046453027718819252 0.00099533102613889673 0 -0.0050097216058397525 0.00031245996548783612 0 -0.0041047892932357805 0.00056578702699662065 0 -0.0040509639995293103 -0.0002759213747831915 0 -0.0046453027718819252 0.00099533102613889673 0 -0.0050097216058397525 0.00031245996548783612 0 -0.0041047892932357805 0.00056578702699662065 0 -0.0041047892932357805 0.00056578702699662065 0 -0.0032210835966880211 0.00033536136300328705 0 -0.0040509639995293103 -0.0002759213747831915 0 -0.0041047892932357805 0.00056578702699662065 0 -0.0032210835966880211 0.00033536136300328705 0 -0.0036116458957381262 0.00078888280075331216 0 -0.0032127383131665926 0.00088777179340086701 0 -0.0032210835966880211 0.00033536136300328705 0 -0.0036116458957381262 0.00078888280075331216 0 -0.0032210835966880211 0.00033536136300328705 0 -0.0040509639995293103 -0.0002759213747831915 0 -0.0029942144016673602 -0.0011248320845111913 0 -0.0040509639995293103 -0.0002759213747831915 0 -0.0051739418519061451 -0.00052203946876454863 0 -0.0041890993377961218 -0.0017843239260689214 0 -0.0050097216058397525 0.00031245996548783612 0 -0.0040509639995293103 -0.0002759213747831915 0 -0.0051739418519061451 -0.00052203946876454863 0 -0.0051739418519061451 -0.00052203946876454863 0 -0.0041890993377961218 -0.0017843239260689214 0 -0.0058001344103536245 -0.0015455991532414095 0 -0.0040509639995293103 -0.0002759213747831915 0 -0.0041890993377961218 -0.0017843239260689214 0 -0.0029942144016673602 -0.0011248320845111913 0 -0.0041890993377961218 -0.0017843239260689214 0 -0.0029527300035066314 -0.0020456010907795048 0 -0.0029942144016673602 -0.0011248320845111913 0 -0.0028153696409471607 -0.0029613983693714107 0 -0.0041890993377961218 -0.0017843239260689214 0 -0.0029527300035066314 -0.0020456010907795048 0 -0.0066583987727473516 0.00035495222498571339 0 -0.0070116968505120085 -0.00085740039237339931 0 -0.007425831730357586 8.6864446507012259e-06 0 -0.0058572593983065406 0.0001213514546514145 0 -0.0050097216058397525 0.00031245996548783612 0 -0.0051739418519061451 -0.00052203946876454863 0 -0.0062162610397728949 0.00019665817314191598 0 -0.005245294298096565 -0.00047077652730346837 0 -0.0066583987727473516 0.00035495222498571339 0 -0.0051739418519061451 -0.00052203946876454863 0 -0.0070116968505120085 -0.00085740039237339931 0 -0.0051739418519061451 -0.00052203946876454863 0 -0.0058001344103536245 -0.0015455991532414095 0 -0.0070116968505120085 -0.00085740039237339931 0 -0.0073172407902715548 -0.001937603799701865 0 -0.0058001344103536245 -0.0015455991532414095 0 -0.0070116968505120085 -0.00085740039237339931 0 -0.0079869792242602995 -0.0012182148732706856 0 -0.0070116968505120085 -0.00085740039237339931 0 -0.0078942092777632804 -0.00045894241992479182 0 -0.0070116968505120085 -0.00085740039237339931 0 -0.0078942092777632804 -0.00045894241992479182 0 -0.007425831730357586 8.6864446507012259e-06 0 -0.0078942092777632804 -0.00045894241992479182 0 -0.007425831730357586 8.6864446507012259e-06 0 -0.0079621202989136972 0.00016444279730602659 0 -0.0078942092777632804 -0.00045894241992479182 0 -0.0084543009624850687 -6.6922687827740396e-05 0 -0.0086092928954713283 -0.00058476765217109364 0 -0.0084543009624850687 -6.6922687827740396e-05 0 -0.0086092928954713283 -0.00058476765217109364 0 -0.00903031487246218 -0.00010135609802078264 0 -0.0078942092777632804 -0.00045894241992479182 0 -0.0084543009624850687 -6.6922687827740396e-05 0 -0.0079621202989136972 0.00016444279730602659 0 -0.0079869792242602995 -0.0012182148732706856 0 -0.0078942092777632804 -0.00045894241992479182 0 -0.0086092928954713283 -0.00058476765217109364 0 -0.0088318017260628646 -0.0011055275145479793 0 -0.0079869792242602995 -0.0012182148732706856 0 -0.0086092928954713283 -0.00058476765217109364 0 -0.0088318017260628646 -0.0011055275145479793 0 -0.0086092928954713283 -0.00058476765217109364 0 -0.0092940601810730938 -0.00059530900830972349 0 -0.0095299742774738027 -0.0010132931587697287 0 -0.0092940601810730938 -0.00059530900830972349 0 -0.0099333628080920874 -0.00058309664835284501 0 -0.0092940601810730938 -0.00059530900830972349 0 -0.0095780298999481404 -0.00021956412130942998 0 -0.0099333628080920874 -0.00058309664835284501 0 -0.0092940601810730938 -0.00059530900830972349 0 -0.0095780298999481404 -0.00021956412130942998 0 -0.00903031487246218 -0.00010135609802078264 0 -0.0086092928954713283 -0.00058476765217109364 0 -0.0092940601810730938 -0.00059530900830972349 0 -0.00903031487246218 -0.00010135609802078264 0 -0.0090551121583709367 -8.0775506720216634e-05 0 -0.0093180405659302624 0.00048184466204026716 0 -0.00903031487246218 -0.00010135609802078264 0 -0.0093349276027041937 0.00071616795839055147 0 -0.0084375401928025329 0.00054334552340237373 0 -0.0095780298999481404 -0.00021956412130942998 0 -0.00903031487246218 -0.00010135609802078264 0 -0.00925902151594994 0.00015801844575070233 0 -0.0095780298999481404 -0.00021956412130942998 0 -0.00925902151594994 0.00015801844575070233 0 -0.0097165032821618386 0.00012215914816998024 0 -0.00925902151594994 0.00015801844575070233 0 -0.0097165032821618386 0.00012215914816998024 0 -0.0094133846520663388 0.00044774667091551971 0 -0.0093180405659302624 0.00048184466204026716 0 -0.0090439000716303845 0.00075392436400932334 0 -0.0077101575631094823 0.0011754415477915165 0 -0.0090439000716303845 0.00075392436400932334 0 -0.0093349276027041937 0.00071616795839055147 0 -0.0089657926148057985 0.0010224171442844738 0 -0.0084375401928025329 0.00054334552340237373 0 -0.0093349276027041937 0.00071616795839055147 0 -0.0089657926148057985 0.0010224171442844738 0 -0.0096181038590925517 0.0014665004647032751 0 -0.0089657926148057985 0.0010224171442844738 0 -0.0084709093447441555 0.0013621080765055793 0 -0.0096181038590925517 0.0014665004647032751 0 -0.0084709093447441555 0.0013621080765055793 0 -0.0076526008556275713 0.0008341481382095567 0 -0.0084375401928025329 0.00054334552340237373 0 -0.0089657926148057985 0.0010224171442844738 0 -0.0084709093447441555 0.0013621080765055793 0 -0.0084375401928025329 0.00054334552340237373 0 -0.0075795258721206779 0.0013294879636544948 0 -0.006709281778125022 0.00072058256664213566 0 -0.0066273128075067548 0.0012346576282013118 0 -0.007306103036406335 0.00084747307937088981 0 -0.0064978434984637682 0.00078327038444442668 0 -0.0068820556974847832 0.0011038321346223652 0 -0.0077101575631094823 0.0011754415477915165 0 -0.0072386341834855747 0.00082371754962951005 0 -0.0077101575631094823 0.0011754415477915165 0 -0.0065123587691576995 0.0010056968432033409 0 -0.007425831730357586 8.6864446507012259e-06 0 -0.0076526008556275713 0.0008341481382095567 0 -0.0079621202989136972 0.00016444279730602659 0 -0.0076526008556275713 0.0008341481382095567 0 -0.0079621202989136972 0.00016444279730602659 0 -0.0084375401928025329 0.00054334552340237373 0 -0.0084543009624850687 -6.6922687827740396e-05 0 -0.0079621202989136972 0.00016444279730602659 0 -0.0084375401928025329 0.00054334552340237373 0 -0.0084543009624850687 -6.6922687827740396e-05 0 -0.00903031487246218 -0.00010135609802078264 0 -0.0084375401928025329 0.00054334552340237373 0 -0.010538795391349338 -0.00049948535556168028 0 -0.010951047547308256 -0.00058390281646028932 0 -0.011061081835187706 -0.00046736367010707941 0 -0.010538795391349338 -0.00049948535556168028 0 -0.010637136695463177 -0.00026838279419933993 0 -0.011061081835187706 -0.00046736367010707941 0 -0.010677296734409467 -0.00064334103368494163 0 -0.010538795391349338 -0.00049948535556168028 0 -0.010951047547308256 -0.00058390281646028932 0 -0.010349678042902717 -0.00071086664309429558 0 -0.010677296734409467 -0.00064334103368494163 0 -0.010538795391349338 -0.00049948535556168028 0 -0.010538795391349338 -0.00049948535556168028 0 -0.010098528929530448 -0.00025240777250458614 0 -0.010637136695463177 -0.00026838279419933993 0 -0.010538795391349338 -0.00049948535556168028 0 -0.010098528929530448 -0.00025240777250458614 0 -0.0099333628080920874 -0.00058309664835284501 0 -0.010349678042902717 -0.00071086664309429558 0 -0.010538795391349338 -0.00049948535556168028 0 -0.0099333628080920874 -0.00058309664835284501 0 -0.0095780298999481404 -0.00021956412130942998 0 -0.010098528929530448 -0.00025240777250458614 0 -0.0099333628080920874 -0.00058309664835284501 0 -0.0095780298999481404 -0.00021956412130942998 0 -0.010098528929530448 -0.00025240777250458614 0 -0.0097165032821618386 0.00012215914816998024 0 -0.0097165032821618386 0.00012215914816998024 0 -0.0098902207431698502 0.00045080015321159262 0 -0.0094133846520663388 0.00044774667091551971 0 -0.01026863615137672 -2.3068202259256747e-05 0 -0.010512980753079736 0.0004953725078190057 0 -0.0098902207431698502 0.00045080015321159262 0 -0.0097165032821618386 0.00012215914816998024 0 -0.01026863615137672 -2.3068202259256747e-05 0 -0.0098902207431698502 0.00045080015321159262 0 -0.010098528929530448 -0.00025240777250458614 0 -0.0097165032821618386 0.00012215914816998024 0 -0.01026863615137672 -2.3068202259256747e-05 0 -0.010098528929530448 -0.00025240777250458614 0 -0.01026863615137672 -2.3068202259256747e-05 0 -0.010637136695463177 -0.00026838279419933993 0 -0.01026863615137672 -2.3068202259256747e-05 0 -0.010637136695463177 -0.00026838279419933993 0 -0.010837504277625434 -2.2151299308104135e-05 0 -0.010283316752103998 -1.1008882930959455e-05 0 -0.010517659445342649 0.00038072253871793984 0 -0.01026863615137672 -2.3068202259256747e-05 0 -0.010837504277625434 -2.2151299308104135e-05 0 -0.010535501374170744 0.00026710897064809782 0 -0.010637136695463177 -0.00026838279419933993 0 -0.010953639408555933 -0.00028757882587864415 0 -0.011061081835187706 -0.00046736367010707941 0 -0.010637136695463177 -0.00026838279419933993 0 -0.010837504277625434 -2.2151299308104135e-05 0 -0.010953639408555933 -0.00028757882587864415 0 -0.010822022053740964 0.00098195795083111099 0 -0.010517659445342649 0.00038072253871793984 0 -0.01078019357750255 0.00083812774045407602 0 -0.010535501374170744 0.00026710897064809782 0 -0.011111901068290828 0.0003467887088174172 0 -0.010837504277625434 -2.2151299308104135e-05 0 -0.010535501374170744 0.00026710897064809782 0 -0.011111901068290828 0.0003467887088174172 0 -0.010855275430875956 0.0011030980254282943 0 -0.010512980753079736 0.0004953725078190057 0 -0.010119773048815575 0.0010589718316571829 0 -0.010512980753079736 0.0004953725078190057 0 -0.010119773048815575 0.0010589718316571829 0 -0.0098902207431698502 0.00045080015321159262 0 -0.0099334314132160963 0.00036798816602363579 0 -0.0090439000716303845 0.00075392436400932334 0 -0.0098902207431698502 0.00045080015321159262 0 -0.009087435538548197 0.00034586682604046521 0 -0.0093159051080241861 0.0009729686635543477 0 -0.010119773048815575 0.0010589718316571829 0 -0.0098902207431698502 0.00045080015321159262 0 -0.0093159051080241861 0.0009729686635543477 0 -0.0091072892739141389 0.0018921760415860271 0 -0.0087949242459014112 0.0012309907533744576 0 -0.010119773048815575 0.0010589718316571829 0 -0.0094120403220954926 0.0015841612778355189 0 -0.0093159051080241861 0.0009729686635543477 0 -0.0087515352047141948 0.002085913586774824 0 -0.0094052235951109387 0.0026454003563888325 0 -0.0086959329105609755 0.0026303343749485811 0 -0.0091072892739141389 0.0018921760415860271 0 -0.0093960315723558199 0.0026273637031509639 0 -0.0094120403220954926 0.0015841612778355189 0 -0.010022612040633429 0.001822646215881753 0 -0.0094052235951109387 0.0026454003563888325 0 -0.010119773048815575 0.0010589718316571829 0 -0.010022612040633429 0.001822646215881753 0 -0.010536572191026616 0.001402935372950755 0 -0.010119773048815575 0.0010589718316571829 0 -0.0094120403220954926 0.0015841612778355189 0 -0.010022612040633429 0.001822646215881753 0 -0.010855275430875956 0.0011030980254282943 0 -0.010119773048815575 0.0010589718316571829 0 -0.010536572191026616 0.001402935372950755 0 -0.010022612040633429 0.001822646215881753 0 -0.010536572191026616 0.001402935372950755 0 -0.010747719004929282 0.0018663572918683848 0 -0.010747719004929282 0.0018663572918683848 0 -0.01097426047809494 0.0017262884275465915 0 -0.011090519324059652 0.0015551826501510949 0 -0.010536572191026616 0.001402935372950755 0 -0.010747719004929282 0.0018663572918683848 0 -0.011090519324059652 0.0015551826501510949 0 -0.010855275430875956 0.0011030980254282943 0 -0.010536572191026616 0.001402935372950755 0 -0.011090519324059652 0.0015551826501510949 0 -0.010822022053740964 0.00098195795083111099 0 -0.011080426860794135 0.0015214695960741687 0 -0.0071709218894863069 0.0018360102869427544 0 -0.0068604551822575325 0.0015146301627107243 0 -0.0073780244373822974 0.0014136863093293895 0 -0.0071709218894863069 0.0018360102869427544 0 -0.0073780244373822974 0.0014136863093293895 0 -0.0075736805198090449 0.0018125603098550467 0 -0.006137611459183641 0.0014339390949386728 0 -0.0067191964547462756 0.0019000657286502892 0 -0.0068604551822575325 0.0015146301627107243 0 -0.0071709218894863069 0.0018360102869427544 0 -0.0067191964547462756 0.0019000657286502892 0 -0.0068604551822575325 0.0015146301627107243 0 -0.006137611459183641 0.0014339390949386728 0 -0.0068604551822575325 0.0015146301627107243 0 -0.0068820556974847832 0.0011038321346223652 0 -0.006137611459183641 0.0014339390949386728 0 -0.0064978434984637682 0.00078327038444442668 0 -0.0068820556974847832 0.0011038321346223652 0 -0.007306103036406335 0.00084747307937088981 0 -0.0068820556974847832 0.0011038321346223652 0 -0.0073780244373822974 0.0014136863093293895 0 -0.007306103036406335 0.00084747307937088981 0 -0.0073780244373822974 0.0014136863093293895 0 -0.0077467583170407143 0.0011605485986285516 0 -0.0068604551822575325 0.0015146301627107243 0 -0.0068820556974847832 0.0011038321346223652 0 -0.0073780244373822974 0.0014136863093293895 0 -0.0077101575631094823 0.0011754415477915165 0 -0.00757354259587631 0.0010397440923257725 0 -0.0073780244373822974 0.0014136863093293895 0 -0.0077467583170407143 0.0011605485986285516 0 -0.0079231462152926316 0.001504855811997144 0 -0.0073767111148119908 0.00090079014452122642 0 -0.0077467583170407143 0.0011605485986285516 0 -0.0081250509646891064 0.00096983192673640809 0 -0.0077467583170407143 0.0011605485986285516 0 -0.0081250509646891064 0.00096983192673640809 0 -0.0079231462152926316 0.001504855811997144 0 -0.0090439000716303845 0.00075392436400932334 0 -0.0087949242459014112 0.0012309907533744576 0 -0.0081250509646891064 0.00096983192673640809 0 -0.0083780429543878765 0.0015621981946633023 0 -0.0079231462152926316 0.001504855811997144 0 -0.0083780429543878765 0.0015621981946633023 0 -0.0079231462152926316 0.001504855811997144 0 -0.0080790310012063826 0.0019756198664139198 0 -0.0079231462152926316 0.001504855811997144 0 -0.0075736805198090449 0.0018125603098550467 0 -0.0080790310012063826 0.0019756198664139198 0 -0.0073780244373822974 0.0014136863093293895 0 -0.0079231462152926316 0.001504855811997144 0 -0.0075736805198090449 0.0018125603098550467 0 -0.0075736805198090449 0.0018125603098550467 0 -0.0075922514039731713 0.0020966132102614617 0 -0.0073811648876295714 0.0020301197462808322 0 -0.0075736805198090449 0.0018125603098550467 0 -0.0075922514039731713 0.0020966132102614617 0 -0.0080790310012063826 0.0019756198664139198 0 -0.0078320784184028915 0.0021676852302950065 0 -0.0075922514039731713 0.0020966132102614617 0 -0.0080790310012063826 0.0019756198664139198 0 -0.0075922514039731713 0.0020966132102614617 0 -0.0075193134254252884 0.0023612231906500153 0 -0.0073770921512306444 0.0022480113818744429 0 -0.0078320784184028915 0.0021676852302950065 0 -0.0075922514039731713 0.0020966132102614617 0 -0.0075193134254252884 0.0023612231906500153 0 -0.0087515352047141948 0.002085913586774824 0 -0.0083780429543878765 0.0015621981946633023 0 -0.0080790310012063826 0.0019756198664139198 0 -0.0087515352047141948 0.002085913586774824 0 -0.0080790310012063826 0.0019756198664139198 0 -0.0081961349922800644 0.0023817484538130765 0 -0.0078320784184028915 0.0021676852302950065 0 -0.0080790310012063826 0.0019756198664139198 0 -0.0081961349922800644 0.0023817484538130765 0 -0.0087515352047141948 0.002085913586774824 0 -0.0081961349922800644 0.0023817484538130765 0 -0.0086959329105609755 0.0026303343749485811 0 -0.0075193134254252884 0.0023612231906500153 0 -0.0075494027273210508 0.0023264236060220348 0 -0.0068949281818780012 0.0017464165625747151 0 -0.0081961349922800644 0.0023817484538130765 0 -0.0075193134254252884 0.0023612231906500153 0 -0.00818477192948887 0.0030435098442804548 0 -0.0078320784184028915 0.0021676852302950065 0 -0.0081961349922800644 0.0023817484538130765 0 -0.0075193134254252884 0.0023612231906500153 0 -0.0075494027273210508 0.0023264236060220348 0 -0.0071418224393113121 0.0023147295004645346 0 -0.0069862918074299514 0.0024432449364863917 0 -0.0075494027273210508 0.0023264236060220348 0 -0.0073770921512306444 0.0022480113818744429 0 -0.0071418224393113121 0.0023147295004645346 0 -0.0075193134254252884 0.0023612231906500153 0 -0.0075494027273210508 0.0023264236060220348 0 -0.0073770921512306444 0.0022480113818744429 0 -0.0075922514039731713 0.0020966132102614617 0 -0.0073770921512306444 0.0022480113818744429 0 -0.0073811648876295714 0.0020301197462808322 0 -0.0073770921512306444 0.0022480113818744429 0 -0.0070163279299863676 0.0022249621300058195 0 -0.0071418224393113121 0.0023147295004645346 0 -0.0073770921512306444 0.0022480113818744429 0 -0.0073811648876295714 0.0020301197462808322 0 -0.0070163279299863676 0.0022249621300058195 0 -0.0071709218894863069 0.0018360102869427544 0 -0.0073811648876295714 0.0020301197462808322 0 -0.0070163279299863676 0.0022249621300058195 0 -0.0071709218894863069 0.0018360102869427544 0 -0.0075736805198090449 0.0018125603098550467 0 -0.0073811648876295714 0.0020301197462808322 0 -0.0061049270530907475 0.0020969377809972392 0 -0.0067191964547462756 0.0019000657286502892 0 -0.0070163279299863676 0.0022249621300058195 0 -0.0061049270530907475 0.0020969377809972392 0 -0.006345048144700707 0.0028554438553070063 0 -0.0070163279299863676 0.0022249621300058195 0 -0.0071709218894863069 0.0018360102869427544 0 -0.0067191964547462756 0.0019000657286502892 0 -0.0070163279299863676 0.0022249621300058195 0 -0.0068617640828599917 0.0023220349457444018 0 -0.0070163279299863676 0.0022249621300058195 0 -0.0071418224393113121 0.0023147295004645346 0 -0.0065468389209587625 0.0026330467220767179 0 -0.0069861684562058102 0.0022548601717721456 0 -0.0072783718316946425 0.0017997866433428521 0 -0.0076977300697432562 0.002500510042371615 0 -0.0085081564708537824 0.00219202908406912 0 -0.0075494027273210508 0.0023264236060220348 0 -0.0081580241755311537 0.0019958620614604736 0 -0.0068617640828599917 0.0023220349457444018 0 -0.0071418224393113121 0.0023147295004645346 0 -0.0069862918074299514 0.0024432449364863917 0 -0.0068029287125743612 0.0025828810270561889 0 -0.0075494027273210508 0.0023264236060220348 0 -0.0069862918074299514 0.0024432449364863917 0 -0.0068617640828599917 0.0023220349457444018 0 -0.0068029287125743612 0.0025828810270561889 0 -0.0069862918074299514 0.0024432449364863917 0 -0.0085081564708537824 0.00219202908406912 0 -0.0081580241755311537 0.0019958620614604736 0 -0.0086491215295327901 0.0017717171631854726 0 -0.0081580241755311537 0.0019958620614604736 0 -0.008151240493052209 0.0017593244738128072 0 -0.0086491215295327901 0.0017717171631854726 0 -0.0084855421641245477 0.001732588625116021 0 -0.0070303904770329341 0.00094729334962543005 0 -0.0081580241755311537 0.0019958620614604736 0 -0.008151240493052209 0.0017593244738128072 0 -0.0078965070894543004 0.0019664238818636248 0 -0.0082702219919085079 0.0017182021113040676 0 -0.0084585308087447506 0.0011201327735612557 0 -0.0079019807689659303 0.0011486244135367801 0 -0.0082702219919085079 0.0017182021113040676 0 -0.0084585308087447506 0.0011201327735612557 0 -0.0088383669849675765 0.0017260961099468959 0 -0.0082702219919085079 0.0017182021113040676 0 -0.0079019807689659303 0.0011486244135367801 0 -0.0076689862744751848 0.0017226396411709932 0 -0.0079019807689659303 0.0011486244135367801 0 -0.0076689862744751848 0.0017226396411709932 0 -0.0073551444158679062 0.0011511089786649603 0 -0.0084855421641245477 0.001732588625116021 0 -0.0076452462647843391 0.0017196976011113151 0 -0.0075494027273210508 0.0023264236060220348 0 -0.0081580241755311537 0.0019958620614604736 0 -0.0078965070894543004 0.0019664238818636248 0 -0.0075494027273210508 0.0023264236060220348 0 -0.0076689862744751848 0.0017226396411709932 0 -0.0078965070894543004 0.0019664238818636248 0 -0.008151240493052209 0.0017593244738128072 0 -0.0076689862744751848 0.0017226396411709932 0 -0.0078965070894543004 0.0019664238818636248 0 -0.0075494027273210508 0.0023264236060220348 0 -0.0076689862744751848 0.0017226396411709932 0 -0.0068949281818780012 0.0017464165625747151 0 -0.0075343080586150104 0.0022577832301196206 0 -0.0073856473094825476 0.002652733319470585 0 -0.00818477192948887 0.0030435098442804548 0 -0.0086959329105609755 0.0026303343749485811 0 -0.0089820592586435516 0.0031937823959793487 0 -0.0081961349922800644 0.0023817484538130765 0 -0.00818477192948887 0.0030435098442804548 0 -0.0086959329105609755 0.0026303343749485811 0 -0.00818477192948887 0.0030435098442804548 0 -0.0089820592586435516 0.0031937823959793487 0 -0.0088350992640486223 0.0040344596621724347 0 -0.0073856473094825476 0.002652733319470585 0 -0.0089631288844754971 0.0008599190902383075 0 -0.0068949281818780012 0.0017464165625747151 0 -0.0069306515651300213 0.00086138756432244698 0 -0.0063265958062620571 0.00088805959662414664 0 -0.0068949281818780012 0.0017464165625747151 0 -0.0073551444158679062 0.0011511089786649603 0 -0.0069306515651300213 0.00086138756432244698 0 -0.0076689862744751848 0.0017226396411709932 0 -0.0068949281818780012 0.0017464165625747151 0 -0.0073551444158679062 0.0011511089786649603 0 -0.0073551444158679062 0.0011511089786649603 0 -0.0074892412714273439 0.00068321837063808086 0 -0.0069306515651300213 0.00086138756432244698 0 -0.0074892412714273439 0.00068321837063808086 0 -0.0069306515651300213 0.00086138756432244698 0 -0.0069207473806861854 0.00024774005867446533 0 -0.0081082888957374546 -0.0015523998476924951 0 -0.0089631288844754971 0.0008599190902383075 0 -0.0069306515651300213 0.00086138756432244698 0 -0.0069207473806861854 0.00024774005867446533 0 -0.0063265958062620571 0.00088805959662414664 0 -0.0096868055858106913 -0.0033409226127643116 0 -0.0089378234729632546 -0.0024865341906301413 0 -0.0090158182678208975 -0.0032904592532037842 0 -0.0096868055858106913 -0.0033409226127643116 0 -0.00928724637687303 -0.0036820842409683707 0 -0.0090158182678208975 -0.0032904592532037842 0 -0.0081082888957374546 -0.0015523998476924951 0 -0.009095421682941366 -0.0032724207336963487 0 -0.0074892412714273439 0.00068321837063808086 0 -0.0069207473806861854 0.00024774005867446533 0 -0.0077360071656280751 9.6816541873594744e-05 0 -0.0096868055858106913 -0.0033409226127643116 0 -0.00928724637687303 -0.0036820842409683707 0 -0.01034080441697687 -0.0040183287405290407 0 -0.0069207473806861854 0.00024774005867446533 0 -0.0077360071656280751 9.6816541873594744e-05 0 -0.0075110817495291351 -0.00039084761174812042 0 -0.0074892412714273439 0.00068321837063808086 0 -0.0077360071656280751 9.6816541873594744e-05 0 -0.0080857575189311921 0.00058296913468719935 0 -0.0077360071656280751 9.6816541873594744e-05 0 -0.0083146119999649697 1.1342405839014297e-05 0 -0.0080857575189311921 0.00058296913468719935 0 -0.0083146119999649697 1.1342405839014297e-05 0 -0.0080857575189311921 0.00058296913468719935 0 -0.0086632030113365319 0.00049340171588129053 0 -0.0084585308087447506 0.0011201327735612557 0 -0.0079019807689659303 0.0011486244135367801 0 -0.0080857575189311921 0.00058296913468719935 0 -0.0084585308087447506 0.0011201327735612557 0 -0.0080857575189311921 0.00058296913468719935 0 -0.0086632030113365319 0.00049340171588129053 0 -0.0079019807689659303 0.0011486244135367801 0 -0.0073551444158679062 0.0011511089786649603 0 -0.0074892412714273439 0.00068321837063808086 0 -0.0079019807689659303 0.0011486244135367801 0 -0.0074892412714273439 0.00068321837063808086 0 -0.0080857575189311921 0.00058296913468719935 0 -0.010730498433814307 0.0011072879104036138 0 -0.010610229516460894 0.0011001054171062685 0 -0.010787327464114161 0.0010025576774786115 0 -0.010610229516460894 0.0011001054171062685 0 -0.010787327464114161 0.0010025576774786115 0 -0.010804667195095227 0.00064647196060605382 0 -0.010730498433814307 0.0011072879104036138 0 -0.010616556801145099 0.0010943644287589511 0 -0.010985429236873921 0.0012706574425221553 0 -0.011185511246243136 -0.0091285524764676915 0 -0.010987640450227423 -0.0090810641338623915 0 -0.011179280945626551 -0.0091062617765705189 0 -0.010730498433814307 0.0011072879104036138 0 -0.010610229516460894 0.0011001054171062685 0 -0.010616556801145099 0.0010943644287589511 0 -0.010747719004929282 0.0018663572918683848 0 -0.01097426047809494 0.0017262884275465915 0 -0.010816502734435622 0.0018151413857236127 0 -0.010747719004929282 0.0018663572918683848 0 -0.010816502734435622 0.0018151413857236127 0 -0.01085736572449399 0.0016285838725488277 0 -0.010699656099387417 0.0018471227964398569 0 -0.010721093006304576 0.0024607474691160959 0 -0.010747719004929282 0.0018663572918683848 0 -0.01085736572449399 0.0016285838725488277 0 -0.011284038319384314 0.0013965190793710175 0 -0.010816502734435622 0.0018151413857236127 0 -0.01085736572449399 0.0016285838725488277 0 -0.010985429236873921 0.0012706574425221553 0 -0.01085736572449399 0.0016285838725488277 0 -0.010985429236873921 0.0012706574425221553 0 -0.011284038319384314 0.0013965190793710175 0 -0.010562662332409219 0.002013893911184725 0 -0.011120773872244675 0.0011140506547855367 0 -0.010730498433814307 0.0011072879104036138 0 -0.010985429236873921 0.0012706574425221553 0 -0.010787327464114161 0.0010025576774786115 0 -0.010985429236873921 0.0012706574425221553 0 -0.010787327464114161 0.0010025576774786115 0 -0.011011846869956947 0.00090076259020252687 0 -0.011289093891743844 0.0010122318661903503 0 -0.011284038319384314 0.0013965190793710175 0 -0.011890572403261105 0.00077702764540531785 0 -0.010985429236873921 0.0012706574425221553 0 -0.011289093891743844 0.0010122318661903503 0 -0.011011846869956947 0.00090076259020252687 0 -0.010985429236873921 0.0012706574425221553 0 -0.011289093891743844 0.0010122318661903503 0 -0.011284038319384314 0.0013965190793710175 0 -0.010022612040633429 0.001822646215881753 0 -0.010747719004929282 0.0018663572918683848 0 -0.0098102122532614053 0.0031241292194611006 0 -0.010022612040633429 0.001822646215881753 0 -0.0098102122532614053 0.0031241292194611006 0 -0.0094052235951109387 0.0026454003563888325 0 -0.0098102122532614053 0.0031241292194611006 0 -0.0094052235951109387 0.0026454003563888325 0 -0.0089820592586435516 0.0031937823959793487 0 -0.0094052235951109387 0.0026454003563888325 0 -0.0086959329105609755 0.0026303343749485811 0 -0.0089820592586435516 0.0031937823959793487 0 -0.010721093006304576 0.0024607474691160959 0 -0.0089631288844754971 0.0008599190902383075 0 -0.0098102122532614053 0.0031241292194611006 0 -0.0089820592586435516 0.0031937823959793487 0 -0.0088350992640486223 0.0040344596621724347 0 -0.011890572403261105 0.00077702764540531785 0 -0.011639829682884914 0.00035690608073621176 0 -0.011312938813837664 0.00070774997297479267 0 -0.0089378234729632546 -0.0024865341906301413 0 -0.0090158182678208975 -0.0032904592532037842 0 -0.0085221214571289186 -0.0031289712642965928 0 -0.0089631288844754971 0.0008599190902383075 0 -0.010248475477169349 -0.0011639879349641309 0 -0.00928724637687303 -0.0036820842409683707 0 -0.0090158182678208975 -0.0032904592532037842 0 -0.0087861865275400339 -0.0037590969207236986 0 -0.0090158182678208975 -0.0032904592532037842 0 -0.0087861865275400339 -0.0037590969207236986 0 -0.0085221214571289186 -0.0031289712642965928 0 -0.0087861865275400339 -0.0037590969207236986 0 -0.0085221214571289186 -0.0031289712642965928 0 -0.0081022595246103939 -0.0037908415956291355 0 -0.011639829682884914 0.00035690608073621176 0 -0.011232628565160663 0.00045932952990088648 0 -0.011362451303084423 -9.7060431457116747e-05 0 -0.011232628565160663 0.00045932952990088648 0 -0.010804667195095227 0.00064647196060605382 0 -0.011362451303084423 -9.7060431457116747e-05 0 -0.010815788840696753 -0.0092390889704123437 0 -0.010841398518109904 -0.0093304497130765676 0 -0.010972687685258848 -0.0092724456083343194 0 -0.010248475477169349 -0.0011639879349641309 0 -0.010738765231384891 -0.0055449010031481394 0 -0.011289093891743844 0.0010122318661903503 0 -0.011890572403261105 0.00077702764540531785 0 -0.011312938813837664 0.00070774997297479267 0 -0.011232628565160663 0.00045932952990088648 0 -0.011088257163644423 0.0006796442207603684 0 -0.011312938813837664 0.00070774997297479267 0 -0.011639829682884914 0.00035690608073621176 0 -0.011232628565160663 0.00045932952990088648 0 -0.011312938813837664 0.00070774997297479267 0 -0.011289093891743844 0.0010122318661903503 0 -0.011312938813837664 0.00070774997297479267 0 -0.011011846869956947 0.00090076259020252687 0 -0.011088257163644423 0.0006796442207603684 0 -0.011312938813837664 0.00070774997297479267 0 -0.011011846869956947 0.00090076259020252687 0 -0.011232628565160663 0.00045932952990088648 0 -0.011088257163644423 0.0006796442207603684 0 -0.010804667195095227 0.00064647196060605382 0 -0.011088257163644423 0.0006796442207603684 0 -0.011011846869956947 0.00090076259020252687 0 -0.010804667195095227 0.00064647196060605382 0 -0.010787327464114161 0.0010025576774786115 0 -0.011011846869956947 0.00090076259020252687 0 -0.010804667195095227 0.00064647196060605382 0 -0.010814786734270419 -0.0090801865791237495 0 -0.010815788840696753 -0.0092390889704123437 0 -0.010761219975679052 -0.0091926997809454337 0 -0.01086323883428152 -0.0040412416120116446 0 -0.010738765231384891 -0.0055449010031481394 0 -0.010814786734270419 -0.0090801865791237495 0 -0.010815788840696753 -0.0092390889704123437 0 -0.010972687685258848 -0.0092724456083343194 0 -0.010815788840696753 -0.0092390889704123437 0 -0.010761219975679052 -0.0091926997809454337 0 -0.010727669196970917 -0.0093435322358771319 0 -0.010814786734270419 -0.0090801865791237495 0 -0.010761219975679052 -0.0091926997809454337 0 -0.010809280345039633 -0.0091235372200092965 0 -0.010761219975679052 -0.0091926997809454337 0 -0.010809280345039633 -0.0091235372200092965 0 -0.010640731270709494 -0.0091923258184182666 0 -0.010881256979109135 -0.0091981293355596957 0 -0.010974826348464476 -0.0091258363362929449 0 -0.011353040778352884 -0.0091287730279474393 0 -0.010987640450227423 -0.0090810641338623915 0 -0.011235650710711613 -0.0090992171856303702 0 -0.010493866475762829 -0.0092257616009336976 0 -0.010640731270709494 -0.0091923258184182666 0 -0.010987640450227423 -0.0090810641338623915 0 -0.010761219975679052 -0.0091926997809454337 0 -0.010668253831392348 -0.0092884894150104761 0 -0.010727669196970917 -0.0093435322358771319 0 -0.010761219975679052 -0.0091926997809454337 0 -0.010668253831392348 -0.0092884894150104761 0 -0.010640731270709494 -0.0091923258184182666 0 -0.010668253831392348 -0.0092884894150104761 0 -0.010516877560126819 -0.0093047630815268258 0 -0.010640731270709494 -0.0091923258184182666 0 -0.010881256979109135 -0.0091981293355596957 0 -0.01072756534372557 -0.0092682936533004905 0 -0.011185511246243136 -0.0091285524764676915 0 -0.010814786734270419 -0.0090801865791237495 0 -0.010987640450227423 -0.0090810641338623915 0 -0.010987640450227423 -0.0090810641338623915 0 -0.011200788580274186 -0.0090954649014219416 0 -0.011235650710711613 -0.0090992171856303702 0 -0.010868323078138316 -0.0042461598315794323 0 -0.01086323883428152 -0.0040412416120116446 0 -0.010809280345039633 -0.0091235372200092965 0 -0.010640731270709494 -0.0091923258184182666 0 -0.010987640450227423 -0.0090810641338623915 0 -0.010814786734270419 -0.0090801865791237495 0 -0.010809280345039633 -0.0091235372200092965 0 -0.010987640450227423 -0.0090810641338623915 0 -0.010987640450227423 -0.0090810641338623915 0 -0.011179280945626551 -0.0091062617765705189 0 -0.011200788580274186 -0.0090954649014219416 0 -0.010577676598808915 -0.009563143554995766 0 -0.010659059630391356 -0.0096464720996152706 0 -0.010534988363492124 -0.0097345550603709502 0 -0.010577676598808915 -0.009563143554995766 0 -0.010534988363492124 -0.0097345550603709502 0 -0.010380482178127648 -0.0096246703107489093 0 -0.010516877560126819 -0.0093047630815268258 0 -0.010577676598808915 -0.009563143554995766 0 -0.010380482178127648 -0.0096246703107489093 0 -0.010516877560126819 -0.0093047630815268258 0 -0.010577676598808915 -0.009563143554995766 0 -0.010637318166489673 -0.009405193593220635 0 -0.010668253831392348 -0.0092884894150104761 0 -0.010637318166489673 -0.009405193593220635 0 -0.010727669196970917 -0.0093435322358771319 0 -0.010668253831392348 -0.0092884894150104761 0 -0.010516877560126819 -0.0093047630815268258 0 -0.010637318166489673 -0.009405193593220635 0 -0.010577676598808915 -0.009563143554995766 0 -0.010637318166489673 -0.009405193593220635 0 -0.01066726006029561 -0.0094726461184251234 0 -0.010577676598808915 -0.009563143554995766 0 -0.01066726006029561 -0.0094726461184251234 0 -0.010659059630391356 -0.0096464720996152706 0 -0.010637318166489673 -0.009405193593220635 0 -0.01066726006029561 -0.0094726461184251234 0 -0.010727669196970917 -0.0093435322358771319 0 -0.01066726006029561 -0.0094726461184251234 0 -0.010727669196970917 -0.0093435322358771319 0 -0.01075771619431924 -0.0094252989518032963 0 -0.010815788840696753 -0.0092390889704123437 0 -0.010727669196970917 -0.0093435322358771319 0 -0.010841398518109904 -0.0093304497130765676 0 -0.010727669196970917 -0.0093435322358771319 0 -0.010841398518109904 -0.0093304497130765676 0 -0.01075771619431924 -0.0094252989518032963 0 -0.010841398518109904 -0.0093304497130765676 0 -0.01075771619431924 -0.0094252989518032963 0 -0.010925143332823165 -0.0094295841683353279 0 -0.01075771619431924 -0.0094252989518032963 0 -0.010659059630391356 -0.0096464720996152706 0 -0.010925143332823165 -0.0094295841683353279 0 -0.01066726006029561 -0.0094726461184251234 0 -0.01075771619431924 -0.0094252989518032963 0 -0.010659059630391356 -0.0096464720996152706 0 -0.010659059630391356 -0.0096464720996152706 0 -0.01043234781906081 -0.010597217976922106 0 -0.0094845244162808998 -0.010558966833449583 0 -0.010659059630391356 -0.0096464720996152706 0 -0.010818843544889573 -0.010164215060034433 0 -0.01043234781906081 -0.010597217976922106 0 -0.010620567725477344 -0.0096858897811270845 0 -0.010027391137283357 -0.010121191245862676 0 -0.010659059630391356 -0.0096464720996152706 0 -0.010818843544889573 -0.010164215060034433 0 -0.010965311932179565 -0.0097644238198137424 0 -0.011241278985638514 -0.010056499486837154 0 -0.011943844719618225 -0.0095619742570585871 0 -0.011411906176578097 -0.010843452543522864 0 -0.010818843544889573 -0.010164215060034433 0 -0.011241278985638514 -0.010056499486837154 0 -0.011411906176578097 -0.010843452543522864 0 -0.010818843544889573 -0.010164215060034433 0 -0.011241278985638514 -0.010056499486837154 0 -0.010965311932179565 -0.0097644238198137424 0 -0.011241278985638514 -0.010056499486837154 0 -0.011306771620435958 -0.0095574851124983103 0 -0.011943844719618225 -0.0095619742570585871 0 -0.011241278985638514 -0.010056499486837154 0 -0.010965311932179565 -0.0097644238198137424 0 -0.011306771620435958 -0.0095574851124983103 0 -0.010659059630391356 -0.0096464720996152706 0 -0.010965311932179565 -0.0097644238198137424 0 -0.010925143332823165 -0.0094295841683353279 0 -0.010965311932179565 -0.0097644238198137424 0 -0.010925143332823165 -0.0094295841683353279 0 -0.011306771620435958 -0.0095574851124983103 0 -0.010841398518109904 -0.0093304497130765676 0 -0.010925143332823165 -0.0094295841683353279 0 -0.010972687685258848 -0.0092724456083343194 0 -0.010219839073258203 -0.0096244478699803477 0 -0.010738765231384891 -0.0055449010031481394 0 -0.011260950974222942 -0.0088697630194504839 0 -0.011306771620435958 -0.0095574851124983103 0 -0.011943844719618225 -0.0095619742570585871 0 -0.010925143332823165 -0.0094295841683353279 0 -0.011260950974222942 -0.0088697630194504839 0 -0.011306771620435958 -0.0095574851124983103 0 -0.010738765231384891 -0.0055449010031481394 0 -0.010286839468265288 -0.0069555865234891181 0 -0.0087861865275400339 -0.0037590969207236986 0 -0.0081022595246103939 -0.0037908415956291355 0 -0.0087797800367820054 -0.004511867342369448 0 -0.0087861865275400339 -0.0037590969207236986 0 -0.0087797800367820054 -0.004511867342369448 0 -0.0092829026331507792 -0.0042707451834413336 0 -0.011943844719618225 -0.0095619742570585871 0 -0.011411906176578097 -0.010843452543522864 0 -0.012610545707805305 -0.010254823516246495 0 -0.010910795340986672 -0.011363019695305634 0 -0.01034437252192652 -0.0090222394357524563 0 -0.010245922199277268 -0.011421561020402014 0 -0.010062873751397862 -0.011423406285187765 0 -0.010336427211358207 -0.011288549505196969 0 -0.010245922199277268 -0.011421561020402014 0 -0.010162786433016173 -0.011642627315944997 0 -0.010062873751397862 -0.011423406285187765 0 -0.010245922199277268 -0.011421561020402014 0 -0.010162786433016173 -0.011642627315944997 0 -0.010359417469544212 -0.011726859135750209 0 -0.010162786433016173 -0.011642627315944997 0 -0.010359417469544212 -0.011726859135750209 0 -0.010254593837079544 -0.011914456236529432 0 -0.010062873751397862 -0.011423406285187765 0 -0.0098869509733335303 -0.011497242948669776 0 -0.0099533969988073751 -0.011792368721182717 0 -0.010162786433016173 -0.011642627315944997 0 -0.010062873751397862 -0.011423406285187765 0 -0.0099533969988073751 -0.011792368721182717 0 -0.010818843544889573 -0.010164215060034433 0 -0.011411906176578097 -0.010843452543522864 0 -0.01043234781906081 -0.010597217976922106 0 -0.01043234781906081 -0.010597217976922106 0 -0.0098869509733335303 -0.011497242948669776 0 -0.0094845244162808998 -0.010558966833449583 0 -0.010910795340986672 -0.011363019695305634 0 -0.0098680609675495766 -0.011424877815804667 0 -0.011411906176578097 -0.010843452543522864 0 -0.01043234781906081 -0.010597217976922106 0 -0.0098869509733335303 -0.011497242948669776 0 -0.0098869509733335303 -0.011497242948669776 0 -0.0098518925414914811 -0.011834432538825341 0 -0.0099533969988073751 -0.011792368721182717 0 -0.0098869509733335303 -0.011497242948669776 0 -0.0093775012701889163 -0.011303503672064296 0 -0.0094748421452137983 -0.011938174322538235 0 -0.0098869509733335303 -0.011497242948669776 0 -0.0093775012701889163 -0.011303503672064296 0 -0.0094845244162808998 -0.010558966833449583 0 -0.009119208377302835 -0.0085021632717674715 0 -0.0091805031262069299 -0.008491075927397675 0 -0.0091270151068657945 -0.0084589480429845786 0 -0.0094356730761206483 -0.0054942262283051531 0 -0.0083951726227911531 -0.0069169924500852931 0 -0.009119208377302835 -0.0085021632717674715 0 -0.0090828340830276799 -0.0084552796893170839 0 -0.0091270151068657945 -0.0084589480429845786 0 -0.009119208377302835 -0.0085021632717674715 0 -0.0090828340830276799 -0.0084552796893170839 0 -0.0090453289815856305 -0.0084547212733451227 0 -0.0084875848887667211 -0.0045954272910728386 0 -0.0085190828750823042 -0.0045797698551233194 0 -0.0086367505211269423 -0.0047762680860571841 0 -0.0085607286486725533 -0.0045770657272801848 0 -0.0085190828750823042 -0.0045797698551233194 0 -0.0086367505211269423 -0.0047762680860571841 0 -0.0087040987192996445 -0.0046364673586407803 0 -0.0085607286486725533 -0.0045770657272801848 0 -0.0086367505211269423 -0.0047762680860571841 0 -0.0076780161626636735 -0.0034607308637504236 0 -0.008199595934136392 -0.0025638054012393449 0 -0.0069948732197696447 -0.0062369766940472242 0 -0.0070334438440451934 -0.0061394120072662461 0 -0.0069704787181235307 -0.0061576190496230396 0 -0.0076780161626636735 -0.0034607308637504236 0 -0.0083951726227911531 -0.0069169924500852931 0 -0.0083146119999649697 1.1342405839014297e-05 0 -0.0084348627093764512 -0.00039878312252530267 0 -0.0089439767980393613 -0.00015697185956276794 0 -0.0083146119999649697 1.1342405839014297e-05 0 -0.0084348627093764512 -0.00039878312252530267 0 -0.0080532355367257252 -0.00060017351650172308 0 -0.008599346396748718 -0.00081531177294102281 0 -0.0084348627093764512 -0.00039878312252530267 0 -0.0080532355367257252 -0.00060017351650172308 0 -0.0077360071656280751 9.6816541873594744e-05 0 -0.0083146119999649697 1.1342405839014297e-05 0 -0.0080532355367257252 -0.00060017351650172308 0 -0.008199595934136392 -0.0025638054012393449 0 -0.009095421682941366 -0.0032724207336963487 0 -0.0077360071656280751 9.6816541873594744e-05 0 -0.0080532355367257252 -0.00060017351650172308 0 -0.0075110817495291351 -0.00039084761174812042 0 -0.0085607286486725533 -0.0045770657272801848 0 -0.0085190828750823042 -0.0045797698551233194 0 -0.008430364895550789 -0.0045102215461670266 0 -0.0094356730761206483 -0.0054942262283051531 0 -0.0092001430633626216 -0.0054350629847959115 0 -0.008492111274229797 -0.0045900216817250442 0 -0.0085190828750823042 -0.0045797698551233194 0 -0.008430364895550789 -0.0045102215461670266 0 -0.0094356730761206483 -0.0054942262283051531 0 -0.009095421682941366 -0.0032724207336963487 0 -0.00928724637687303 -0.0036820842409683707 0 -0.010590897583109812 -0.0042060805033557877 0 -0.0097730416695800369 -0.0044636644939533756 0 -0.0099467183572120952 -0.0040131734650657846 0 -0.009095421682941366 -0.0032724207336963487 0 -0.010590897583109812 -0.0042060805033557877 0 -0.0097730416695800369 -0.0044636644939533756 0 -0.010217317307249887 -0.0049072604806524971 0 -0.00928724637687303 -0.0036820842409683707 0 -0.0097730416695800369 -0.0044636644939533756 0 -0.0092829026331507792 -0.0042707451834413336 0 -0.00928724637687303 -0.0036820842409683707 0 -0.0087861865275400339 -0.0037590969207236986 0 -0.0092829026331507792 -0.0042707451834413336 0 -0.0087797800367820054 -0.004511867342369448 0 -0.0092829026331507792 -0.0042707451834413336 0 -0.0094759671912338968 -0.0052458133107224792 0 -0.0097730416695800369 -0.0044636644939533756 0 -0.0092829026331507792 -0.0042707451834413336 0 -0.0094759671912338968 -0.0052458133107224792 0 -0.010286839468265288 -0.0069555865234891181 0 -0.01034437252192652 -0.0090222394357524563 0 -0.0097730416695800369 -0.0044636644939533756 0 -0.0094759671912338968 -0.0052458133107224792 0 -0.010217317307249887 -0.0049072604806524971 0 -0.01034437252192652 -0.0090222394357524563 0 -0.0097173986466909598 -0.0067086190308821691 0 -0.0094356730761206483 -0.0054942262283051531 0 -0.0097173986466909598 -0.0067086190308821691 0 -0.010946085105100584 -0.0045839635814964612 0 -0.010590897583109812 -0.0042060805033557877 0 -0.010217317307249887 -0.0049072604806524971 0 -0.0091805031262069299 -0.008491075927397675 0 -0.0091645233630775636 -0.0084130208408470675 0 -0.0091270151068657945 -0.0084589480429845786 0 -0.01034437252192652 -0.0090222394357524563 0 -0.0095972878318852962 -0.0098600838930086154 0 -0.0092449513460794424 -0.0084743344280421573 0 -0.0091805031262069299 -0.008491075927397675 0 -0.0091645233630775636 -0.0084130208408470675 0 -0.010336427211358207 -0.011288549505196969 0 -0.010326745814218429 -0.011375064216174329 0 -0.010356978909288266 -0.011388749648744921 0 -0.010245922199277268 -0.011421561020402014 0 -0.010336427211358207 -0.011288549505196969 0 -0.010326745814218429 -0.011375064216174329 0 -0.010183112671373364 -0.011354860030009949 0 -0.010751795429923956 -0.011695675154281824 0 -0.010245922199277268 -0.011421561020402014 0 -0.010537076346473636 -0.011706884160788035 0 -0.010796569583854254 -0.011656044608462665 0 -0.010245922199277268 -0.011421561020402014 0 -0.010326745814218429 -0.011375064216174329 0 -0.010367575603744027 -0.011379773721933996 0 -0.010245922199277268 -0.011421561020402014 0 -0.010537076346473636 -0.011706884160788035 0 -0.010359417469544212 -0.011726859135750209 0 -0.010537076346473636 -0.011706884160788035 0 -0.010796569583854254 -0.011656044608462665 0 -0.010722895807855213 -0.011886702203771617 0 -0.010537076346473636 -0.011706884160788035 0 -0.010359417469544212 -0.011726859135750209 0 -0.010492995681680667 -0.011896035521554575 0 -0.010356978909288266 -0.011388749648744921 0 -0.010367575603744027 -0.011379773721933996 0 -0.010280537038800311 -0.011309340919045478 0 -0.010326745814218429 -0.011375064216174329 0 -0.010356978909288266 -0.011388749648744921 0 -0.010367575603744027 -0.011379773721933996 0 -0.010751795429923956 -0.011695675154281824 0 -0.010131055409601851 -0.010628755922916192 0 -0.0095972878318852962 -0.0098600838930086154 0 -0.010131055409601851 -0.010628755922916192 0 -0.0091645233630775636 -0.0084130208408470675 0 -0.0090904439645026463 -0.0084209286410491142 0 -0.0090865113008585831 -0.0083497154868484476 0 -0.0091645233630775636 -0.0084130208408470675 0 -0.0090904439645026463 -0.0084209286410491142 0 -0.0091270151068657945 -0.0084589480429845786 0 -0.0090904439645026463 -0.0084209286410491142 0 -0.0090828340830276799 -0.0084552796893170839 0 -0.0090670955363427713 -0.0084383749016310617 0 -0.0090904439645026463 -0.0084209286410491142 0 -0.0090828340830276799 -0.0084552796893170839 0 -0.0091270151068657945 -0.0084589480429845786 0 -0.0090438539906564017 -0.0084566765001896794 0 -0.0090482564445321101 -0.0084507583524275325 0 -0.0089744908789620593 -0.0084190350271505666 0 -0.0090828340830276799 -0.0084552796893170839 0 -0.0090482564445321101 -0.0084507583524275325 0 -0.0090670955363427713 -0.0084383749016310617 0 -0.0090828340830276799 -0.0084552796893170839 0 -0.0090453289815856305 -0.0084547212733451227 0 -0.0090482564445321101 -0.0084507583524275325 0 -0.0083951726227911531 -0.0069169924500852931 0 -0.008366265422814342 -0.0070875134250389191 0 -0.0090482564445321101 -0.0084507583524275325 0 -0.0090471851740166545 -0.0084259105382418625 0 -0.0090670955363427713 -0.0084383749016310617 0 -0.0090904439645026463 -0.0084209286410491142 0 -0.0090471851740166545 -0.0084259105382418625 0 -0.0090670955363427713 -0.0084383749016310617 0 -0.0090482564445321101 -0.0084507583524275325 0 -0.0090471851740166545 -0.0084259105382418625 0 -0.0089744908789620593 -0.0084190350271505666 0 -0.0083951726227911531 -0.0069169924500852931 0 -0.0080090554172621946 -0.0072750017620950378 0 -0.0090904439645026463 -0.0084209286410491142 0 -0.0090502584157719779 -0.0083976750109331089 0 -0.0090865113008585831 -0.0083497154868484476 0 -0.0090471851740166545 -0.0084259105382418625 0 -0.0090502584157719779 -0.0083976750109331089 0 -0.0089744908789620593 -0.0084190350271505666 0 -0.0090502584157719779 -0.0083976750109331089 0 -0.0089986783045688124 -0.0083670266132976536 0 -0.0089744908789620593 -0.0084190350271505666 0 -0.0090904439645026463 -0.0084209286410491142 0 -0.0090471851740166545 -0.0084259105382418625 0 -0.0090502584157719779 -0.0083976750109331089 0 -0.0090502584157719779 -0.0083976750109331089 0 -0.0090404177305534721 -0.0083604532897130698 0 -0.0090865113008585831 -0.0083497154868484476 0 -0.0090502584157719779 -0.0083976750109331089 0 -0.0089986783045688124 -0.0083670266132976536 0 -0.0090404177305534721 -0.0083604532897130698 0 -0.0089986783045688124 -0.0083670266132976536 0 -0.008954733497586501 -0.0083702402173694932 0 -0.0089744908789620593 -0.0084190350271505666 0 -0.008954733497586501 -0.0083702402173694932 0 -0.0088981274129177456 -0.0083688995600123897 0 -0.0089744908789620593 -0.0084190350271505666 0 -0.0067934316021730544 -0.0080464618003488492 0 -0.0080090554172621946 -0.0072750017620950378 0 -0.0069419198572554571 -0.0061295514057613399 0 -0.0069435620650323332 -0.0061191813713438268 0 -0.0069451839554387747 -0.006098163550126148 0 -0.0047126985815729196 -0.0083364733550232127 0 -0.0048498465917045496 -0.0083503662859591744 0 -0.0047481012392358258 -0.0084669672764613683 0 -0.0067934316021730544 -0.0080464618003488492 0 -0.0057438360365608112 -0.0067069682154352467 0 -0.0067364646134709339 -0.0059268684357089672 0 -0.0068250542203835557 -0.006102432453058775 0 -0.0069447228517477838 -0.0061037109182294951 0 -0.0067364646134709339 -0.0059268684357089672 0 -0.006710738356315484 -0.0061006101675760089 0 -0.0065741375757914387 -0.0061105738377779653 0 -0.006710738356315484 -0.0061006101675760089 0 -0.0068145147955022889 -0.0062055692171487306 0 -0.0065837308897406469 -0.006135502478628126 0 -0.0067364646134709339 -0.0059268684357089672 0 -0.0068250542203835557 -0.006102432453058775 0 -0.006710738356315484 -0.0061006101675760089 0 -0.0068250542203835557 -0.006102432453058775 0 -0.006710738356315484 -0.0061006101675760089 0 -0.0068145147955022889 -0.0062055692171487306 0 -0.0069435620650323332 -0.0061191813713438268 0 -0.0069447228517477838 -0.0061037109182294951 0 -0.0069451839554387747 -0.006098163550126148 0 -0.0057438360365608112 -0.0067069682154352467 0 -0.0072056339354637034 -0.006048050511935057 0 -0.0070334438440451934 -0.0061394120072662461 0 -0.0069447228517477838 -0.0061037109182294951 0 -0.0069451839554387747 -0.006098163550126148 0 -0.0068250542203835557 -0.006102432453058775 0 -0.0069128604763603208 -0.0061633092919216826 0 -0.0068145147955022889 -0.0062055692171487306 0 -0.0068250542203835557 -0.006102432453058775 0 -0.0069447228517477838 -0.0061037109182294951 0 -0.0069128604763603208 -0.0061633092919216826 0 -0.0070334438440451934 -0.0061394120072662461 0 -0.0069447228517477838 -0.0061037109182294951 0 -0.0069704787181235307 -0.0061576190496230396 0 -0.0069447228517477838 -0.0061037109182294951 0 -0.0069704787181235307 -0.0061576190496230396 0 -0.0069128604763603208 -0.0061633092919216826 0 -0.0061753794680110595 -0.0027313245460457306 0 -0.0068657536571238844 -0.0029946122476561554 0 -0.0065287917000606665 -0.0020483582159966617 0 -0.0069948732197696447 -0.0062369766940472242 0 -0.0069704787181235307 -0.0061576190496230396 0 -0.0069128604763603208 -0.0061633092919216826 0 -0.0069948732197696447 -0.0062369766940472242 0 -0.0069128604763603208 -0.0061633092919216826 0 -0.0068145147955022889 -0.0062055692171487306 0 -0.0076780161626636735 -0.0034607308637504236 0 -0.0069348163258491731 -0.0046945093896225819 0 -0.0068657536571238844 -0.0029946122476561554 0 -0.0072290335817145925 -0.0023145476267895249 0 -0.0075499423232656604 -0.0032605174255157425 0 -0.0069348163258491731 -0.0046945093896225819 0 -0.0057481259592309739 -0.004419598300141549 0 -0.0068657536571238844 -0.0029946122476561554 0 -0.0072290335817145925 -0.0023145476267895249 0 -0.0065287917000606665 -0.0020483582159966617 0 -0.0076780161626636735 -0.0034607308637504236 0 -0.0079711451073736696 -0.00069638115467601065 0 -0.008599346396748718 -0.00081531177294102281 0 -0.0084348627093764512 -0.00039878312252530267 0 -0.0089439767980393613 -0.00015697185956276794 0 -0.0016401199639156719 -0.0028681034798325759 0 -0.0020931982985735367 -0.0022830909886312699 0 -0.0016791693327021704 -0.0021716621216066614 0 -0.0024163737026827743 -0.0034676042846378042 0 -0.0009115124235939201 -0.0031854030325431243 0 -0.0024163737026827743 -0.0034676042846378042 0 -0.0039115916330231546 -0.0018692880189573268 0 -0.0051041219533599557 -0.0022138001091601576 0 -0.0057787810321203951 -0.002806876093766703 0 -0.0058453841141127474 -0.0018636269481170766 0 -0.0051041219533599557 -0.0022138001091601576 0 -0.0057787810321203951 -0.002806876093766703 0 -0.0054126684767615233 -0.0031489358463976575 0 -0.0061701509294152307 -0.0021330001040490076 0 -0.0057481259592309739 -0.004419598300141549 0 -0.0057787810321203951 -0.002806876093766703 0 -0.0054126684767615233 -0.0031489358463976575 0 -0.0054842465803867143 -0.0031764943718714579 0 -0.0024163737026827743 -0.0034676042846378042 0 -0.0049057778815177642 -0.0045632049659366245 0 -0.0024163737026827743 -0.0034676042846378042 0 -0.0017968903351928839 -0.0052709577707338671 0 0.00022656887879989092 -0.0041627945640614799 0 2.2714018282314728e-06 -0.0042781653835364088 0 -1.3271311870726833e-05 -0.003830097695772589 0 -0.00043315563316575779 -0.006667905174690859 0 -0.00058640854841239282 -0.0069037642374116335 0 -0.00079301552600241805 -0.0068147899421067849 0 0.00023700727279683215 -0.0043512310480074527 0 -0.00013101419703284836 -0.0045061970258964404 0 2.2714018282314728e-06 -0.0042781653835364088 0 -0.0017968903351928839 -0.0052709577707338671 0 0.0014602415809393612 -0.0060643690027134042 0 0.00022656887879989092 -0.0041627945640614799 0 0.00023700727279683215 -0.0043512310480074527 0 2.2714018282314728e-06 -0.0042781653835364088 0 -0.0057438360365608112 -0.0067069682154352467 0 -0.0050702885388827406 -0.0050607261900709561 0 -0.0037394219477454951 -0.0062358886020403128 0 -0.0040859670295750076 -0.005801362334204945 0 -0.0041673923283649505 -0.0060419813050615126 0 -0.006710738356315484 -0.0061006101675760089 0 -0.0065837308897406469 -0.006135502478628126 0 -0.0065741375757914387 -0.0061105738377779653 0 -0.0054399389690717361 -0.0041880287391044685 0 -0.0054639425042402158 -0.0042562934365899885 0 -0.0055008518977019668 -0.0042107849819212461 0 -0.0057481259592309739 -0.004419598300141549 0 -0.0050702885388827406 -0.0050607261900709561 0 -0.0057481259592309739 -0.004419598300141549 0 -0.0049057778815177642 -0.0045632049659366245 0 -0.0050702885388827406 -0.0050607261900709561 0 -0.0049057778815177642 -0.0045632049659366245 0 -0.0029511762322629825 -0.0041707736303766641 0 -0.002916725660508808 -0.0046820975714308589 0 -0.0026299594903672727 -0.0045745289965642803 0 -0.0042948714072400182 -0.0058143906945126817 0 -0.0040706381421041667 -0.0057776602918922981 0 -0.0041024496156100657 -0.0057377882897226102 0 -0.0017968903351928839 -0.0052709577707338671 0 -0.0049057778815177642 -0.0045632049659366245 0 -0.0017968903351928839 -0.0052709577707338671 0 -0.0023307761545773758 -0.0066013327979553534 0 -0.0042948714072400182 -0.0058143906945126817 0 -0.0041673923283649505 -0.0060419813050615126 0 -0.0042619197590576252 -0.0062302113575989542 0 -0.0050702885388827406 -0.0050607261900709561 0 -0.0045866416875892137 -0.0058485172404150517 0 -0.0042948714072400182 -0.0058143906945126817 0 -0.0040706381421041667 -0.0057776602918922981 0 -0.0041673923283649505 -0.0060419813050615126 0 -0.0057438360365608112 -0.0067069682154352467 0 -0.0027736586900718066 -0.00756225177403209 0 -0.0037394219477454951 -0.0062358886020403128 0 -0.0042619197590576252 -0.0062302113575989542 0 -0.0042291574013323813 -0.0066256570665608428 0 -0.0037394219477454951 -0.0062358886020403128 0 -0.0041673923283649505 -0.0060419813050615126 0 -0.0042619197590576252 -0.0062302113575989542 0 -0.0047126985815729196 -0.0083364733550232127 0 -0.0047481012392358258 -0.0084669672764613683 0 -0.0043875399063649069 -0.0082200919251685881 0 -0.0023307761545773758 -0.0066013327979553534 0 -0.0027736586900718066 -0.00756225177403209 0 -0.00043315563316575779 -0.006667905174690859 0 -0.00041447819898024843 -0.0068935586031408144 0 -0.00058640854841239282 -0.0069037642374116335 0 -0.00041447819898024843 -0.0068935586031408144 0 -0.00056119757550957894 -0.0070719810158099269 0 -0.0003994139842031608 -0.0071229737843389188 0 -0.00041447819898024843 -0.0068935586031408144 0 -0.00058640854841239282 -0.0069037642374116335 0 -0.00056119757550957894 -0.0070719810158099269 0 -0.00058640854841239282 -0.0069037642374116335 0 -0.000731494109693993 -0.0070757762624855331 0 -0.00056119757550957894 -0.0070719810158099269 0 0.0016946216798008644 -0.0080744369725554519 0 0.0016014287195311758 -0.0082781979122632399 0 0.0017465209767337229 -0.00828335692122701 0 0.0014602415809393612 -0.0060643690027134042 0 0.00052474259253623722 -0.0078196343809000812 0 -0.00058640854841239282 -0.0069037642374116335 0 -0.00079301552600241805 -0.0068147899421067849 0 -0.000731494109693993 -0.0070757762624855331 0 0.0016946216798008644 -0.0080744369725554519 0 0.001404621711522794 -0.0082002686010949778 0 0.0016014287195311758 -0.0082781979122632399 0 0.0044711771639571202 -0.0055940252674606637 0 0.0040891482651762307 -0.0052508212964840831 0 0.0036303793414915585 -0.0059644412955136249 0 0.0014602415809393612 -0.0060643690027134042 0 0.0028492296637331951 -0.007155782420577809 0 0.0044711771639571202 -0.0055940252674606637 0 0.0040891482651762307 -0.0052508212964840831 0 0.0042485186653948605 -0.0047982693139113795 0 -0.00013101419703284836 -0.0045061970258964404 0 2.2714018282314728e-06 -0.0042781653835364088 0 -0.00023877328907466225 -0.0041228217878615187 0 0.0014602415809393612 -0.0060643690027134042 0 0.0019948264619366802 -0.0042767510958847061 0 0.0028492296637331951 -0.007155782420577809 0 0.0018047753960173875 -0.0073486999590361736 0 0.0036303793414915585 -0.0059644412955136249 0 0.0030729783304062177 -0.0054895536921604126 0 0.0026695760640935706 -0.0063943591998278189 0 0.0036303793414915585 -0.0059644412955136249 0 0.0036721888612693391 -0.0051930458557770875 0 0.0030729783304062177 -0.0054895536921604126 0 0.0040891482651762307 -0.0052508212964840831 0 0.0036303793414915585 -0.0059644412955136249 0 0.0036721888612693391 -0.0051930458557770875 0 0.0036721888612693391 -0.0051930458557770875 0 0.0030729783304062177 -0.0054895536921604126 0 0.0031488718784477066 -0.0049020290310054521 0 0.0030729783304062177 -0.0054895536921604126 0 0.0031488718784477066 -0.0049020290310054521 0 0.0026812266200539432 -0.004962317305886324 0 0.0031488718784477066 -0.0049020290310054521 0 0.0031432484364738314 -0.003916148396022584 0 0.0026927904525700609 -0.0043455538771823904 0 0.0031578944384528609 -0.0048390492609926439 0 0.0039478639083088763 -0.0038402769464221209 0 0.0031488718784477066 -0.0049020290310054521 0 0.0026812266200539432 -0.004962317305886324 0 0.0026927904525700609 -0.0043455538771823904 0 0.0031488718784477066 -0.0049020290310054521 0 0.0035646146108127201 -0.0046815866879697928 0 0.0035384521987315803 -0.0041270679610718097 0 0.0040891482651762307 -0.0052508212964840831 0 0.0036721888612693391 -0.0051930458557770875 0 0.0038355400367727096 -0.0046078885020740014 0 0.0036721888612693391 -0.0051930458557770875 0 0.0039097440995008309 -0.0045069840094545078 0 0.0035646146108127201 -0.0046815866879697928 0 0.00367467766910311 -0.0051563630098949795 0 0.0039643807465086648 -0.004519482983744591 0 0.0036721888612693391 -0.0051930458557770875 0 0.0031488718784477066 -0.0049020290310054521 0 0.0035646146108127201 -0.0046815866879697928 0 0.0039097440995008309 -0.0045069840094545078 0 0.0035384521987315803 -0.0041270679610718097 0 0.0041276094591063666 -0.003817974724136225 0 0.0039097440995008309 -0.0045069840094545078 0 0.0035646146108127201 -0.0046815866879697928 0 0.0035384521987315803 -0.0041270679610718097 0 0.0031488718784477066 -0.0049020290310054521 0 0.0040737850939207626 -0.0035002799979009639 0 0.0031432484364738314 -0.003916148396022584 0 0.0040737850939207626 -0.0035002799979009639 0 0.0031432484364738314 -0.003916148396022584 0 0.003272089005254164 -0.0030060341076724299 0 0.0031432484364738314 -0.003916148396022584 0 0.003272089005254164 -0.0030060341076724299 0 0.0026668452816594767 -0.0035696604220119429 0 0.0031432484364738314 -0.003916148396022584 0 0.0026927904525700609 -0.0043455538771823904 0 0.0026668452816594767 -0.0035696604220119429 0 2.2714018282314728e-06 -0.0042781653835364088 0 -0.00023877328907466225 -0.0041228217878615187 0 -1.3271311870726833e-05 -0.003830097695772589 0 0.0040891482651762307 -0.0052508212964840831 0 0.0038355400367727096 -0.0046078885020740014 0 0.0042485186653948605 -0.0047982693139113795 0 -0.00023877328907466225 -0.0041228217878615187 0 -1.3271311870726833e-05 -0.003830097695772589 0 -0.00034670027067018274 -0.003722454714640935 0 0.0039643807465086648 -0.004519482983744591 0 0.0024338257277618761 -0.0037672925723990012 0 0.0038355400367727096 -0.0046078885020740014 0 0.0042485186653948605 -0.0047982693139113795 0 0.0040078106922082227 -0.0040099178750908019 0 0.0019948264619366802 -0.0042767510958847061 0 0.0024338257277618761 -0.0037672925723990012 0 -0.0009115124235939201 -0.0031854030325431243 0 -0.00042938179330992893 -0.0020937193672679977 0 -0.0020931982985735367 -0.0022830909886312699 0 -0.0025503105910740682 -0.0017012955365174527 0 -0.002084359512268041 -0.0017254695665555634 0 -1.3271311870726833e-05 -0.003830097695772589 0 -0.00034670027067018274 -0.003722454714640935 0 -0.00027241050070305156 -0.0034778002257955286 0 0.0024338257277618761 -0.0037672925723990012 0 0.0032396682638808332 -0.0022024076560776817 0 0.0016613124678842585 -0.0033013130705573696 0 0.0020083258389445276 -0.0022082053637572123 0 0.0013676402320413664 -0.0022648509406975304 0 0.0024338257277618761 -0.0037672925723990012 0 -0.00042938179330992893 -0.0020937193672679977 0 -0.00042938179330992893 -0.0020937193672679977 0 -0.0013928122929914978 -0.0011696541374266194 0 -0.00045109228515804084 -0.001529421192600503 0 -0.00061158351127576843 -0.0013312700234386797 0 -0.00028088324956457463 -0.00097218400498594413 0 0.0027804697969131087 -0.0017390726558770223 0 0.0030109559203903135 -0.0013224561956904515 0 0.0024858204659725471 -0.00067436705591621387 0 -0.00042938179330992893 -0.0020937193672679977 0 0.0011462989646216027 -0.0012965092609388245 0 0.0020083258389445276 -0.0022082053637572123 0 0.0013676402320413664 -0.0022648509406975304 0 0.0016437917629445139 -0.0017620693011647119 0 0.0032396682638808332 -0.0022024076560776817 0 0.0011462989646216027 -0.0012965092609388245 0 0.0011462989646216027 -0.0012965092609388245 0 0.0030124178934751587 -0.00040744345247625672 0 -0.0025503105910740682 -0.0017012955365174527 0 -0.002084359512268041 -0.0017254695665555634 0 -0.0024058122421068352 -0.0012334912506264822 0 -0.002084359512268041 -0.0017254695665555634 0 -0.0020347561942953376 -0.0011359953017102485 0 -0.0024058122421068352 -0.0012334912506264822 0 0.003272089005254164 -0.0030060341076724299 0 0.0034257282901138776 -0.0019152351155229796 0 0.0020164088648482814 -0.0024306945275132555 0 0.0040737850939207626 -0.0035002799979009639 0 0.003272089005254164 -0.0030060341076724299 0 0.0039226115989066624 -0.0025874567730457842 0 0.003272089005254164 -0.0030060341076724299 0 0.0039226115989066624 -0.0025874567730457842 0 0.0034257282901138776 -0.0019152351155229796 0 0.0035384521987315803 -0.0041270679610718097 0 0.0041276094591063666 -0.003817974724136225 0 0.0039750851436724825 -0.0032882122771968792 0 0.004922862928690379 -0.0019196972263258298 0 0.0039226115989066624 -0.0025874567730457842 0 0.0034257282901138776 -0.0019152351155229796 0 0.0039478639083088763 -0.0038402769464221209 0 0.0032396682638808332 -0.0022024076560776817 0 0.0040737850939207626 -0.0035002799979009639 0 0.004922862928690379 -0.0019196972263258298 0 0.0039226115989066624 -0.0025874567730457842 0 0.004922862928690379 -0.0019196972263258298 0 0.0037222626043590555 -0.0010516177872244477 0 0.00455390575772121 -0.00069178123576011167 0 0.004922862928690379 -0.0019196972263258298 0 0.0034257282901138776 -0.0019152351155229796 0 0.0037222626043590555 -0.0010516177872244477 0 0.0032396682638808332 -0.0022024076560776817 0 0.0030124178934751587 -0.00040744345247625672 0 0.0034257282901138776 -0.0019152351155229796 0 0.0027510040616364789 -0.0012574217762086554 0 0.0020164088648482814 -0.0024306945275132555 0 0.0034257282901138776 -0.0019152351155229796 0 0.0037222626043590555 -0.0010516177872244477 0 0.0027510040616364789 -0.0012574217762086554 0 0.0027980134461615814 -4.3272934213091748e-05 0 0.0030966489227329057 -0.00047649251131991216 0 0.0024809294800845635 -0.00041847103161934219 0 0.0027980134461615814 -4.3272934213091748e-05 0 0.0030966489227329057 -0.00047649251131991216 0 0.0032550596779027936 1.1747647874624901e-05 0 0.0037222626043590555 -0.0010516177872244477 0 0.0027510040616364789 -0.0012574217762086554 0 0.0030966489227329057 -0.00047649251131991216 0 0.0027510040616364789 -0.0012574217762086554 0 0.0030966489227329057 -0.00047649251131991216 0 0.0024809294800845635 -0.00041847103161934219 0 0.0037222626043590555 -0.0010516177872244477 0 0.0030966489227329057 -0.00047649251131991216 0 0.003638196602441324 -0.00036221568810001375 0 0.0030966489227329057 -0.00047649251131991216 0 0.003638196602441324 -0.00036221568810001375 0 0.0032550596779027936 1.1747647874624901e-05 0 0.003638196602441324 -0.00036221568810001375 0 0.0032550596779027936 1.1747647874624901e-05 0 0.0035776569847598559 0.00038117531375100471 0 0.003638196602441324 -0.00036221568810001375 0 0.00455390575772121 -0.00069178123576011167 0 0.0035776569847598559 0.00038117531375100471 0 0.00064844836921404837 1.7351405170336322e-05 0 0.00065203360622985223 -8.7568382489714894e-05 0 0.00060733521893595538 -3.7114707874731329e-05 0 0.0030124178934751587 -0.00040744345247625672 0 0.0039921766099157733 7.4692048869171468e-05 0 0.0037222626043590555 -0.0010516177872244477 0 0.003638196602441324 -0.00036221568810001375 0 0.00455390575772121 -0.00069178123576011167 0 0.0042581875646197295 -0.00048464939559298217 0 0.0039016068067750471 0.0009170240270636159 0 0.0035776569847598559 0.00038117531375100471 0 0.0030124178934751587 -0.00040744345247625672 0 0.0018745840794260431 0.00033868907739120633 0 0.00064844836921404837 1.7351405170336322e-05 0 0.00065203360622985223 -8.7568382489714894e-05 0 0.0007105145672724768 -0.00013946941955824565 0 0.00065203360622985223 -8.7568382489714894e-05 0 0.0007105145672724768 -0.00013946941955824565 0 0.00055832603696348126 -0.00015016930782194037 0 0.0032550596779027936 1.1747647874624901e-05 0 0.0035776569847598559 0.00038117531375100471 0 0.0030957979700876664 0.00054653670397273799 0 0.0039016068067750471 0.0009170240270636159 0 0.0035776569847598559 0.00038117531375100471 0 0.0030957979700876664 0.00054653670397273799 0 0.0019516446445699998 0.00034225602338348117 0 0.0018406310256587426 0.00037772659846534851 0 0.0020786364630569305 0.00036061948599245809 0 0.0018745840794260431 0.00033868907739120633 0 0.0026975478132187877 0.00048790861072791643 0 0.0019516446445699998 0.00034225602338348117 0 0.0020786364630569305 0.00036061948599245809 0 0.0021044631894136232 0.00039129515363754518 0 0.0027980134461615814 -4.3272934213091748e-05 0 0.0032550596779027936 1.1747647874624901e-05 0 0.0030957979700876664 0.00054653670397273799 0 0.0027980134461615814 -4.3272934213091748e-05 0 0.0030957979700876664 0.00054653670397273799 0 0.0021628090210375635 1.4462785126621424e-05 0 -0.0013928122929914978 -0.0011696541374266194 0 -0.0006102810676180925 -0.00018133717078271189 0 -0.00028088324956457463 -0.00097218400498594413 0 -0.00036882875238718264 -0.00087322130089667073 0 -0.00012048638535210445 -0.00041573313959226391 0 -0.0020347561942953376 -0.0011359953017102485 0 -0.0024058122421068352 -0.0012334912506264822 0 -0.0022551265536945577 -0.00076746843786825792 0 0.00013300783695623745 -0.00040056655524098349 0 -0.0006102810676180925 -0.00018133717078271189 0 -0.00061158351127576843 -0.0013312700234386797 0 -0.00028088324956457463 -0.00097218400498594413 0 -0.00036882875238718264 -0.00087322130089667073 0 0.00060116480332854155 6.3234602574624554e-05 0 0.00064844836921404837 1.7351405170336322e-05 0 0.00054875430381847617 -4.6274244242176778e-06 0 0.00064844836921404837 1.7351405170336322e-05 0 0.00054875430381847617 -4.6274244242176778e-06 0 0.00060733521893595538 -3.7114707874731329e-05 0 0.0011462989646216027 -0.0012965092609388245 0 0.00013300783695623745 -0.00040056655524098349 0 0.00054875430381847617 -4.6274244242176778e-06 0 0.00057484087211755902 -5.4773181302133346e-05 0 0.00048880866282261437 -9.0722295863531608e-05 0 0.00054875430381847617 -4.6274244242176778e-06 0 0.00060733521893595538 -3.7114707874731329e-05 0 0.00057484087211755902 -5.4773181302133346e-05 0 0.00065203360622985223 -8.7568382489714894e-05 0 0.00055832603696348126 -0.00015016930782194037 0 0.00040482868497008622 -8.1607278925192818e-05 0 0.00065203360622985223 -8.7568382489714894e-05 0 0.00057484087211755902 -5.4773181302133346e-05 0 0.00048880866282261437 -9.0722295863531608e-05 0 0.00065203360622985223 -8.7568382489714894e-05 0 0.00040482868497008622 -8.1607278925192818e-05 0 0.00032694509156229944 -3.2404330048249449e-05 0 0.001061176784688106 -6.4560421376961581e-05 0 -0.0006102810676180925 -0.00018133717078271189 0 0.00065203360622985223 -8.7568382489714894e-05 0 0.00060733521893595538 -3.7114707874731329e-05 0 0.00057484087211755902 -5.4773181302133346e-05 0 -0.0020347561942953376 -0.0011359953017102485 0 -0.0022551265536945577 -0.00076746843786825792 0 -0.0017740485791934129 -0.0007835574901851886 0 -0.0010889659556543145 0.00034057511838818096 0 -0.00093317077804159338 0.00081391613556163161 0 -0.0031416767380216177 0.00090024101492777102 0 0.00047427604781561864 -0.00027592162377568648 0 0.00031482535490571703 -8.5850352323096641e-05 0 0.00040482868497008622 -8.1607278925192818e-05 0 -0.0006102810676180925 -0.00018133717078271189 0 -0.0032273286007045189 0.00014973083257868315 0 -0.00068219336551379663 0.00041308370967877919 0 -0.0006102810676180925 -0.00018133717078271189 0 0.00030686370003180774 -8.5870069927825171e-05 0 0.00040482868497008622 -8.1607278925192818e-05 0 0.00032694509156229944 -3.2404330048249449e-05 0 -0.00068219336551379663 0.00041308370967877919 0 0.00022542193870379426 0.00026462996801558778 0 -0.003523584880247203 0.0012811445890616986 0 -0.00354721650180039 0.001610611673296049 0 -0.0045628925324251411 0.0011820189387530347 0 -0.00068219336551379663 0.00041308370967877919 0 -0.003401710549882466 0.0018462150600377697 0 -0.0010889659556543145 0.00034057511838818096 0 -0.0030873431949392498 0.00014384127658802101 0 -0.0031416767380216177 0.00090024101492777102 0 -0.003401710549882466 0.0018462150600377697 0 -0.0032273286007045189 0.00014973083257868315 0 -0.0032273286007045189 0.00014973083257868315 0 -0.0038407756630301527 -0.0010701744747096077 0 -0.0020347561942953376 -0.0011359953017102485 0 -0.0017740485791934129 -0.0007835574901851886 0 -0.0017321368830943314 -0.0013640277678068425 0 -0.0041371512152227046 -0.00026176021451480456 0 -0.0042274019616512478 -0.00019431358457064099 0 -0.0041492912969948847 -0.00013915850442093635 0 -0.0020347561942953376 -0.0011359953017102485 0 -0.0017245874424028605 -0.0014758583335192841 0 -0.0017321368830943314 -0.0013640277678068425 0 -0.0054779034422225547 -0.00054175735215084247 0 -0.0051685569275107274 -0.00076321759319979826 0 -0.0054983656342598407 -0.00091069832538367957 0 -0.0054779034422225547 -0.00054175735215084247 0 -0.0058847743662201893 -0.00084735621401014257 0 -0.0054983656342598407 -0.00091069832538367957 0 -0.0049672319038604517 -0.00046762709398965528 0 -0.0038407756630301527 -0.0010701744747096077 0 -0.0049672319038604517 -0.00046762709398965528 0 -0.0049491073557535598 0.0006053718374784123 0 -0.00354721650180039 0.001610611673296049 0 -0.0045628925324251411 0.0011820189387530347 0 -0.0048996547600905424 0.0016660738108468293 0 -0.003401710549882466 0.0018462150600377697 0 -0.0048331591243813568 0.0022927270947045841 0 -0.0032273286007045189 0.00014973083257868315 0 -0.0049491073557535598 0.0006053718374784123 0 -0.0041371512152227046 -0.00026176021451480456 0 -0.0042274019616512478 -0.00019431358457064099 0 -0.0043062632685048167 -0.00025139628626725266 0 -0.0059016797805529478 0.0020230068647219424 0 -0.0048331591243813568 0.0022927270947045841 0 -0.0051716543791272447 -0.00030026776110237422 0 -0.0047041037046821341 -0.00032473068967571223 0 -0.0050171620965002864 -0.00053730968085587659 0 -0.0055969833612502136 0.0010866339609617267 0 -0.0045628925324251411 0.0011820189387530347 0 -0.0048996547600905424 0.0016660738108468293 0 -0.006166246899054882 0.0010186993657420667 0 -0.0056237726129376546 0.001467257012089673 0 -0.0064486057985936145 0.001502289072225813 0 -0.0049491073557535598 0.0006053718374784123 0 -0.0070303904770329341 0.00094729334962543005 0 -0.0059016797805529478 0.0020230068647219424 0 -0.0049491073557535598 0.0006053718374784123 0 -0.0066458478103031465 0.00097341451404390795 0 -0.006166246899054882 0.0010186993657420667 0 -0.0064486057985936145 0.001502289072225813 0 -0.0072783718316946425 0.0017997866433428521 0 -0.0070303904770329341 0.00094729334962543005 0 -0.0047041037046821341 -0.00032473068967571223 0 -0.0048464461610166426 -0.00073007807902637138 0 -0.0050171620965002864 -0.00053730968085587659 0 -0.0084585308087447506 0.0011201327735612557 0 -0.0088383669849675765 0.0017260961099468959 0 -0.0090621264611597235 0.0011109734544195162 0 -0.0070303904770329341 0.00094729334962543005 0 -0.0069580826780769401 0.00020878506471319323 0 -0.0054779034422225547 -0.00054175735215084247 0 -0.0050171620965002864 -0.00053730968085587659 0 -0.0051685569275107274 -0.00076321759319979826 0 -0.0054779034422225547 -0.00054175735215084247 0 -0.0051716543791272447 -0.00030026776110237422 0 -0.0050171620965002864 -0.00053730968085587659 0 -0.0048464461610166426 -0.00073007807902637138 0 -0.0050171620965002864 -0.00053730968085587659 0 -0.0051685569275107274 -0.00076321759319979826 0 -0.0048464461610166426 -0.00073007807902637138 0 -0.0051685569275107274 -0.00076321759319979826 0 -0.0049928503076467068 -0.0010957731060043511 0 -0.0069580826780769401 0.00020878506471319323 0 -0.0064087932638521245 -0.00080833452141099626 0 -0.0048200644360071772 -0.0013205395311142243 0 -0.0052134977740805792 -0.0011406370946364841 0 -0.0053919266508575718 -0.0014411653136517297 0 -0.0049086349916887782 -0.0011140775417066292 0 -0.0064087932638521245 -0.00080833452141099626 0 -0.0051685569275107274 -0.00076321759319979826 0 -0.0048200644360071772 -0.0013205395311142243 0 -0.0052134977740805792 -0.0011406370946364841 0 -0.0084585308087447506 0.0011201327735612557 0 -0.0090621264611597235 0.0011109734544195162 0 -0.0086632030113365319 0.00049340171588129053 0 -0.0090621264611597235 0.0011109734544195162 0 -0.0092815334665723535 0.00049238287203185057 0 -0.0086632030113365319 0.00049340171588129053 0 -0.0079711451073736696 -0.00069638115467601065 0 -0.0064087932638521245 -0.00080833452141099626 0 -0.0089439767980393613 -0.00015697185956276794 0 -0.0092815334665723535 0.00049238287203185057 0 -0.0086632030113365319 0.00049340171588129053 0 -0.0083146119999649697 1.1342405839014297e-05 0 -0.0089439767980393613 -0.00015697185956276794 0 -0.0086632030113365319 0.00049340171588129053 0 -0.0061701509294152307 -0.0021330001040490076 0 -0.0064087932638521245 -0.00080833452141099626 0 -0.0051041219533599557 -0.0022138001091601576 0 -0.0048200644360071772 -0.0013205395311142243 0 -0.0053919266508575718 -0.0014411653136517297 0 -0.0072290335817145925 -0.0023145476267895249 0 -0.0065287917000606665 -0.0020483582159966617 0 -0.0068902050756820465 -0.0013575348679806564 0 -0.0053919266508575718 -0.0014411653136517297 0 -0.0058453841141127474 -0.0018636269481170766 0 -0.005882719168192857 -0.0009796831314859639 0 -0.0051041219533599557 -0.0022138001091601576 0 -0.0053919266508575718 -0.0014411653136517297 0 -0.0058453841141127474 -0.0018636269481170766 0 -0.0039115916330231546 -0.0018692880189573268 0 -0.0038005231807628501 -0.0012683769286106303 0 -0.002084359512268041 -0.0017254695665555634 0 -0.0016791693327021704 -0.0021716621216066614 0 -0.0017245874424028605 -0.0014758583335192841 0 -0.0020931982985735367 -0.0022830909886312699 0 -0.002084359512268041 -0.0017254695665555634 0 -0.0016791693327021704 -0.0021716621216066614 0 -0.002084359512268041 -0.0017254695665555634 0 -0.0020347561942953376 -0.0011359953017102485 0 -0.0017245874424028605 -0.0014758583335192841 0 -0.005882719168192857 -0.0009796831314859639 0 -0.0058847743662201893 -0.00084735621401014257 0 -0.0054983656342598407 -0.00091069832538367957 0 -0.0038005231807628501 -0.0012683769286106303 0 -0.0038407756630301527 -0.0010701744747096077 0 -0.0052134977740805792 -0.0011406370946364841 0 -0.0053919266508575718 -0.0014411653136517297 0 -0.0054983656342598407 -0.00091069832538367957 0 -0.0053919266508575718 -0.0014411653136517297 0 -0.005882719168192857 -0.0009796831314859639 0 -0.0054983656342598407 -0.00091069832538367957 0 -0.0051685569275107274 -0.00076321759319979826 0 -0.0052134977740805792 -0.0011406370946364841 0 -0.0054983656342598407 -0.00091069832538367957 0 -0.015625080801022082 -0.0030163996672907391 0 -0.015255818490198206 -0.0030196407508049734 0 -0.015428724245169957 -0.003654299047646217 0 -0.015255818490198206 -0.0030196407508049734 0 -0.014999914973933328 -0.0034029664583698342 0 -0.014999950589268646 -0.0025787265832097751 0 -0.015255818490198206 -0.0030196407508049734 0 -0.014999914973933328 -0.0034029664583698342 0 -0.015428724245169957 -0.003654299047646217 0 -0.015428724245169957 -0.003654299047646217 0 -0.015769222514806756 -0.0035955655505183347 0 -0.015642884957223921 -0.0038397221294010652 0 -0.015625080801022082 -0.0030163996672907391 0 -0.015428724245169957 -0.003654299047646217 0 -0.015769222514806756 -0.0035955655505183347 0 -0.015571663310776937 -0.0035220664948204588 0 -0.015918963660091018 -0.0035375528272184862 0 -0.015708556352164383 -0.0030366171438710341 0 -0.015571663310776937 -0.0035220664948204588 0 -0.015918963660091018 -0.0035375528272184862 0 -0.015730944572659888 -0.0037989969002679446 0 -0.015918963660091018 -0.0035375528272184862 0 -0.015708556352164383 -0.0030366171438710341 0 -0.016170103876770852 -0.0026652174105689808 0 -0.015291888938797602 -0.0029082861947145292 0 -0.015708556352164383 -0.0030366171438710341 0 -0.015594136813590028 -0.002451391367438876 0 -0.015458422733827647 -0.0029601783029412146 0 -0.015665970100443845 -0.0035420802439908969 0 -0.015291888938797602 -0.0029082861947145292 0 -0.015571663310776937 -0.0035220664948204588 0 -0.015708556352164383 -0.0030366171438710341 0 -0.015708556352164383 -0.0030366171438710341 0 -0.015594136813590028 -0.002451391367438876 0 -0.016170103876770852 -0.0026652174105689808 0 -0.015594136813590028 -0.002451391367438876 0 -0.016170103876770852 -0.0026652174105689808 0 -0.015993716969009926 -0.002090348579245132 0 -0.016170103876770852 -0.0026652174105689808 0 -0.015993716969009926 -0.002090348579245132 0 -0.016404940643327336 -0.0021411991626226492 0 -0.015993716969009926 -0.002090348579245132 0 -0.0162796469013082 -0.0017113011533533664 0 -0.016404940643327336 -0.0021411991626226492 0 -0.015594136813590028 -0.002451391367438876 0 -0.015993716969009926 -0.002090348579245132 0 -0.015552475418890222 -0.0019114519674523402 0 -0.015993716969009926 -0.002090348579245132 0 -0.015552475418890222 -0.0019114519674523402 0 -0.015915403727464771 -0.0015984020805351027 0 -0.015594136813590028 -0.002451391367438876 0 -0.015552475418890222 -0.0019114519674523402 0 -0.015095271446900543 -0.002252550889417951 0 -0.015552475418890222 -0.0019114519674523402 0 -0.015095271446900543 -0.002252550889417951 0 -0.015273906981887046 -0.0015395720103766031 0 -0.015458422733827647 -0.0029601783029412146 0 -0.015226679183688321 -0.0023231052537004597 0 -0.015625080801022082 -0.0030163996672907391 0 -0.015255818490198206 -0.0030196407508049734 0 -0.015353849326884876 -0.0023694536435914025 0 -0.015291888938797602 -0.0029082861947145292 0 -0.015594136813590028 -0.002451391367438876 0 -0.015095271446900543 -0.002252550889417951 0 -0.015255818490198206 -0.0030196407508049734 0 -0.014999950589268646 -0.0025787265832097751 0 -0.015353849326884876 -0.0023694536435914025 0 -0.015226679183688321 -0.0023231052537004597 0 -0.015000041871244056 -0.0017545594302370341 0 -0.015095271446900543 -0.002252550889417951 0 -0.014999612564767372 -0.0017541485150487114 0 -0.015273906981887046 -0.0015395720103766031 0 -0.014999950589268646 -0.0025787265832097751 0 -0.015353849326884876 -0.0023694536435914025 0 -0.015000013165317669 -0.0017544057592324691 0 -0.015552475418890222 -0.0019114519674523402 0 -0.015273906981887046 -0.0015395720103766031 0 -0.015610424042254866 -0.0013357611661406143 0 -0.015273906981887046 -0.0015395720103766031 0 -0.015610424042254866 -0.0013357611661406143 0 -0.015367041375542139 -0.00098716964330046106 0 -0.015610424042254866 -0.0013357611661406143 0 -0.015367041375542139 -0.00098716964330046106 0 -0.015646061367047454 -0.00074611622427919679 0 -0.015273906981887046 -0.0015395720103766031 0 -0.015367041375542139 -0.00098716964330046106 0 -0.014999916794555273 -0.00088528673769252078 0 -0.014999612564767372 -0.0017541485150487114 0 -0.015273906981887046 -0.0015395720103766031 0 -0.014999916794555273 -0.00088528673769252078 0 -0.015367041375542139 -0.00098716964330046106 0 -0.014999916794555273 -0.00088528673769252078 0 -0.015315527905021152 -0.00042681887780030947 0 -0.015367041375542139 -0.00098716964330046106 0 -0.015646061367047454 -0.00074611622427919679 0 -0.015315527905021152 -0.00042681887780030947 0 -0.015646061367047454 -0.00074611622427919679 0 -0.015315527905021152 -0.00042681887780030947 0 -0.015695969794329356 -0.0002521635666595606 0 -0.01545915089590106 4.7027118922777146e-05 0 -0.015315527905021152 -0.00042681887780030947 0 -0.015695969794329356 -0.0002521635666595606 0 -0.01579363418543242 0.00020173849565068702 0 -0.01545915089590106 4.7027118922777146e-05 0 -0.015695969794329356 -0.0002521635666595606 0 -0.014999916794555273 -0.00088528673769252078 0 -0.015315527905021152 -0.00042681887780030947 0 -0.014999857403340396 -1.6009219020144254e-05 0 -0.01545915089590106 4.7027118922777146e-05 0 -0.015315527905021152 -0.00042681887780030947 0 -0.014999857403340396 -1.6009219020144254e-05 0 -0.016446043178206676 -0.00017534086094365866 0 -0.016037020168494849 -0.00010769040253680056 0 -0.016244440363000056 -0.00061742219652028557 0 -0.016136836914100883 0.00022124318545759685 0 -0.016446043178206676 -0.00017534086094365866 0 -0.016037020168494849 -0.00010769040253680056 0 -0.01579363418543242 0.00020173849565068702 0 -0.016037020168494849 -0.00010769040253680056 0 -0.015695969794329356 -0.0002521635666595606 0 -0.016037020168494849 -0.00010769040253680056 0 -0.015695969794329356 -0.0002521635666595606 0 -0.015921253059315209 -0.000552545914475844 0 -0.015646061367047454 -0.00074611622427919679 0 -0.015921253059315209 -0.000552545914475844 0 -0.015990027023136299 -0.0010349565317846181 0 -0.015646061367047454 -0.00074611622427919679 0 -0.015695969794329356 -0.0002521635666595606 0 -0.015921253059315209 -0.000552545914475844 0 -0.016446043178206676 -0.00017534086094365866 0 -0.016244440363000056 -0.00061742219652028557 0 -0.016547082818126679 -0.00065062067255827738 0 -0.015921253059315209 -0.000552545914475844 0 -0.016244440363000056 -0.00061742219652028557 0 -0.015990027023136299 -0.0010349565317846181 0 -0.016037020168494849 -0.00010769040253680056 0 -0.015921253059315209 -0.000552545914475844 0 -0.016244440363000056 -0.00061742219652028557 0 -0.016244440363000056 -0.00061742219652028557 0 -0.016450541506714888 -0.0010472700668753066 0 -0.016547082818126679 -0.00065062067255827738 0 -0.015990027023136299 -0.0010349565317846181 0 -0.016238104256217252 -0.0013660542430580316 0 -0.016450541506714888 -0.0010472700668753066 0 -0.016244440363000056 -0.00061742219652028557 0 -0.015990027023136299 -0.0010349565317846181 0 -0.016450541506714888 -0.0010472700668753066 0 -0.015990027023136299 -0.0010349565317846181 0 -0.015915403727464771 -0.0015984020805351027 0 -0.016238104256217252 -0.0013660542430580316 0 -0.016238104256217252 -0.0013660542430580316 0 -0.016567247971978939 -0.0014429749748433049 0 -0.016450541506714888 -0.0010472700668753066 0 -0.015610424042254866 -0.0013357611661406143 0 -0.015990027023136299 -0.0010349565317846181 0 -0.015915403727464771 -0.0015984020805351027 0 -0.015610424042254866 -0.0013357611661406143 0 -0.015646061367047454 -0.00074611622427919679 0 -0.015990027023136299 -0.0010349565317846181 0 -0.015552475418890222 -0.0019114519674523402 0 -0.015610424042254866 -0.0013357611661406143 0 -0.015915403727464771 -0.0015984020805351027 0 -0.015993716969009926 -0.002090348579245132 0 -0.015915403727464771 -0.0015984020805351027 0 -0.0162796469013082 -0.0017113011533533664 0 -0.016238104256217252 -0.0013660542430580316 0 -0.0162796469013082 -0.0017113011533533664 0 -0.016567247971978939 -0.0014429749748433049 0 -0.015915403727464771 -0.0015984020805351027 0 -0.016238104256217252 -0.0013660542430580316 0 -0.0162796469013082 -0.0017113011533533664 0 -0.0162796469013082 -0.0017113011533533664 0 -0.016588467755238138 -0.0018070351038779857 0 -0.016567247971978939 -0.0014429749748433049 0 -0.016588467755238138 -0.0018070351038779857 0 -0.016567247971978939 -0.0014429749748433049 0 -0.016924439421703859 -0.001676506997477996 0 -0.016567247971978939 -0.0014429749748433049 0 -0.016924439421703859 -0.001676506997477996 0 -0.016942589134976125 -0.0012117759485551687 0 -0.017266785170734791 -0.0017712697234988288 0 -0.016924439421703859 -0.001676506997477996 0 -0.017320015701684136 -0.0014837461167943313 0 -0.017266785170734791 -0.0017712697234988288 0 -0.016924439421703859 -0.001676506997477996 0 -0.017080308014260758 -0.0019828587535142086 0 -0.016924439421703859 -0.001676506997477996 0 -0.017320015701684136 -0.0014837461167943313 0 -0.016942589134976125 -0.0012117759485551687 0 -0.017320015701684136 -0.0014837461167943313 0 -0.016942589134976125 -0.0012117759485551687 0 -0.017368088933202155 -0.0011461277007980184 0 -0.016942589134976125 -0.0012117759485551687 0 -0.016794760813291062 -0.00087855940937203519 0 -0.017169137148774046 -0.00084752176592814508 0 -0.016942589134976125 -0.0012117759485551687 0 -0.017169137148774046 -0.00084752176592814508 0 -0.017368088933202155 -0.0011461277007980184 0 -0.016942589134976125 -0.0012117759485551687 0 -0.016794760813291062 -0.00087855940937203519 0 -0.016450541506714888 -0.0010472700668753066 0 -0.016567247971978939 -0.0014429749748433049 0 -0.016942589134976125 -0.0012117759485551687 0 -0.016450541506714888 -0.0010472700668753066 0 -0.016446043178206676 -0.00017534086094365866 0 -0.016547082818126679 -0.00065062067255827738 0 -0.01672077651048819 -0.00040049412859251738 0 -0.016794760813291062 -0.00087855940937203519 0 -0.016450541506714888 -0.0010472700668753066 0 -0.016547082818126679 -0.00065062067255827738 0 -0.016547082818126679 -0.00065062067255827738 0 -0.016915917470462491 -0.00061216370427902582 0 -0.01672077651048819 -0.00040049412859251738 0 -0.016915917470462491 -0.00061216370427902582 0 -0.016926351319414282 -0.00034868579742498238 0 -0.01672077651048819 -0.00040049412859251738 0 -0.016794760813291062 -0.00087855940937203519 0 -0.016547082818126679 -0.00065062067255827738 0 -0.016915917470462491 -0.00061216370427902582 0 -0.017169137148774046 -0.00084752176592814508 0 -0.017161271895894177 -0.00046872176268406815 0 -0.016915917470462491 -0.00061216370427902582 0 -0.016794760813291062 -0.00087855940937203519 0 -0.017169137148774046 -0.00084752176592814508 0 -0.016915917470462491 -0.00061216370427902582 0 -0.017169137148774046 -0.00084752176592814508 0 -0.017161271895894177 -0.00046872176268406815 0 -0.017441283775559684 -0.00065887159968881933 0 -0.017161271895894177 -0.00046872176268406815 0 -0.017430470415478343 -0.0002306045651843386 0 -0.017441283775559684 -0.00065887159968881933 0 -0.017161271895894177 -0.00046872176268406815 0 -0.016915917470462491 -0.00061216370427902582 0 -0.016926351319414282 -0.00034868579742498238 0 -0.017161271895894177 -0.00046872176268406815 0 -0.016926351319414282 -0.00034868579742498238 0 -0.017044717694312116 -0.00011417302721158605 0 -0.015587376076365395 0.0017194384940543686 0 -0.014849152367040912 0.0022452540420223452 0 -0.014598866276385594 0.0026510875044102825 0 -0.017027253088994901 0.00033064110659830495 0 -0.017044717694312116 -0.00011417302721158605 0 -0.017430470415478343 -0.0002306045651843386 0 -0.016926351319414282 -0.00034868579742498238 0 -0.017044717694312116 -0.00011417302721158605 0 -0.016787509698239327 -0.00014371444961501845 0 -0.016298901118793462 0.0010198783107685599 0 -0.016085065273849054 0.0012580916231782102 0 -0.017161271895894177 -0.00046872176268406815 0 -0.017044717694312116 -0.00011417302721158605 0 -0.017430470415478343 -0.0002306045651843386 0 -0.016679751298167469 0.00011014301391445427 0 -0.016877806879617031 7.9725546605560456e-05 0 -0.016787509698239327 -0.00014371444961501845 0 -0.016877806879617031 7.9725546605560456e-05 0 -0.017044717694312116 -0.00011417302721158605 0 -0.016787509698239327 -0.00014371444961501845 0 -0.016679751298167469 0.00011014301391445427 0 -0.016428581098524742 0.00027233699064060175 0 -0.016446043178206676 -0.00017534086094365866 0 -0.016679751298167469 0.00011014301391445427 0 -0.016446043178206676 -0.00017534086094365866 0 -0.016787509698239327 -0.00014371444961501845 0 -0.016446043178206676 -0.00017534086094365866 0 -0.016787509698239327 -0.00014371444961501845 0 -0.01672077651048819 -0.00040049412859251738 0 -0.016926351319414282 -0.00034868579742498238 0 -0.016787509698239327 -0.00014371444961501845 0 -0.01672077651048819 -0.00040049412859251738 0 -0.013640604743245469 0.002911669294833719 0 -0.013618142310179651 0.002985695072468042 0 -0.013471447256942725 0.0025717006355379379 0 -0.013599905379944875 0.0027053138764007159 0 -0.013613068271525582 0.0026618089483941656 0 -0.013618425608350124 0.0029318661567832465 0 -0.01382032558640453 0.0029870494014493211 0 -0.013857043295731748 0.0031736209229978607 0 -0.013640604743245469 0.002911669294833719 0 -0.013618425608350124 0.0029318661567832465 0 -0.01382032558640453 0.0029870494014493211 0 -0.013250097053059203 0.0024984328497210558 0 -0.013135362232593765 0.0024423499211931551 0 -0.013102039036808365 0.002451201885405218 0 -0.01321758108029162 0.002473892983337932 0 -0.013250097053059203 0.0024984328497210558 0 -0.013135362232593765 0.0024423499211931551 0 -0.013250097053059203 0.0024984328497210558 0 -0.013245747378894003 0.0024803253719710202 0 -0.013471447256942725 0.0025717006355379379 0 -0.013250097053059203 0.0024984328497210558 0 -0.013245747378894003 0.0024803253719710202 0 -0.013102039036808365 0.002451201885405218 0 -0.013613068271525582 0.0026618089483941656 0 -0.013490223885149632 0.0025672864416744676 0 -0.013640604743245469 0.002911669294833719 0 -0.013471447256942725 0.0025717006355379379 0 -0.01383479538594164 0.0027794861631050935 0 -0.01321758108029162 0.002473892983337932 0 -0.013250097053059203 0.0024984328497210558 0 -0.013471447256942725 0.0025717006355379379 0 -0.013773169710272084 0.0025462060976348903 0 -0.013471447256942725 0.0025717006355379379 0 -0.01383479538594164 0.0027794861631050935 0 -0.014527407816080156 0.0025160269120308317 0 -0.013905986516441017 0.0031351927437455701 0 -0.014216272629043574 0.0027369056469430698 0 -0.01383479538594164 0.0027794861631050935 0 -0.01382032558640453 0.0029870494014493211 0 -0.014849152367040912 0.0022452540420223452 0 -0.014598866276385594 0.0026510875044102825 0 -0.013857043295731748 0.0031736209229978607 0 -0.014216272629043574 0.0027369056469430698 0 -0.01382032558640453 0.0029870494014493211 0 -0.013857043295731748 0.0031736209229978607 0 -0.013773169710272084 0.0025462060976348903 0 -0.013970958765951849 0.0026867043157754039 0 -0.01383479538594164 0.0027794861631050935 0 -0.014216272629043574 0.0027369056469430698 0 -0.013970958765951849 0.0026867043157754039 0 -0.01383479538594164 0.0027794861631050935 0 -0.013640604743245469 0.002911669294833719 0 -0.01383479538594164 0.0027794861631050935 0 -0.01382032558640453 0.0029870494014493211 0 -0.014598866276385594 0.0026510875044102825 0 -0.013857043295731748 0.0031736209229978607 0 -0.013594500415100668 0.0036089611119524021 0 -0.016085065273849054 0.0012580916231782102 0 -0.015063139698304761 0.00086271022101214829 0 -0.017430470415478343 -0.0002306045651843386 0 -0.017441283775559684 -0.00065887159968881933 0 -0.01786604244219564 -0.00076201310559780207 0 -0.017169137148774046 -0.00084752176592814508 0 -0.017441283775559684 -0.00065887159968881933 0 -0.017591690601787526 -0.00096490758617509673 0 -0.017441283775559684 -0.00065887159968881933 0 -0.01786604244219564 -0.00076201310559780207 0 -0.017591690601787526 -0.00096490758617509673 0 -0.013666659919093526 0.0021409387552898279 0 -0.013573005426580508 0.0013705432502953414 0 -0.014013689792974481 0.0013884133702159189 0 -0.013618425608350124 0.0029318661567832465 0 -0.013857043295731748 0.0031736209229978607 0 -0.013594500415100668 0.0036089611119524021 0 -0.013613068271525582 0.0026618089483941656 0 -0.015063139698304761 0.00086271022101214829 0 -0.013613068271525582 0.0026618089483941656 0 -0.013535601577764398 0.0019972417778722938 0 -0.013135362232593765 0.0024423499211931551 0 -0.013135514581505759 0.0024496037437135294 0 -0.012999121975216037 0.0024142648868632757 0 -0.01321758108029162 0.002473892983337932 0 -0.013135362232593765 0.0024423499211931551 0 -0.013135514581505759 0.0024496037437135294 0 -0.015028079600015721 5.1694579214524708e-05 0 -0.014976773938620801 -0.00039061994549171637 0 -0.015416460125428341 -0.00041762877160922402 0 -0.013535601577764398 0.0019972417778722938 0 -0.012910601209022298 0.00057836060228525659 0 -0.014013689792974481 0.0013884133702159189 0 -0.014356075162652663 0.00063966029766662877 0 -0.014251811535789943 0.00055384370074413334 0 -0.015063139698304761 0.00086271022101214829 0 -0.013750698606597328 -0.00020142269625114003 0 -0.013573005426580508 0.0013705432502953414 0 -0.014013689792974481 0.0013884133702159189 0 -0.014251811535789943 0.00055384370074413334 0 -0.015063139698304761 0.00086271022101214829 0 -0.016312960886899704 -0.00091127347108198287 0 -0.017320015701684136 -0.0014837461167943313 0 -0.017822457404266447 -0.0012276205724865805 0 -0.017368088933202155 -0.0011461277007980184 0 -0.017169137148774046 -0.00084752176592814508 0 -0.017591690601787526 -0.00096490758617509673 0 -0.017368088933202155 -0.0011461277007980184 0 -0.01786604244219564 -0.00076201310559780207 0 -0.017822457404266447 -0.0012276205724865805 0 -0.017591690601787526 -0.00096490758617509673 0 -0.017822457404266447 -0.0012276205724865805 0 -0.017591690601787526 -0.00096490758617509673 0 -0.017368088933202155 -0.0011461277007980184 0 -0.017266785170734791 -0.0017712697234988288 0 -0.017320015701684136 -0.0014837461167943313 0 -0.017770704241141626 -0.0017006976863930005 0 -0.017320015701684136 -0.0014837461167943313 0 -0.017822457404266447 -0.0012276205724865805 0 -0.017770704241141626 -0.0017006976863930005 0 -0.016312960886899704 -0.00091127347108198287 0 -0.016025506554771692 -0.001516917962081186 0 -0.016025506554771692 -0.001516917962081186 0 -0.013750698606597328 -0.00020142269625114003 0 -0.014976773938620801 -0.00039061994549171637 0 -0.014929260543881157 -0.00083029525286676159 0 -0.015416460125428341 -0.00041762877160922402 0 -0.014267939645165359 -0.0016628628467774058 0 -0.014288487499967906 -0.0016470646503792454 0 -0.014293741716367696 -0.0016197576728896647 0 -0.014267939645165359 -0.0016628628467774058 0 -0.014288487499967906 -0.0016470646503792454 0 -0.014288002089689477 -0.0016697827200003613 0 -0.014288487499967906 -0.0016470646503792454 0 -0.014288002089689477 -0.0016697827200003613 0 -0.014302813493305349 -0.0016375369700762634 0 -0.013698256750857616 -0.0035476627253060509 0 -0.013737632475616542 -0.0031203546176555045 0 -0.013523503313263225 -0.0033100178458107254 0 -0.013698256750857616 -0.0035476627253060509 0 -0.013737632475616542 -0.0031203546176555045 0 -0.014006267670702153 -0.0032199467537480575 0 -0.013928192332517767 -0.0026241489429389697 0 -0.014994622267462735 -0.0030447372278931098 0 -0.014267939645165359 -0.0016628628467774058 0 -0.014288002089689477 -0.0016697827200003613 0 -0.014267501619906647 -0.0017114186818087613 0 -0.013737632475616542 -0.0031203546176555045 0 -0.013403020245160943 -0.0030684990981242506 0 -0.013523503313263225 -0.0033100178458107254 0 -0.013737632475616542 -0.0031203546176555045 0 -0.013544074670883394 -0.0028154473028124756 0 -0.013403020245160943 -0.0030684990981242506 0 -0.013737632475616542 -0.0031203546176555045 0 -0.013831982195327089 -0.0029033391071862829 0 -0.013544074670883394 -0.0028154473028124756 0 -0.013737632475616542 -0.0031203546176555045 0 -0.013831982195327089 -0.0029033391071862829 0 -0.014006267670702153 -0.0032199467537480575 0 -0.014514270526479267 -0.0048164657063937124 0 -0.014981247701038425 -0.0044397633147358279 0 -0.014565532442820958 -0.0040610880760872676 0 -0.017205136287456835 -0.0023421864146558938 0 -0.017386147551540148 -0.0022689262358712567 0 -0.017161117551935424 -0.0025570551292917335 0 -0.013831982195327089 -0.0029033391071862829 0 -0.014006267670702153 -0.0032199467537480575 0 -0.014031324523124217 -0.0027538053977558784 0 -0.014994622267462735 -0.0030447372278931098 0 -0.016166436938254879 -0.0034972428001971562 0 -0.014994622267462735 -0.0030447372278931098 0 -0.014224856126655036 -0.0036346489306603668 0 -0.017266785170734791 -0.0017712697234988288 0 -0.017770704241141626 -0.0017006976863930005 0 -0.017412178565606552 -0.0020100023560001303 0 -0.017205136287456835 -0.0023421864146558938 0 -0.017386147551540148 -0.0022689262358712567 0 -0.017236117947361029 -0.0022071241628860631 0 -0.017396594119281347 -0.0020659125154677319 0 -0.017386147551540148 -0.0022689262358712567 0 -0.017236117947361029 -0.0022071241628860631 0 -0.016025506554771692 -0.001516917962081186 0 -0.017396309628986195 -0.0019782713604216268 0 -0.016025506554771692 -0.001516917962081186 0 -0.014994622267462735 -0.0030447372278931098 0 -0.017266785170734791 -0.0017712697234988288 0 -0.017412178565606552 -0.0020100023560001303 0 -0.017080308014260758 -0.0019828587535142086 0 -0.016924439421703859 -0.001676506997477996 0 -0.017080308014260758 -0.0019828587535142086 0 -0.016777825288844965 -0.0020698598791574546 0 -0.017080308014260758 -0.0019828587535142086 0 -0.016777825288844965 -0.0020698598791574546 0 -0.017009899453079336 -0.0023399426199357202 0 -0.016777825288844965 -0.0020698598791574546 0 -0.016713527658701259 -0.0024764870653311176 0 -0.017009899453079336 -0.0023399426199357202 0 -0.017205136287456835 -0.0023421864146558938 0 -0.017236117947361029 -0.0022071241628860631 0 -0.017009899453079336 -0.0023399426199357202 0 -0.017396309628986195 -0.0019782713604216268 0 -0.017017547351805964 -0.0023373273674433736 0 -0.017412178565606552 -0.0020100023560001303 0 -0.017080308014260758 -0.0019828587535142086 0 -0.017009899453079336 -0.0023399426199357202 0 -0.0162796469013082 -0.0017113011533533664 0 -0.016588467755238138 -0.0018070351038779857 0 -0.016404940643327336 -0.0021411991626226492 0 -0.016588467755238138 -0.0018070351038779857 0 -0.016777825288844965 -0.0020698598791574546 0 -0.016404940643327336 -0.0021411991626226492 0 -0.016588467755238138 -0.0018070351038779857 0 -0.016924439421703859 -0.001676506997477996 0 -0.016777825288844965 -0.0020698598791574546 0 -0.016777825288844965 -0.0020698598791574546 0 -0.016404940643327336 -0.0021411991626226492 0 -0.016713527658701259 -0.0024764870653311176 0 -0.016170103876770852 -0.0026652174105689808 0 -0.016713527658701259 -0.0024764870653311176 0 -0.016674595032447195 -0.0030331597166352686 0 -0.016170103876770852 -0.0026652174105689808 0 -0.016404940643327336 -0.0021411991626226492 0 -0.016713527658701259 -0.0024764870653311176 0 -0.016713527658701259 -0.0024764870653311176 0 -0.017161117551935424 -0.0025570551292917335 0 -0.016674595032447195 -0.0030331597166352686 0 -0.016713527658701259 -0.0024764870653311176 0 -0.017009899453079336 -0.0023399426199357202 0 -0.017161117551935424 -0.0025570551292917335 0 -0.016166436938254879 -0.0034972428001971562 0 -0.01605179681653543 -0.0035248466528507469 0 -0.017205136287456835 -0.0023421864146558938 0 -0.017009899453079336 -0.0023399426199357202 0 -0.017161117551935424 -0.0025570551292917335 0 -0.014981247701038425 -0.0044397633147358279 0 -0.015029890848602363 -0.0039494500462498036 0 -0.015492321984871108 -0.0040186444521188936 0 -0.015029890848602363 -0.0039494500462498036 0 -0.015492321984871108 -0.0040186444521188936 0 -0.015349511186986905 -0.0036314042535709615 0 -0.015952539738324337 -0.0035447030928880429 0 -0.01605179681653543 -0.0035248466528507469 0 -0.015918963660091018 -0.0035375528272184862 0 -0.016170103876770852 -0.0026652174105689808 0 -0.016674595032447195 -0.0030331597166352686 0 -0.015918963660091018 -0.0035375528272184862 0 -0.015492321984871108 -0.0040186444521188936 0 -0.015349511186986905 -0.0036314042535709615 0 -0.015918963660091018 -0.0035375528272184862 0 -0.015349511186986905 -0.0036314042535709615 0 -0.015424435852569817 -0.0034416440096023408 0 -0.015349511186986905 -0.0036314042535709615 0 -0.014594425709467512 -0.0030607433826891814 0 -0.015424435852569817 -0.0034416440096023408 0 -0.015029890848602363 -0.0039494500462498036 0 -0.015349511186986905 -0.0036314042535709615 0 -0.014594425709467512 -0.0030607433826891814 0 -0.014224856126655036 -0.0036346489306603668 0 -0.014577830550787065 -0.0029309842269389392 0 -0.013854855399314827 -0.0026835670049960691 0 -0.014031324523124217 -0.0027538053977558784 0 -0.014594425709467512 -0.0030607433826891814 0 -0.015029890848602363 -0.0039494500462498036 0 -0.014565532442820958 -0.0040610880760872676 0 -0.014594425709467512 -0.0030607433826891814 0 -0.013734930423616704 -0.0025279643376601843 0 -0.013854855399314827 -0.0026835670049960691 0 -0.014594425709467512 -0.0030607433826891814 0 -0.013831982195327089 -0.0029033391071862829 0 -0.013854855399314827 -0.0026835670049960691 0 -0.014031324523124217 -0.0027538053977558784 0 -0.013831982195327089 -0.0029033391071862829 0 -0.013854855399314827 -0.0026835670049960691 0 -0.013544074670883394 -0.0028154473028124756 0 -0.014981247701038425 -0.0044397633147358279 0 -0.015029890848602363 -0.0039494500462498036 0 -0.014565532442820958 -0.0040610880760872676 0 -0.013197243853644644 -0.0023862856188741188 0 -0.012703196917632099 -0.0020987617579873684 0 -0.012425238482113306 -0.0021615763184191766 0 -0.012703196917632099 -0.0020987617579873684 0 -0.012453022566090483 -0.0019169516419334631 0 -0.012425238482113306 -0.0021615763184191766 0 -0.013197243853644644 -0.0023862856188741188 0 -0.013011815414577162 -0.002694033492864747 0 -0.012425238482113306 -0.0021615763184191766 0 -0.013854855399314827 -0.0026835670049960691 0 -0.013197243853644644 -0.0023862856188741188 0 -0.013544074670883394 -0.0028154473028124756 0 -0.013734930423616704 -0.0025279643376601843 0 -0.013197243853644644 -0.0023862856188741188 0 -0.013057521728541252 -0.0020604253663541777 0 -0.013734930423616704 -0.0025279643376601843 0 -0.013854855399314827 -0.0026835670049960691 0 -0.013197243853644644 -0.0023862856188741188 0 -0.013197243853644644 -0.0023862856188741188 0 -0.012703196917632099 -0.0020987617579873684 0 -0.013057521728541252 -0.0020604253663541777 0 -0.012703196917632099 -0.0020987617579873684 0 -0.012450465231159703 -0.0019372980013215202 0 -0.013057521728541252 -0.0020604253663541777 0 -0.012703196917632099 -0.0020987617579873684 0 -0.012450465231159703 -0.0019372980013215202 0 -0.012453022566090483 -0.0019169516419334631 0 -0.013432829158135208 -0.0036899005178631138 0 -0.01381507159298859 -0.003586509451456272 0 -0.014336063484647403 -0.0051862812776807526 0 -0.014073261562230991 -0.0052732587597366471 0 -0.014129718334042038 -0.0051811630689932034 0 -0.012450465231159703 -0.0019372980013215202 0 -0.012436170737925977 -0.0016209759093283429 0 -0.012678983566928176 -0.0017318262563397119 0 -0.014336063484647403 -0.0051862812776807526 0 -0.014129718334042038 -0.0051811630689932034 0 -0.014212797106358942 -0.0051111854602011028 0 -0.013432829158135208 -0.0036899005178631138 0 -0.013015634776306871 -0.0025050064601795036 0 -0.014129718334042038 -0.0051811630689932034 0 -0.014121230442877884 -0.0050650218439970696 0 -0.014212797106358942 -0.0051111854602011028 0 -0.012140956211089337 -0.0014367284417353874 0 -0.013015634776306871 -0.0025050064601795036 0 -0.012436170737925977 -0.0016209759093283429 0 -0.012254589385787081 -0.0012966587730273485 0 -0.012240549698043906 -0.001188145774600594 0 -0.012436170737925977 -0.0016209759093283429 0 -0.012300928207371477 -0.0012969154990212729 0 -0.012253457379415352 -0.0012798132194584903 0 -0.012436170737925977 -0.0016209759093283429 0 -0.012253457379415352 -0.0012798132194584903 0 -0.012254589385787081 -0.0012966587730273485 0 -0.012450465231159703 -0.0019372980013215202 0 -0.012436170737925977 -0.0016209759093283429 0 -0.012453022566090483 -0.0019169516419334631 0 -0.012436170737925977 -0.0016209759093283429 0 -0.012453022566090483 -0.0019169516419334631 0 -0.012370693198059718 -0.0015722557945534264 0 -0.012453022566090483 -0.0019169516419334631 0 -0.012370693198059718 -0.0015722557945534264 0 -0.012425238482113306 -0.0021615763184191766 0 -0.012370693198059718 -0.0015722557945534264 0 -0.012156175309206497 -0.0013507869275584843 0 -0.012425238482113306 -0.0021615763184191766 0 -0.012370693198059718 -0.0015722557945534264 0 -0.012273536174186944 -0.0011600422644002192 0 -0.01221775476237787 -0.0010844251646299798 0 -0.012370693198059718 -0.0015722557945534264 0 -0.01221775476237787 -0.0010844251646299798 0 -0.012156175309206497 -0.0013507869275584843 0 -0.012436170737925977 -0.0016209759093283429 0 -0.012370693198059718 -0.0015722557945534264 0 -0.012300928207371477 -0.0012969154990212729 0 -0.012370693198059718 -0.0015722557945534264 0 -0.012300928207371477 -0.0012969154990212729 0 -0.012273536174186944 -0.0011600422644002192 0 -0.012300928207371477 -0.0012969154990212729 0 -0.012189095481097492 -0.00097264947251157383 0 -0.012273536174186944 -0.0011600422644002192 0 -0.012300928207371477 -0.0012969154990212729 0 -0.012189095481097492 -0.00097264947251157383 0 -0.012188297370283267 -0.0010923351770591922 0 -0.012202296926118709 -0.00092901774003925413 0 -0.012146188327530208 -0.00071230542931727064 0 -0.012094478188239657 -0.00074152256711538405 0 -0.012189095481097492 -0.00097264947251157383 0 -0.012273536174186944 -0.0011600422644002192 0 -0.012202296926118709 -0.00092901774003925413 0 -0.012189095481097492 -0.00097264947251157383 0 -0.012202296926118709 -0.00092901774003925413 0 -0.012094478188239657 -0.00074152256711538405 0 -0.01221775476237787 -0.0010844251646299798 0 -0.012068282318116751 -0.00098069782874317065 0 -0.012156175309206497 -0.0013507869275584843 0 -0.012273536174186944 -0.0011600422644002192 0 -0.012202296926118709 -0.00092901774003925413 0 -0.01221775476237787 -0.0010844251646299798 0 -0.012202296926118709 -0.00092901774003925413 0 -0.01221775476237787 -0.0010844251646299798 0 -0.012146188327530208 -0.00071230542931727064 0 -0.01221775476237787 -0.0010844251646299798 0 -0.012111222332272534 -0.00078844821436949012 0 -0.012146188327530208 -0.00071230542931727064 0 -0.01221775476237787 -0.0010844251646299798 0 -0.012111222332272534 -0.00078844821436949012 0 -0.012068282318116751 -0.00098069782874317065 0 -0.012068282318116751 -0.00098069782874317065 0 -0.011955847510675195 -0.00077060321344553546 0 -0.011685983065079866 -0.00088956908509374682 0 -0.012111222332272534 -0.00078844821436949012 0 -0.012068282318116751 -0.00098069782874317065 0 -0.011955847510675195 -0.00077060321344553546 0 -0.011647309187565716 -0.00083212687331307743 0 -0.011594736698315688 -0.0011386026335054548 0 -0.012156175309206497 -0.0013507869275584843 0 -0.0115055095479955 -0.00065965649803428666 0 -0.0121425948299439 -0.0013643981192974013 0 -0.012068282318116751 -0.00098069782874317065 0 -0.011685983065079866 -0.00088956908509374682 0 -0.012156175309206497 -0.0013507869275584843 0 -0.012322319262211312 -0.0023757335424655786 0 -0.012362075520922885 -0.0020974024067032956 0 -0.012974386201796733 -0.0033135381470444578 0 -0.013011815414577162 -0.002694033492864747 0 -0.012425238482113306 -0.0021615763184191766 0 -0.011594736698315688 -0.0011386026335054548 0 -0.012156175309206497 -0.0013507869275584843 0 -0.012425238482113306 -0.0021615763184191766 0 -0.013197243853644644 -0.0023862856188741188 0 -0.013011815414577162 -0.002694033492864747 0 -0.013544074670883394 -0.0028154473028124756 0 -0.013011815414577162 -0.002694033492864747 0 -0.013403020245160943 -0.0030684990981242506 0 -0.013165234275430657 -0.0030814161673275373 0 -0.012974386201796733 -0.0033135381470444578 0 -0.013011815414577162 -0.002694033492864747 0 -0.013165234275430657 -0.0030814161673275373 0 -0.013011815414577162 -0.002694033492864747 0 -0.013544074670883394 -0.0028154473028124756 0 -0.013403020245160943 -0.0030684990981242506 0 -0.013403020245160943 -0.0030684990981242506 0 -0.013523503313263225 -0.0033100178458107254 0 -0.013284271465049707 -0.0032536765110509421 0 -0.012322319262211312 -0.0023757335424655786 0 -0.012610036175797479 -0.0011038754440861383 0 -0.012974386201796733 -0.0033135381470444578 0 -0.01333220451360014 -0.0034877537508629188 0 -0.013323959398563448 -0.0038298656866502835 0 -0.011647309187565716 -0.00083212687331307743 0 -0.011594736698315688 -0.0011386026335054548 0 -0.011279989776606887 -0.00035518569827861711 0 -0.012974386201796733 -0.0033135381470444578 0 -0.013284271465049707 -0.0032536765110509421 0 -0.01333220451360014 -0.0034877537508629188 0 -0.012974386201796733 -0.0033135381470444578 0 -0.013165234275430657 -0.0030814161673275373 0 -0.013284271465049707 -0.0032536765110509421 0 -0.013403020245160943 -0.0030684990981242506 0 -0.013165234275430657 -0.0030814161673275373 0 -0.013284271465049707 -0.0032536765110509421 0 -0.013698256750857616 -0.0035476627253060509 0 -0.013523503313263225 -0.0033100178458107254 0 -0.01333220451360014 -0.0034877537508629188 0 -0.013523503313263225 -0.0033100178458107254 0 -0.013284271465049707 -0.0032536765110509421 0 -0.01333220451360014 -0.0034877537508629188 0 -0.013928192332517767 -0.0026241489429389697 0 -0.012610036175797479 -0.0011038754440861383 0 -0.013698256750857616 -0.0035476627253060509 0 -0.01333220451360014 -0.0034877537508629188 0 -0.013323959398563448 -0.0038298656866502835 0 -0.0115055095479955 -0.00065965649803428666 0 -0.012610036175797479 -0.0011038754440861383 0 -0.011685983065079866 -0.00088956908509374682 0 -0.011540789582922444 -0.00043315611375427013 0 -0.011034442316029186 -0.00031652074184066381 0 -0.011540789582922444 -0.00043315611375427013 0 -0.011255342208366305 -0.00027289154070995206 0 -0.011034442316029186 -0.00031652074184066381 0 -0.011185473963450121 -0.00016909578451985868 0 -0.010997684746191094 -0.00019917571344342343 0 -0.011034442316029186 -0.00031652074184066381 0 -0.011255342208366305 -0.00027289154070995206 0 -0.011185473963450121 -0.00016909578451985868 0 -0.011034442316029186 -0.00031652074184066381 0 -0.011540789582922444 -0.00043315611375427013 0 -0.011255342208366305 -0.00027289154070995206 0 -0.01155603452447598 -0.00025869940753527802 0 -0.011255342208366305 -0.00027289154070995206 0 -0.01155603452447598 -0.00025869940753527802 0 -0.011405328564136634 -0.00011893759975373267 0 -0.011405328564136634 -0.00011893759975373267 0 -0.011208509957266084 8.2814790331043357e-06 0 -0.01153647105027193 0.00018521198128542036 0 -0.01155603452447598 -0.00025869940753527802 0 -0.011405328564136634 -0.00011893759975373267 0 -0.011666598759078025 -0.00010757227459527373 0 -0.011405328564136634 -0.00011893759975373267 0 -0.011666598759078025 -0.00010757227459527373 0 -0.01153647105027193 0.00018521198128542036 0 -0.011208509957266084 8.2814790331043357e-06 0 -0.010997684746191094 -0.00019917571344342343 0 -0.011125984722275132 0.00030598359927365475 0 -0.011185473963450121 -0.00016909578451985868 0 -0.011208509957266084 8.2814790331043357e-06 0 -0.010997684746191094 -0.00019917571344342343 0 -0.011405328564136634 -0.00011893759975373267 0 -0.011185473963450121 -0.00016909578451985868 0 -0.011208509957266084 8.2814790331043357e-06 0 -0.011255342208366305 -0.00027289154070995206 0 -0.011405328564136634 -0.00011893759975373267 0 -0.011185473963450121 -0.00016909578451985868 0 -0.012610036175797479 -0.0011038754440861383 0 -0.013750698606597328 -0.00020142269625114003 0 -0.014288487499967906 -0.0016470646503792454 0 -0.014302813493305349 -0.0016375369700762634 0 -0.014293741716367696 -0.0016197576728896647 0 -0.010997684746191094 -0.00019917571344342343 0 -0.010988909399556702 -0.0003536081351310023 0 -0.01046435847319434 0.00048830411796292324 0 -0.012610036175797479 -0.0011038754440861383 0 -0.012910601209022298 0.00057836060228525659 0 -0.012571136728966483 -0.0010260195956937248 0 -0.012610036175797479 -0.0011038754440861383 0 -0.012023126225695362 -0.00058472982000764889 0 -0.012032609529936933 -0.00025154286170161772 0 -0.012093875789363877 -0.00056706173391522275 0 -0.012111222332272534 -0.00078844821436949012 0 -0.011955847510675195 -0.00077060321344553546 0 -0.012023126225695362 -0.00058472982000764889 0 -0.011955847510675195 -0.00077060321344553546 0 -0.012023126225695362 -0.00058472982000764889 0 -0.011859209877780556 -0.00054989573736207787 0 -0.012023126225695362 -0.00058472982000764889 0 -0.011859209877780556 -0.00054989573736207787 0 -0.012032609529936933 -0.00025154286170161772 0 -0.011685983065079866 -0.00088956908509374682 0 -0.011540789582922444 -0.00043315611375427013 0 -0.011859209877780556 -0.00054989573736207787 0 -0.011955847510675195 -0.00077060321344553546 0 -0.011685983065079866 -0.00088956908509374682 0 -0.011859209877780556 -0.00054989573736207787 0 -0.011540789582922444 -0.00043315611375427013 0 -0.011859209877780556 -0.00054989573736207787 0 -0.01178969167085445 -0.00028238639172681009 0 -0.011540789582922444 -0.00043315611375427013 0 -0.01155603452447598 -0.00025869940753527802 0 -0.01178969167085445 -0.00028238639172681009 0 -0.01155603452447598 -0.00025869940753527802 0 -0.01178969167085445 -0.00028238639172681009 0 -0.011666598759078025 -0.00010757227459527373 0 -0.01178969167085445 -0.00028238639172681009 0 -0.011666598759078025 -0.00010757227459527373 0 -0.011920251571882239 4.545915774405206e-06 0 -0.011666598759078025 -0.00010757227459527373 0 -0.011920251571882239 4.545915774405206e-06 0 -0.01153647105027193 0.00018521198128542036 0 -0.01178969167085445 -0.00028238639172681009 0 -0.011920251571882239 4.545915774405206e-06 0 -0.012032609529936933 -0.00025154286170161772 0 -0.011859209877780556 -0.00054989573736207787 0 -0.01178969167085445 -0.00028238639172681009 0 -0.012032609529936933 -0.00025154286170161772 0 -0.011920251571882239 4.545915774405206e-06 0 -0.011966714638213532 0.00039217691470684547 0 -0.011876702574208777 0.00089825304527203363 0 -0.011948980257244377 0.00013064189162276488 0 -0.012474067215416929 0.0016935559855510882 0 -0.011920251571882239 4.545915774405206e-06 0 -0.01181465289530393 0.00098742324357071012 0 -0.013141541888619475 0.0025969705008296881 0 -0.011920251571882239 4.545915774405206e-06 0 -0.012032609529936933 -0.00025154286170161772 0 -0.011966714638213532 0.00039217691470684547 0 -0.011920251571882239 4.545915774405206e-06 0 -0.01181465289530393 0.00098742324357071012 0 -0.01153647105027193 0.00018521198128542036 0 -0.01181465289530393 0.00098742324357071012 0 -0.01046435847319434 0.00048830411796292324 0 -0.012426386799899262 0.0020928937318340801 0 -0.013014213594897531 0.0028456253820145221 0 -0.012867402078132112 0.002388612493206925 0 -0.012426386799899262 0.0020928937318340801 0 -0.012910601209022298 0.00057836060228525659 0 -0.012108164442442351 0.002291123625524966 0 -0.013027375464528626 -0.0007667288816247058 0 -0.01274234416083597 -0.0001486192662641235 0 -0.012605594242206078 -0.00026038893869515412 0 -0.012910601209022298 0.00057836060228525659 0 -0.013750698606597328 -0.00020142269625114003 0 -0.010997684746191094 -0.00019917571344342343 0 -0.01046435847319434 0.00048830411796292324 0 -0.011125984722275132 0.00030598359927365475 0 -0.01181465289530393 0.00098742324357071012 0 -0.01046435847319434 0.00048830411796292324 0 -0.011125984722275132 0.00030598359927365475 0 -0.011208509957266084 8.2814790331043357e-06 0 -0.011125984722275132 0.00030598359927365475 0 -0.01153647105027193 0.00018521198128542036 0 -0.01181465289530393 0.00098742324357071012 0 -0.011125984722275132 0.00030598359927365475 0 -0.01153647105027193 0.00018521198128542036 0 -0.013135514581505759 0.0024496037437135294 0 -0.013014213594897531 0.0028456253820145221 0 -0.012867402078132112 0.002388612493206925 0 -0.013135514581505759 0.0024496037437135294 0 -0.012999121975216037 0.0024142648868632757 0 -0.012867402078132112 0.002388612493206925 0 -0.013135362232593765 0.0024423499211931551 0 -0.012999121975216037 0.0024142648868632757 0 -0.013102039036808365 0.002451201885405218 0 -0.012999121975216037 0.0024142648868632757 0 -0.01283316052525117 0.0023852192302037251 0 -0.013102039036808365 0.002451201885405218 0 -0.012999121975216037 0.0024142648868632757 0 -0.01283316052525117 0.0023852192302037251 0 -0.012867402078132112 0.002388612493206925 0 -0.01283316052525117 0.0023852192302037251 0 -0.012867402078132112 0.002388612493206925 0 -0.012426386799899262 0.0020928937318340801 0 -0.01181465289530393 0.00098742324357071012 0 -0.012426386799899262 0.0020928937318340801 0 -0.013141541888619475 0.0025969705008296881 0 -0.012426386799899262 0.0020928937318340801 0 -0.012851180936880507 0.0025147092556068152 0 -0.013141541888619475 0.0025969705008296881 0 -0.01283316052525117 0.0023852192302037251 0 -0.012426386799899262 0.0020928937318340801 0 -0.012851180936880507 0.0025147092556068152 0 -0.012851180936880507 0.0025147092556068152 0 -0.012874882921089879 0.0025025003965378143 0 -0.013141541888619475 0.0025969705008296881 0 -0.01283316052525117 0.0023852192302037251 0 -0.012851180936880507 0.0025147092556068152 0 -0.013016388953498598 0.0024666253823036866 0 -0.012851180936880507 0.0025147092556068152 0 -0.012874882921089879 0.0025025003965378143 0 -0.013016388953498598 0.0024666253823036866 0 -0.013245747378894003 0.0024803253719710202 0 -0.013016388953498598 0.0024666253823036866 0 -0.013102039036808365 0.002451201885405218 0 -0.01283316052525117 0.0023852192302037251 0 -0.013016388953498598 0.0024666253823036866 0 -0.013102039036808365 0.002451201885405218 0 -0.011861876035230026 0.0012369557135586465 0 -0.011914989452182462 0.0010476117813890105 0 -0.01207840063304731 0.00079328034702952615 0 -0.011831298766134767 0.0011589446690958159 0 -0.011861876035230026 0.0012369557135586465 0 -0.011914989452182462 0.0010476117813890105 0 -0.011750910016813739 0.00027237488522777696 0 -0.01202565614465303 8.1520669085673875e-05 0 -0.012153281639255862 0.0017682538778543211 0 -0.012474067215416929 0.0016935559855510882 0 -0.012449104564476506 0.0024127774571495388 0 -0.012874882921089879 0.0025025003965378143 0 -0.013141541888619475 0.0025969705008296881 0 -0.011831298766134767 0.0011589446690958159 0 -0.011914989452182462 0.0010476117813890105 0 -0.011876702574208777 0.00089825304527203363 0 -0.011914989452182462 0.0010476117813890105 0 -0.011876702574208777 0.00089825304527203363 0 -0.01207840063304731 0.00079328034702952615 0 -0.011966714638213532 0.00039217691470684547 0 -0.011876702574208777 0.00089825304527203363 0 -0.01207840063304731 0.00079328034702952615 0 -0.011678455660833656 -0.00068427464625890914 0 -0.012012936317505026 -0.00058669880271694096 0 -0.011792790532844703 -0.00058503550065231575 0 -0.012012936317505026 -0.00058669880271694096 0 -0.011792790532844703 -0.00058503550065231575 0 -0.011913360725812078 -0.00054663571619827697 0 -0.012012936317505026 -0.00058669880271694096 0 -0.011913360725812078 -0.00054663571619827697 0 -0.012004130364463331 -0.00053040654583862905 0 -0.011913360725812078 -0.00054663571619827697 0 -0.012004130364463331 -0.00053040654583862905 0 -0.012023543110300228 -0.0005766830855123506 0 -0.012004130364463331 -0.00053040654583862905 0 -0.012056722405195015 -0.00052213439398895555 0 -0.012023543110300228 -0.0005766830855123506 0 -0.011913360725812078 -0.00054663571619827697 0 -0.012023543110300228 -0.0005766830855123506 0 -0.011928892441485506 -0.00056620921832802712 0 -0.012032609529936933 -0.00025154286170161772 0 -0.011966714638213532 0.00039217691470684547 0 -0.01207840063304731 0.00079328034702952615 0 -0.012032609529936933 -0.00025154286170161772 0 -0.012004130364463331 -0.00053040654583862905 0 -0.012056722405195015 -0.00052213439398895555 0 -0.012032609529936933 -0.00025154286170161772 0 -0.012012936317505026 -0.00058669880271694096 0 -0.012004130364463331 -0.00053040654583862905 0 -0.01199457439875511 -0.00025198187038778851 0 -0.01202565614465303 8.1520669085673875e-05 0 -0.012032609529936933 -0.00025154286170161772 0 -0.012056722405195015 -0.00052213439398895555 0 -0.012093875789363877 -0.00056706173391522275 0 -0.012056722405195015 -0.00052213439398895555 0 -0.012146188327530208 -0.00071230542931727064 0 -0.012093875789363877 -0.00056706173391522275 0 -0.012111222332272534 -0.00078844821436949012 0 -0.012146188327530208 -0.00071230542931727064 0 -0.012093875789363877 -0.00056706173391522275 0 -0.012111222332272534 -0.00078844821436949012 0 -0.012023126225695362 -0.00058472982000764889 0 -0.012093875789363877 -0.00056706173391522275 0 -0.012146188327530208 -0.00071230542931727064 0 -0.012023543110300228 -0.0005766830855123506 0 -0.012094478188239657 -0.00074152256711538405 0 -0.012023543110300228 -0.0005766830855123506 0 -0.012094478188239657 -0.00074152256711538405 0 -0.011928892441485506 -0.00056620921832802712 0 -0.012056722405195015 -0.00052213439398895555 0 -0.012146188327530208 -0.00071230542931727064 0 -0.012023543110300228 -0.0005766830855123506 0 -0.012094478188239657 -0.00074152256711538405 0 -0.011928892441485506 -0.00056620921832802712 0 -0.011959728292036648 -0.00062150420869707171 0 -0.011777733882422203 -0.00048966365914109413 0 -0.011668380712389025 -0.00027494659982493417 0 -0.011959728292036648 -0.00062150420869707171 0 -0.011777733882422203 -0.00048966365914109413 0 -0.011928892441485506 -0.00056620921832802712 0 -0.011959728292036648 -0.00062150420869707171 0 -0.011777733882422203 -0.00048966365914109413 0 -0.011554795996690494 -0.00054718257283417257 0 -0.011487284668853258 -0.00048933336889018641 0 -0.011777733882422203 -0.00048966365914109413 0 -0.011770296884545362 -0.00054516706477772837 0 -0.011554795996690494 -0.00054718257283417257 0 -0.011777733882422203 -0.00048966365914109413 0 -0.011928892441485506 -0.00056620921832802712 0 -0.011770296884545362 -0.00054516706477772837 0 -0.011913360725812078 -0.00054663571619827697 0 -0.011928892441485506 -0.00056620921832802712 0 -0.011770296884545362 -0.00054516706477772837 0 -0.011792790532844703 -0.00058503550065231575 0 -0.011913360725812078 -0.00054663571619827697 0 -0.011770296884545362 -0.00054516706477772837 0 -0.011792790532844703 -0.00058503550065231575 0 -0.011770296884545362 -0.00054516706477772837 0 -0.011588591857619979 -0.00059771083787756387 0 -0.011770296884545362 -0.00054516706477772837 0 -0.011554795996690494 -0.00054718257283417257 0 -0.011588591857619979 -0.00059771083787756387 0 -0.011554795996690494 -0.00054718257283417257 0 -0.011339111336707496 -0.0006165057097170611 0 -0.011588591857619979 -0.00059771083787756387 0 -0.011367218502072634 -0.00065173424078540871 0 -0.011339111336707496 -0.0006165057097170611 0 -0.011588591857619979 -0.00059771083787756387 0 -0.011367218502072634 -0.00065173424078540871 0 -0.01118174132790936 -0.00064830282654449866 0 -0.011339111336707496 -0.0006165057097170611 0 -0.011678455660833656 -0.00068427464625890914 0 -0.011792790532844703 -0.00058503550065231575 0 -0.011588591857619979 -0.00059771083787756387 0 -0.011367218502072634 -0.00065173424078540871 0 -0.011678455660833656 -0.00068427464625890914 0 -0.011588591857619979 -0.00059771083787756387 0 -0.010951047547308256 -0.00058390281646028932 0 -0.011113931475551224 -0.00063260389918895455 0 -0.011250472706246255 -0.00056466085462223781 0 -0.011339111336707496 -0.0006165057097170611 0 -0.011113931475551224 -0.00063260389918895455 0 -0.011250472706246255 -0.00056466085462223781 0 -0.01118174132790936 -0.00064830282654449866 0 -0.011339111336707496 -0.0006165057097170611 0 -0.011113931475551224 -0.00063260389918895455 0 -0.011554795996690494 -0.00054718257283417257 0 -0.011339111336707496 -0.0006165057097170611 0 -0.011250472706246255 -0.00056466085462223781 0 -0.011250472706246255 -0.00056466085462223781 0 -0.011061081835187706 -0.00046736367010707941 0 -0.011487284668853258 -0.00048933336889018641 0 -0.011554795996690494 -0.00054718257283417257 0 -0.011250472706246255 -0.00056466085462223781 0 -0.011487284668853258 -0.00048933336889018641 0 -0.010951047547308256 -0.00058390281646028932 0 -0.011250472706246255 -0.00056466085462223781 0 -0.011061081835187706 -0.00046736367010707941 0 -0.011061081835187706 -0.00046736367010707941 0 -0.011314623196973468 -0.00035848953542402925 0 -0.011487284668853258 -0.00048933336889018641 0 -0.010953639408555933 -0.00028757882587864415 0 -0.011061081835187706 -0.00046736367010707941 0 -0.011314623196973468 -0.00035848953542402925 0 -0.010837504277625434 -2.2151299308104135e-05 0 -0.010953639408555933 -0.00028757882587864415 0 -0.011314623196973468 -0.00035848953542402925 0 -0.011314623196973468 -0.00035848953542402925 0 -0.011487284668853258 -0.00048933336889018641 0 -0.011668380712389025 -0.00027494659982493417 0 -0.011777733882422203 -0.00048966365914109413 0 -0.011487284668853258 -0.00048933336889018641 0 -0.011668380712389025 -0.00027494659982493417 0 -0.010837504277625434 -2.2151299308104135e-05 0 -0.011668380712389025 -0.00027494659982493417 0 -0.011111901068290828 0.0003467887088174172 0 -0.010837504277625434 -2.2151299308104135e-05 0 -0.011314623196973468 -0.00035848953542402925 0 -0.011668380712389025 -0.00027494659982493417 0 -0.011111901068290828 0.0003467887088174172 0 -0.011812967222452177 0.00042235318501522605 0 -0.011400348712058654 0.00096256909856597302 0 -0.01078019357750255 0.00083812774045407602 0 -0.011111901068290828 0.0003467887088174172 0 -0.011400348712058654 0.00096256909856597302 0 -0.011812967222452177 0.00042235318501522605 0 -0.011931158765493378 0.00098674386644046147 0 -0.011400348712058654 0.00096256909856597302 0 -0.011902043255184125 -0.00028736504697068416 0 -0.012115218737522849 0.00039149861657430409 0 -0.011668380712389025 -0.00027494659982493417 0 -0.012096814586137667 -0.00076685523333194772 0 -0.011959728292036648 -0.00062150420869707171 0 -0.011668380712389025 -0.00027494659982493417 0 -0.011111901068290828 0.0003467887088174172 0 -0.011812967222452177 0.00042235318501522605 0 -0.011734999992475096 -0.00028258251245657102 0 -0.011902043255184125 -0.00028736504697068416 0 -0.011959728292036648 -0.00062150420869707171 0 -0.012107134568232489 -0.0008686516041781872 0 -0.012110545157951522 -0.00092977671037244814 0 -0.012096814586137667 -0.00076685523333194772 0 -0.011959728292036648 -0.00062150420869707171 0 -0.012110545157951522 -0.00092977671037244814 0 -0.012094478188239657 -0.00074152256711538405 0 -0.011959728292036648 -0.00062150420869707171 0 -0.012107134568232489 -0.0008686516041781872 0 -0.012189095481097492 -0.00097264947251157383 0 -0.012094478188239657 -0.00074152256711538405 0 -0.012107134568232489 -0.0008686516041781872 0 -0.012189095481097492 -0.00097264947251157383 0 -0.012107134568232489 -0.0008686516041781872 0 -0.012188297370283267 -0.0010923351770591922 0 -0.012107134568232489 -0.0008686516041781872 0 -0.012188297370283267 -0.0010923351770591922 0 -0.012110545157951522 -0.00092977671037244814 0 -0.012188297370283267 -0.0010923351770591922 0 -0.012176189337244486 -0.0011487728575534655 0 -0.012253457379415352 -0.0012798132194584903 0 -0.012188297370283267 -0.0010923351770591922 0 -0.012110545157951522 -0.00092977671037244814 0 -0.012176189337244486 -0.0011487728575534655 0 -0.012300928207371477 -0.0012969154990212729 0 -0.012188297370283267 -0.0010923351770591922 0 -0.012253457379415352 -0.0012798132194584903 0 -0.012096814586137667 -0.00076685523333194772 0 -0.012110545157951522 -0.00092977671037244814 0 -0.012232417963698181 -0.0011174894236966556 0 -0.012110545157951522 -0.00092977671037244814 0 -0.012232417963698181 -0.0011174894236966556 0 -0.012176189337244486 -0.0011487728575534655 0 -0.012115218737522849 0.00039149861657430409 0 -0.013024035002436986 -0.0024936379846235072 0 -0.011931158765493378 0.00098674386644046147 0 -0.012083858798463337 0.0015287821015008993 0 -0.011682680024699741 0.0012818032153422484 0 -0.012232417963698181 -0.0011174894236966556 0 -0.012204023941031334 -0.0011951731098796363 0 -0.012223635791238939 -0.0012383258233443113 0 -0.012232417963698181 -0.0011174894236966556 0 -0.012176189337244486 -0.0011487728575534655 0 -0.012204023941031334 -0.0011951731098796363 0 -0.012253457379415352 -0.0012798132194584903 0 -0.01220008750482339 -0.0012180251646615535 0 -0.012254589385787081 -0.0012966587730273485 0 -0.012176189337244486 -0.0011487728575534655 0 -0.012204023941031334 -0.0011951731098796363 0 -0.01220008750482339 -0.0012180251646615535 0 -0.012176189337244486 -0.0011487728575534655 0 -0.012253457379415352 -0.0012798132194584903 0 -0.01220008750482339 -0.0012180251646615535 0 -0.012204023941031334 -0.0011951731098796363 0 -0.01220008750482339 -0.0012180251646615535 0 -0.01220227256241938 -0.0012103407650996922 0 -0.01220008750482339 -0.0012180251646615535 0 -0.01220227256241938 -0.0012103407650996922 0 -0.012254589385787081 -0.0012966587730273485 0 -0.01220227256241938 -0.0012103407650996922 0 -0.012254589385787081 -0.0012966587730273485 0 -0.012240549698043906 -0.001188145774600594 0 -0.012923189572224032 -0.0024218158628493409 0 -0.013015634776306871 -0.0025050064601795036 0 -0.014073261562230991 -0.0052732587597366471 0 -0.014029220651715371 -0.0051957744773388744 0 -0.013881007416445214 -0.005186899531170755 0 -0.01220227256241938 -0.0012103407650996922 0 -0.012199369667687313 -0.0012125683222175814 0 -0.012223635791238939 -0.0012383258233443113 0 -0.013015634776306871 -0.0025050064601795036 0 -0.013024035002436986 -0.0024936379846235072 0 -0.014073261562230991 -0.0052732587597366471 0 -0.014029220651715371 -0.0051957744773388744 0 -0.014129718334042038 -0.0051811630689932034 0 -0.014037744501812492 -0.0051407988221752101 0 -0.013881007416445214 -0.005186899531170755 0 -0.014004007838601435 -0.0050658270645960865 0 -0.014029220651715371 -0.0051957744773388744 0 -0.014037744501812492 -0.0051407988221752101 0 -0.013881007416445214 -0.005186899531170755 0 -0.014029220651715371 -0.0051957744773388744 0 -0.014037744501812492 -0.0051407988221752101 0 -0.014129718334042038 -0.0051811630689932034 0 -0.014037744501812492 -0.0051407988221752101 0 -0.014129718334042038 -0.0051811630689932034 0 -0.014121230442877884 -0.0050650218439970696 0 -0.012204023941031334 -0.0011951731098796363 0 -0.01220227256241938 -0.0012103407650996922 0 -0.012223635791238939 -0.0012383258233443113 0 -0.013024035002436986 -0.0024936379846235072 0 -0.01137307346788622 -0.0028521341170360029 0 -0.013820878644794064 -0.0051273602528853282 0 -0.013662676881007019 -0.0050534543295089312 0 -0.013807735588473515 -0.0050236606151068805 0 -0.012083858798463337 0.0015287821015008993 0 -0.011720760451580239 0.0015264970935490168 0 -0.011545183162815919 0.0017981974750172053 0 -0.012083858798463337 0.0015287821015008993 0 -0.011720760451580239 0.0015264970935490168 0 -0.011682680024699741 0.0012818032153422484 0 -0.011720760451580239 0.0015264970935490168 0 -0.011548934373224948 0.0015749270805761467 0 -0.011682680024699741 0.0012818032153422484 0 -0.011548934373224948 0.0015749270805761467 0 -0.011418479679276254 0.0014604711157267134 0 -0.011682680024699741 0.0012818032153422484 0 -0.011720760451580239 0.0015264970935490168 0 -0.011548934373224948 0.0015749270805761467 0 -0.011545183162815919 0.0017981974750172053 0 -0.011548934373224948 0.0015749270805761467 0 -0.011259073284827694 0.0016871833437946276 0 -0.011545183162815919 0.0017981974750172053 0 -0.01097426047809494 0.0017262884275465915 0 -0.011259073284827694 0.0016871833437946276 0 -0.011090519324059652 0.0015551826501510949 0 -0.011259073284827694 0.0016871833437946276 0 -0.011090519324059652 0.0015551826501510949 0 -0.011418479679276254 0.0014604711157267134 0 -0.011548934373224948 0.0015749270805761467 0 -0.011259073284827694 0.0016871833437946276 0 -0.011418479679276254 0.0014604711157267134 0 -0.01078019357750255 0.00083812774045407602 0 -0.011090519324059652 0.0015551826501510949 0 -0.011400348712058654 0.00096256909856597302 0 -0.011090519324059652 0.0015551826501510949 0 -0.011418479679276254 0.0014604711157267134 0 -0.011400348712058654 0.00096256909856597302 0 -0.011931158765493378 0.00098674386644046147 0 -0.011400348712058654 0.00096256909856597302 0 -0.011682680024699741 0.0012818032153422484 0 -0.011418479679276254 0.0014604711157267134 0 -0.011400348712058654 0.00096256909856597302 0 -0.011682680024699741 0.0012818032153422484 0 -0.011235647666830184 -0.0090858332071823613 0 -0.011230425058891389 -0.0090761588413107771 0 -0.011221331554286907 -0.0090965684305465682 0 -0.011235647666830184 -0.0090858332071823613 0 -0.011230425058891389 -0.0090761588413107771 0 -0.011237296139011494 -0.0090656356300743545 0 -0.011235647666830184 -0.0090858332071823613 0 -0.011239898148642114 -0.0090805897967173015 0 -0.011237296139011494 -0.0090656356300743545 0 -0.011238732974362968 -0.0090657199506169184 0 -0.011239898148642114 -0.0090805897967173015 0 -0.011237296139011494 -0.0090656356300743545 0 -0.011238732974362968 -0.0090657199506169184 0 -0.011239217210612917 -0.0090809511423178887 0 -0.011236340826291645 -0.0090704407785961345 0 -0.011238732974362968 -0.0090657199506169184 0 -0.011239217210612917 -0.0090809511423178887 0 -0.011239898148642114 -0.0090805897967173015 0 -0.011239217210612917 -0.0090809511423178887 0 -0.011239898148642114 -0.0090805897967173015 0 -0.011245047871421519 -0.0090942010608365525 0 -0.011245047871421519 -0.0090942010608365525 0 -0.011240297356315954 -0.0090898297820515284 0 -0.011244320371297668 -0.0091003656446460284 0 -0.011239217210612917 -0.0090809511423178887 0 -0.011245047871421519 -0.0090942010608365525 0 -0.011240297356315954 -0.0090898297820515284 0 -0.011245047871421519 -0.0090942010608365525 0 -0.011236300357615334 -0.0090993548933533848 0 -0.011254686347053325 -0.0091048535702155584 0 -0.011235647666830184 -0.0090858332071823613 0 -0.011245047871421519 -0.0090942010608365525 0 -0.011236300357615334 -0.0090993548933533848 0 -0.011235647666830184 -0.0090858332071823613 0 -0.011239898148642114 -0.0090805897967173015 0 -0.011245047871421519 -0.0090942010608365525 0 -0.011236300357615334 -0.0090993548933533848 0 -0.011212614166238154 -0.0091089363381221533 0 -0.01123638860039447 -0.0091022467062867336 0 -0.011236300357615334 -0.0090993548933533848 0 -0.011212614166238154 -0.0091089363381221533 0 -0.011221331554286907 -0.0090965684305465682 0 -0.011185511246243136 -0.0091285524764676915 0 -0.011212614166238154 -0.0091089363381221533 0 -0.011179280945626551 -0.0091062617765705189 0 -0.011185511246243136 -0.0091285524764676915 0 -0.011212614166238154 -0.0091089363381221533 0 -0.011221331554286907 -0.0090965684305465682 0 -0.011185511246243136 -0.0091285524764676915 0 -0.011221331554286907 -0.0090965684305465682 0 -0.011223762368468315 -0.009074950612929459 0 -0.011235647666830184 -0.0090858332071823613 0 -0.011236300357615334 -0.0090993548933533848 0 -0.011221331554286907 -0.0090965684305465682 0 -0.011230425058891389 -0.0090761588413107771 0 -0.011221331554286907 -0.0090965684305465682 0 -0.011223762368468315 -0.009074950612929459 0 -0.011185511246243136 -0.0091285524764676915 0 -0.011223762368468315 -0.009074950612929459 0 -0.011246316014754103 -0.0090124763781677837 0 -0.010816502734435622 0.0018151413857236127 0 -0.011259073284827694 0.0016871833437946276 0 -0.011545183162815919 0.0017981974750172053 0 -0.010562662332409219 0.002013893911184725 0 -0.01137307346788622 -0.0028521341170360029 0 -0.010868323078138316 -0.0042461598315794323 0 -0.01137307346788622 -0.0028521341170360029 0 -0.010610229516460894 0.0011001054171062685 0 -0.010616556801145099 0.0010943644287589511 0 -0.010764387111720754 0.00095205642488292675 0 -0.01097426047809494 0.0017262884275465915 0 -0.010816502734435622 0.0018151413857236127 0 -0.011259073284827694 0.0016871833437946276 0 -0.011246316014754103 -0.0090124763781677837 0 -0.011238925203205508 -0.009047888668297999 0 -0.011239681931197424 -0.0090482083259843023 0 -0.011246316014754103 -0.0090124763781677837 0 -0.011237912143631746 -0.0090549472941585524 0 -0.011230951394883809 -0.0090694812958763207 0 -0.011246316014754103 -0.0090124763781677837 0 -0.01123475768650649 -0.0090554558878591044 0 -0.011238925203205508 -0.009047888668297999 0 -0.01137307346788622 -0.0028521341170360029 0 -0.012522634573560523 -0.0076343294779085561 0 -0.011223762368468315 -0.009074950612929459 0 -0.011246316014754103 -0.0090124763781677837 0 -0.01123475768650649 -0.0090554558878591044 0 -0.01123475768650649 -0.0090554558878591044 0 -0.011238925203205508 -0.009047888668297999 0 -0.011237296139011494 -0.0090656356300743545 0 -0.011238925203205508 -0.009047888668297999 0 -0.011237296139011494 -0.0090656356300743545 0 -0.011238621924332434 -0.009056906853835681 0 -0.011230425058891389 -0.0090761588413107771 0 -0.01123475768650649 -0.0090554558878591044 0 -0.011237296139011494 -0.0090656356300743545 0 -0.011230425058891389 -0.0090761588413107771 0 -0.011223762368468315 -0.009074950612929459 0 -0.01123475768650649 -0.0090554558878591044 0 -0.011238732974362968 -0.0090657199506169184 0 -0.011237912143631746 -0.0090549472941585524 0 -0.011236340826291645 -0.0090704407785961345 0 -0.011238732974362968 -0.0090657199506169184 0 -0.011237912143631746 -0.0090549472941585524 0 -0.011239681931197424 -0.0090482083259843023 0 -0.011238732974362968 -0.0090657199506169184 0 -0.011238621924332434 -0.009056906853835681 0 -0.011239681931197424 -0.0090482083259843023 0 -0.011238732974362968 -0.0090657199506169184 0 -0.011237296139011494 -0.0090656356300743545 0 -0.011238621924332434 -0.009056906853835681 0 -0.011238925203205508 -0.009047888668297999 0 -0.011238621924332434 -0.009056906853835681 0 -0.011239681931197424 -0.0090482083259843023 0 -0.011246316014754103 -0.0090124763781677837 0 -0.011237912143631746 -0.0090549472941585524 0 -0.011239681931197424 -0.0090482083259843023 0 -0.013820878644794064 -0.0051273602528853282 0 -0.013807735588473515 -0.0050236606151068805 0 -0.01393995921844072 -0.0049546948421365419 0 -0.013881007416445214 -0.005186899531170755 0 -0.014004007838601435 -0.0050658270645960865 0 -0.01393995921844072 -0.0049546948421365419 0 -0.013024035002436986 -0.0024936379846235072 0 -0.013989900866211087 -0.0059928481448088934 0 -0.013662676881007019 -0.0050534543295089312 0 -0.013807735588473515 -0.0050236606151068805 0 -0.01387203690457502 -0.0049333159368963294 0 -0.013807735588473515 -0.0050236606151068805 0 -0.01393995921844072 -0.0049546948421365419 0 -0.01387203690457502 -0.0049333159368963294 0 -0.014121230442877884 -0.0050650218439970696 0 -0.014004007838601435 -0.0050658270645960865 0 -0.014053428470541892 -0.0050046607481610767 0 -0.014037744501812492 -0.0051407988221752101 0 -0.014121230442877884 -0.0050650218439970696 0 -0.014004007838601435 -0.0050658270645960865 0 -0.014004007838601435 -0.0050658270645960865 0 -0.014053428470541892 -0.0050046607481610767 0 -0.01393995921844072 -0.0049546948421365419 0 -0.014121230442877884 -0.0050650218439970696 0 -0.014053428470541892 -0.0050046607481610767 0 -0.014145701044233705 -0.0049271719959568822 0 -0.014145701044233705 -0.0049271719959568822 0 -0.01393995921844072 -0.0049546948421365419 0 -0.014156130056252379 -0.0047754709506420516 0 -0.014053428470541892 -0.0050046607481610767 0 -0.014145701044233705 -0.0049271719959568822 0 -0.01393995921844072 -0.0049546948421365419 0 -0.012522634573560523 -0.0076343294779085561 0 -0.012725379566932394 -0.0068415018740831477 0 -0.01393995921844072 -0.0049546948421365419 0 -0.01387203690457502 -0.0049333159368963294 0 -0.014156130056252379 -0.0047754709506420516 0 -0.011230951394883809 -0.0090694812958763207 0 -0.011233122247526083 -0.0090920232536378081 0 -0.011216472749004463 -0.0091039902287584577 0 -0.011236096686822053 -0.0090805668519923534 0 -0.011230951394883809 -0.0090694812958763207 0 -0.011233122247526083 -0.0090920232536378081 0 -0.011237912143631746 -0.0090549472941585524 0 -0.011236340826291645 -0.0090704407785961345 0 -0.011230951394883809 -0.0090694812958763207 0 -0.011236096686822053 -0.0090805668519923534 0 -0.011236340826291645 -0.0090704407785961345 0 -0.011230951394883809 -0.0090694812958763207 0 -0.011239217210612917 -0.0090809511423178887 0 -0.011236096686822053 -0.0090805668519923534 0 -0.011236340826291645 -0.0090704407785961345 0 -0.011233122247526083 -0.0090920232536378081 0 -0.011240297356315954 -0.0090898297820515284 0 -0.011244320371297668 -0.0091003656446460284 0 -0.011236096686822053 -0.0090805668519923534 0 -0.011233122247526083 -0.0090920232536378081 0 -0.011240297356315954 -0.0090898297820515284 0 -0.011239217210612917 -0.0090809511423178887 0 -0.011236096686822053 -0.0090805668519923534 0 -0.011240297356315954 -0.0090898297820515284 0 -0.011244320371297668 -0.0091003656446460284 0 -0.011245038183944548 -0.0091133412996868123 0 -0.011233038415921862 -0.0091124083380980242 0 -0.011233122247526083 -0.0090920232536378081 0 -0.011244320371297668 -0.0091003656446460284 0 -0.011233038415921862 -0.0091124083380980242 0 -0.011233038415921862 -0.0091124083380980242 0 -0.011240919528453229 -0.0091325307493427942 0 -0.011223662885785909 -0.0091365318447730152 0 -0.011245038183944548 -0.0091133412996868123 0 -0.011240919528453229 -0.0091325307493427942 0 -0.011253968916642798 -0.0091191755568576522 0 -0.011245038183944548 -0.0091133412996868123 0 -0.011233038415921862 -0.0091124083380980242 0 -0.011240919528453229 -0.0091325307493427942 0 -0.011240919528453229 -0.0091325307493427942 0 -0.011256673270462177 -0.0091378698718448236 0 -0.011253968916642798 -0.0091191755568576522 0 -0.011233038415921862 -0.0091124083380980242 0 -0.011216472749004463 -0.0091039902287584577 0 -0.011223662885785909 -0.0091365318447730152 0 -0.011216472749004463 -0.0091039902287584577 0 -0.011223662885785909 -0.0091365318447730152 0 -0.01120921968489314 -0.0091490014941684461 0 -0.011233122247526083 -0.0090920232536378081 0 -0.011233038415921862 -0.0091124083380980242 0 -0.011216472749004463 -0.0091039902287584577 0 -0.011223662885785909 -0.0091365318447730152 0 -0.01120921968489314 -0.0091490014941684461 0 -0.011218557526481734 -0.0091700561659665454 0 -0.011223662885785909 -0.0091365318447730152 0 -0.011223658722189438 -0.0091796205637241172 0 -0.011218557526481734 -0.0091700561659665454 0 -0.011223658722189438 -0.0091796205637241172 0 -0.011221232475075039 -0.0092049641153634249 0 -0.01122271790892621 -0.0092177680918434004 0 -0.011223658722189438 -0.0091796205637241172 0 -0.011221232475075039 -0.0092049641153634249 0 -0.011218557526481734 -0.0091700561659665454 0 -0.01120921968489314 -0.0091490014941684461 0 -0.011218557526481734 -0.0091700561659665454 0 -0.011214871886120518 -0.0091824112552532124 0 -0.011221232475075039 -0.0092049641153634249 0 -0.011218557526481734 -0.0091700561659665454 0 -0.011214871886120518 -0.0091824112552532124 0 -0.011240919528453229 -0.0091325307493427942 0 -0.011248795700570736 -0.0091616042889314988 0 -0.011233077476181973 -0.0091654523586603785 0 -0.011240919528453229 -0.0091325307493427942 0 -0.011248795700570736 -0.0091616042889314988 0 -0.011256673270462177 -0.0091378698718448236 0 -0.011240919528453229 -0.0091325307493427942 0 -0.011223662885785909 -0.0091365318447730152 0 -0.011233077476181973 -0.0091654523586603785 0 -0.011223662885785909 -0.0091365318447730152 0 -0.011223658722189438 -0.0091796205637241172 0 -0.011233077476181973 -0.0091654523586603785 0 -0.011233077476181973 -0.0091654523586603785 0 -0.011227803582273519 -0.0091984173156917579 0 -0.011238261582133827 -0.00920048147926999 0 -0.011223658722189438 -0.0091796205637241172 0 -0.011233077476181973 -0.0091654523586603785 0 -0.011227803582273519 -0.0091984173156917579 0 -0.011223658722189438 -0.0091796205637241172 0 -0.011227803582273519 -0.0091984173156917579 0 -0.01122271790892621 -0.0092177680918434004 0 -0.011227803582273519 -0.0091984173156917579 0 -0.01122271790892621 -0.0092177680918434004 0 -0.011223905807375483 -0.0092288274788056689 0 -0.011227803582273519 -0.0091984173156917579 0 -0.011238261582133827 -0.00920048147926999 0 -0.011223905807375483 -0.0092288274788056689 0 -0.011248795700570736 -0.0091616042889314988 0 -0.011233077476181973 -0.0091654523586603785 0 -0.011238261582133827 -0.00920048147926999 0 -0.011248795700570736 -0.0091616042889314988 0 -0.011238261582133827 -0.00920048147926999 0 -0.011262079442449753 -0.0091949116783876031 0 -0.011238261582133827 -0.00920048147926999 0 -0.011262079442449753 -0.0091949116783876031 0 -0.011249166128022856 -0.0092181038616165143 0 -0.011262079442449753 -0.0091949116783876031 0 -0.011289129469943347 -0.009197184619808731 0 -0.01127236677329207 -0.0092408057127427549 0 -0.011289129469943347 -0.009197184619808731 0 -0.011287764808264092 -0.009157729767843464 0 -0.011267403056411275 -0.0091599056760372378 0 -0.011262079442449753 -0.0091949116783876031 0 -0.011289129469943347 -0.009197184619808731 0 -0.011267403056411275 -0.0091599056760372378 0 -0.011248795700570736 -0.0091616042889314988 0 -0.011262079442449753 -0.0091949116783876031 0 -0.011267403056411275 -0.0091599056760372378 0 -0.011287764808264092 -0.009157729767843464 0 -0.011288740402315582 -0.0091303016037771936 0 -0.011328191481361672 -0.0091763181296772144 0 -0.011289129469943347 -0.009197184619808731 0 -0.011287764808264092 -0.009157729767843464 0 -0.011328191481361672 -0.0091763181296772144 0 -0.01126920372890158 -0.0091285636336140112 0 -0.011264005072192503 -0.0091114601828293732 0 -0.011288740402315582 -0.0091303016037771936 0 -0.011287764808264092 -0.009157729767843464 0 -0.01126920372890158 -0.0091285636336140112 0 -0.011288740402315582 -0.0091303016037771936 0 -0.011248795700570736 -0.0091616042889314988 0 -0.011267403056411275 -0.0091599056760372378 0 -0.011256673270462177 -0.0091378698718448236 0 -0.011287764808264092 -0.009157729767843464 0 -0.01126920372890158 -0.0091285636336140112 0 -0.011267403056411275 -0.0091599056760372378 0 -0.01126920372890158 -0.0091285636336140112 0 -0.011267403056411275 -0.0091599056760372378 0 -0.011256673270462177 -0.0091378698718448236 0 -0.01126920372890158 -0.0091285636336140112 0 -0.011253968916642798 -0.0091191755568576522 0 -0.011254686347053325 -0.0091048535702155584 0 -0.011245038183944548 -0.0091133412996868123 0 -0.011253968916642798 -0.0091191755568576522 0 -0.01125050972703176 -0.0091061454403787642 0 -0.01126920372890158 -0.0091285636336140112 0 -0.011256673270462177 -0.0091378698718448236 0 -0.011253968916642798 -0.0091191755568576522 0 -0.01126920372890158 -0.0091285636336140112 0 -0.011264005072192503 -0.0091114601828293732 0 -0.011254686347053325 -0.0091048535702155584 0 -0.011236300357615334 -0.0090993548933533848 0 -0.011254686347053325 -0.0091048535702155584 0 -0.01123638860039447 -0.0091022467062867336 0 -0.011264005072192503 -0.0091114601828293732 0 -0.011254686347053325 -0.0091048535702155584 0 -0.01123638860039447 -0.0091022467062867336 0 -0.011245047871421519 -0.0090942010608365525 0 -0.011254686347053325 -0.0091048535702155584 0 -0.01125050972703176 -0.0091061454403787642 0 -0.011245047871421519 -0.0090942010608365525 0 -0.011244320371297668 -0.0091003656446460284 0 -0.01125050972703176 -0.0091061454403787642 0 -0.011244320371297668 -0.0091003656446460284 0 -0.011245038183944548 -0.0091133412996868123 0 -0.01125050972703176 -0.0091061454403787642 0 -0.011253968916642798 -0.0091191755568576522 0 -0.011254686347053325 -0.0091048535702155584 0 -0.01125050972703176 -0.0091061454403787642 0 -0.011212614166238154 -0.0091089363381221533 0 -0.011179280945626551 -0.0091062617765705189 0 -0.01123638860039447 -0.0091022467062867336 0 -0.011179280945626551 -0.0091062617765705189 0 -0.01123638860039447 -0.0091022467062867336 0 -0.011200788580274186 -0.0090954649014219416 0 -0.011264005072192503 -0.0091114601828293732 0 -0.01123638860039447 -0.0091022467062867336 0 -0.011264321620284956 -0.0091077649280868582 0 -0.01123638860039447 -0.0091022467062867336 0 -0.011200788580274186 -0.0090954649014219416 0 -0.011264321620284956 -0.0091077649280868582 0 -0.011200788580274186 -0.0090954649014219416 0 -0.011235650710711613 -0.0090992171856303702 0 -0.011264321620284956 -0.0091077649280868582 0 -0.011353040778352884 -0.0091287730279474393 0 -0.011235650710711613 -0.0090992171856303702 0 -0.01129864679978267 -0.0091238022850786242 0 -0.011353040778352884 -0.0091287730279474393 0 -0.01129864679978267 -0.0091238022850786242 0 -0.011328191481361672 -0.0091763181296772144 0 -0.011235650710711613 -0.0090992171856303702 0 -0.01129864679978267 -0.0091238022850786242 0 -0.011264321620284956 -0.0091077649280868582 0 -0.011264005072192503 -0.0091114601828293732 0 -0.011264321620284956 -0.0091077649280868582 0 -0.011288740402315582 -0.0091303016037771936 0 -0.01129864679978267 -0.0091238022850786242 0 -0.011264321620284956 -0.0091077649280868582 0 -0.011288740402315582 -0.0091303016037771936 0 -0.01129864679978267 -0.0091238022850786242 0 -0.011288740402315582 -0.0091303016037771936 0 -0.011328191481361672 -0.0091763181296772144 0 -0.010881256979109135 -0.0091981293355596957 0 -0.011001364135033852 -0.0096503298193324673 0 -0.010881256979109135 -0.0091981293355596957 0 -0.010634567899338677 -0.0095999352253787074 0 -0.011353040778352884 -0.0091287730279474393 0 -0.011328191481361672 -0.0091763181296772144 0 -0.011506719683145305 -0.0094999296089892261 0 -0.010970286119298926 -0.009061203558686351 0 -0.010727931657780857 -0.0098013360762705913 0 -0.010454725475041147 -0.0097989506442962265 0 -0.011330852736805119 -0.0092748824857509637 0 -0.011296665372189109 -0.0093338731174191746 0 -0.011506719683145305 -0.0094999296089892261 0 -0.011328191481361672 -0.0091763181296772144 0 -0.011330852736805119 -0.0092748824857509637 0 -0.011506719683145305 -0.0094999296089892261 0 -0.01127236677329207 -0.0092408057127427549 0 -0.011244604621150799 -0.0092440513089425431 0 -0.011255812676322322 -0.0092742500766095533 0 -0.01127236677329207 -0.0092408057127427549 0 -0.011296665372189109 -0.0093338731174191746 0 -0.011255812676322322 -0.0092742500766095533 0 -0.011262079442449753 -0.0091949116783876031 0 -0.01127236677329207 -0.0092408057127427549 0 -0.011249166128022856 -0.0092181038616165143 0 -0.011289129469943347 -0.009197184619808731 0 -0.01127236677329207 -0.0092408057127427549 0 -0.011330852736805119 -0.0092748824857509637 0 -0.01127236677329207 -0.0092408057127427549 0 -0.011330852736805119 -0.0092748824857509637 0 -0.011296665372189109 -0.0093338731174191746 0 -0.011289129469943347 -0.009197184619808731 0 -0.011328191481361672 -0.0091763181296772144 0 -0.011330852736805119 -0.0092748824857509637 0 -0.011296665372189109 -0.0093338731174191746 0 -0.011268505153261539 -0.0095029350460308481 0 -0.011251015832081948 -0.0093746627346861424 0 -0.011296665372189109 -0.0093338731174191746 0 -0.011243396772137608 -0.0093007078708693385 0 -0.011255812676322322 -0.0092742500766095533 0 -0.011296665372189109 -0.0093338731174191746 0 -0.011243396772137608 -0.0093007078708693385 0 -0.011251015832081948 -0.0093746627346861424 0 -0.011268505153261539 -0.0095029350460308481 0 -0.011506719683145305 -0.0094999296089892261 0 -0.011172023166686612 -0.0097949955400247375 0 -0.011296665372189109 -0.0093338731174191746 0 -0.011268505153261539 -0.0095029350460308481 0 -0.011506719683145305 -0.0094999296089892261 0 -0.010727931657780857 -0.0098013360762705913 0 -0.010454725475041147 -0.0097989506442962265 0 -0.010481219932842269 -0.010554201696979204 0 -0.010027391137283357 -0.010121191245862676 0 -0.0096732765933291009 -0.010723614216818132 0 -0.010534988363492124 -0.0097345550603709502 0 -0.010380482178127648 -0.0096246703107489093 0 -0.010267412585872783 -0.0099365758346939021 0 -0.0093775012701889163 -0.011303503672064296 0 -0.0094845244162808998 -0.010558966833449583 0 -0.0088979489764814713 -0.011224519760321586 0 -0.010634567899338677 -0.0095999352253787074 0 -0.0096732765933291009 -0.010723614216818132 0 -0.011506719683145305 -0.0094999296089892261 0 -0.011343775118951469 -0.010261162008422052 0 -0.011172023166686612 -0.0097949955400247375 0 -0.011001364135033852 -0.0096503298193324673 0 -0.010711047314238805 -0.010360960770263756 0 -0.010454725475041147 -0.0097989506442962265 0 -0.010481219932842269 -0.010554201696979204 0 -0.0099339040806621145 -0.010550068001700918 0 -0.0096732765933291009 -0.010723614216818132 0 -0.0086509264520889927 -0.012068676974256546 0 -0.010481219932842269 -0.010554201696979204 0 -0.009948418754970904 -0.01092669919180228 0 -0.0099339040806621145 -0.010550068001700918 0 -0.0090187108293384183 -0.011323071469522978 0 -0.0086072673115942331 -0.011613899523679376 0 -0.0088272169736879416 -0.011861121350802261 0 -0.0096732765933291009 -0.010723614216818132 0 -0.0091354290605998208 -0.011363883060977326 0 -0.0093775012701889163 -0.011303503672064296 0 -0.0091497305027543659 -0.01164231740955411 0 -0.0094748421452137983 -0.011938174322538235 0 -0.0088979489764814713 -0.011224519760321586 0 -0.0091497305027543659 -0.01164231740955411 0 -0.0088272169736879416 -0.011861121350802261 0 -0.0093775012701889163 -0.011303503672064296 0 -0.0088979489764814713 -0.011224519760321586 0 -0.0091497305027543659 -0.01164231740955411 0 -0.010823962967376763 -0.010562191454365393 0 -0.010949074332687266 -0.011081439157423087 0 -0.010786694735659489 -0.010929915382989304 0 -0.010823962967376763 -0.010562191454365393 0 -0.010531516661308053 -0.010530357097917026 0 -0.010631505853495465 -0.010277642286051972 0 -0.010823962967376763 -0.010562191454365393 0 -0.010531516661308053 -0.010530357097917026 0 -0.010598685476686161 -0.010754308156416368 0 -0.010823962967376763 -0.010562191454365393 0 -0.010598685476686161 -0.010754308156416368 0 -0.010786694735659489 -0.010929915382989304 0 -0.010711047314238805 -0.010360960770263756 0 -0.009682362807958346 -0.011375674000058183 0 -0.009948418754970904 -0.01092669919180228 0 -0.0099339040806621145 -0.010550068001700918 0 -0.0094214950350268167 -0.011299819044955896 0 -0.010823962967376763 -0.010562191454365393 0 -0.011343775118951469 -0.010261162008422052 0 -0.010949074332687266 -0.011081439157423087 0 -0.011343775118951469 -0.010261162008422052 0 -0.010943300910640365 -0.010133535024852147 0 -0.011172023166686612 -0.0097949955400247375 0 -0.010823962967376763 -0.010562191454365393 0 -0.011343775118951469 -0.010261162008422052 0 -0.010943300910640365 -0.010133535024852147 0 -0.010943300910640365 -0.010133535024852147 0 -0.010893230141743442 -0.0099356158748518282 0 -0.011172023166686612 -0.0097949955400247375 0 -0.010801491367276874 -0.010043964504196026 0 -0.010631505853495465 -0.010277642286051972 0 -0.010733466560554532 -0.0098268404945450246 0 -0.010923306713258795 -0.009813961235497921 0 -0.011011694693600055 -0.0098732144424102664 0 -0.010631382785246288 -0.010504227118875437 0 -0.010631505853495465 -0.010277642286051972 0 -0.010733466560554532 -0.0098268404945450246 0 -0.010283412256659791 -0.010498945754925838 0 -0.010893230141743442 -0.0099356158748518282 0 -0.010801491367276874 -0.010043964504196026 0 -0.010733466560554532 -0.0098268404945450246 0 -0.010943300910640365 -0.010133535024852147 0 -0.010893230141743442 -0.0099356158748518282 0 -0.010801491367276874 -0.010043964504196026 0 -0.010823962967376763 -0.010562191454365393 0 -0.010943300910640365 -0.010133535024852147 0 -0.010631505853495465 -0.010277642286051972 0 -0.010943300910640365 -0.010133535024852147 0 -0.010801491367276874 -0.010043964504196026 0 -0.010631505853495465 -0.010277642286051972 0 -0.011096705885525856 -0.0095479361986759229 0 -0.011212052521614396 -0.0092989580150483701 0 -0.01127042484174624 -0.0092856905728227884 0 -0.011255795351697311 -0.0093032847938017936 0 -0.01124986218253474 -0.0093255322386767737 0 -0.010923306713258795 -0.009813961235497921 0 -0.011011694693600055 -0.0098732144424102664 0 -0.011198490804689988 -0.0092799009196710344 0 -0.01127042484174624 -0.0092856905728227884 0 -0.011254963243958077 -0.009286822173102673 0 -0.011255795351697311 -0.0093032847938017936 0 -0.01127042484174624 -0.0092856905728227884 0 -0.011254963243958077 -0.009286822173102673 0 -0.011256269180100529 -0.0092808180982437913 0 -0.010893230141743442 -0.0099356158748518282 0 -0.010733466560554532 -0.0098268404945450246 0 -0.010977174437770845 -0.0097867479815074623 0 -0.01127042484174624 -0.0092856905728227884 0 -0.011244964395442487 -0.009276399605402422 0 -0.011218997534815565 -0.0092741450654966282 0 -0.011244964395442487 -0.009276399605402422 0 -0.011249848828821758 -0.009274748609039608 0 -0.011240381376554231 -0.0092642810560897727 0 -0.01127042484174624 -0.0092856905728227884 0 -0.011244964395442487 -0.009276399605402422 0 -0.011256269180100529 -0.0092808180982437913 0 -0.011249848828821758 -0.009274748609039608 0 -0.011240231347796495 -0.0092631674751702323 0 -0.011240381376554231 -0.0092642810560897727 0 -0.011249848828821758 -0.009274748609039608 0 -0.011240231347796495 -0.0092631674751702323 0 -0.011254963243958077 -0.009286822173102673 0 -0.011244964395442487 -0.009276399605402422 0 -0.011249848828821758 -0.009274748609039608 0 -0.011256269180100529 -0.0092808180982437913 0 -0.011249848828821758 -0.009274748609039608 0 -0.011254963243958077 -0.009286822173102673 0 -0.011256269180100529 -0.0092808180982437913 0 -0.01127042484174624 -0.0092856905728227884 0 -0.011198490804689988 -0.0092799009196710344 0 -0.011218997534815565 -0.0092741450654966282 0 -0.010733466560554532 -0.0098268404945450246 0 -0.011097133541497902 -0.0095866247120034304 0 -0.011224748813895945 -0.0093024287565109456 0 -0.010870868527606272 -0.0098514557061690107 0 -0.011207260510888694 -0.0093509224719191594 0 -0.011011694693600055 -0.0098732144424102664 0 -0.011224748813895945 -0.0093024287565109456 0 -0.011198490804689988 -0.0092799009196710344 0 -0.011172023166686612 -0.0097949955400247375 0 -0.010977174437770845 -0.0097867479815074623 0 -0.011097133541497902 -0.0095866247120034304 0 -0.010893230141743442 -0.0099356158748518282 0 -0.011172023166686612 -0.0097949955400247375 0 -0.010977174437770845 -0.0097867479815074623 0 -0.010733466560554532 -0.0098268404945450246 0 -0.010977174437770845 -0.0097867479815074623 0 -0.011097133541497902 -0.0095866247120034304 0 -0.011097133541497902 -0.0095866247120034304 0 -0.011215092607539317 -0.0094411384054015786 0 -0.011224748813895945 -0.0093024287565109456 0 -0.011268505153261539 -0.0095029350460308481 0 -0.011172023166686612 -0.0097949955400247375 0 -0.011097133541497902 -0.0095866247120034304 0 -0.011268505153261539 -0.0095029350460308481 0 -0.011097133541497902 -0.0095866247120034304 0 -0.011215092607539317 -0.0094411384054015786 0 -0.011268505153261539 -0.0095029350460308481 0 -0.011215092607539317 -0.0094411384054015786 0 -0.011251015832081948 -0.0093746627346861424 0 -0.011243396772137608 -0.0093007078708693385 0 -0.011224748813895945 -0.0093024287565109456 0 -0.011221833218368055 -0.0092776903887909924 0 -0.011243396772137608 -0.0093007078708693385 0 -0.011251015832081948 -0.0093746627346861424 0 -0.011224748813895945 -0.0093024287565109456 0 -0.011215092607539317 -0.0094411384054015786 0 -0.011251015832081948 -0.0093746627346861424 0 -0.011224748813895945 -0.0093024287565109456 0 -0.011224748813895945 -0.0093024287565109456 0 -0.011221833218368055 -0.0092776903887909924 0 -0.011198490804689988 -0.0092799009196710344 0 -0.011198490804689988 -0.0092799009196710344 0 -0.011218997534815565 -0.0092741450654966282 0 -0.011216716030750286 -0.0092575410092896274 0 -0.011218997534815565 -0.0092741450654966282 0 -0.011222144197068424 -0.0092592231109906858 0 -0.011216716030750286 -0.0092575410092896274 0 -0.011218997534815565 -0.0092741450654966282 0 -0.011222144197068424 -0.0092592231109906858 0 -0.011228913229580431 -0.0092672866027823011 0 -0.01122271790892621 -0.0092177680918434004 0 -0.011216716030750286 -0.0092575410092896274 0 -0.011222580662626915 -0.0092399166382478668 0 -0.011222144197068424 -0.0092592231109906858 0 -0.011216716030750286 -0.0092575410092896274 0 -0.011222580662626915 -0.0092399166382478668 0 -0.01122271790892621 -0.0092177680918434004 0 -0.011223905807375483 -0.0092288274788056689 0 -0.011216716030750286 -0.0092575410092896274 0 -0.011223905807375483 -0.0092288274788056689 0 -0.011216716030750286 -0.0092575410092896274 0 -0.011216565537458006 -0.00925654351586324 0 -0.011198490804689988 -0.0092799009196710344 0 -0.011216716030750286 -0.0092575410092896274 0 -0.011216565537458006 -0.00925654351586324 0 -0.011221833218368055 -0.0092776903887909924 0 -0.011216565537458006 -0.00925654351586324 0 -0.01123220201462647 -0.009261501577168289 0 -0.011221833218368055 -0.0092776903887909924 0 -0.011198490804689988 -0.0092799009196710344 0 -0.011216565537458006 -0.00925654351586324 0 -0.011216565537458006 -0.00925654351586324 0 -0.011232282854799904 -0.0092329470651256341 0 -0.01123220201462647 -0.009261501577168289 0 -0.011238261582133827 -0.00920048147926999 0 -0.011223905807375483 -0.0092288274788056689 0 -0.011232282854799904 -0.0092329470651256341 0 -0.011223905807375483 -0.0092288274788056689 0 -0.011216565537458006 -0.00925654351586324 0 -0.011232282854799904 -0.0092329470651256341 0 -0.011232282854799904 -0.0092329470651256341 0 -0.011249166128022856 -0.0092181038616165143 0 -0.011244604621150799 -0.0092440513089425431 0 -0.01127236677329207 -0.0092408057127427549 0 -0.011249166128022856 -0.0092181038616165143 0 -0.011244604621150799 -0.0092440513089425431 0 -0.011238261582133827 -0.00920048147926999 0 -0.011232282854799904 -0.0092329470651256341 0 -0.011249166128022856 -0.0092181038616165143 0 -0.011244604621150799 -0.0092440513089425431 0 -0.01123220201462647 -0.009261501577168289 0 -0.011255812676322322 -0.0092742500766095533 0 -0.011232282854799904 -0.0092329470651256341 0 -0.011244604621150799 -0.0092440513089425431 0 -0.01123220201462647 -0.009261501577168289 0 -0.011243396772137608 -0.0093007078708693385 0 -0.011221833218368055 -0.0092776903887909924 0 -0.01123220201462647 -0.009261501577168289 0 -0.011243396772137608 -0.0093007078708693385 0 -0.01123220201462647 -0.009261501577168289 0 -0.011255812676322322 -0.0092742500766095533 0 -0.011232487430486276 -0.0092477844827870241 0 -0.011220518786452785 -0.0092153172754864711 0 -0.011226599772134277 -0.0092388300939081486 0 -0.011240231347796495 -0.0092631674751702323 0 -0.011232487430486276 -0.0092477844827870241 0 -0.011226599772134277 -0.0092388300939081486 0 -0.011240231347796495 -0.0092631674751702323 0 -0.011232487430486276 -0.0092477844827870241 0 -0.011240381376554231 -0.0092642810560897727 0 -0.011232487430486276 -0.0092477844827870241 0 -0.011240381376554231 -0.0092642810560897727 0 -0.011232746091194125 -0.0092547036061388782 0 -0.011244964395442487 -0.009276399605402422 0 -0.011218997534815565 -0.0092741450654966282 0 -0.011228913229580431 -0.0092672866027823011 0 -0.011244964395442487 -0.009276399605402422 0 -0.011240381376554231 -0.0092642810560897727 0 -0.011235035660695997 -0.0092659565328255412 0 -0.011244964395442487 -0.009276399605402422 0 -0.011235035660695997 -0.0092659565328255412 0 -0.011228913229580431 -0.0092672866027823011 0 -0.011240381376554231 -0.0092642810560897727 0 -0.011235035660695997 -0.0092659565328255412 0 -0.011232746091194125 -0.0092547036061388782 0 -0.011235035660695997 -0.0092659565328255412 0 -0.011228913229580431 -0.0092672866027823011 0 -0.011227393935401925 -0.0092558820244692669 0 -0.011222144197068424 -0.0092592231109906858 0 -0.011227393935401925 -0.0092558820244692669 0 -0.011222580662626915 -0.0092399166382478668 0 -0.011222144197068424 -0.0092592231109906858 0 -0.011228913229580431 -0.0092672866027823011 0 -0.011227393935401925 -0.0092558820244692669 0 -0.011232487430486276 -0.0092477844827870241 0 -0.011232746091194125 -0.0092547036061388782 0 -0.011226712635191146 -0.0092358812164952172 0 -0.011227393935401925 -0.0092558820244692669 0 -0.011232746091194125 -0.0092547036061388782 0 -0.011226712635191146 -0.0092358812164952172 0 -0.011235035660695997 -0.0092659565328255412 0 -0.011227393935401925 -0.0092558820244692669 0 -0.011232746091194125 -0.0092547036061388782 0 -0.011227393935401925 -0.0092558820244692669 0 -0.011226712635191146 -0.0092358812164952172 0 -0.011222580662626915 -0.0092399166382478668 0 -0.011221232475075039 -0.0092049641153634249 0 -0.01122271790892621 -0.0092177680918434004 0 -0.011222580662626915 -0.0092399166382478668 0 -0.011221232475075039 -0.0092049641153634249 0 -0.011226712635191146 -0.0092358812164952172 0 -0.011222580662626915 -0.0092399166382478668 0 -0.011221232475075039 -0.0092049641153634249 0 -0.011214871886120518 -0.0091824112552532124 0 -0.011220518786452785 -0.0092153172754864711 0 -0.011221232475075039 -0.0092049641153634249 0 -0.011226712635191146 -0.0092358812164952172 0 -0.011220518786452785 -0.0092153172754864711 0 -0.011232487430486276 -0.0092477844827870241 0 -0.011226712635191146 -0.0092358812164952172 0 -0.011220518786452785 -0.0092153172754864711 0 -0.011220518786452785 -0.0092153172754864711 0 -0.011213601862892058 -0.0092184660139316629 0 -0.011200472216750246 -0.0091790097841395954 0 -0.011214871886120518 -0.0091824112552532124 0 -0.011220518786452785 -0.0092153172754864711 0 -0.011200472216750246 -0.0091790097841395954 0 -0.011213601862892058 -0.0092184660139316629 0 -0.01119329956107764 -0.0092114834170196093 0 -0.011200472216750246 -0.0091790097841395954 0 -0.011220518786452785 -0.0092153172754864711 0 -0.011213601862892058 -0.0092184660139316629 0 -0.011226599772134277 -0.0092388300939081486 0 -0.011180971222789793 -0.0091740347042547372 0 -0.01119329956107764 -0.0092114834170196093 0 -0.011200472216750246 -0.0091790097841395954 0 -0.011180971222789793 -0.0091740347042547372 0 -0.01119329956107764 -0.0092114834170196093 0 -0.011148050188778317 -0.0091818420843815442 0 -0.01119329956107764 -0.0092114834170196093 0 -0.011166853521986944 -0.0092364837651233832 0 -0.01120550058401739 -0.0092632815748588566 0 -0.01119329956107764 -0.0092114834170196093 0 -0.011221027457581733 -0.0092463820180214464 0 -0.01120550058401739 -0.0092632815748588566 0 -0.011240231347796495 -0.0092631674751702323 0 -0.011221027457581733 -0.0092463820180214464 0 -0.011226599772134277 -0.0092388300939081486 0 -0.011213601862892058 -0.0092184660139316629 0 -0.011221027457581733 -0.0092463820180214464 0 -0.011226599772134277 -0.0092388300939081486 0 -0.011213601862892058 -0.0092184660139316629 0 -0.01119329956107764 -0.0092114834170196093 0 -0.011221027457581733 -0.0092463820180214464 0 -0.011148050188778317 -0.0091818420843815442 0 -0.011050573278901497 -0.0091579423426931764 0 -0.011181721376844743 -0.0091349368574241436 0 -0.01119329956107764 -0.0092114834170196093 0 -0.011148050188778317 -0.0091818420843815442 0 -0.011166853521986944 -0.0092364837651233832 0 -0.011148050188778317 -0.0091818420843815442 0 -0.011166853521986944 -0.0092364837651233832 0 -0.01111495814850647 -0.0092123972673655921 0 -0.011148050188778317 -0.0091818420843815442 0 -0.01111495814850647 -0.0092123972673655921 0 -0.011050573278901497 -0.0091579423426931764 0 -0.011127088500602726 -0.00927246131274625 0 -0.011072373236796516 -0.0093203831710922582 0 -0.011031866358164336 -0.0092645015474691304 0 -0.01111495814850647 -0.0092123972673655921 0 -0.011127088500602726 -0.00927246131274625 0 -0.011031866358164336 -0.0092645015474691304 0 -0.011166853521986944 -0.0092364837651233832 0 -0.01111495814850647 -0.0092123972673655921 0 -0.011127088500602726 -0.00927246131274625 0 -0.011166853521986944 -0.0092364837651233832 0 -0.011127088500602726 -0.00927246131274625 0 -0.011182825053874948 -0.0092987736892510154 0 -0.011127088500602726 -0.00927246131274625 0 -0.011182825053874948 -0.0092987736892510154 0 -0.011145200354182171 -0.009348458477530755 0 -0.011182825053874948 -0.0092987736892510154 0 -0.011145200354182171 -0.009348458477530755 0 -0.011201127874159438 -0.0093652819124135627 0 -0.011127088500602726 -0.00927246131274625 0 -0.011145200354182171 -0.009348458477530755 0 -0.011072373236796516 -0.0093203831710922582 0 -0.011145200354182171 -0.009348458477530755 0 -0.011072373236796516 -0.0093203831710922582 0 -0.011083868140397236 -0.0094295723978624225 0 -0.011233683017172822 -0.0092768266602293679 0 -0.011226776253584307 -0.0093165572831152149 0 -0.011244368847771313 -0.0093048551840014225 0 -0.011254963243958077 -0.009286822173102673 0 -0.011233683017172822 -0.0092768266602293679 0 -0.011244368847771313 -0.0093048551840014225 0 -0.011240231347796495 -0.0092631674751702323 0 -0.011254963243958077 -0.009286822173102673 0 -0.011233683017172822 -0.0092768266602293679 0 -0.011240231347796495 -0.0092631674751702323 0 -0.011221027457581733 -0.0092463820180214464 0 -0.011233683017172822 -0.0092768266602293679 0 -0.011221027457581733 -0.0092463820180214464 0 -0.011233683017172822 -0.0092768266602293679 0 -0.01120550058401739 -0.0092632815748588566 0 -0.011233683017172822 -0.0092768266602293679 0 -0.01120550058401739 -0.0092632815748588566 0 -0.011226776253584307 -0.0093165572831152149 0 -0.011166853521986944 -0.0092364837651233832 0 -0.011182825053874948 -0.0092987736892510154 0 -0.01120550058401739 -0.0092632815748588566 0 -0.011182825053874948 -0.0092987736892510154 0 -0.01120550058401739 -0.0092632815748588566 0 -0.011226776253584307 -0.0093165572831152149 0 -0.011182825053874948 -0.0092987736892510154 0 -0.011226776253584307 -0.0093165572831152149 0 -0.011201127874159438 -0.0093652819124135627 0 -0.011226776253584307 -0.0093165572831152149 0 -0.011201127874159438 -0.0093652819124135627 0 -0.011243720371061625 -0.0093794815085479055 0 -0.011226776253584307 -0.0093165572831152149 0 -0.01124986218253474 -0.0093255322386767737 0 -0.011243720371061625 -0.0093794815085479055 0 -0.01127042484174624 -0.0092856905728227884 0 -0.01124986218253474 -0.0093255322386767737 0 -0.011243720371061625 -0.0093794815085479055 0 -0.011226776253584307 -0.0093165572831152149 0 -0.011244368847771313 -0.0093048551840014225 0 -0.01124986218253474 -0.0093255322386767737 0 -0.011254963243958077 -0.009286822173102673 0 -0.011244368847771313 -0.0093048551840014225 0 -0.011255795351697311 -0.0093032847938017936 0 -0.011244368847771313 -0.0093048551840014225 0 -0.011255795351697311 -0.0093032847938017936 0 -0.01124986218253474 -0.0093255322386767737 0 -0.011096705885525856 -0.0095479361986759229 0 -0.010859434974208935 -0.0099630403549049729 0 -0.010923306713258795 -0.009813961235497921 0 -0.010475969786236421 -0.010392746133004645 0 -0.010631382785246288 -0.010504227118875437 0 -0.010870868527606272 -0.0098514557061690107 0 -0.010459559583684082 -0.010500095520299806 0 -0.01127042484174624 -0.0092856905728227884 0 -0.011251671816360958 -0.0095251232028776209 0 -0.011243720371061625 -0.0093794815085479055 0 -0.011251671816360958 -0.0095251232028776209 0 -0.011220374076245092 -0.0094384873273682633 0 -0.011243720371061625 -0.0093794815085479055 0 -0.011201127874159438 -0.0093652819124135627 0 -0.011220374076245092 -0.0094384873273682633 0 -0.011243720371061625 -0.0093794815085479055 0 -0.011201127874159438 -0.0093652819124135627 0 -0.011220374076245092 -0.0094384873273682633 0 -0.011177985108719743 -0.0094304931355549404 0 -0.011145200354182171 -0.009348458477530755 0 -0.011201127874159438 -0.0093652819124135627 0 -0.011177985108719743 -0.0094304931355549404 0 -0.011220374076245092 -0.0094384873273682633 0 -0.011177985108719743 -0.0094304931355549404 0 -0.011205712144422725 -0.0094809557247976742 0 -0.011145200354182171 -0.009348458477530755 0 -0.011177985108719743 -0.0094304931355549404 0 -0.011083868140397236 -0.0094295723978624225 0 -0.011177985108719743 -0.0094304931355549404 0 -0.011083868140397236 -0.0094295723978624225 0 -0.011161261983912077 -0.0095186923242231922 0 -0.011161261983912077 -0.0095186923242231922 0 -0.011113800468671829 -0.0096498230070259441 0 -0.011072729691912208 -0.0095438730669599736 0 -0.011083868140397236 -0.0094295723978624225 0 -0.011161261983912077 -0.0095186923242231922 0 -0.011072729691912208 -0.0095438730669599736 0 -0.011251671816360958 -0.0095251232028776209 0 -0.011161261983912077 -0.0095186923242231922 0 -0.011205712144422725 -0.0094809557247976742 0 -0.011251671816360958 -0.0095251232028776209 0 -0.011220374076245092 -0.0094384873273682633 0 -0.011205712144422725 -0.0094809557247976742 0 -0.011251671816360958 -0.0095251232028776209 0 -0.011161261983912077 -0.0095186923242231922 0 -0.011113800468671829 -0.0096498230070259441 0 -0.011177985108719743 -0.0094304931355549404 0 -0.011161261983912077 -0.0095186923242231922 0 -0.011205712144422725 -0.0094809557247976742 0 -0.010283412256659791 -0.010498945754925838 0 -0.010183179985370267 -0.010930827037797278 0 -0.0099394419869634348 -0.011152353621832993 0 -0.011251671816360958 -0.0095251232028776209 0 -0.011113800468671829 -0.0096498230070259441 0 -0.011101962059869481 -0.0099135306092386737 0 -0.010859434974208935 -0.0099630403549049729 0 -0.010532236194055921 -0.010461025460687924 0 -0.010459559583684082 -0.010500095520299806 0 -0.010058541552640283 -0.01114810558393539 0 -0.010475969786236421 -0.010392746133004645 0 -0.010631382785246288 -0.010504227118875437 0 -0.010172723231135604 -0.011146099794343316 0 -0.010475969786236421 -0.010392746133004645 0 -0.0099696312156600658 -0.010997907283867547 0 -0.010172723231135604 -0.011146099794343316 0 -0.010369771345588962 -0.010782712457164726 0 -0.010326575377241444 -0.01096913229037692 0 -0.010183179985370267 -0.010930827037797278 0 -0.010369771345588962 -0.010782712457164726 0 -0.010283412256659791 -0.010498945754925838 0 -0.010183179985370267 -0.010930827037797278 0 -0.010598685476686161 -0.010754308156416368 0 -0.010369771345588962 -0.010782712457164726 0 -0.010468290178722755 -0.01094911773079205 0 -0.010598685476686161 -0.010754308156416368 0 -0.010369771345588962 -0.010782712457164726 0 -0.010420844792823887 -0.010630178727703509 0 -0.010369771345588962 -0.010782712457164726 0 -0.010468290178722755 -0.01094911773079205 0 -0.010326575377241444 -0.01096913229037692 0 -0.010531516661308053 -0.010530357097917026 0 -0.010631505853495465 -0.010277642286051972 0 -0.010283412256659791 -0.010498945754925838 0 -0.010369771345588962 -0.010782712457164726 0 -0.010420844792823887 -0.010630178727703509 0 -0.010283412256659791 -0.010498945754925838 0 -0.010531516661308053 -0.010530357097917026 0 -0.010420844792823887 -0.010630178727703509 0 -0.010283412256659791 -0.010498945754925838 0 -0.010531516661308053 -0.010530357097917026 0 -0.010598685476686161 -0.010754308156416368 0 -0.010420844792823887 -0.010630178727703509 0 -0.010753988187147942 -0.0096845427463574038 0 -0.010917753978484155 -0.0097298562993481715 0 -0.010852034757678319 -0.0095254897314748389 0 -0.010753988187147942 -0.0096845427463574038 0 -0.010836785155296111 -0.0098826817391967098 0 -0.010917753978484155 -0.0097298562993481715 0 -0.010753988187147942 -0.0096845427463574038 0 -0.010644628358597771 -0.0095256747381018796 0 -0.010482191602535497 -0.0096761133516264676 0 -0.010753988187147942 -0.0096845427463574038 0 -0.010669767478357023 -0.0098528882513664699 0 -0.010482191602535497 -0.0096761133516264676 0 -0.010669767478357023 -0.0098528882513664699 0 -0.010482191602535497 -0.0096761133516264676 0 -0.010510532674140337 -0.0099740702067073039 0 -0.010669767478357023 -0.0098528882513664699 0 -0.010510532674140337 -0.0099740702067073039 0 -0.010708422478319674 -0.0099917143453897329 0 -0.010669767478357023 -0.0098528882513664699 0 -0.010836785155296111 -0.0098826817391967098 0 -0.010708422478319674 -0.0099917143453897329 0 -0.010753988187147942 -0.0096845427463574038 0 -0.010669767478357023 -0.0098528882513664699 0 -0.010836785155296111 -0.0098826817391967098 0 -0.010836785155296111 -0.0098826817391967098 0 -0.010953416517983436 -0.0098666703076547343 0 -0.010867334742298651 -0.01007568592859762 0 -0.010953416517983436 -0.0098666703076547343 0 -0.01102573356996496 -0.0097557205871030058 0 -0.010917753978484155 -0.0097298562993481715 0 -0.010836785155296111 -0.0098826817391967098 0 -0.010953416517983436 -0.0098666703076547343 0 -0.010917753978484155 -0.0097298562993481715 0 -0.010953416517983436 -0.0098666703076547343 0 -0.01102573356996496 -0.0097557205871030058 0 -0.011101962059869481 -0.0099135306092386737 0 -0.011113800468671829 -0.0096498230070259441 0 -0.01102573356996496 -0.0097557205871030058 0 -0.011101962059869481 -0.0099135306092386737 0 -0.011113800468671829 -0.0096498230070259441 0 -0.01102573356996496 -0.0097557205871030058 0 -0.010999220660726112 -0.0096242550436173475 0 -0.010999220660726112 -0.0096242550436173475 0 -0.010917753978484155 -0.0097298562993481715 0 -0.010852034757678319 -0.0095254897314748389 0 -0.01102573356996496 -0.0097557205871030058 0 -0.010999220660726112 -0.0096242550436173475 0 -0.010917753978484155 -0.0097298562993481715 0 -0.010999220660726112 -0.0096242550436173475 0 -0.010993040402694962 -0.0095027928183311454 0 -0.010852034757678319 -0.0095254897314748389 0 -0.011113800468671829 -0.0096498230070259441 0 -0.010999220660726112 -0.0096242550436173475 0 -0.011072729691912208 -0.0095438730669599736 0 -0.011083868140397236 -0.0094295723978624225 0 -0.010993040402694962 -0.0095027928183311454 0 -0.011072729691912208 -0.0095438730669599736 0 -0.010999220660726112 -0.0096242550436173475 0 -0.010993040402694962 -0.0095027928183311454 0 -0.011072729691912208 -0.0095438730669599736 0 -0.011083868140397236 -0.0094295723978624225 0 -0.010993040402694962 -0.0095027928183311454 0 -0.010978226379462466 -0.0093722210998652897 0 -0.010993040402694962 -0.0095027928183311454 0 -0.010852034757678319 -0.0095254897314748389 0 -0.010978226379462466 -0.0093722210998652897 0 -0.010852034757678319 -0.0095254897314748389 0 -0.010748262366528453 -0.0092694623622696631 0 -0.010978226379462466 -0.0093722210998652897 0 -0.010852034757678319 -0.0095254897314748389 0 -0.010644628358597771 -0.0095256747381018796 0 -0.010748262366528453 -0.0092694623622696631 0 -0.010753988187147942 -0.0096845427463574038 0 -0.010852034757678319 -0.0095254897314748389 0 -0.010644628358597771 -0.0095256747381018796 0 -0.012741031239737426 -0.0071246652293905522 0 -0.013231333236653185 -0.0053991703190609565 0 -0.011669726823116004 -0.0066031742216538852 0 -0.010748262366528453 -0.0092694623622696631 0 -0.011031866358164336 -0.0092645015474691304 0 -0.011050573278901497 -0.0091579423426931764 0 -0.010748262366528453 -0.0092694623622696631 0 -0.010978226379462466 -0.0093722210998652897 0 -0.011031866358164336 -0.0092645015474691304 0 -0.011730507961104227 -0.0082061008558657507 0 -0.012488475130805168 -0.0074534393901503479 0 -0.011072373236796516 -0.0093203831710922582 0 -0.011083868140397236 -0.0094295723978624225 0 -0.010978226379462466 -0.0093722210998652897 0 -0.011072373236796516 -0.0093203831710922582 0 -0.010978226379462466 -0.0093722210998652897 0 -0.011031866358164336 -0.0092645015474691304 0 -0.012741031239737426 -0.0071246652293905522 0 -0.013972781713406273 -0.0057318905170249193 0 -0.013231333236653185 -0.0053991703190609565 0 -0.01111495814850647 -0.0092123972673655921 0 -0.011031866358164336 -0.0092645015474691304 0 -0.011050573278901497 -0.0091579423426931764 0 -0.013987639801498511 -0.0049293396677514614 0 -0.013325034022713103 -0.0053580777045353833 0 -0.014754880380745107 -0.004386935685476513 0 -0.014962357222304025 -0.0044692750465018839 0 -0.014988769410989143 -0.0044078649059208696 0 -0.014754880380745107 -0.004386935685476513 0 -0.014988769410989143 -0.0044078649059208696 0 -0.015061212988332271 -0.0043375470718611331 0 -0.01477546776197272 -0.0045683963337349144 0 -0.015009285004212693 -0.0045932118352206251 0 -0.014962357222304025 -0.0044692750465018839 0 -0.014754880380745107 -0.004386935685476513 0 -0.01477546776197272 -0.0045683963337349144 0 -0.014962357222304025 -0.0044692750465018839 0 -0.01477546776197272 -0.0045683963337349144 0 -0.014717875789851833 -0.0047223911088235251 0 -0.015009285004212693 -0.0045932118352206251 0 -0.014717875789851833 -0.0047223911088235251 0 -0.01489775603196577 -0.0047713488713772454 0 -0.015009285004212693 -0.0045932118352206251 0 -0.014717875789851833 -0.0047223911088235251 0 -0.014495943666916403 -0.0048121074722552162 0 -0.014338959163844329 -0.0046834800768162281 0 -0.01477546776197272 -0.0045683963337349144 0 -0.014717875789851833 -0.0047223911088235251 0 -0.014338959163844329 -0.0046834800768162281 0 -0.014754880380745107 -0.004386935685476513 0 -0.01477546776197272 -0.0045683963337349144 0 -0.014338959163844329 -0.0046834800768162281 0 -0.013987639801498511 -0.0049293396677514614 0 -0.014314351234611266 -0.0046839107337363585 0 -0.013972781713406273 -0.0057318905170249193 0 -0.013231333236653185 -0.0053991703190609565 0 -0.014338959163844329 -0.0046834800768162281 0 -0.012488475130805168 -0.0074534393901503479 0 -0.012806559904665223 -0.0070019012774820578 0 -0.013972781713406273 -0.0057318905170249193 0 -0.014338959163844329 -0.0046834800768162281 0 -0.014501600615166943 -0.0047831032618806408 0 -0.011180971222789793 -0.0091740347042547372 0 -0.011148050188778317 -0.0091818420843815442 0 -0.011181721376844743 -0.0091349368574241436 0 -0.01120921968489314 -0.0091490014941684461 0 -0.011181721376844743 -0.0091349368574241436 0 -0.011200472216750246 -0.0091790097841395954 0 -0.01120921968489314 -0.0091490014941684461 0 -0.011214871886120518 -0.0091824112552532124 0 -0.011200472216750246 -0.0091790097841395954 0 -0.011180971222789793 -0.0091740347042547372 0 -0.011181721376844743 -0.0091349368574241436 0 -0.011200472216750246 -0.0091790097841395954 0 -0.011216472749004463 -0.0091039902287584577 0 -0.01120921968489314 -0.0091490014941684461 0 -0.011181721376844743 -0.0091349368574241436 0 -0.014156130056252379 -0.0047754709506420516 0 -0.014501600615166943 -0.0047831032618806408 0 -0.014356190438144959 -0.0047773142775442154 0 -0.012725379566932394 -0.0068415018740831477 0 -0.012806559904665223 -0.0070019012774820578 0 -0.014338959163844329 -0.0046834800768162281 0 -0.014501600615166943 -0.0047831032618806408 0 -0.014356190438144959 -0.0047773142775442154 0 -0.014495943666916403 -0.0048121074722552162 0 -0.014338959163844329 -0.0046834800768162281 0 -0.014356190438144959 -0.0047773142775442154 0 -0.014495943666916403 -0.0048121074722552162 0 -0.014356190438144959 -0.0047773142775442154 0 -0.014388577026664741 -0.0049351970299008159 0 -0.014145701044233705 -0.0049271719959568822 0 -0.014356190438144959 -0.0047773142775442154 0 -0.014388577026664741 -0.0049351970299008159 0 -0.014145701044233705 -0.0049271719959568822 0 -0.014156130056252379 -0.0047754709506420516 0 -0.014356190438144959 -0.0047773142775442154 0 -0.014145701044233705 -0.0049271719959568822 0 -0.014388577026664741 -0.0049351970299008159 0 -0.014259403198527974 -0.0050198493585472403 0 -0.014336063484647403 -0.0051862812776807526 0 -0.014259403198527974 -0.0050198493585472403 0 -0.014212797106358942 -0.0051111854602011028 0 -0.014121230442877884 -0.0050650218439970696 0 -0.014145701044233705 -0.0049271719959568822 0 -0.014259403198527974 -0.0050198493585472403 0 -0.014121230442877884 -0.0050650218439970696 0 -0.014259403198527974 -0.0050198493585472403 0 -0.014212797106358942 -0.0051111854602011028 0 -0.014336063484647403 -0.0051862812776807526 0 -0.014388577026664741 -0.0049351970299008159 0 -0.014608940346229908 -0.0050965295622232096 0 -0.014336063484647403 -0.0051862812776807526 0 -0.014388577026664741 -0.0049351970299008159 0 -0.014259403198527974 -0.0050198493585472403 0 -0.014388577026664741 -0.0049351970299008159 0 -0.014608940346229908 -0.0050965295622232096 0 -0.014679573723615717 -0.0049085640726607947 0 -0.014608940346229908 -0.0050965295622232096 0 -0.014679573723615717 -0.0049085640726607947 0 -0.014947114958666054 -0.0049757579687206349 0 -0.013734930423616704 -0.0025279643376601843 0 -0.013057521728541252 -0.0020604253663541777 0 -0.013956987637398477 -0.0024108062038761704 0 -0.01381507159298859 -0.003586509451456272 0 -0.014421017665253754 -0.0037082326836491916 0 -0.01489775603196577 -0.0047713488713772454 0 -0.014679573723615717 -0.0049085640726607947 0 -0.014947114958666054 -0.0049757579687206349 0 -0.014717875789851833 -0.0047223911088235251 0 -0.01489775603196577 -0.0047713488713772454 0 -0.014679573723615717 -0.0049085640726607947 0 -0.014495943666916403 -0.0048121074722552162 0 -0.014388577026664741 -0.0049351970299008159 0 -0.014679573723615717 -0.0049085640726607947 0 -0.014717875789851833 -0.0047223911088235251 0 -0.014495943666916403 -0.0048121074722552162 0 -0.014679573723615717 -0.0049085640726607947 0 -0.015063669976012823 -0.0038647512402269599 0 -0.014421017665253754 -0.0037082326836491916 0 -0.015299645606140789 -0.0047048976566018818 0 -0.014947114958666054 -0.0049757579687206349 0 -0.01508849008425929 -0.004705204121401514 0 -0.01489775603196577 -0.0047713488713772454 0 -0.014947114958666054 -0.0049757579687206349 0 -0.01508849008425929 -0.004705204121401514 0 -0.013734930423616704 -0.0025279643376601843 0 -0.013956987637398477 -0.0024108062038761704 0 -0.014594425709467512 -0.0030607433826891814 0 -0.014952876443851085 -0.0029254390650459297 0 -0.014594425709467512 -0.0030607433826891814 0 -0.015178305709873066 -0.0032471428638002325 0 -0.014952876443851085 -0.0029254390650459297 0 -0.013956987637398477 -0.0024108062038761704 0 -0.014594425709467512 -0.0030607433826891814 0 -0.014594425709467512 -0.0030607433826891814 0 -0.015178305709873066 -0.0032471428638002325 0 -0.015424435852569817 -0.0034416440096023408 0 -0.015918963660091018 -0.0035375528272184862 0 -0.015584005369677042 -0.0036412365142286193 0 -0.015424435852569817 -0.0034416440096023408 0 -0.015178305709873066 -0.0032471428638002325 0 -0.015584005369677042 -0.0036412365142286193 0 -0.015424435852569817 -0.0034416440096023408 0 -0.015178305709873066 -0.0032471428638002325 0 -0.015584005369677042 -0.0036412365142286193 0 -0.015390655683884168 -0.0036616529456116459 0 -0.015584005369677042 -0.0036412365142286193 0 -0.015390655683884168 -0.0036616529456116459 0 -0.015763367119702519 -0.0041370603962970357 0 -0.014952876443851085 -0.0029254390650459297 0 -0.015390655683884168 -0.0036616529456116459 0 -0.015454882809193708 -0.0041979300820469455 0 -0.014952876443851085 -0.0029254390650459297 0 -0.015178305709873066 -0.0032471428638002325 0 -0.015390655683884168 -0.0036616529456116459 0 -0.015299645606140789 -0.0047048976566018818 0 -0.015454882809193708 -0.0041979300820469455 0 -0.015420144335140018 -0.0044563740763258709 0 -0.015063669976012823 -0.0038647512402269599 0 -0.015330037246646982 -0.0041537791495581912 0 -0.015454882809193708 -0.0041979300820469455 0 -0.015425049933510031 -0.0044662930022126212 0 -0.015420144335140018 -0.0044563740763258709 0 -0.015390655683884168 -0.0036616529456116459 0 -0.015454882809193708 -0.0041979300820469455 0 -0.015348192226030601 -0.004599761420840765 0 -0.015454882809193708 -0.0041979300820469455 0 -0.015406146507066548 -0.0045660280519576072 0 -0.015348192226030601 -0.004599761420840765 0 -0.015452547186984758 -0.0037731084390602021 0 -0.015542667803419034 -0.0043362458748829723 0 -0.015454882809193708 -0.0041979300820469455 0 -0.015406146507066548 -0.0045660280519576072 0 -0.015425049933510031 -0.0044662930022126212 0 -0.015406146507066548 -0.0045660280519576072 0 -0.015411192556367284 -0.0045930583503857982 0 -0.015465734596935512 -0.0047740998940219905 0 -0.015425049933510031 -0.0044662930022126212 0 -0.015411192556367284 -0.0045930583503857982 0 -0.015420144335140018 -0.0044563740763258709 0 -0.015406146507066548 -0.0045660280519576072 0 -0.015425049933510031 -0.0044662930022126212 0 -0.015411192556367284 -0.0045930583503857982 0 -0.015411192556367284 -0.0045930583503857982 0 -0.015420144335140018 -0.0044563740763258709 0 -0.01536797308179186 -0.0045233558722155209 0 -0.015420144335140018 -0.0044563740763258709 0 -0.01536797308179186 -0.0045233558722155209 0 -0.015300994213979027 -0.0044882126736753647 0 -0.015300994213979027 -0.0044882126736753647 0 -0.015144371296416144 -0.0045044516659196445 0 -0.015151641759292683 -0.0044325885913022497 0 -0.015300994213979027 -0.0044882126736753647 0 -0.015256269002329393 -0.004548143463575554 0 -0.015144371296416144 -0.0045044516659196445 0 -0.015420144335140018 -0.0044563740763258709 0 -0.015300994213979027 -0.0044882126736753647 0 -0.015256269002329393 -0.004548143463575554 0 -0.015299645606140789 -0.0047048976566018818 0 -0.015256269002329393 -0.004548143463575554 0 -0.01508849008425929 -0.004705204121401514 0 -0.015299645606140789 -0.0047048976566018818 0 -0.015420144335140018 -0.0044563740763258709 0 -0.015256269002329393 -0.004548143463575554 0 -0.015256269002329393 -0.004548143463575554 0 -0.01508849008425929 -0.004705204121401514 0 -0.015009285004212693 -0.0045932118352206251 0 -0.01489775603196577 -0.0047713488713772454 0 -0.01508849008425929 -0.004705204121401514 0 -0.015009285004212693 -0.0045932118352206251 0 -0.015009285004212693 -0.0045932118352206251 0 -0.015144371296416144 -0.0045044516659196445 0 -0.014962357222304025 -0.0044692750465018839 0 -0.015256269002329393 -0.004548143463575554 0 -0.015009285004212693 -0.0045932118352206251 0 -0.015144371296416144 -0.0045044516659196445 0 -0.015144371296416144 -0.0045044516659196445 0 -0.014962357222304025 -0.0044692750465018839 0 -0.015151641759292683 -0.0044325885913022497 0 -0.015151641759292683 -0.0044325885913022497 0 -0.015205298629072772 -0.0043910102353803626 0 -0.015061212988332271 -0.0043375470718611331 0 -0.014962357222304025 -0.0044692750465018839 0 -0.014988769410989143 -0.0044078649059208696 0 -0.015151641759292683 -0.0044325885913022497 0 -0.014988769410989143 -0.0044078649059208696 0 -0.015151641759292683 -0.0044325885913022497 0 -0.015061212988332271 -0.0043375470718611331 0 -0.015300994213979027 -0.0044882126736753647 0 -0.015151641759292683 -0.0044325885913022497 0 -0.015292147568583169 -0.00446387899029441 0 -0.015151641759292683 -0.0044325885913022497 0 -0.015205298629072772 -0.0043910102353803626 0 -0.015292147568583169 -0.00446387899029441 0 -0.015205298629072772 -0.0043910102353803626 0 -0.015226347962247946 -0.0043133213801859003 0 -0.015284124498386514 -0.0044063578070973938 0 -0.015205298629072772 -0.0043910102353803626 0 -0.015061212988332271 -0.0043375470718611331 0 -0.015226347962247946 -0.0043133213801859003 0 -0.013325034022713103 -0.0053580777045353833 0 -0.013010522882613989 -0.0070037499722017333 0 -0.015205298629072772 -0.0043910102353803626 0 -0.015284124498386514 -0.0044063578070973938 0 -0.015292147568583169 -0.00446387899029441 0 -0.011669726823116004 -0.0066031742216538852 0 -0.011406202873700923 -0.0076128643174824756 0 -0.0099755156059005805 -0.0079825998802544283 0 -0.012741031239737426 -0.0071246652293905522 0 -0.011669726823116004 -0.0066031742216538852 0 -0.011406202873700923 -0.0076128643174824756 0 -0.010644628358597771 -0.0095256747381018796 0 -0.010748262366528453 -0.0092694623622696631 0 -0.010276972142639999 -0.0095146085799732213 0 -0.011730507961104227 -0.0082061008558657507 0 -0.010710754759300757 -0.0090865329246865717 0 -0.012741031239737426 -0.0071246652293905522 0 -0.011193418053511367 -0.0086544202199247324 0 -0.011406202873700923 -0.0076128643174824756 0 -0.010644628358597771 -0.0095256747381018796 0 -0.010276972142639999 -0.0095146085799732213 0 -0.010482191602535497 -0.0096761133516264676 0 -0.011193418053511367 -0.0086544202199247324 0 -0.011053333447308335 -0.0081172065978959967 0 -0.010650260299625958 -0.0083412530169145373 0 -0.011193418053511367 -0.0086544202199247324 0 -0.011406202873700923 -0.0076128643174824756 0 -0.011053333447308335 -0.0081172065978959967 0 -0.011406202873700923 -0.0076128643174824756 0 -0.011053333447308335 -0.0081172065978959967 0 -0.0099755156059005805 -0.0079825998802544283 0 -0.011053333447308335 -0.0081172065978959967 0 -0.0099755156059005805 -0.0079825998802544283 0 -0.010650260299625958 -0.0083412530169145373 0 -0.013010522882613989 -0.0070037499722017333 0 -0.010831062998543681 -0.0072978088500826044 0 -0.010054077867723827 -0.0080987176200325028 0 -0.010086256113898875 -0.008805109238891726 0 -0.010650260299625958 -0.0083412530169145373 0 -0.011193418053511367 -0.0086544202199247324 0 -0.010086256113898875 -0.008805109238891726 0 -0.010650260299625958 -0.0083412530169145373 0 -0.011193418053511367 -0.0086544202199247324 0 -0.010086256113898875 -0.008805109238891726 0 -0.0096670256583786807 -0.0098485973066373324 0 -0.010276972142639999 -0.0095146085799732213 0 -0.010120097441927269 -0.009878333404438595 0 -0.0096670256583786807 -0.0098485973066373324 0 -0.010710754759300757 -0.0090865329246865717 0 -0.0097428981828568562 -0.0098215581878967825 0 -0.010276972142639999 -0.0095146085799732213 0 -0.010120097441927269 -0.009878333404438595 0 -0.010301262685568012 -0.0097348301410470298 0 -0.010120097441927269 -0.009878333404438595 0 -0.010318717561665533 -0.0098764333267553021 0 -0.010301262685568012 -0.0097348301410470298 0 -0.010318717561665533 -0.0098764333267553021 0 -0.010482191602535497 -0.0096761133516264676 0 -0.010510532674140337 -0.0099740702067073039 0 -0.010318717561665533 -0.0098764333267553021 0 -0.010482191602535497 -0.0096761133516264676 0 -0.010301262685568012 -0.0097348301410470298 0 -0.010276972142639999 -0.0095146085799732213 0 -0.010482191602535497 -0.0096761133516264676 0 -0.010301262685568012 -0.0097348301410470298 0 -0.0084246733380458003 -0.0097894252250110281 0 -0.0090619991086817106 -0.009085767897535766 0 -0.0091091093680658736 -0.01008280194774182 0 -0.011859033633947545 -0.0086039115953588201 0 -0.012450979817542118 -0.0081241469859082826 0 -0.015832880487896796 -0.007194988532959674 0 -0.015827751877237856 -0.0070964209766262703 0 -0.015841170673508157 -0.0070817155734019567 0 -0.010086256113898875 -0.008805109238891726 0 -0.0090619991086817106 -0.009085767897535766 0 -0.0096670256583786807 -0.0098485973066373324 0 -0.0090619991086817106 -0.009085767897535766 0 -0.0096670256583786807 -0.0098485973066373324 0 -0.0091091093680658736 -0.01008280194774182 0 -0.0157764111464469 -0.0070978442138560629 0 -0.015827751877237856 -0.0070964209766262703 0 -0.015827158449193256 -0.007095940268572863 0 -0.010054077867723827 -0.0080987176200325028 0 -0.010086256113898875 -0.008805109238891726 0 -0.0090619991086817106 -0.009085767897535766 0 -0.013010522882613989 -0.0070037499722017333 0 -0.012450979817542118 -0.0081241469859082826 0 -0.015841170673508157 -0.0070817155734019567 0 -0.015827158449193256 -0.007095940268572863 0 -0.015867895692059118 -0.0070354680677849942 0 -0.015827751877237856 -0.0070964209766262703 0 -0.015841170673508157 -0.0070817155734019567 0 -0.015827158449193256 -0.007095940268572863 0 -0.016222459959536025 -0.0057842779095064554 0 -0.016083492055395374 -0.0066638310002480883 0 -0.016222459959536025 -0.0057842779095064554 0 -0.015885079132322608 -0.0050813578681045846 0 -0.015363294979980503 -0.0044064825673564879 0 -0.015412038056600252 -0.0045852889635436232 0 -0.01547646877585847 -0.0046177589861321209 0 -0.01705250165846427 -0.0060081125928969255 0 -0.016410363791668291 -0.005678076743775449 0 -0.016235438685036883 -0.0061138016445147431 0 -0.015363294979980503 -0.0044064825673564879 0 -0.015357559589093057 -0.004508908230147309 0 -0.015412038056600252 -0.0045852889635436232 0 -0.015226347962247946 -0.0043133213801859003 0 -0.015363294979980503 -0.0044064825673564879 0 -0.015284124498386514 -0.0044063578070973938 0 -0.013010522882613989 -0.0070037499722017333 0 -0.016222459959536025 -0.0057842779095064554 0 -0.015363294979980503 -0.0044064825673564879 0 -0.015284124498386514 -0.0044063578070973938 0 -0.015357559589093057 -0.004508908230147309 0 -0.015284124498386514 -0.0044063578070973938 0 -0.015292147568583169 -0.00446387899029441 0 -0.015357559589093057 -0.004508908230147309 0 -0.015411192556367284 -0.0045930583503857982 0 -0.01536797308179186 -0.0045233558722155209 0 -0.015357559589093057 -0.004508908230147309 0 -0.01536797308179186 -0.0045233558722155209 0 -0.015300994213979027 -0.0044882126736753647 0 -0.015292147568583169 -0.00446387899029441 0 -0.01536797308179186 -0.0045233558722155209 0 -0.015292147568583169 -0.00446387899029441 0 -0.015357559589093057 -0.004508908230147309 0 -0.015411192556367284 -0.0045930583503857982 0 -0.015412038056600252 -0.0045852889635436232 0 -0.015465734596935512 -0.0047740998940219905 0 -0.015411192556367284 -0.0045930583503857982 0 -0.015357559589093057 -0.004508908230147309 0 -0.015412038056600252 -0.0045852889635436232 0 -0.015412038056600252 -0.0045852889635436232 0 -0.01547646877585847 -0.0046177589861321209 0 -0.015465734596935512 -0.0047740998940219905 0 -0.015637061097566109 -0.0052021869106824515 0 -0.01547646877585847 -0.0046177589861321209 0 -0.015465734596935512 -0.0047740998940219905 0 -0.015660129103832965 -0.0051783719873239103 0 -0.015885079132322608 -0.0050813578681045846 0 -0.015637061097566109 -0.0052021869106824515 0 -0.015862724750537995 -0.0057720856052386063 0 -0.016410363791668291 -0.005678076743775449 0 -0.015637061097566109 -0.0052021869106824515 0 -0.015862724750537995 -0.0057720856052386063 0 -0.015321097313182222 -0.0057306372466783759 0 -0.016083492055395374 -0.0066638310002480883 0 -0.015540670224618166 -0.0065786739482648965 0 -0.015862724750537995 -0.0057720856052386063 0 -0.016235438685036883 -0.0061138016445147431 0 -0.015508612422204316 -0.0062846449822446283 0 -0.015862724750537995 -0.0057720856052386063 0 -0.016410363791668291 -0.005678076743775449 0 -0.016235438685036883 -0.0061138016445147431 0 -0.015841170673508157 -0.0070817155734019567 0 -0.015867895692059118 -0.0070354680677849942 0 -0.015853374980595469 -0.0070466548407835073 0 -0.015841170673508157 -0.0070817155734019567 0 -0.015853374980595469 -0.0070466548407835073 0 -0.015787455670850107 -0.0071443197278335188 0 -0.015867895692059118 -0.0070354680677849942 0 -0.015853374980595469 -0.0070466548407835073 0 -0.015807221506187748 -0.0070528050608040706 0 -0.015867895692059118 -0.0070354680677849942 0 -0.015807221506187748 -0.0070528050608040706 0 -0.015645518628085317 -0.0068675490757296375 0 -0.015807221506187748 -0.0070528050608040706 0 -0.015692734676047853 -0.0070763053473128345 0 -0.015645518628085317 -0.0068675490757296375 0 -0.015807221506187748 -0.0070528050608040706 0 -0.015845837328034136 -0.007215003877489465 0 -0.015692734676047853 -0.0070763053473128345 0 -0.015853374980595469 -0.0070466548407835073 0 -0.015807221506187748 -0.0070528050608040706 0 -0.015845837328034136 -0.007215003877489465 0 -0.015845837328034136 -0.007215003877489465 0 -0.015931379101009811 -0.0073216911150150582 0 -0.015472865508911412 -0.0076967791304446082 0 -0.015853374980595469 -0.0070466548407835073 0 -0.015845837328034136 -0.007215003877489465 0 -0.015931379101009811 -0.0073216911150150582 0 -0.01565426972375657 -0.0071693114831440884 0 -0.0157127321773003 -0.0072083975348700832 0 -0.015678155233295632 -0.0072699596996598113 0 -0.0157127321773003 -0.0072083975348700832 0 -0.015787455670850107 -0.0071443197278335188 0 -0.015737762682655646 -0.0072569933313210858 0 -0.015853374980595469 -0.0070466548407835073 0 -0.01565426972375657 -0.0071693114831440884 0 -0.015787455670850107 -0.0071443197278335188 0 -0.015849236005330752 -0.0070739996683099292 0 -0.01577820242288426 -0.0072767881269922424 0 -0.015832880487896796 -0.007194988532959674 0 -0.015841170673508157 -0.0070817155734019567 0 -0.015787455670850107 -0.0071443197278335188 0 -0.01565426972375657 -0.0071693114831440884 0 -0.0157127321773003 -0.0072083975348700832 0 -0.015787455670850107 -0.0071443197278335188 0 -0.015832880487896796 -0.007194988532959674 0 -0.015787455670850107 -0.0071443197278335188 0 -0.015737762682655646 -0.0072569933313210858 0 -0.014999948023642634 -0.0074510512917197302 0 -0.015525640823873798 -0.0071930671370962736 0 -0.015513714254825343 -0.0076400518063557315 0 -0.014999948023642634 -0.0074510512917197302 0 -0.015525640823873798 -0.0071930671370962736 0 -0.015000031837991682 -0.006700225405956565 0 -0.015837636259951229 -0.0072493921305684167 0 -0.015491276360712618 -0.0076631557943891444 0 -0.015845837328034136 -0.007215003877489465 0 -0.015525640823873798 -0.0071930671370962736 0 -0.015513714254825343 -0.0076400518063557315 0 -0.015845837328034136 -0.007215003877489465 0 -0.015525640823873798 -0.0071930671370962736 0 -0.015692734676047853 -0.0070763053473128345 0 -0.015525640823873798 -0.0071930671370962736 0 -0.015692734676047853 -0.0070763053473128345 0 -0.015645518628085317 -0.0068675490757296375 0 -0.015525640823873798 -0.0071930671370962736 0 -0.015645518628085317 -0.0068675490757296375 0 -0.015000031837991682 -0.006700225405956565 0 -0.015540670224618166 -0.0065786739482648965 0 -0.015000016263809072 -0.0066998119493993083 0 -0.015508612422204316 -0.0062846449822446283 0 -0.014999830850880217 -0.0066992756151364402 0 -0.015321097313182222 -0.0057306372466783759 0 -0.014999830850880217 -0.0066992756151364402 0 -0.015321097313182222 -0.0057306372466783759 0 -0.014999844025002859 -0.0058753107040594886 0 -0.015862724750537995 -0.0057720856052386063 0 -0.015508612422204316 -0.0062846449822446283 0 -0.015321097313182222 -0.0057306372466783759 0 -0.015321097313182222 -0.0057306372466783759 0 -0.015067942350097232 -0.0056055042018662172 0 -0.015458458592372062 -0.0049728593280897841 0 -0.015637061097566109 -0.0052021869106824515 0 -0.015321097313182222 -0.0057306372466783759 0 -0.015458458592372062 -0.0049728593280897841 0 -0.015321097313182222 -0.0057306372466783759 0 -0.015067942350097232 -0.0056055042018662172 0 -0.014999844025002859 -0.0058753107040594886 0 -0.015067942350097232 -0.0056055042018662172 0 -0.015242446238752975 -0.005044614005656217 0 -0.015587628167236604 -0.0048902688285877511 0 -0.015067942350097232 -0.0056055042018662172 0 -0.014999844025002859 -0.0058753107040594886 0 -0.014999871598943853 -0.0050509707535781635 0 -0.015067942350097232 -0.0056055042018662172 0 -0.015242446238752975 -0.005044614005656217 0 -0.014999871598943853 -0.0050509707535781635 0 -0.014999871598943853 -0.0050509707535781635 0 -0.015303974186039859 -0.0046436551805505667 0 -0.014999972249080574 -0.0042269328721054097 0 -0.015242446238752975 -0.005044614005656217 0 -0.014999871598943853 -0.0050509707535781635 0 -0.015303974186039859 -0.0046436551805505667 0 -0.015242446238752975 -0.005044614005656217 0 -0.015303974186039859 -0.0046436551805505667 0 -0.015587628167236604 -0.0048902688285877511 0 -0.015303974186039859 -0.0046436551805505667 0 -0.015587628167236604 -0.0048902688285877511 0 -0.015651931495042244 -0.0043750525280291551 0 -0.015303974186039859 -0.0046436551805505667 0 -0.015651931495042244 -0.0043750525280291551 0 -0.015525821131146599 -0.0042400355388932274 0 -0.015077557799898573 -0.0055237711816458011 0 -0.015500401772800888 -0.0049488678754106251 0 -0.015637061097566109 -0.0052021869106824515 0 -0.015490859902219366 -0.0048814969496935069 0 -0.015465734596935512 -0.0047740998940219905 0 -0.015458458592372062 -0.0049728593280897841 0 -0.015490859902219366 -0.0048814969496935069 0 -0.015348192226030601 -0.004599761420840765 0 -0.015637061097566109 -0.0052021869106824515 0 -0.015458458592372062 -0.0049728593280897841 0 -0.015490859902219366 -0.0048814969496935069 0 -0.015490859902219366 -0.0048814969496935069 0 -0.015465734596935512 -0.0047740998940219905 0 -0.015348192226030601 -0.004599761420840765 0 -0.015406146507066548 -0.0045660280519576072 0 -0.015465734596935512 -0.0047740998940219905 0 -0.015348192226030601 -0.004599761420840765 0 -0.015500401772800888 -0.0049488678754106251 0 -0.015542667803419034 -0.0043362458748829723 0 -0.015587628167236604 -0.0048902688285877511 0 -0.015763367119702519 -0.0041370603962970357 0 -0.015651931495042244 -0.0043750525280291551 0 -0.015763367119702519 -0.0041370603962970357 0 -0.015651931495042244 -0.0043750525280291551 0 -0.015730944572659888 -0.0037989969002679446 0 -0.015651931495042244 -0.0043750525280291551 0 -0.015730944572659888 -0.0037989969002679446 0 -0.015525821131146599 -0.0042400355388932274 0 -0.015584005369677042 -0.0036412365142286193 0 -0.015763367119702519 -0.0041370603962970357 0 -0.015730944572659888 -0.0037989969002679446 0 -0.015918963660091018 -0.0035375528272184862 0 -0.015584005369677042 -0.0036412365142286193 0 -0.015730944572659888 -0.0037989969002679446 0 -0.015769222514806756 -0.0035955655505183347 0 -0.015730944572659888 -0.0037989969002679446 0 -0.015642884957223921 -0.0038397221294010652 0 -0.015665970100443845 -0.0035420802439908969 0 -0.01573457433679501 -0.0037756136152226954 0 -0.015730944572659888 -0.0037989969002679446 0 -0.015642884957223921 -0.0038397221294010652 0 -0.015525821131146599 -0.0042400355388932274 0 -0.015428724245169957 -0.003654299047646217 0 -0.015642884957223921 -0.0038397221294010652 0 -0.015525821131146599 -0.0042400355388932274 0 -0.014999914973933328 -0.0034029664583698342 0 -0.015428724245169957 -0.003654299047646217 0 -0.014999972249080574 -0.0042269328721054097 0 -0.015428724245169957 -0.003654299047646217 0 -0.014999972249080574 -0.0042269328721054097 0 -0.015525821131146599 -0.0042400355388932274 0 -0.015303974186039859 -0.0046436551805505667 0 -0.014999972249080574 -0.0042269328721054097 0 -0.015525821131146599 -0.0042400355388932274 0 -0.015489914652075198 -0.010681983307462374 0 -0.016012961618064436 -0.010741068255241397 0 -0.015862583752437043 -0.010287457709461406 0 -0.015489914652075198 -0.010681983307462374 0 -0.015862583752437043 -0.010287457709461406 0 -0.014999993068019369 -0.010258302780341722 0 -0.015489914652075198 -0.010681983307462374 0 -0.015256350651371327 -0.010881299011481741 0 -0.014999993068019369 -0.010258302780341722 0 -0.015256350651371327 -0.010881299011481741 0 -0.014999968136840557 -0.010966350151263415 0 -0.014999993068019369 -0.010258302780341722 0 -0.015489914652075198 -0.010681983307462374 0 -0.015256350651371327 -0.010881299011481741 0 -0.015284054191616667 -0.011236509852554623 0 -0.015256350651371327 -0.010881299011481741 0 -0.014999968136840557 -0.010966350151263415 0 -0.015284054191616667 -0.011236509852554623 0 -0.015284054191616667 -0.011236509852554623 0 -0.015715318396914271 -0.010982849811990542 0 -0.015612109241084705 -0.011331757322228887 0 -0.015489914652075198 -0.010681983307462374 0 -0.015284054191616667 -0.011236509852554623 0 -0.016012961618064436 -0.010741068255241397 0 -0.015299097188974681 -0.011220644132393343 0 -0.015884322757343236 -0.010869402361505184 0 -0.015878890889163586 -0.011264392900738942 0 -0.016058739522466611 -0.010992720897763902 0 -0.015715318396914271 -0.010982849811990542 0 -0.015878890889163586 -0.011264392900738942 0 -0.015715318396914271 -0.010982849811990542 0 -0.015612109241084705 -0.011331757322228887 0 -0.016058739522466611 -0.010992720897763902 0 -0.016325831099054389 -0.010846571484430701 0 -0.016262536972803415 -0.011274304553034156 0 -0.015878890889163586 -0.011264392900738942 0 -0.016058739522466611 -0.010992720897763902 0 -0.016262536972803415 -0.011274304553034156 0 -0.016058739522466611 -0.010992720897763902 0 -0.015715318396914271 -0.010982849811990542 0 -0.016142536500974112 -0.010580071194319571 0 -0.016058739522466611 -0.010992720897763902 0 -0.016142536500974112 -0.010580071194319571 0 -0.016325831099054389 -0.010846571484430701 0 -0.015884322757343236 -0.010869402361505184 0 -0.016273617382793329 -0.010351715518278227 0 -0.016012961618064436 -0.010741068255241397 0 -0.016689620289760565 -0.010300523072352945 0 -0.015862583752437043 -0.010287457709461406 0 -0.015896806334716736 -0.0098913418994557734 0 -0.016193100107850661 -0.010124066017412057 0 -0.01565306955228905 -0.01011893004086863 0 -0.016273617382793329 -0.010351715518278227 0 -0.015787682857340002 -0.010188462678004693 0 -0.015896806334716736 -0.0098913418994557734 0 -0.015646273775676126 -0.0097930071856385179 0 -0.01565306955228905 -0.01011893004086863 0 -0.015896806334716736 -0.0098913418994557734 0 -0.016193100107850661 -0.010124066017412057 0 -0.01612540314406866 -0.0099107530377691103 0 -0.016193100107850661 -0.010124066017412057 0 -0.01612540314406866 -0.0099107530377691103 0 -0.016266971816018359 -0.0099107149247221471 0 -0.016144639471381176 -0.0096960095668954388 0 -0.015828767377980703 -0.0095127131732099489 0 -0.016081107427642353 -0.0093056392902277404 0 -0.01612540314406866 -0.0099107530377691103 0 -0.016144639471381176 -0.0096960095668954388 0 -0.016266971816018359 -0.0099107149247221471 0 -0.015896806334716736 -0.0098913418994557734 0 -0.01612540314406866 -0.0099107530377691103 0 -0.016144639471381176 -0.0096960095668954388 0 -0.015896806334716736 -0.0098913418994557734 0 -0.015828767377980703 -0.0095127131732099489 0 -0.015646273775676126 -0.0097930071856385179 0 -0.015896806334716736 -0.0098913418994557734 0 -0.016144639471381176 -0.0096960095668954388 0 -0.015828767377980703 -0.0095127131732099489 0 -0.015828767377980703 -0.0095127131732099489 0 -0.015461426582844081 -0.0095505189377364137 0 -0.015646273775676126 -0.0097930071856385179 0 -0.015461426582844081 -0.0095505189377364137 0 -0.015646273775676126 -0.0097930071856385179 0 -0.015362803202003273 -0.0098790652614140686 0 -0.015646273775676126 -0.0097930071856385179 0 -0.015362803202003273 -0.0098790652614140686 0 -0.01565306955228905 -0.01011893004086863 0 -0.015787682857340002 -0.010188462678004693 0 -0.015000032822893783 -0.010258278387212303 0 -0.015362803202003273 -0.0098790652614140686 0 -0.01565306955228905 -0.01011893004086863 0 -0.014999981699921682 -0.010258075340227052 0 -0.015362803202003273 -0.0098790652614140686 0 -0.014999981699921682 -0.010258075340227052 0 -0.014999932483598264 -0.0096461108897058449 0 -0.015461426582844081 -0.0095505189377364137 0 -0.014999932483598264 -0.0096461108897058449 0 -0.015269363408698673 -0.0092734705772846426 0 -0.015461426582844081 -0.0095505189377364137 0 -0.015362803202003273 -0.0098790652614140686 0 -0.014999932483598264 -0.0096461108897058449 0 -0.015269363408698673 -0.0092734705772846426 0 -0.014999999850889718 -0.0090344144430483872 0 -0.015355364793848839 -0.0090406698461216288 0 -0.014999932483598264 -0.0096461108897058449 0 -0.015269363408698673 -0.0092734705772846426 0 -0.014999999850889718 -0.0090344144430483872 0 -0.015461426582844081 -0.0095505189377364137 0 -0.015269363408698673 -0.0092734705772846426 0 -0.015590681821227484 -0.0092265617629749344 0 -0.015828767377980703 -0.0095127131732099489 0 -0.015461426582844081 -0.0095505189377364137 0 -0.015590681821227484 -0.0092265617629749344 0 -0.015269363408698673 -0.0092734705772846426 0 -0.015590681821227484 -0.0092265617629749344 0 -0.015355364793848839 -0.0090406698461216288 0 -0.015590681821227484 -0.0092265617629749344 0 -0.015480146138925059 -0.0088484332548822101 0 -0.015829711766117516 -0.0090541703259554903 0 -0.015590681821227484 -0.0092265617629749344 0 -0.015355364793848839 -0.0090406698461216288 0 -0.015480146138925059 -0.0088484332548822101 0 -0.015320625823072353 -0.0090633534633076315 0 -0.015422570574736375 -0.0084838293570561954 0 -0.014999999850889718 -0.0090344144430483872 0 -0.015355364793848839 -0.0090406698461216288 0 -0.015509545292399975 -0.0088672045581717034 0 -0.015000116866321972 -0.0090340899058137455 0 -0.015422570574736375 -0.0084838293570561954 0 -0.015000038256818492 -0.0090338943733106192 0 -0.015591004580226971 -0.0084516722429054409 0 -0.014999864279731946 -0.0082024660118736274 0 -0.014999864279731946 -0.0082024660118736274 0 -0.015516224569302513 -0.0080697426320317026 0 -0.015472865508911412 -0.0076967791304446082 0 -0.015591004580226971 -0.0084516722429054409 0 -0.014999864279731946 -0.0082024660118736274 0 -0.015516224569302513 -0.0080697426320317026 0 -0.015591004580226971 -0.0084516722429054409 0 -0.015516224569302513 -0.0080697426320317026 0 -0.015792181393805938 -0.0078815586778343029 0 -0.015293186268364092 -0.0077799175424733864 0 -0.015474032338090291 -0.0074363958496915369 0 -0.015524581496622374 -0.0075858145428298208 0 -0.015422570574736375 -0.0084838293570561954 0 -0.015650444537425059 -0.007600220579133273 0 -0.015422570574736375 -0.0084838293570561954 0 -0.01591948367598963 -0.0078864693644699578 0 -0.015516224569302513 -0.0080697426320317026 0 -0.015472865508911412 -0.0076967791304446082 0 -0.015792181393805938 -0.0078815586778343029 0 -0.014999948023642634 -0.0074510512917197302 0 -0.015000002427633713 -0.0082024249648817021 0 -0.015513714254825343 -0.0076400518063557315 0 -0.015000080551461814 -0.0082023547084248711 0 -0.015491276360712618 -0.0076631557943891444 0 -0.011859033633947545 -0.0086039115953588201 0 -0.013791927386792012 -0.0089609810821177343 0 -0.0084246733380458003 -0.0097894252250110281 0 -0.0078439335726643473 -0.010321723782917014 0 -0.0086913866127603864 -0.01061351555050013 0 -0.015832880487896796 -0.007194988532959674 0 -0.015713647248314266 -0.0073905766541656143 0 -0.015737762682655646 -0.0072569933313210858 0 -0.013867387763895312 -0.0087832529879406911 0 -0.013791927386792012 -0.0089609810821177343 0 -0.015700869929214156 -0.0073651626567246701 0 -0.015713647248314266 -0.0073905766541656143 0 -0.015737762682655646 -0.0072569933313210858 0 -0.015700869929214156 -0.0073651626567246701 0 -0.015737762682655646 -0.0072569933313210858 0 -0.015678155233295632 -0.0072699596996598113 0 -0.0157127321773003 -0.0072083975348700832 0 -0.015737762682655646 -0.0072569933313210858 0 -0.015678155233295632 -0.0072699596996598113 0 -0.01565426972375657 -0.0071693114831440884 0 -0.015474032338090291 -0.0074363958496915369 0 -0.015622636124327552 -0.0073645754841092925 0 -0.01577820242288426 -0.0072767881269922424 0 -0.015650444537425059 -0.007600220579133273 0 -0.01565426972375657 -0.0071693114831440884 0 -0.015678155233295632 -0.0072699596996598113 0 -0.015622636124327552 -0.0073645754841092925 0 -0.015931379101009811 -0.0073216911150150582 0 -0.015472865508911412 -0.0076967791304446082 0 -0.015792181393805938 -0.0078815586778343029 0 -0.015700869929214156 -0.0073651626567246701 0 -0.015678155233295632 -0.0072699596996598113 0 -0.015622636124327552 -0.0073645754841092925 0 -0.015474032338090291 -0.0074363958496915369 0 -0.015622636124327552 -0.0073645754841092925 0 -0.015524581496622374 -0.0075858145428298208 0 -0.0157177716998061 -0.0074048214930821114 0 -0.015622636124327552 -0.0073645754841092925 0 -0.015524581496622374 -0.0075858145428298208 0 -0.015700869929214156 -0.0073651626567246701 0 -0.0157177716998061 -0.0074048214930821114 0 -0.015622636124327552 -0.0073645754841092925 0 -0.013791927386792012 -0.0089609810821177343 0 -0.01591948367598963 -0.0078864693644699578 0 -0.015961540329146078 -0.0084722613278830662 0 -0.015724459053330277 -0.0086663257562829745 0 -0.016185044202304155 -0.0089017410690320313 0 -0.0078439335726643473 -0.010321723782917014 0 -0.0082725377120879146 -0.011229311412538868 0 -0.0086913866127603864 -0.01061351555050013 0 -0.013791927386792012 -0.0089609810821177343 0 -0.011983788685677427 -0.010066805485889964 0 -0.016185044202304155 -0.0089017410690320313 0 -0.015829711766117516 -0.0090541703259554903 0 -0.016081107427642353 -0.0093056392902277404 0 -0.015724459053330277 -0.0086663257562829745 0 -0.016185044202304155 -0.0089017410690320313 0 -0.015829711766117516 -0.0090541703259554903 0 -0.015480146138925059 -0.0088484332548822101 0 -0.015724459053330277 -0.0086663257562829745 0 -0.015829711766117516 -0.0090541703259554903 0 -0.015828767377980703 -0.0095127131732099489 0 -0.015590681821227484 -0.0092265617629749344 0 -0.015829711766117516 -0.0090541703259554903 0 -0.015828767377980703 -0.0095127131732099489 0 -0.015829711766117516 -0.0090541703259554903 0 -0.016081107427642353 -0.0093056392902277404 0 -0.016185044202304155 -0.0089017410690320313 0 -0.016081107427642353 -0.0093056392902277404 0 -0.016427395514695051 -0.0093826398273570161 0 -0.016144639471381176 -0.0096960095668954388 0 -0.016081107427642353 -0.0093056392902277404 0 -0.016427395514695051 -0.0093826398273570161 0 -0.0089417954734901575 -0.01232575572871838 0 -0.0090159049987140628 -0.011503561522641696 0 -0.0086870348431810421 -0.011998111547211731 0 -0.0090285947236251329 -0.012086068563981266 0 -0.0090099029166877519 -0.011482250650880243 0 -0.0089944131394249088 -0.012315547907850036 0 -0.0093275420551469004 -0.012164797687412923 0 -0.0090099029166877519 -0.011482250650880243 0 -0.0089944131394249088 -0.012315547907850036 0 -0.0093275420551469004 -0.012164797687412923 0 -0.0092406063223305825 -0.012483696919086303 0 -0.0093275420551469004 -0.012164797687412923 0 -0.0090099029166877519 -0.011482250650880243 0 -0.009594341480307491 -0.011257374370241031 0 -0.0090099029166877519 -0.011482250650880243 0 -0.0093908910562344461 -0.010764535311547814 0 -0.009594341480307491 -0.011257374370241031 0 -0.0082725377120879146 -0.011229311412538868 0 -0.0086870348431810421 -0.011998111547211731 0 -0.0090099029166877519 -0.011482250650880243 0 -0.011983788685677427 -0.010066805485889964 0 -0.012784795761251725 -0.010657249490664792 0 -0.0082725377120879146 -0.011229311412538868 0 -0.0090099029166877519 -0.011482250650880243 0 -0.0086913866127603864 -0.01061351555050013 0 -0.0090099029166877519 -0.011482250650880243 0 -0.0086913866127603864 -0.01061351555050013 0 -0.0093908910562344461 -0.010764535311547814 0 -0.0086913866127603864 -0.01061351555050013 0 -0.0093908910562344461 -0.010764535311547814 0 -0.0091091093680658736 -0.01008280194774182 0 -0.0096670256583786807 -0.0098485973066373324 0 -0.0091091093680658736 -0.01008280194774182 0 -0.0098291413906712814 -0.010275719449307682 0 -0.0093908910562344461 -0.010764535311547814 0 -0.0091091093680658736 -0.01008280194774182 0 -0.0098291413906712814 -0.010275719449307682 0 -0.0084246733380458003 -0.0097894252250110281 0 -0.0086913866127603864 -0.01061351555050013 0 -0.0091091093680658736 -0.01008280194774182 0 -0.01028026893901493 -0.01019752880034866 0 -0.010417247031241108 -0.010548327705526231 0 -0.010636082148551771 -0.010176430935387015 0 -0.01028026893901493 -0.01019752880034866 0 -0.010510532674140337 -0.0099740702067073039 0 -0.010636082148551771 -0.010176430935387015 0 -0.010318717561665533 -0.0098764333267553021 0 -0.01028026893901493 -0.01019752880034866 0 -0.010510532674140337 -0.0099740702067073039 0 -0.010120097441927269 -0.009878333404438595 0 -0.010318717561665533 -0.0098764333267553021 0 -0.01028026893901493 -0.01019752880034866 0 -0.010120097441927269 -0.009878333404438595 0 -0.01028026893901493 -0.01019752880034866 0 -0.0098291413906712814 -0.010275719449307682 0 -0.010120097441927269 -0.009878333404438595 0 -0.0096670256583786807 -0.0098485973066373324 0 -0.0098291413906712814 -0.010275719449307682 0 -0.01028026893901493 -0.01019752880034866 0 -0.0098291413906712814 -0.010275719449307682 0 -0.010011901063279722 -0.010722155310493701 0 -0.0093908910562344461 -0.010764535311547814 0 -0.010011901063279722 -0.010722155310493701 0 -0.009594341480307491 -0.011257374370241031 0 -0.0093908910562344461 -0.010764535311547814 0 -0.0098291413906712814 -0.010275719449307682 0 -0.010011901063279722 -0.010722155310493701 0 -0.010011901063279722 -0.010722155310493701 0 -0.010417247031241108 -0.010548327705526231 0 -0.010272182697520135 -0.011257336550057218 0 -0.010417247031241108 -0.010548327705526231 0 -0.010272182697520135 -0.011257336550057218 0 -0.010799754317455468 -0.010487101701779159 0 -0.0097970617429506326 -0.011626351872753562 0 -0.0101727431650173 -0.011022975537280521 0 -0.01028026893901493 -0.01019752880034866 0 -0.010011901063279722 -0.010722155310493701 0 -0.010417247031241108 -0.010548327705526231 0 -0.0093492976607469167 -0.012001333571220374 0 -0.009404533360305143 -0.012232139624524288 0 -0.0095500585067126078 -0.011947697528670295 0 -0.0093275420551469004 -0.012164797687412923 0 -0.010272182697520135 -0.011257336550057218 0 -0.009594341480307491 -0.011257374370241031 0 -0.0093534749201076937 -0.012128080819079385 0 -0.0097970617429506326 -0.011626351872753562 0 -0.010011901063279722 -0.010722155310493701 0 -0.010272182697520135 -0.011257336550057218 0 -0.009594341480307491 -0.011257374370241031 0 -0.0093275420551469004 -0.012164797687412923 0 -0.009404533360305143 -0.012232139624524288 0 -0.009361468642156175 -0.012411419079028126 0 -0.0093275420551469004 -0.012164797687412923 0 -0.0093492976607469167 -0.012001333571220374 0 -0.009404533360305143 -0.012232139624524288 0 -0.0093275420551469004 -0.012164797687412923 0 -0.009361468642156175 -0.012411419079028126 0 -0.0092406063223305825 -0.012483696919086303 0 -0.009404533360305143 -0.012232139624524288 0 -0.0094358368668004729 -0.012567559842059451 0 -0.0096682119701489242 -0.012254932314833922 0 -0.009404533360305143 -0.012232139624524288 0 -0.0094358368668004729 -0.012567559842059451 0 -0.009361468642156175 -0.012411419079028126 0 -0.0094358368668004729 -0.012567559842059451 0 -0.0094028625008235507 -0.012769505164350613 0 -0.0093532315604877604 -0.012637500802012248 0 -0.0094358368668004729 -0.012567559842059451 0 -0.0093532315604877604 -0.012637500802012248 0 -0.009361468642156175 -0.012411419079028126 0 -0.0094358368668004729 -0.012567559842059451 0 -0.0094028625008235507 -0.012769505164350613 0 -0.0094529502532575294 -0.012856834736919971 0 -0.0094028625008235507 -0.012769505164350613 0 -0.0093819083965522125 -0.012788241743880756 0 -0.009395930105970899 -0.012880049958536408 0 -0.0094028625008235507 -0.012769505164350613 0 -0.0093927097215963529 -0.012924144061897005 0 -0.009395930105970899 -0.012880049958536408 0 -0.0094028625008235507 -0.012769505164350613 0 -0.0093927097215963529 -0.012924144061897005 0 -0.0094529502532575294 -0.012856834736919971 0 -0.0093395638401398574 -0.012779044556010609 0 -0.009389842199460938 -0.012859857159136918 0 -0.009397874714695548 -0.01289873075306559 0 -0.009389842199460938 -0.012859857159136918 0 -0.0093819083965522125 -0.012788241743880756 0 -0.009395930105970899 -0.012880049958536408 0 -0.0093395638401398574 -0.012779044556010609 0 -0.009389842199460938 -0.012859857159136918 0 -0.0093819083965522125 -0.012788241743880756 0 -0.0094028625008235507 -0.012769505164350613 0 -0.0093819083965522125 -0.012788241743880756 0 -0.0093532315604877604 -0.012637500802012248 0 -0.0093395638401398574 -0.012779044556010609 0 -0.0093819083965522125 -0.012788241743880756 0 -0.0093532315604877604 -0.012637500802012248 0 -0.0093395638401398574 -0.012779044556010609 0 -0.0093532315604877604 -0.012637500802012248 0 -0.0092584772432186494 -0.012677494645245289 0 -0.0093532315604877604 -0.012637500802012248 0 -0.0092406063223305825 -0.012483696919086303 0 -0.0092584772432186494 -0.012677494645245289 0 -0.0093532315604877604 -0.012637500802012248 0 -0.009361468642156175 -0.012411419079028126 0 -0.0092406063223305825 -0.012483696919086303 0 -0.0089944131394249088 -0.012315547907850036 0 -0.0092406063223305825 -0.012483696919086303 0 -0.0090955956076050597 -0.012675911589138418 0 -0.0089417954734901575 -0.01232575572871838 0 -0.01111568812879579 -0.011896953435208628 0 -0.0086870348431810421 -0.011998111547211731 0 -0.0090285947236251329 -0.012086068563981266 0 -0.0090677929160204174 -0.012658980981489201 0 -0.0092406063223305825 -0.012483696919086303 0 -0.0092584772432186494 -0.012677494645245289 0 -0.0090955956076050597 -0.012675911589138418 0 -0.016427395514695051 -0.0093826398273570161 0 -0.016401758483605575 -0.0097905276316740363 0 -0.016703593695470802 -0.0099572621210686687 0 -0.016144639471381176 -0.0096960095668954388 0 -0.016427395514695051 -0.0093826398273570161 0 -0.016401758483605575 -0.0097905276316740363 0 -0.012784795761251725 -0.010657249490664792 0 -0.01111568812879579 -0.011896953435208628 0 -0.016144639471381176 -0.0096960095668954388 0 -0.016401758483605575 -0.0097905276316740363 0 -0.016266971816018359 -0.0099107149247221471 0 -0.016273617382793329 -0.010351715518278227 0 -0.016419603765664148 -0.010037802988522014 0 -0.015864963521388709 -0.01042690937216611 0 -0.016521559423745107 -0.010007849915267812 0 -0.016613339536981155 -0.010439045067191897 0 -0.016193100107850661 -0.010124066017412057 0 -0.016266971816018359 -0.0099107149247221471 0 -0.016521559423745107 -0.010007849915267812 0 -0.016273617382793329 -0.010351715518278227 0 -0.016474017100239394 -0.010470809043036046 0 -0.016401758483605575 -0.0097905276316740363 0 -0.016266971816018359 -0.0099107149247221471 0 -0.016521559423745107 -0.010007849915267812 0 -0.016401758483605575 -0.0097905276316740363 0 -0.016521559423745107 -0.010007849915267812 0 -0.016703593695470802 -0.0099572621210686687 0 -0.01111568812879579 -0.011896953435208628 0 -0.011604089773139092 -0.012030356876945179 0 -0.016703593695470802 -0.0099572621210686687 0 -0.016613339536981155 -0.010439045067191897 0 -0.016713822476643599 -0.010940140344081055 0 -0.0091930666079705174 -0.012667690603010654 0 -0.0092593432857445805 -0.012814614957362806 0 -0.0092117618022785307 -0.013037824491465818 0 -0.0093395638401398574 -0.012779044556010609 0 -0.0092584772432186494 -0.012677494645245289 0 -0.0092593432857445805 -0.012814614957362806 0 -0.0092584772432186494 -0.012677494645245289 0 -0.0090955956076050597 -0.012675911589138418 0 -0.0092593432857445805 -0.012814614957362806 0 -0.016521559423745107 -0.010007849915267812 0 -0.016703593695470802 -0.0099572621210686687 0 -0.016613339536981155 -0.010439045067191897 0 -0.01111568812879579 -0.011896953435208628 0 -0.0096924774796765568 -0.0125148934208509 0 -0.0093395638401398574 -0.012779044556010609 0 -0.0092593432857445805 -0.012814614957362806 0 -0.009397874714695548 -0.01289873075306559 0 -0.0092593432857445805 -0.012814614957362806 0 -0.0092117618022785307 -0.013037824491465818 0 -0.009397874714695548 -0.01289873075306559 0 -0.0096778048761862415 -0.012868406746439414 0 -0.0095301584711625295 -0.012855826595952725 0 -0.009397874714695548 -0.01289873075306559 0 -0.011604089773139092 -0.012030356876945179 0 -0.0089046854290365431 -0.013389060436274171 0 -0.016142536500974112 -0.010580071194319571 0 -0.016613339536981155 -0.010439045067191897 0 -0.016325831099054389 -0.010846571484430701 0 -0.016613339536981155 -0.010439045067191897 0 -0.016713822476643599 -0.010940140344081055 0 -0.016325831099054389 -0.010846571484430701 0 -0.011604089773139092 -0.012030356876945179 0 -0.013680827535399318 -0.012004525808660717 0 -0.016713822476643599 -0.010940140344081055 0 -0.016325831099054389 -0.010846571484430701 0 -0.016262536972803415 -0.011274304553034156 0 -0.010020780122800801 -0.013338233054052134 0 -0.010505963626662314 -0.012932453515082357 0 -0.010004002114369496 -0.01293693685725103 0 -0.0097761776980500592 -0.012712605683119675 0 -0.0094997173777446858 -0.012791808578896733 0 -0.0095985681829267658 -0.012601298023720073 0 -0.0095301584711625295 -0.012855826595952725 0 -0.0097761776980500592 -0.012712605683119675 0 -0.0094997173777446858 -0.012791808578896733 0 -0.011604089773139092 -0.012030356876945179 0 -0.0099610137175535299 -0.01296589256491228 0 -0.0096778048761862415 -0.012868406746439414 0 -0.0095301584711625295 -0.012855826595952725 0 -0.0097761776980500592 -0.012712605683119675 0 -0.0094997173777446858 -0.012791808578896733 0 -0.0093738980864563858 -0.012814169740333722 0 -0.0094215302888593939 -0.012883733488576752 0 -0.0094997173777446858 -0.012791808578896733 0 -0.0094425791161133511 -0.01272164450513413 0 -0.0093738980864563858 -0.012814169740333722 0 -0.0094997173777446858 -0.012791808578896733 0 -0.0094425791161133511 -0.01272164450513413 0 -0.0095985681829267658 -0.012601298023720073 0 -0.0093568333286118653 -0.012817757185462105 0 -0.0093342977118955339 -0.012582622132704117 0 -0.0094425791161133511 -0.01272164450513413 0 -0.0093738980864563858 -0.012814169740333722 0 -0.009304691477786748 -0.012616492913381589 0 -0.0093738980864563858 -0.012814169740333722 0 -0.0093247288289940392 -0.012765856398390061 0 -0.0093631816781713437 -0.012746963330856835 0 -0.0093633712933829192 -0.012855279205054868 0 -0.0093738980864563858 -0.012814169740333722 0 -0.0093247288289940392 -0.012765856398390061 0 -0.0093738980864563858 -0.012814169740333722 0 -0.0093870079830889117 -0.012891848266928388 0 -0.0094215302888593939 -0.012883733488576752 0 -0.0093633712933829192 -0.012855279205054868 0 -0.0093870079830889117 -0.012891848266928388 0 -0.0093501835222962668 -0.012938560421873286 0 -0.0093633712933829192 -0.012855279205054868 0 -0.0093738980864563858 -0.012814169740333722 0 -0.0093870079830889117 -0.012891848266928388 0 -0.0093927097215963529 -0.012924144061897005 0 -0.0093870079830889117 -0.012891848266928388 0 -0.0093501835222962668 -0.012938560421873286 0 -0.0093870079830889117 -0.012891848266928388 0 -0.009395930105970899 -0.012880049958536408 0 -0.0094215302888593939 -0.012883733488576752 0 -0.0093927097215963529 -0.012924144061897005 0 -0.0093870079830889117 -0.012891848266928388 0 -0.009395930105970899 -0.012880049958536408 0 -0.009389842199460938 -0.012859857159136918 0 -0.009395930105970899 -0.012880049958536408 0 -0.0094215302888593939 -0.012883733488576752 0 -0.009389842199460938 -0.012859857159136918 0 -0.009397874714695548 -0.01289873075306559 0 -0.0094215302888593939 -0.012883733488576752 0 -0.0095301584711625295 -0.012855826595952725 0 -0.0094997173777446858 -0.012791808578896733 0 -0.0094215302888593939 -0.012883733488576752 0 -0.0095301584711625295 -0.012855826595952725 0 -0.009397874714695548 -0.01289873075306559 0 -0.0094215302888593939 -0.012883733488576752 0 -0.0092261182641155699 -0.013282000626014142 0 -0.0091544314426358301 -0.0136655631284324 0 -0.0092161676536453661 -0.013138815552351225 0 -0.0092579881338739553 -0.013447531100073094 0 -0.0091544314426358301 -0.0136655631284324 0 -0.0092856923210014961 -0.013569069683344601 0 -0.0092579881338739553 -0.013447531100073094 0 -0.0092945203255727967 -0.013673466385961033 0 -0.0092196388477440855 -0.013184220369025697 0 -0.0092579881338739553 -0.013447531100073094 0 -0.0092261182641155699 -0.013282000626014142 0 -0.0091544314426358301 -0.0136655631284324 0 -0.0092579881338739553 -0.013447531100073094 0 -0.0092261182641155699 -0.013282000626014142 0 -0.0092196388477440855 -0.013184220369025697 0 -0.0088422890634411652 -0.013854276833485819 0 -0.0091544314426358301 -0.0136655631284324 0 -0.0092161676536453661 -0.013138815552351225 0 -0.009065725974423313 -0.013369921287195653 0 -0.0092161819009560879 -0.013116641692411187 0 -0.0093501835222962668 -0.012938560421873286 0 -0.0093247288289940392 -0.012765856398390061 0 -0.0092161676536453661 -0.013138815552351225 0 -0.0093501835222962668 -0.012938560421873286 0 -0.0093508431884441814 -0.012994300510026919 0 -0.0092161676536453661 -0.013138815552351225 0 -0.0093927097215963529 -0.012924144061897005 0 -0.0093501835222962668 -0.012938560421873286 0 -0.0093508431884441814 -0.012994300510026919 0 -0.0093633712933829192 -0.012855279205054868 0 -0.0093501835222962668 -0.012938560421873286 0 -0.0093247288289940392 -0.012765856398390061 0 -0.0088422890634411652 -0.013854276833485819 0 -0.009070735396204857 -0.013927919580484756 0 -0.0091544314426358301 -0.0136655631284324 0 -0.0091544314426358301 -0.0136655631284324 0 -0.009307704502820105 -0.01358437921639857 0 -0.0092856923210014961 -0.013569069683344601 0 -0.0091355082868099548 -0.013688158950289655 0 -0.0092282802705423422 -0.01382622178212975 0 -0.0091544314426358301 -0.0136655631284324 0 -0.0091749543853902847 -0.01396257332225675 0 -0.0092097910956257644 -0.014068945421960683 0 -0.009070735396204857 -0.013927919580484756 0 -0.0091544314426358301 -0.0136655631284324 0 -0.0091749543853902847 -0.01396257332225675 0 -0.0091749543853902847 -0.01396257332225675 0 -0.0092097910956257644 -0.014068945421960683 0 -0.0091883970977509246 -0.014072516520710524 0 -0.0092097910956257644 -0.014068945421960683 0 -0.0091327828656109344 -0.014152177736227794 0 -0.0091883970977509246 -0.014072516520710524 0 -0.0092097910956257644 -0.014068945421960683 0 -0.0090029651797457304 -0.01432960532049592 0 -0.0091327828656109344 -0.014152177736227794 0 -0.0092282802705423422 -0.01382622178212975 0 -0.0089022486529658738 -0.014018921907589242 0 -0.009307704502820105 -0.01358437921639857 0 -0.0087831666168655537 -0.013869476696316226 0 -0.0088085557876456007 -0.013681386849398439 0 -0.009307704502820105 -0.01358437921639857 0 -0.0092945203255727967 -0.013673466385961033 0 -0.0087831666168655537 -0.013869476696316226 0 -0.0077323657099943729 -0.014245148489407583 0 -0.0074833376195960755 -0.014301608282484153 0 -0.0079110094551833581 -0.014350901900023886 0 -0.0082285012698184862 -0.013977607883807114 0 -0.0083326426601318792 -0.014104306018648595 0 -0.0077323657099943729 -0.014245148489407583 0 -0.0074833376195960755 -0.014301608282484153 0 -0.0075556697697325209 -0.014061204457513762 0 -0.0077323657099943729 -0.014245148489407583 0 -0.0078065167542005929 -0.014056109570133663 0 -0.0078620636234853544 -0.014274083720582222 0 -0.0082285012698184862 -0.013977607883807114 0 -0.0087416574653471982 -0.013381465786320074 0 -0.0092579881338739553 -0.013447531100073094 0 -0.0092856923210014961 -0.013569069683344601 0 -0.0092945203255727967 -0.013673466385961033 0 -0.009307704502820105 -0.01358437921639857 0 -0.0092856923210014961 -0.013569069683344601 0 -0.0092945203255727967 -0.013673466385961033 0 -0.0074833376195960755 -0.014301608282484153 0 -0.0072643974754879751 -0.013979628462136228 0 -0.0069016758493303234 -0.014070780183936458 0 -0.0072643974754879751 -0.013979628462136228 0 -0.0075556697697325209 -0.014061204457513762 0 -0.0075670826494848836 -0.013657686772927649 0 -0.0074833376195960755 -0.014301608282484153 0 -0.0072643974754879751 -0.013979628462136228 0 -0.0075556697697325209 -0.014061204457513762 0 -0.0078065167542005929 -0.014056109570133663 0 -0.0075556697697325209 -0.014061204457513762 0 -0.0075670826494848836 -0.013657686772927649 0 -0.0077323657099943729 -0.014245148489407583 0 -0.0078065167542005929 -0.014056109570133663 0 -0.0075556697697325209 -0.014061204457513762 0 -0.0078065167542005929 -0.014056109570133663 0 -0.0075670826494848836 -0.013657686772927649 0 -0.0080244101945406605 -0.013412033187388856 0 -0.0075670826494848836 -0.013657686772927649 0 -0.0071984469541149778 -0.013575821829810035 0 -0.0075092329435189767 -0.013010478257520027 0 -0.0072643974754879751 -0.013979628462136228 0 -0.0075670826494848836 -0.013657686772927649 0 -0.0071984469541149778 -0.013575821829810035 0 -0.010033227910159084 -0.012533752521392978 0 -0.0096667340610815979 -0.012624456716617305 0 -0.0096682119701489242 -0.012254932314833922 0 -0.010033227910159084 -0.012533752521392978 0 -0.0097879686604296027 -0.012959118588802868 0 -0.0096667340610815979 -0.012624456716617305 0 -0.0072643974754879751 -0.013979628462136228 0 -0.0071984469541149778 -0.013575821829810035 0 -0.0069016758493303234 -0.014070780183936458 0 -0.0085502834667374582 -0.013099169545760802 0 -0.0087416574653471982 -0.013381465786320074 0 -0.0092261182641155699 -0.013282000626014142 0 -0.0092196388477440855 -0.013184220369025697 0 -0.0092161676536453661 -0.013138815552351225 0 -0.0087416574653471982 -0.013381465786320074 0 -0.009598613166545868 -0.012961822468544843 0 -0.0092196388477440855 -0.013184220369025697 0 -0.0092161676536453661 -0.013138815552351225 0 -0.0094529502532575294 -0.012856834736919971 0 -0.0097879686604296027 -0.012959118588802868 0 -0.0094529502532575294 -0.012856834736919971 0 -0.0096667340610815979 -0.012624456716617305 0 -0.0093508431884441814 -0.012994300510026919 0 -0.0092161676536453661 -0.013138815552351225 0 -0.0094529502532575294 -0.012856834736919971 0 -0.0093927097215963529 -0.012924144061897005 0 -0.0093508431884441814 -0.012994300510026919 0 -0.0094529502532575294 -0.012856834736919971 0 -0.0094358368668004729 -0.012567559842059451 0 -0.0096667340610815979 -0.012624456716617305 0 -0.0096682119701489242 -0.012254932314833922 0 -0.0094358368668004729 -0.012567559842059451 0 -0.0094529502532575294 -0.012856834736919971 0 -0.0096667340610815979 -0.012624456716617305 0 -0.009404533360305143 -0.012232139624524288 0 -0.0096682119701489242 -0.012254932314833922 0 -0.0095500585067126078 -0.011947697528670295 0 -0.010033227910159084 -0.012533752521392978 0 -0.0096682119701489242 -0.012254932314833922 0 -0.0099482444215821687 -0.012048493238761008 0 -0.0096682119701489242 -0.012254932314833922 0 -0.0099482444215821687 -0.012048493238761008 0 -0.009739628654190733 -0.011955652211754222 0 -0.009739628654190733 -0.011955652211754222 0 -0.0097269482241625141 -0.011692667830644212 0 -0.0098757425519120264 -0.011740159723070845 0 -0.0099482444215821687 -0.012048493238761008 0 -0.009739628654190733 -0.011955652211754222 0 -0.0098757425519120264 -0.011740159723070845 0 -0.0096682119701489242 -0.012254932314833922 0 -0.009739628654190733 -0.011955652211754222 0 -0.0095500585067126078 -0.011947697528670295 0 -0.009739628654190733 -0.011955652211754222 0 -0.0095500585067126078 -0.011947697528670295 0 -0.0097269482241625141 -0.011692667830644212 0 -0.0093492976607469167 -0.012001333571220374 0 -0.0095500585067126078 -0.011947697528670295 0 -0.0095416573965480152 -0.011550268215283665 0 -0.0095500585067126078 -0.011947697528670295 0 -0.0095416573965480152 -0.011550268215283665 0 -0.0097269482241625141 -0.011692667830644212 0 -0.0097269482241625141 -0.011692667830644212 0 -0.0099394419869634348 -0.011152353621832993 0 -0.009936944305141384 -0.01150957071317679 0 -0.0097386187134682056 -0.011646541721360469 0 -0.010058541552640283 -0.01114810558393539 0 -0.0097269482241625141 -0.011692667830644212 0 -0.0098757425519120264 -0.011740159723070845 0 -0.009936944305141384 -0.01150957071317679 0 -0.0095416573965480152 -0.011550268215283665 0 -0.0097269482241625141 -0.011692667830644212 0 -0.0099696312156600658 -0.010997907283867547 0 -0.0097269482241625141 -0.011692667830644212 0 -0.0099696312156600658 -0.010997907283867547 0 -0.010172723231135604 -0.011146099794343316 0 -0.0101727431650173 -0.011022975537280521 0 -0.010532236194055921 -0.010461025460687924 0 -0.010799754317455468 -0.010487101701779159 0 -0.011101962059869481 -0.0099135306092386737 0 -0.010867334742298651 -0.01007568592859762 0 -0.010953416517983436 -0.0098666703076547343 0 -0.011101962059869481 -0.0099135306092386737 0 -0.010867334742298651 -0.01007568592859762 0 -0.010867334742298651 -0.01007568592859762 0 -0.010636082148551771 -0.010176430935387015 0 -0.010708422478319674 -0.0099917143453897329 0 -0.010836785155296111 -0.0098826817391967098 0 -0.010867334742298651 -0.01007568592859762 0 -0.010708422478319674 -0.0099917143453897329 0 -0.010510532674140337 -0.0099740702067073039 0 -0.010636082148551771 -0.010176430935387015 0 -0.010708422478319674 -0.0099917143453897329 0 -0.010417247031241108 -0.010548327705526231 0 -0.010799754317455468 -0.010487101701779159 0 -0.010636082148551771 -0.010176430935387015 0 -0.010799754317455468 -0.010487101701779159 0 -0.010867334742298651 -0.01007568592859762 0 -0.010636082148551771 -0.010176430935387015 0 -0.010370441359105333 -0.011300996333819256 0 -0.010249868470067909 -0.011115469648555493 0 -0.010164783814766641 -0.011298940312074493 0 -0.010370441359105333 -0.011300996333819256 0 -0.01037587507472496 -0.011082404491455231 0 -0.010249868470067909 -0.011115469648555493 0 -0.010370441359105333 -0.011300996333819256 0 -0.01050701805744365 -0.011097745088084318 0 -0.010610000223247831 -0.011225424758234327 0 -0.010370441359105333 -0.011300996333819256 0 -0.01037587507472496 -0.011082404491455231 0 -0.01050701805744365 -0.011097745088084318 0 -0.01037587507472496 -0.011082404491455231 0 -0.01050701805744365 -0.011097745088084318 0 -0.010468290178722755 -0.01094911773079205 0 -0.01050701805744365 -0.011097745088084318 0 -0.010468290178722755 -0.01094911773079205 0 -0.010619155107765874 -0.011038202754364132 0 -0.01037587507472496 -0.011082404491455231 0 -0.010468290178722755 -0.01094911773079205 0 -0.010326575377241444 -0.01096913229037692 0 -0.01037587507472496 -0.011082404491455231 0 -0.010326575377241444 -0.01096913229037692 0 -0.010249868470067909 -0.011115469648555493 0 -0.010326575377241444 -0.01096913229037692 0 -0.010249868470067909 -0.011115469648555493 0 -0.010183179985370267 -0.010930827037797278 0 -0.010183179985370267 -0.010930827037797278 0 -0.0099394419869634348 -0.011152353621832993 0 -0.010112543009569239 -0.011172744054471764 0 -0.010249868470067909 -0.011115469648555493 0 -0.010183179985370267 -0.010930827037797278 0 -0.010112543009569239 -0.011172744054471764 0 -0.0099394419869634348 -0.011152353621832993 0 -0.010034858216548481 -0.011346400265380387 0 -0.010112543009569239 -0.011172744054471764 0 -0.0099394419869634348 -0.011152353621832993 0 -0.010034858216548481 -0.011346400265380387 0 -0.009936944305141384 -0.01150957071317679 0 -0.010249868470067909 -0.011115469648555493 0 -0.010112543009569239 -0.011172744054471764 0 -0.010164783814766641 -0.011298940312074493 0 -0.010034858216548481 -0.011346400265380387 0 -0.010112543009569239 -0.011172744054471764 0 -0.010164783814766641 -0.011298940312074493 0 -0.010034858216548481 -0.011346400265380387 0 -0.010164783814766641 -0.011298940312074493 0 -0.010147127570423341 -0.011597527172804552 0 -0.0098757425519120264 -0.011740159723070845 0 -0.009936944305141384 -0.01150957071317679 0 -0.010147127570423341 -0.011597527172804552 0 -0.010034858216548481 -0.011346400265380387 0 -0.009936944305141384 -0.01150957071317679 0 -0.010147127570423341 -0.011597527172804552 0 -0.010370441359105333 -0.011300996333819256 0 -0.010147127570423341 -0.011597527172804552 0 -0.010571577849740782 -0.011662042799476271 0 -0.010370441359105333 -0.011300996333819256 0 -0.010571577849740782 -0.011662042799476271 0 -0.010610000223247831 -0.011225424758234327 0 -0.010370441359105333 -0.011300996333819256 0 -0.010164783814766641 -0.011298940312074493 0 -0.010147127570423341 -0.011597527172804552 0 -0.0075092329435189767 -0.013010478257520027 0 -0.0081155412666593808 -0.012867514136608126 0 -0.0078570072370543909 -0.012442559466512335 0 -0.010147127570423341 -0.011597527172804552 0 -0.010277494974062624 -0.012129004585562337 0 -0.010571577849740782 -0.011662042799476271 0 -0.0089124877281775289 -0.012550790388105632 0 -0.0091915019670772997 -0.012082361261553145 0 -0.0099482444215821687 -0.012048493238761008 0 -0.0098757425519120264 -0.011740159723070845 0 -0.010147127570423341 -0.011597527172804552 0 -0.0099482444215821687 -0.012048493238761008 0 -0.010147127570423341 -0.011597527172804552 0 -0.010277494974062624 -0.012129004585562337 0 -0.0085502834667374582 -0.013099169545760802 0 -0.0089124877281775289 -0.012550790388105632 0 -0.010033227910159084 -0.012533752521392978 0 -0.0099482444215821687 -0.012048493238761008 0 -0.010277494974062624 -0.012129004585562337 0 -0.0075670826494848836 -0.013657686772927649 0 -0.0075092329435189767 -0.013010478257520027 0 -0.0080244101945406605 -0.013412033187388856 0 -0.0083364244581184792 -0.013159553925333039 0 -0.0081155412666593808 -0.012867514136608126 0 -0.0080244101945406605 -0.013412033187388856 0 -0.0075092329435189767 -0.013010478257520027 0 -0.0081155412666593808 -0.012867514136608126 0 -0.0080244101945406605 -0.013412033187388856 0 -0.0083364244581184792 -0.013159553925333039 0 -0.0083831003440122173 -0.013461867956635872 0 -0.0080244101945406605 -0.013412033187388856 0 -0.0083364244581184792 -0.013159553925333039 0 -0.0085804509555516047 -0.012930334731622719 0 -0.0081155412666593808 -0.012867514136608126 0 -0.0085982164211422032 -0.013286526589843951 0 -0.0083364244581184792 -0.013159553925333039 0 -0.0083831003440122173 -0.013461867956635872 0 -0.0085982164211422032 -0.013286526589843951 0 -0.0083364244581184792 -0.013159553925333039 0 -0.0085804509555516047 -0.012930334731622719 0 -0.0085804509555516047 -0.012930334731622719 0 -0.0083582973476004352 -0.012587419991155252 0 -0.0081155412666593808 -0.012867514136608126 0 -0.0085804509555516047 -0.012930334731622719 0 -0.0083582973476004352 -0.012587419991155252 0 -0.0087268210795637419 -0.012555635022055738 0 -0.0083582973476004352 -0.012587419991155252 0 -0.0081155412666593808 -0.012867514136608126 0 -0.0078570072370543909 -0.012442559466512335 0 -0.0083582973476004352 -0.012587419991155252 0 -0.0078570072370543909 -0.012442559466512335 0 -0.0083013975181988747 -0.012241699009877574 0 -0.010571577849740782 -0.011662042799476271 0 -0.010610000223247831 -0.011225424758234327 0 -0.010878638286560478 -0.011136879612742413 0 -0.0078570072370543909 -0.012442559466512335 0 -0.0083013975181988747 -0.012241699009877574 0 -0.0082097929283359485 -0.011904086987160929 0 -0.0091915019670772997 -0.012082361261553145 0 -0.009682362807958346 -0.011375674000058183 0 -0.0083582973476004352 -0.012587419991155252 0 -0.0085429929183025079 -0.012304150280803309 0 -0.0083013975181988747 -0.012241699009877574 0 -0.0083582973476004352 -0.012587419991155252 0 -0.0085429929183025079 -0.012304150280803309 0 -0.0087268210795637419 -0.012555635022055738 0 -0.0085429929183025079 -0.012304150280803309 0 -0.0083013975181988747 -0.012241699009877574 0 -0.0085310639468390969 -0.011977296412839762 0 -0.0083013975181988747 -0.012241699009877574 0 -0.0085310639468390969 -0.011977296412839762 0 -0.0082097929283359485 -0.011904086987160929 0 -0.0086072673115942331 -0.011613899523679376 0 -0.0085310639468390969 -0.011977296412839762 0 -0.0082097929283359485 -0.011904086987160929 0 -0.0091354290605998208 -0.011363883060977326 0 -0.009682362807958346 -0.011375674000058183 0 -0.010571577849740782 -0.011662042799476271 0 -0.010938779215134517 -0.011091972677761313 0 -0.010878638286560478 -0.011136879612742413 0 -0.010949074332687266 -0.011081439157423087 0 -0.010786694735659489 -0.010929915382989304 0 -0.010878638286560478 -0.011136879612742413 0 -0.010786694735659489 -0.010929915382989304 0 -0.010722680620537118 -0.01108389909869509 0 -0.010878638286560478 -0.011136879612742413 0 -0.010598685476686161 -0.010754308156416368 0 -0.010468290178722755 -0.01094911773079205 0 -0.010619155107765874 -0.011038202754364132 0 -0.010598685476686161 -0.010754308156416368 0 -0.010786694735659489 -0.010929915382989304 0 -0.010619155107765874 -0.011038202754364132 0 -0.010786694735659489 -0.010929915382989304 0 -0.010619155107765874 -0.011038202754364132 0 -0.010722680620537118 -0.01108389909869509 0 -0.010722680620537118 -0.01108389909869509 0 -0.010610000223247831 -0.011225424758234327 0 -0.010878638286560478 -0.011136879612742413 0 -0.01050701805744365 -0.011097745088084318 0 -0.010619155107765874 -0.011038202754364132 0 -0.010610000223247831 -0.011225424758234327 0 -0.010619155107765874 -0.011038202754364132 0 -0.010722680620537118 -0.01108389909869509 0 -0.010610000223247831 -0.011225424758234327 0 -0.009682362807958346 -0.011375674000058183 0 -0.0099582265187995941 -0.011230532656898816 0 -0.0091497305027543659 -0.01164231740955411 0 -0.009122728769584032 -0.012079687251093096 0 -0.0088272169736879416 -0.011861121350802261 0 -0.0091497305027543659 -0.01164231740955411 0 -0.009122728769584032 -0.012079687251093096 0 -0.0094748421452137983 -0.011938174322538235 0 -0.0086072673115942331 -0.011613899523679376 0 -0.0085310639468390969 -0.011977296412839762 0 -0.0088272169736879416 -0.011861121350802261 0 -0.0085310639468390969 -0.011977296412839762 0 -0.0088272169736879416 -0.011861121350802261 0 -0.0088165174734696743 -0.012171740899511186 0 -0.009122728769584032 -0.012079687251093096 0 -0.0088272169736879416 -0.011861121350802261 0 -0.0088165174734696743 -0.012171740899511186 0 -0.0085429929183025079 -0.012304150280803309 0 -0.0085310639468390969 -0.011977296412839762 0 -0.0088165174734696743 -0.012171740899511186 0 -0.0085429929183025079 -0.012304150280803309 0 -0.0088165174734696743 -0.012171740899511186 0 -0.0087268210795637419 -0.012555635022055738 0 -0.0088165174734696743 -0.012171740899511186 0 -0.0090678297409843706 -0.012457480228007226 0 -0.0087268210795637419 -0.012555635022055738 0 -0.009122728769584032 -0.012079687251093096 0 -0.0090678297409843706 -0.012457480228007226 0 -0.0094479786474292275 -0.012312036271240553 0 -0.009122728769584032 -0.012079687251093096 0 -0.0094479786474292275 -0.012312036271240553 0 -0.0094748421452137983 -0.011938174322538235 0 -0.009122728769584032 -0.012079687251093096 0 -0.0088165174734696743 -0.012171740899511186 0 -0.0090678297409843706 -0.012457480228007226 0 -0.0090678297409843706 -0.012457480228007226 0 -0.0089939723078563353 -0.012893596515848205 0 -0.0096443338950086051 -0.012690183806652584 0 -0.0085804509555516047 -0.012930334731622719 0 -0.0089939723078563353 -0.012893596515848205 0 -0.0087268210795637419 -0.012555635022055738 0 -0.0090678297409843706 -0.012457480228007226 0 -0.0089939723078563353 -0.012893596515848205 0 -0.0087268210795637419 -0.012555635022055738 0 -0.0085804509555516047 -0.012930334731622719 0 -0.0089939723078563353 -0.012893596515848205 0 -0.0088844715014313336 -0.013162761238957118 0 -0.0088844715014313336 -0.013162761238957118 0 -0.0090426018548241185 -0.013362891296321323 0 -0.0088224816791171671 -0.013420687924016222 0 -0.0085982164211422032 -0.013286526589843951 0 -0.0085804509555516047 -0.012930334731622719 0 -0.0088844715014313336 -0.013162761238957118 0 -0.0085982164211422032 -0.013286526589843951 0 -0.0088844715014313336 -0.013162761238957118 0 -0.0088224816791171671 -0.013420687924016222 0 -0.0089939723078563353 -0.012893596515848205 0 -0.0093100893806138275 -0.013194240933265489 0 -0.0096443338950086051 -0.012690183806652584 0 -0.0088844715014313336 -0.013162761238957118 0 -0.0093100893806138275 -0.013194240933265489 0 -0.0090426018548241185 -0.013362891296321323 0 -0.0089939723078563353 -0.012893596515848205 0 -0.0088844715014313336 -0.013162761238957118 0 -0.0093100893806138275 -0.013194240933265489 0 -0.0082264760590623695 -0.014067998113583788 0 -0.0085653101954687571 -0.013994162186330525 0 -0.0093100893806138275 -0.013194240933265489 0 -0.0090426018548241185 -0.013362891296321323 0 -0.0089623665737453475 -0.013681518232030529 0 -0.0087857471636026713 -0.013321795916055609 0 -0.0082264760590623695 -0.014067998113583788 0 -0.0082113062156280153 -0.013515388182256251 0 -0.0077341521603163793 -0.014128268197238609 0 -0.0086745514518645605 -0.013975893080989335 0 -0.0082264760590623695 -0.014067998113583788 0 -0.0079576680491000445 -0.014443233210137549 0 -0.007526920350971157 -0.014582107606320888 0 -0.0076866792390000863 -0.014623442954042823 0 -0.0073320644348445641 -0.014646663473980257 0 -0.007626162576931347 -0.014555784327064697 0 -0.007526920350971157 -0.014582107606320888 0 -0.0076866792390000863 -0.014623442954042823 0 -0.007626162576931347 -0.014555784327064697 0 -0.0075482346441546914 -0.014519371043955074 0 -0.007526920350971157 -0.014582107606320888 0 -0.007626162576931347 -0.014555784327064697 0 -0.0076515955857496057 -0.01448530468039148 0 -0.0075482346441546914 -0.014519371043955074 0 -0.0076515955857496057 -0.01448530468039148 0 -0.0075482346441546914 -0.014519371043955074 0 -0.0076240063176471187 -0.014429951712622641 0 -0.0074466922692956374 -0.014564520528981995 0 -0.007526920350971157 -0.014582107606320888 0 -0.0073320644348445641 -0.014646663473980257 0 -0.0075482346441546914 -0.014519371043955074 0 -0.0074466922692956374 -0.014564520528981995 0 -0.0074205723876589443 -0.014483141184814833 0 -0.0075482346441546914 -0.014519371043955074 0 -0.0074466922692956374 -0.014564520528981995 0 -0.007526920350971157 -0.014582107606320888 0 -0.0077013190590876669 -0.014594656574553303 0 -0.0076874443961609563 -0.014629536952683826 0 -0.0079087193823559835 -0.014381518451429499 0 -0.0082264760590623695 -0.014067998113583788 0 -0.0081387370151657038 -0.014123385713878398 0 -0.007805350998408473 -0.014401016200135895 0 -0.0077227978789993681 -0.014508464976906917 0 -0.0079087193823559835 -0.014381518451429499 0 -0.0077227978789993681 -0.014508464976906917 0 -0.0077013190590876669 -0.014594656574553303 0 -0.0079087193823559835 -0.014381518451429499 0 -0.007805350998408473 -0.014401016200135895 0 -0.0077227978789993681 -0.014508464976906917 0 -0.0077266917110682537 -0.014413393236372968 0 -0.0076515955857496057 -0.01448530468039148 0 -0.0077227978789993681 -0.014508464976906917 0 -0.0077266917110682537 -0.014413393236372968 0 -0.007626162576931347 -0.014555784327064697 0 -0.0076515955857496057 -0.01448530468039148 0 -0.0077227978789993681 -0.014508464976906917 0 -0.007626162576931347 -0.014555784327064697 0 -0.0076759475662981809 -0.014593089134262736 0 -0.0076866792390000863 -0.014623442954042823 0 -0.007626162576931347 -0.014555784327064697 0 -0.0077227978789993681 -0.014508464976906917 0 -0.0076759475662981809 -0.014593089134262736 0 -0.0077227978789993681 -0.014508464976906917 0 -0.0077013190590876669 -0.014594656574553303 0 -0.0076759475662981809 -0.014593089134262736 0 -0.0077013190590876669 -0.014594656574553303 0 -0.0076759475662981809 -0.014593089134262736 0 -0.0076829521700235819 -0.014607522346578881 0 -0.0076759475662981809 -0.014593089134262736 0 -0.0076829521700235819 -0.014607522346578881 0 -0.0076866792390000863 -0.014623442954042823 0 -0.0089583390812708105 -0.013676003815869274 0 -0.0088853119623967143 -0.013647288177055975 0 -0.0085982763178597682 -0.013629172554019639 0 -0.0089583390812708105 -0.013676003815869274 0 -0.0085982763178597682 -0.013629172554019639 0 -0.0083878568679660436 -0.013855138589150095 0 -0.0088853119623967143 -0.013647288177055975 0 -0.0088224816791171671 -0.013420687924016222 0 -0.0085982763178597682 -0.013629172554019639 0 -0.0090426018548241185 -0.013362891296321323 0 -0.0089623665737453475 -0.013681518232030529 0 -0.0089278545444170226 -0.013527855291700818 0 -0.0088853119623967143 -0.013647288177055975 0 -0.0089278545444170226 -0.013527855291700818 0 -0.0088224816791171671 -0.013420687924016222 0 -0.0077013190590876669 -0.014594656574553303 0 -0.0076829521700235819 -0.014607522346578881 0 -0.0076866792390000863 -0.014623442954042823 0 -0.0081198461384065154 -0.014194518749898646 0 -0.0082264760590623695 -0.014067998113583788 0 -0.0082264760590623695 -0.014067998113583788 0 -0.0084007716507593366 -0.014069868740193271 0 -0.0089623665737453475 -0.013681518232030529 0 -0.0088853119623967143 -0.013647288177055975 0 -0.0089278545444170226 -0.013527855291700818 0 -0.0090426018548241185 -0.013362891296321323 0 -0.0089278545444170226 -0.013527855291700818 0 -0.0088224816791171671 -0.013420687924016222 0 -0.0085982164211422032 -0.013286526589843951 0 -0.0088224816791171671 -0.013420687924016222 0 -0.0085982763178597682 -0.013629172554019639 0 -0.0083831003440122173 -0.013461867956635872 0 -0.0080244101945406605 -0.013412033187388856 0 -0.0083878568679660436 -0.013855138589150095 0 -0.0085982164211422032 -0.013286526589843951 0 -0.0083831003440122173 -0.013461867956635872 0 -0.0085982763178597682 -0.013629172554019639 0 -0.0083831003440122173 -0.013461867956635872 0 -0.0085982763178597682 -0.013629172554019639 0 -0.0083878568679660436 -0.013855138589150095 0 -0.0078065167542005929 -0.014056109570133663 0 -0.0080244101945406605 -0.013412033187388856 0 -0.0083878568679660436 -0.013855138589150095 0 -0.0078049116843891507 -0.014083131268065327 0 -0.0081387370151657038 -0.014123385713878398 0 -0.0078065167542005929 -0.014056109570133663 0 -0.0079087193823559835 -0.014381518451429499 0 -0.0078972987604125442 -0.014266211748418509 0 -0.0079087193823559835 -0.014381518451429499 0 -0.0078847690553562645 -0.01432414906252389 0 -0.0078972987604125442 -0.014266211748418509 0 -0.007805350998408473 -0.014401016200135895 0 -0.0079087193823559835 -0.014381518451429499 0 -0.0078847690553562645 -0.01432414906252389 0 -0.0078847690553562645 -0.01432414906252389 0 -0.0078557438864909155 -0.01430880634729615 0 -0.0078123928313679645 -0.014351733957146662 0 -0.007805350998408473 -0.014401016200135895 0 -0.0078847690553562645 -0.01432414906252389 0 -0.0078123928313679645 -0.014351733957146662 0 -0.0078847690553562645 -0.01432414906252389 0 -0.0078972987604125442 -0.014266211748418509 0 -0.0079057464714296036 -0.014294943228224092 0 -0.0078847690553562645 -0.01432414906252389 0 -0.0078968112618002795 -0.01427815198410028 0 -0.0079057464714296036 -0.014294943228224092 0 -0.0078847690553562645 -0.01432414906252389 0 -0.0078968112618002795 -0.01427815198410028 0 -0.0078557438864909155 -0.01430880634729615 0 -0.0078968112618002795 -0.01427815198410028 0 -0.0078607441944664007 -0.01427473736410839 0 -0.0078557438864909155 -0.01430880634729615 0 -0.0078607441944664007 -0.01427473736410839 0 -0.0078557438864909155 -0.01430880634729615 0 -0.0078149446574568883 -0.014301971139806548 0 -0.0078607441944664007 -0.01427473736410839 0 -0.0078342482668501308 -0.014244295753864081 0 -0.0078149446574568883 -0.014301971139806548 0 -0.0078065167542005929 -0.014056109570133663 0 -0.0078620636234853544 -0.014274083720582222 0 -0.0078972987604125442 -0.014266211748418509 0 -0.0078620636234853544 -0.014274083720582222 0 -0.0078972987604125442 -0.014266211748418509 0 -0.0079057464714296036 -0.014294943228224092 0 -0.0078620636234853544 -0.014274083720582222 0 -0.0079057464714296036 -0.014294943228224092 0 -0.0079110094551833581 -0.014350901900023886 0 -0.0078968112618002795 -0.01427815198410028 0 -0.0079057464714296036 -0.014294943228224092 0 -0.0079110094551833581 -0.014350901900023886 0 -0.0077323657099943729 -0.014245148489407583 0 -0.0078620636234853544 -0.014274083720582222 0 -0.0079110094551833581 -0.014350901900023886 0 -0.0087831666168655537 -0.013869476696316226 0 -0.0088085557876456007 -0.013681386849398439 0 -0.0079229818255835815 -0.014023780533571289 0 -0.0083326426601318792 -0.014104306018648595 0 -0.007880051232471626 -0.014063064360776246 0 -0.0089022486529658738 -0.014018921907589242 0 -0.008194926253372023 -0.014209414027860695 0 -0.0078968112618002795 -0.01427815198410028 0 -0.0079110094551833581 -0.014350901900023886 0 -0.0078938695724665321 -0.01422824765277278 0 -0.0079110094551833581 -0.014350901900023886 0 -0.0078938695724665321 -0.01422824765277278 0 -0.0078913594489213729 -0.014098667189118076 0 -0.0090029651797457304 -0.01432960532049592 0 -0.0084273508873337986 -0.014450258367633315 0 -0.0086662585458641347 -0.014328547936862118 0 -0.0087831666168655537 -0.013869476696316226 0 -0.0079229818255835815 -0.014023780533571289 0 -0.0078913594489213729 -0.014098667189118076 0 -0.00786780695161521 -0.014194211807864137 0 -0.0078745182093306436 -0.014236333055265525 0 -0.0078938695724665321 -0.01422824765277278 0 -0.00786780695161521 -0.014194211807864137 0 -0.0078745182093306436 -0.014236333055265525 0 -0.0078342482668501308 -0.014244295753864081 0 -0.0078607441944664007 -0.01427473736410839 0 -0.0078745182093306436 -0.014236333055265525 0 -0.0078342482668501308 -0.014244295753864081 0 -0.0078968112618002795 -0.01427815198410028 0 -0.0078745182093306436 -0.014236333055265525 0 -0.0078938695724665321 -0.01422824765277278 0 -0.0078968112618002795 -0.01427815198410028 0 -0.0078607441944664007 -0.01427473736410839 0 -0.0078745182093306436 -0.014236333055265525 0 -0.00786780695161521 -0.014194211807864137 0 -0.0078938695724665321 -0.01422824765277278 0 -0.0078913594489213729 -0.014098667189118076 0 -0.0079229818255835815 -0.014023780533571289 0 -0.0078913594489213729 -0.014098667189118076 0 -0.0077922425542450002 -0.014194093353783561 0 -0.0079229818255835815 -0.014023780533571289 0 -0.0077922425542450002 -0.014194093353783561 0 -0.0076913593441743063 -0.014226676042880542 0 -0.0079229818255835815 -0.014023780533571289 0 -0.0076913593441743063 -0.014226676042880542 0 -0.0076176880505705756 -0.014183925008226581 0 -0.00786780695161521 -0.014194211807864137 0 -0.0078913594489213729 -0.014098667189118076 0 -0.0077922425542450002 -0.014194093353783561 0 -0.00786780695161521 -0.014194211807864137 0 -0.0077922425542450002 -0.014194093353783561 0 -0.0078342482668501308 -0.014244295753864081 0 -0.0077922425542450002 -0.014194093353783561 0 -0.0078342482668501308 -0.014244295753864081 0 -0.007749411430044509 -0.014285802448714389 0 -0.007749411430044509 -0.014285802448714389 0 -0.0076913593441743063 -0.014226676042880542 0 -0.0075882329343456983 -0.014346280443020885 0 -0.0077922425542450002 -0.014194093353783561 0 -0.007749411430044509 -0.014285802448714389 0 -0.0076913593441743063 -0.014226676042880542 0 -0.0075175447192558868 -0.01427647475750965 0 -0.0076176880505705756 -0.014183925008226581 0 -0.0072220347887549342 -0.014230409885338502 0 -0.0075175447192558868 -0.01427647475750965 0 -0.0075882329343456983 -0.014346280443020885 0 -0.0073266247645369566 -0.014364813097969404 0 -0.0076913593441743063 -0.014226676042880542 0 -0.0075175447192558868 -0.01427647475750965 0 -0.0076176880505705756 -0.014183925008226581 0 -0.0076913593441743063 -0.014226676042880542 0 -0.0075175447192558868 -0.01427647475750965 0 -0.0075882329343456983 -0.014346280443020885 0 -0.0075882329343456983 -0.014346280443020885 0 -0.0076240063176471187 -0.014429951712622641 0 -0.0076903801467873723 -0.014367450818548677 0 -0.0075882329343456983 -0.014346280443020885 0 -0.0073266247645369566 -0.014364813097969404 0 -0.0074205723876589443 -0.014483141184814833 0 -0.0075482346441546914 -0.014519371043955074 0 -0.0076240063176471187 -0.014429951712622641 0 -0.0074205723876589443 -0.014483141184814833 0 -0.0075882329343456983 -0.014346280443020885 0 -0.0076240063176471187 -0.014429951712622641 0 -0.0074205723876589443 -0.014483141184814833 0 -0.0076515955857496057 -0.01448530468039148 0 -0.0076240063176471187 -0.014429951712622641 0 -0.0077266917110682537 -0.014413393236372968 0 -0.0076240063176471187 -0.014429951712622641 0 -0.0077266917110682537 -0.014413393236372968 0 -0.0076903801467873723 -0.014367450818548677 0 -0.0077266917110682537 -0.014413393236372968 0 -0.0077611293540074478 -0.014342452354846677 0 -0.0076903801467873723 -0.014367450818548677 0 -0.0077266917110682537 -0.014413393236372968 0 -0.0078123928313679645 -0.014351733957146662 0 -0.0077611293540074478 -0.014342452354846677 0 -0.007805350998408473 -0.014401016200135895 0 -0.0077266917110682537 -0.014413393236372968 0 -0.0078123928313679645 -0.014351733957146662 0 -0.0078557438864909155 -0.01430880634729615 0 -0.0078123928313679645 -0.014351733957146662 0 -0.0078149446574568883 -0.014301971139806548 0 -0.0078123928313679645 -0.014351733957146662 0 -0.0077611293540074478 -0.014342452354846677 0 -0.0078149446574568883 -0.014301971139806548 0 -0.0078342482668501308 -0.014244295753864081 0 -0.007749411430044509 -0.014285802448714389 0 -0.0078149446574568883 -0.014301971139806548 0 -0.007749411430044509 -0.014285802448714389 0 -0.0077611293540074478 -0.014342452354846677 0 -0.0078149446574568883 -0.014301971139806548 0 -0.007749411430044509 -0.014285802448714389 0 -0.0075882329343456983 -0.014346280443020885 0 -0.0076903801467873723 -0.014367450818548677 0 -0.007749411430044509 -0.014285802448714389 0 -0.0077611293540074478 -0.014342452354846677 0 -0.0076903801467873723 -0.014367450818548677 0 -0.008027953794387508 -0.013864400447711669 0 -0.0085764674451385362 -0.013863506959906621 0 -0.0082069168554810314 -0.013576878185910256 0 -0.008027953794387508 -0.013864400447711669 0 -0.0084388818125491604 -0.014104226429651083 0 -0.0085764674451385362 -0.013863506959906621 0 -0.008027953794387508 -0.013864400447711669 0 -0.0076176880505705756 -0.014183925008226581 0 -0.0074553445030944533 -0.013710947248220468 0 -0.008027953794387508 -0.013864400447711669 0 -0.0078457658422847153 -0.013407390400891736 0 -0.0074553445030944533 -0.013710947248220468 0 -0.008027953794387508 -0.013864400447711669 0 -0.0076176880505705756 -0.014183925008226581 0 -0.0080566031780359721 -0.014170885389390465 0 -0.008194926253372023 -0.014209414027860695 0 -0.0076650501313905483 -0.01419056946066817 0 -0.0084273508873337986 -0.014450258367633315 0 -0.0076176880505705756 -0.014183925008226581 0 -0.0080566031780359721 -0.014170885389390465 0 -0.008027953794387508 -0.013864400447711669 0 -0.0080566031780359721 -0.014170885389390465 0 -0.0084388818125491604 -0.014104226429651083 0 -0.0080566031780359721 -0.014170885389390465 0 -0.0083572381429224997 -0.014241627084125777 0 -0.0084388818125491604 -0.014104226429651083 0 -0.0084273508873337986 -0.014450258367633315 0 -0.0080566031780359721 -0.014170885389390465 0 -0.0083572381429224997 -0.014241627084125777 0 -0.0084273508873337986 -0.014450258367633315 0 -0.0084951921156435455 -0.014267306648094899 0 -0.0086662585458641347 -0.014328547936862118 0 -0.0084273508873337986 -0.014450258367633315 0 -0.0083572381429224997 -0.014241627084125777 0 -0.0084951921156435455 -0.014267306648094899 0 -0.0084951921156435455 -0.014267306648094899 0 -0.0086662585458641347 -0.014328547936862118 0 -0.0087193237756321255 -0.014234729808696306 0 -0.0087193237756321255 -0.014234729808696306 0 -0.0084388818125491604 -0.014104226429651083 0 -0.0088012668227720661 -0.014058448725028858 0 -0.0084951921156435455 -0.014267306648094899 0 -0.0087193237756321255 -0.014234729808696306 0 -0.0084388818125491604 -0.014104226429651083 0 -0.0083572381429224997 -0.014241627084125777 0 -0.0084951921156435455 -0.014267306648094899 0 -0.0084388818125491604 -0.014104226429651083 0 -0.0090029651797457304 -0.01432960532049592 0 -0.008928110368271 -0.01418482583382975 0 -0.0090593078151525331 -0.014167732550666378 0 -0.0090029651797457304 -0.01432960532049592 0 -0.0086662585458641347 -0.014328547936862118 0 -0.0087193237756321255 -0.014234729808696306 0 -0.0090029651797457304 -0.01432960532049592 0 -0.0087193237756321255 -0.014234729808696306 0 -0.008928110368271 -0.01418482583382975 0 -0.0087193237756321255 -0.014234729808696306 0 -0.008928110368271 -0.01418482583382975 0 -0.0088012668227720661 -0.014058448725028858 0 -0.008928110368271 -0.01418482583382975 0 -0.0090334640260664976 -0.01409330938352938 0 -0.0090593078151525331 -0.014167732550666378 0 -0.008928110368271 -0.01418482583382975 0 -0.0090334640260664976 -0.01409330938352938 0 -0.0088012668227720661 -0.014058448725028858 0 -0.0090334640260664976 -0.01409330938352938 0 -0.0088012668227720661 -0.014058448725028858 0 -0.0089958633332132935 -0.013892341933991451 0 -0.0088012668227720661 -0.014058448725028858 0 -0.0085764674451385362 -0.013863506959906621 0 -0.0089958633332132935 -0.013892341933991451 0 -0.0084388818125491604 -0.014104226429651083 0 -0.0088012668227720661 -0.014058448725028858 0 -0.0085764674451385362 -0.013863506959906621 0 -0.0089018009242102132 -0.013843797909097804 0 -0.0089005062952080376 -0.013587362999197269 0 -0.0085764674451385362 -0.013863506959906621 0 -0.0083751983566341445 -0.013234391959511028 0 -0.0082069168554810314 -0.013576878185910256 0 -0.0085764674451385362 -0.013863506959906621 0 -0.0089958633332132935 -0.013892341933991451 0 -0.0083751983566341445 -0.013234391959511028 0 -0.0090363749987519438 -0.013991766373663646 0 -0.009048197070999903 -0.013993366674416603 0 -0.0091191229625157272 -0.014086573877023742 0 -0.0089958633332132935 -0.013892341933991451 0 -0.0090363749987519438 -0.013991766373663646 0 -0.0091191229625157272 -0.014086573877023742 0 -0.0089958633332132935 -0.013892341933991451 0 -0.009053478640160777 -0.013991183717819967 0 -0.0090363749987519438 -0.013991766373663646 0 -0.009053478640160777 -0.013991183717819967 0 -0.0090363749987519438 -0.013991766373663646 0 -0.0090389142944360505 -0.013994835964217682 0 -0.009053478640160777 -0.013991183717819967 0 -0.0089905314055575298 -0.014001525039895194 0 -0.0090209712382193375 -0.013993761857950754 0 -0.0083751983566341445 -0.013234391959511028 0 -0.0078457658422847153 -0.013407390400891736 0 -0.0077680242430279677 -0.012867253847401018 0 -0.0089005062952080376 -0.013587362999197269 0 -0.0072082035528582911 -0.014122920590551296 0 -0.009053478640160777 -0.013991183717819967 0 -0.0090209712382193375 -0.013993761857950754 0 -0.0090389142944360505 -0.013994835964217682 0 -0.0083751983566341445 -0.013234391959511028 0 -0.0082069168554810314 -0.013576878185910256 0 -0.0078457658422847153 -0.013407390400891736 0 -0.008027953794387508 -0.013864400447711669 0 -0.0082069168554810314 -0.013576878185910256 0 -0.0078457658422847153 -0.013407390400891736 0 -0.0078457658422847153 -0.013407390400891736 0 -0.0074553445030944533 -0.013710947248220468 0 -0.0073259494710245475 -0.013233160253119687 0 -0.0056320738545337047 -0.014353376887304561 0 -0.0057334258036579894 -0.014343364377782723 0 -0.0057547466609610062 -0.014221582433308452 0 -0.0078457658422847153 -0.013407390400891736 0 -0.0077680242430279677 -0.012867253847401018 0 -0.0073259494710245475 -0.013233160253119687 0 -0.0072082035528582911 -0.014122920590551296 0 -0.0064964029785218149 -0.013687732598381087 0 -0.0080472056427280097 -0.014667305493404764 0 -0.0066851943762097346 -0.015436809002807809 0 -0.0062807688819396038 -0.014890578696078377 0 -0.0063604550881950113 -0.014824673189796123 0 -0.0060546464223211437 -0.014619370892239766 0 -0.0072082035528582911 -0.014122920590551296 0 -0.0056835040161262234 -0.01456343796946258 0 -0.0080041511511249972 -0.016458095024414036 0 -0.0078134295589318871 -0.016002388473765519 0 -0.007479486919194523 -0.016087641767447435 0 -0.0089905314055575298 -0.014001525039895194 0 -0.0090026390592739952 -0.013987955343700505 0 -0.0090209712382193375 -0.013993761857950754 0 -0.0072082035528582911 -0.014122920590551296 0 -0.0080472056427280097 -0.014667305493404764 0 -0.0080041511511249972 -0.016458095024414036 0 -0.008326871824222563 -0.016173357976622962 0 -0.0078134295589318871 -0.016002388473765519 0 -0.0090287996408320043 -0.013994000621987458 0 -0.0090209712382193375 -0.013993761857950754 0 -0.0090389142944360505 -0.013994835964217682 0 -0.0090156632568127691 -0.013995697796482801 0 -0.0090287996408320043 -0.013994000621987458 0 -0.0090209712382193375 -0.013993761857950754 0 -0.0080472056427280097 -0.014667305493404764 0 -0.0085611024009476025 -0.014503176707262526 0 -0.0090156632568127691 -0.013995697796482801 0 -0.0090287996408320043 -0.013994000621987458 0 -0.0090280581707001002 -0.013992380818942489 0 -0.0080472056427280097 -0.014667305493404764 0 -0.0086378723079294454 -0.015577859793679635 0 -0.0090287996408320043 -0.013994000621987458 0 -0.0090280581707001002 -0.013992380818942489 0 -0.0090389142944360505 -0.013994835964217682 0 -0.0082233908824544226 -0.015778780831806127 0 -0.0085528069070901352 -0.01543261820747471 0 -0.0086408178516906055 -0.015881253323794711 0 -0.0086378723079294454 -0.015577859793679635 0 -0.0078262923019304133 -0.016034796819781223 0 -0.0084408166417603119 -0.016092530423476206 0 -0.0082233908824544226 -0.015778780831806127 0 -0.0078134295589318871 -0.016002388473765519 0 -0.0084408166417603119 -0.016092530423476206 0 -0.0082233908824544226 -0.015778780831806127 0 -0.0086408178516906055 -0.015881253323794711 0 -0.0086378723079294454 -0.015577859793679635 0 -0.008517090154723234 -0.015799744953714227 0 -0.0082233908824544226 -0.015778780831806127 0 -0.0078134295589318871 -0.016002388473765519 0 -0.0078530147966780588 -0.01567983909432558 0 -0.0078134295589318871 -0.016002388473765519 0 -0.0075820065656797284 -0.015820112337192577 0 -0.0078530147966780588 -0.01567983909432558 0 -0.0078134295589318871 -0.016002388473765519 0 -0.0075820065656797284 -0.015820112337192577 0 -0.007479486919194523 -0.016087641767447435 0 -0.0075820065656797284 -0.015820112337192577 0 -0.0075626044095077902 -0.015487544329578056 0 -0.0078530147966780588 -0.01567983909432558 0 -0.0075626044095077902 -0.015487544329578056 0 -0.0078530147966780588 -0.01567983909432558 0 -0.0080402521958326117 -0.015396056221253496 0 -0.0082233908824544226 -0.015778780831806127 0 -0.0078530147966780588 -0.01567983909432558 0 -0.0080402521958326117 -0.015396056221253496 0 -0.0082233908824544226 -0.015778780831806127 0 -0.0080402521958326117 -0.015396056221253496 0 -0.0085528069070901352 -0.01543261820747471 0 -0.0080402521958326117 -0.015396056221253496 0 -0.0084301565462864079 -0.014999886458040821 0 -0.0075533579736056121 -0.01499991565159416 0 -0.0080402521958326117 -0.015396056221253496 0 -0.0084301565462864079 -0.014999886458040821 0 -0.0085528069070901352 -0.01543261820747471 0 -0.0075626044095077902 -0.015487544329578056 0 -0.0080402521958326117 -0.015396056221253496 0 -0.0075533579736056121 -0.01499991565159416 0 -0.0093127356845236712 -0.015323800695036071 0 -0.0091260325595794393 -0.014999886222204824 0 -0.0089425538703011721 -0.015267885383595709 0 -0.0084303080381533946 -0.015000055567590334 0 -0.0086327348754843269 -0.015421198142284353 0 -0.008430556424637933 -0.014999955489928137 0 -0.0091260325595794393 -0.014999886222204824 0 -0.0089425538703011721 -0.015267885383595709 0 -0.008430556424637933 -0.014999955489928137 0 -0.0089425538703011721 -0.015267885383595709 0 -0.0087080333290170606 -0.015406723552883519 0 -0.0087080333290170606 -0.015406723552883519 0 -0.0090937049421540191 -0.015519708446861563 0 -0.0088239937735588182 -0.015792956499632686 0 -0.0089425538703011721 -0.015267885383595709 0 -0.0087080333290170606 -0.015406723552883519 0 -0.0090937049421540191 -0.015519708446861563 0 -0.0086327348754843269 -0.015421198142284353 0 -0.0087883896693843559 -0.015778822380153077 0 -0.0093127356845236712 -0.015323800695036071 0 -0.0089425538703011721 -0.015267885383595709 0 -0.0090937049421540191 -0.015519708446861563 0 -0.0093127356845236712 -0.015323800695036071 0 -0.0090937049421540191 -0.015519708446861563 0 -0.0094125140617201675 -0.015543634891561606 0 -0.0090937049421540191 -0.015519708446861563 0 -0.0092154780698122923 -0.015699180815539112 0 -0.0094125140617201675 -0.015543634891561606 0 -0.0092154780698122923 -0.015699180815539112 0 -0.009508559434941926 -0.01562956395696638 0 -0.0094125140617201675 -0.015543634891561606 0 -0.0092154780698122923 -0.015699180815539112 0 -0.0088239937735588182 -0.015792956499632686 0 -0.0092219990881987086 -0.015891073519479205 0 -0.0085528069070901352 -0.01543261820747471 0 -0.0088239937735588182 -0.015792956499632686 0 -0.0086408178516906055 -0.015881253323794711 0 -0.0088239937735588182 -0.015792956499632686 0 -0.0086408178516906055 -0.015881253323794711 0 -0.0092219990881987086 -0.015891073519479205 0 -0.0090937049421540191 -0.015519708446861563 0 -0.0092154780698122923 -0.015699180815539112 0 -0.0088239937735588182 -0.015792956499632686 0 -0.0085149155891329955 -0.015997319618928432 0 -0.0086408178516906055 -0.015881253323794711 0 -0.0092219990881987086 -0.015891073519479205 0 -0.0090280581707001002 -0.013992380818942489 0 -0.0090389142944360505 -0.013994835964217682 0 -0.009048197070999903 -0.013993366674416603 0 -0.0086378723079294454 -0.015577859793679635 0 -0.0091197287848888108 -0.014859749570245604 0 -0.0090363749987519438 -0.013991766373663646 0 -0.0090389142944360505 -0.013994835964217682 0 -0.009048197070999903 -0.013993366674416603 0 -0.0092154780698122923 -0.015699180815539112 0 -0.0092219990881987086 -0.015891073519479205 0 -0.009508559434941926 -0.01562956395696638 0 -0.0091197287848888108 -0.014859749570245604 0 -0.0093429361648558196 -0.014752794888843714 0 -0.0092219990881987086 -0.015891073519479205 0 -0.009508559434941926 -0.01562956395696638 0 -0.0096830389033171222 -0.015423374314826472 0 -0.0096227570764546386 -0.015536524216055499 0 -0.009508559434941926 -0.01562956395696638 0 -0.0096830389033171222 -0.015423374314826472 0 -0.0095553517893807501 -0.015336205287221197 0 -0.0096227570764546386 -0.015536524216055499 0 -0.0096830389033171222 -0.015423374314826472 0 -0.0095553517893807501 -0.015336205287221197 0 -0.0096030597953172883 -0.01551621267155485 0 -0.0096227570764546386 -0.015536524216055499 0 -0.0095553517893807501 -0.015336205287221197 0 -0.0096030597953172883 -0.01551621267155485 0 -0.0093135633013154678 -0.015157411337707604 0 -0.0096030597953172883 -0.01551621267155485 0 -0.0096656695006905585 -0.015567510165926968 0 -0.0097798703151486636 -0.015630529352678751 0 -0.0096030597953172883 -0.01551621267155485 0 -0.0096227570764546386 -0.015536524216055499 0 -0.0096656695006905585 -0.015567510165926968 0 -0.0096656695006905585 -0.015567510165926968 0 -0.009508559434941926 -0.01562956395696638 0 -0.0094125140617201675 -0.015543634891561606 0 -0.0096227570764546386 -0.015536524216055499 0 -0.0096656695006905585 -0.015567510165926968 0 -0.009508559434941926 -0.01562956395696638 0 -0.0096656695006905585 -0.015567510165926968 0 -0.0094125140617201675 -0.015543634891561606 0 -0.0095843610329378499 -0.015407659486472448 0 -0.0093127356845236712 -0.015323800695036071 0 -0.0094125140617201675 -0.015543634891561606 0 -0.0095843610329378499 -0.015407659486472448 0 -0.0096656695006905585 -0.015567510165926968 0 -0.0095843610329378499 -0.015407659486472448 0 -0.0098040135276748624 -0.015408770284695023 0 -0.0096656695006905585 -0.015567510165926968 0 -0.0098040135276748624 -0.015408770284695023 0 -0.0097798703151486636 -0.015630529352678751 0 -0.0098040135276748624 -0.015408770284695023 0 -0.010103979757588789 -0.015257762797772153 0 -0.0097798703151486636 -0.015630529352678751 0 -0.010103979757588789 -0.015257762797772153 0 -0.0098216720368192803 -0.014999979329221227 0 -0.010516777532464943 -0.014999960593783423 0 -0.0098040135276748624 -0.015408770284695023 0 -0.010103979757588789 -0.015257762797772153 0 -0.0098216720368192803 -0.014999979329221227 0 -0.0095843610329378499 -0.015407659486472448 0 -0.0098040135276748624 -0.015408770284695023 0 -0.0098216720368192803 -0.014999979329221227 0 -0.0093127356845236712 -0.015323800695036071 0 -0.0091260325595794393 -0.014999886222204824 0 -0.0098216720368192803 -0.014999979329221227 0 -0.0093127356845236712 -0.015323800695036071 0 -0.0095843610329378499 -0.015407659486472448 0 -0.0098216720368192803 -0.014999979329221227 0 -0.010946363584871695 -0.015267287496529624 0 -0.010947529825738177 -0.014999811118045745 0 -0.011389119594424209 -0.015117934994623853 0 -0.010946363584871695 -0.015267287496529624 0 -0.010947529825738177 -0.014999811118045745 0 -0.010518002864012372 -0.01500008277870446 0 -0.010517430806441816 -0.014999912901880659 0 -0.01048876826645526 -0.015409959014713438 0 -0.010103979757588789 -0.015257762797772153 0 -0.010516777532464943 -0.014999960593783423 0 -0.010131552477340202 -0.015401438443262168 0 -0.010946363584871695 -0.015267287496529624 0 -0.010518002864012372 -0.01500008277870446 0 -0.010740994370348134 -0.015369002707412698 0 -0.01048876826645526 -0.015409959014713438 0 -0.0098118604942315137 -0.015478471852723856 0 -0.010131552477340202 -0.015401438443262168 0 -0.0097798703151486636 -0.015630529352678751 0 -0.010080423012540224 -0.015881614550825582 0 -0.010103979757588789 -0.015257762797772153 0 -0.010131552477340202 -0.015401438443262168 0 -0.0097798703151486636 -0.015630529352678751 0 -0.010946363584871695 -0.015267287496529624 0 -0.011017385377462469 -0.015495447451319739 0 -0.011165733209435532 -0.015352945296821978 0 -0.010946363584871695 -0.015267287496529624 0 -0.010740994370348134 -0.015369002707412698 0 -0.011017385377462469 -0.015495447451319739 0 -0.010740994370348134 -0.015369002707412698 0 -0.011017385377462469 -0.015495447451319739 0 -0.010851606880177563 -0.015593384601980719 0 -0.011017385377462469 -0.015495447451319739 0 -0.010851606880177563 -0.015593384601980719 0 -0.011098457546228393 -0.015597833443646032 0 -0.010851606880177563 -0.015593384601980719 0 -0.011041537180481968 -0.015684650074890043 0 -0.011098457546228393 -0.015597833443646032 0 -0.0096030597953172883 -0.01551621267155485 0 -0.0097798703151486636 -0.015630529352678751 0 -0.0092522342670402682 -0.015585675470109864 0 -0.0097454463068912343 -0.015636491383442842 0 -0.0098118604942315137 -0.015478471852723856 0 -0.0098118604942315137 -0.015478471852723856 0 -0.0089369474549819763 -0.014551520939903098 0 -0.0095553517893807501 -0.015336205287221197 0 -0.0093135633013154678 -0.015157411337707604 0 -0.0092519953709963212 -0.014554582003808924 0 -0.0092522342670402682 -0.015585675470109864 0 -0.0093135633013154678 -0.015157411337707604 0 -0.0089304018238268081 -0.014684169373705504 0 -0.0096030597953172883 -0.01551621267155485 0 -0.0092522342670402682 -0.015585675470109864 0 -0.0093135633013154678 -0.015157411337707604 0 -0.0091734040458473515 -0.014956996806672377 0 -0.0089450428136779881 -0.014763866512833916 0 -0.0090367020276911347 -0.014701317569141533 0 -0.0091734040458473515 -0.014956996806672377 0 -0.0090367020276911347 -0.014701317569141533 0 -0.0090898168830713874 -0.01453837040135283 0 -0.0098118604942315137 -0.015478471852723856 0 -0.0099528487436755693 -0.015196248576358158 0 -0.0089450428136779881 -0.014763866512833916 0 -0.0090367020276911347 -0.014701317569141533 0 -0.0089454397160371388 -0.014552747423429758 0 -0.0090367020276911347 -0.014701317569141533 0 -0.0089454397160371388 -0.014552747423429758 0 -0.0090898168830713874 -0.01453837040135283 0 -0.0089454397160371388 -0.014552747423429758 0 -0.0090898168830713874 -0.01453837040135283 0 -0.0089073525232590822 -0.014345772593123769 0 -0.0089369474549819763 -0.014551520939903098 0 -0.0089975973199964664 -0.014243441945146254 0 -0.0090898168830713874 -0.01453837040135283 0 -0.0089073525232590822 -0.014345772593123769 0 -0.0089768802860320136 -0.014184983772980499 0 -0.0089304018238268081 -0.014684169373705504 0 -0.0091642051990888651 -0.014303037537377319 0 -0.0089768802860320136 -0.014184983772980499 0 -0.0089304018238268081 -0.014684169373705504 0 -0.0091642051990888651 -0.014303037537377319 0 -0.0092519953709963212 -0.014554582003808924 0 -0.0093135633013154678 -0.015157411337707604 0 -0.0089304018238268081 -0.014684169373705504 0 -0.0092519953709963212 -0.014554582003808924 0 -0.0092053499424929047 -0.014562818432760884 0 -0.0093429361648558196 -0.014752794888843714 0 -0.0092519953709963212 -0.014554582003808924 0 -0.0091191229625157272 -0.014086573877023742 0 -0.0091938299404990161 -0.014210056544708617 0 -0.0095553517893807501 -0.015336205287221197 0 -0.0092519953709963212 -0.014554582003808924 0 -0.0096830389033171222 -0.015423374314826472 0 -0.0089958633332132935 -0.013892341933991451 0 -0.0091191229625157272 -0.014086573877023742 0 -0.0091938299404990161 -0.014210056544708617 0 -0.0089958633332132935 -0.013892341933991451 0 -0.0091938299404990161 -0.014210056544708617 0 -0.0091558372353955 -0.014098828291119126 0 -0.0091642051990888651 -0.014303037537377319 0 -0.0091938299404990161 -0.014210056544708617 0 -0.0091787902852012507 -0.014181766871171298 0 -0.0091938299404990161 -0.014210056544708617 0 -0.0091787902852012507 -0.014181766871171298 0 -0.0091558372353955 -0.014098828291119126 0 -0.0091642051990888651 -0.014303037537377319 0 -0.0092519953709963212 -0.014554582003808924 0 -0.0091938299404990161 -0.014210056544708617 0 -0.0091787902852012507 -0.014181766871171298 0 -0.0091773122592815112 -0.014106384371152312 0 -0.0091142307102059072 -0.014138033250975783 0 -0.0091787902852012507 -0.014181766871171298 0 -0.0091773122592815112 -0.014106384371152312 0 -0.0091558372353955 -0.014098828291119126 0 -0.0091773122592815112 -0.014106384371152312 0 -0.0091558372353955 -0.014098828291119126 0 -0.0091415111720899687 -0.014113405142901004 0 -0.0090334640260664976 -0.01409330938352938 0 -0.0089958633332132935 -0.013892341933991451 0 -0.0091558372353955 -0.014098828291119126 0 -0.0090334640260664976 -0.01409330938352938 0 -0.0091558372353955 -0.014098828291119126 0 -0.0091415111720899687 -0.014113405142901004 0 -0.0090334640260664976 -0.01409330938352938 0 -0.0091415111720899687 -0.014113405142901004 0 -0.0090593078151525331 -0.014167732550666378 0 -0.0091415111720899687 -0.014113405142901004 0 -0.0091327828656109344 -0.014152177736227794 0 -0.0091883970977509246 -0.014072516520710524 0 -0.0090029651797457304 -0.01432960532049592 0 -0.0091327828656109344 -0.014152177736227794 0 -0.0090593078151525331 -0.014167732550666378 0 -0.0091415111720899687 -0.014113405142901004 0 -0.0091327828656109344 -0.014152177736227794 0 -0.0090593078151525331 -0.014167732550666378 0 -0.0091773122592815112 -0.014106384371152312 0 -0.0091883970977509246 -0.014072516520710524 0 -0.0091329382618733097 -0.014038743583364858 0 -0.0091773122592815112 -0.014106384371152312 0 -0.0091415111720899687 -0.014113405142901004 0 -0.0091883970977509246 -0.014072516520710524 0 -0.0091749543853902847 -0.01396257332225675 0 -0.0091883970977509246 -0.014072516520710524 0 -0.0091329382618733097 -0.014038743583364858 0 -0.0091329382618733097 -0.014038743583364858 0 -0.0089680180801677591 -0.014052958061472632 0 -0.0091142307102059072 -0.014138033250975783 0 -0.009070735396204857 -0.013927919580484756 0 -0.0091749543853902847 -0.01396257332225675 0 -0.0091329382618733097 -0.014038743583364858 0 -0.009070735396204857 -0.013927919580484756 0 -0.0091329382618733097 -0.014038743583364858 0 -0.0089680180801677591 -0.014052958061472632 0 -0.0088422890634411652 -0.013854276833485819 0 -0.009070735396204857 -0.013927919580484756 0 -0.0089680180801677591 -0.014052958061472632 0 -0.0088422890634411652 -0.013854276833485819 0 -0.0089680180801677591 -0.014052958061472632 0 -0.0087707586885975089 -0.014111175790273971 0 -0.0089680180801677591 -0.014052958061472632 0 -0.0089768802860320136 -0.014184983772980499 0 -0.0091142307102059072 -0.014138033250975783 0 -0.0089073525232590822 -0.014345772593123769 0 -0.0089768802860320136 -0.014184983772980499 0 -0.0087707586885975089 -0.014111175790273971 0 -0.0089680180801677591 -0.014052958061472632 0 -0.0089768802860320136 -0.014184983772980499 0 -0.0087707586885975089 -0.014111175790273971 0 -0.0091642051990888651 -0.014303037537377319 0 -0.0091787902852012507 -0.014181766871171298 0 -0.0091142307102059072 -0.014138033250975783 0 -0.0091642051990888651 -0.014303037537377319 0 -0.0089768802860320136 -0.014184983772980499 0 -0.0091142307102059072 -0.014138033250975783 0 -0.0091773122592815112 -0.014106384371152312 0 -0.0091329382618733097 -0.014038743583364858 0 -0.0091142307102059072 -0.014138033250975783 0 -0.0095913731079215921 -0.012170098345817077 0 -0.009269843783408855 -0.012332755012616518 0 -0.0094874586552963283 -0.011818312631133161 0 -0.009486767477430786 -0.012411938874197044 0 -0.0095913731079215921 -0.012170098345817077 0 -0.009269843783408855 -0.012332755012616518 0 -0.009486767477430786 -0.012411938874197044 0 -0.0095913731079215921 -0.012170098345817077 0 -0.0097668283614052408 -0.012336212949629864 0 -0.009486767477430786 -0.012411938874197044 0 -0.009269843783408855 -0.012332755012616518 0 -0.009304691477786748 -0.012616492913381589 0 -0.009065725974423313 -0.013369921287195653 0 -0.0091756438988058221 -0.013151039509862779 0 -0.0091756438988058221 -0.013151039509862779 0 -0.0093342977118955339 -0.012582622132704117 0 -0.0093247288289940392 -0.012765856398390061 0 -0.0093688874554392655 -0.012720238975676064 0 -0.0093631816781713437 -0.012746963330856835 0 -0.009486767477430786 -0.012411938874197044 0 -0.009304691477786748 -0.012616492913381589 0 -0.0095985681829267658 -0.012601298023720073 0 -0.0094425791161133511 -0.01272164450513413 0 -0.009304691477786748 -0.012616492913381589 0 -0.0095985681829267658 -0.012601298023720073 0 -0.009486767477430786 -0.012411938874197044 0 -0.0095985681829267658 -0.012601298023720073 0 -0.0097668283614052408 -0.012336212949629864 0 -0.0097761776980500592 -0.012712605683119675 0 -0.0095985681829267658 -0.012601298023720073 0 -0.0099417646093184851 -0.012499414653295753 0 -0.0099610137175535299 -0.01296589256491228 0 -0.0099275548589396502 -0.012477927480026582 0 -0.0095985681829267658 -0.012601298023720073 0 -0.0099417646093184851 -0.012499414653295753 0 -0.0097668283614052408 -0.012336212949629864 0 -0.010505963626662314 -0.012932453515082357 0 -0.010004002114369496 -0.01293693685725103 0 -0.010382632966907144 -0.012593652468009855 0 -0.010004002114369496 -0.01293693685725103 0 -0.0099417646093184851 -0.012499414653295753 0 -0.010382632966907144 -0.012593652468009855 0 -0.0099417646093184851 -0.012499414653295753 0 -0.010382632966907144 -0.012593652468009855 0 -0.010117454671021335 -0.012344447917933226 0 -0.010115198274803816 -0.011984092915796085 0 -0.010600989848708808 -0.012309049940630886 0 -0.010336499118676118 -0.012125374468450665 0 -0.010550257457666041 -0.012050433065504641 0 -0.010607571514517916 -0.012299659554174064 0 -0.010117454671021335 -0.012344447917933226 0 -0.0099553428585552467 -0.012005879205195176 0 -0.010607571514517916 -0.012299659554174064 0 -0.010382632966907144 -0.012593652468009855 0 -0.010117454671021335 -0.012344447917933226 0 -0.010607571514517916 -0.012299659554174064 0 -0.0095913731079215921 -0.012170098345817077 0 -0.0097668283614052408 -0.012336212949629864 0 -0.0099553428585552467 -0.012005879205195176 0 -0.0099417646093184851 -0.012499414653295753 0 -0.010117454671021335 -0.012344447917933226 0 -0.0097668283614052408 -0.012336212949629864 0 -0.010117454671021335 -0.012344447917933226 0 -0.0097668283614052408 -0.012336212949629864 0 -0.0099553428585552467 -0.012005879205195176 0 -0.010339192393942232 -0.011996355894126211 0 -0.010228039575741059 -0.012036383101922473 0 -0.01012818427033735 -0.011899902058431312 0 -0.010336499118676118 -0.012125374468450665 0 -0.010228039575741059 -0.012036383101922473 0 -0.010077642842096396 -0.011997725815886963 0 -0.010115198274803816 -0.011984092915796085 0 -0.0097984886978832991 -0.012663842283280206 0 -0.010336499118676118 -0.012125374468450665 0 -0.010339192393942232 -0.011996355894126211 0 -0.010228039575741059 -0.012036383101922473 0 -0.010550257457666041 -0.012050433065504641 0 -0.010409832853748685 -0.011878830441086353 0 -0.010780721385120406 -0.011839804150905317 0 -0.010336499118676118 -0.012125374468450665 0 -0.010339192393942232 -0.011996355894126211 0 -0.010550257457666041 -0.012050433065504641 0 -0.010339192393942232 -0.011996355894126211 0 -0.010550257457666041 -0.012050433065504641 0 -0.010409832853748685 -0.011878830441086353 0 -0.01173100331756992 -0.015933023833221385 0 -0.01211238763353187 -0.015723412770029477 0 -0.01225717193717994 -0.015945597490617896 0 -0.011111483678121939 -0.013880169135208254 0 -0.011382757180439343 -0.013925586439595811 0 -0.01173100331756992 -0.015933023833221385 0 -0.011902129294257806 -0.015600909306726942 0 -0.01211238763353187 -0.015723412770029477 0 -0.01173100331756992 -0.015933023833221385 0 -0.011433871122820835 -0.01578969139665853 0 -0.011322317900199491 -0.015874397553913087 0 -0.01173100331756992 -0.015933023833221385 0 -0.011509945143171461 -0.015653232229653074 0 -0.011902129294257806 -0.015600909306726942 0 -0.011111483678121939 -0.013880169135208254 0 -0.010687261621461242 -0.014155950357971616 0 -0.010339192393942232 -0.011996355894126211 0 -0.010409832853748685 -0.011878830441086353 0 -0.01012818427033735 -0.011899902058431312 0 -0.01173100331756992 -0.015933023833221385 0 -0.011433871122820835 -0.01578969139665853 0 -0.011509945143171461 -0.015653232229653074 0 -0.011433871122820835 -0.01578969139665853 0 -0.011346317076146235 -0.015770082320114624 0 -0.011370947730024589 -0.015691121749391562 0 -0.011346317076146235 -0.015770082320114624 0 -0.011304954561651939 -0.015799668940329369 0 -0.01134874632942222 -0.015833133879600281 0 -0.011433871122820835 -0.01578969139665853 0 -0.011346317076146235 -0.015770082320114624 0 -0.01134874632942222 -0.015833133879600281 0 -0.011433871122820835 -0.01578969139665853 0 -0.01134874632942222 -0.015833133879600281 0 -0.011322317900199491 -0.015874397553913087 0 -0.011304954561651939 -0.015799668940329369 0 -0.011196109527156037 -0.01577258446530206 0 -0.0112898457136994 -0.01573831994039751 0 -0.011304954561651939 -0.015799668940329369 0 -0.011276397440830364 -0.015843574213277242 0 -0.011196109527156037 -0.01577258446530206 0 -0.011346317076146235 -0.015770082320114624 0 -0.011304954561651939 -0.015799668940329369 0 -0.0112898457136994 -0.01573831994039751 0 -0.010032420261822543 -0.013629807390399094 0 -0.010012265572194845 -0.013593939249046956 0 -0.010096399262350729 -0.013643356296478074 0 -0.010475146796711651 -0.014064035307768709 0 -0.01063899748567265 -0.014070395137742657 0 -0.010593975939712423 -0.014162164269971043 0 -0.011304954561651939 -0.015799668940329369 0 -0.011276397440830364 -0.015843574213277242 0 -0.011337880134583977 -0.015851692992031919 0 -0.010660463071477399 -0.014306101266367985 0 -0.010687261621461242 -0.014155950357971616 0 -0.010660463071477399 -0.014306101266367985 0 -0.010290778463630346 -0.013106360438049258 0 -0.01003124882404487 -0.01366511432812303 0 -0.010032420261822543 -0.013629807390399094 0 -0.0099948282887496378 -0.013632248201115299 0 -0.01003124882404487 -0.01366511432812303 0 -0.010032420261822543 -0.013629807390399094 0 -0.010064019848877196 -0.013652235219559218 0 -0.010228039575741059 -0.012036383101922473 0 -0.01012818427033735 -0.011899902058431312 0 -0.01010769710126275 -0.011943260057919064 0 -0.011304954561651939 -0.015799668940329369 0 -0.01134874632942222 -0.015833133879600281 0 -0.011337880134583977 -0.015851692992031919 0 -0.010635394760497477 -0.014499002906302749 0 -0.010687261621461242 -0.014155950357971616 0 -0.010687261621461242 -0.014155950357971616 0 -0.010290778463630346 -0.013106360438049258 0 -0.0095913731079215921 -0.012170098345817077 0 -0.0099553428585552467 -0.012005879205195176 0 -0.0094874586552963283 -0.011818312631133161 0 -0.0091756438988058221 -0.013151039509862779 0 -0.0097984886978832991 -0.012663842283280206 0 -0.0099465415060783161 -0.012021231168626108 0 -0.010290778463630346 -0.013106360438049258 0 -0.010228039575741059 -0.012036383101922473 0 -0.010105989282084716 -0.011942058094160355 0 -0.010077642842096396 -0.011997725815886963 0 -0.0097984886978832991 -0.012663842283280206 0 -0.0094205796769288065 -0.014102309960133431 0 -0.010032420261822543 -0.013629807390399094 0 -0.0099948282887496378 -0.013632248201115299 0 -0.010012265572194845 -0.013593939249046956 0 -0.010290778463630346 -0.013106360438049258 0 -0.0097984886978832991 -0.012663842283280206 0 -0.0089073525232590822 -0.014345772593123769 0 -0.0087707586885975089 -0.014111175790273971 0 -0.0087547722455142227 -0.014434679295119233 0 -0.0094355530036528256 -0.013167004872839451 0 -0.009347493975984101 -0.013359716889513748 0 -0.0094352405981669336 -0.013407907890745962 0 -0.0091756438988058221 -0.013151039509862779 0 -0.0094205796769288065 -0.014102309960133431 0 -0.0088084829932371985 -0.014466631559854726 0 -0.0094205796769288065 -0.014102309960133431 0 -0.0089454397160371388 -0.014552747423429758 0 -0.0089073525232590822 -0.014345772593123769 0 -0.0087547722455142227 -0.014434679295119233 0 -0.0089454397160371388 -0.014552747423429758 0 -0.008768125417543314 -0.014464012482404006 0 -0.008765792283851697 -0.014504285843475389 0 -0.010032420261822543 -0.013629807390399094 0 -0.010064019848877196 -0.013652235219559218 0 -0.010096399262350729 -0.013643356296478074 0 -0.01003124882404487 -0.01366511432812303 0 -0.010064019848877196 -0.013652235219559218 0 -0.010095375219675332 -0.013670397048275839 0 -0.010660463071477399 -0.014306101266367985 0 -0.0098865861615707804 -0.014311608303143335 0 -0.0094205796769288065 -0.014102309960133431 0 -0.0098865861615707804 -0.014311608303143335 0 -0.010064019848877196 -0.013652235219559218 0 -0.010096399262350729 -0.013643356296478074 0 -0.010095375219675332 -0.013670397048275839 0 -0.010333323873960229 -0.014485069795888093 0 -0.010341936832469719 -0.014486655885580424 0 -0.010342054993025951 -0.014496219970336722 0 -0.010660463071477399 -0.014306101266367985 0 -0.010451621724515969 -0.01505644587126817 0 -0.0098865861615707804 -0.014311608303143335 0 -0.010451621724515969 -0.01505644587126817 0 -0.0089454397160371388 -0.014552747423429758 0 -0.008765792283851697 -0.014504285843475389 0 -0.0087624801038460303 -0.014586420882681961 0 -0.0089450428136779881 -0.014763866512833916 0 -0.0089454397160371388 -0.014552747423429758 0 -0.0087624801038460303 -0.014586420882681961 0 -0.0099528487436755693 -0.015196248576358158 0 -0.010451621724515969 -0.01505644587126817 0 -0.011041537180481968 -0.015684650074890043 0 -0.011195869570785451 -0.015778302992180745 0 -0.011200853849921099 -0.015691384819367233 0 -0.011196109527156037 -0.01577258446530206 0 -0.011200853849921099 -0.015691384819367233 0 -0.0112898457136994 -0.01573831994039751 0 -0.010451621724515969 -0.01505644587126817 0 -0.010861789931427262 -0.015747555598645647 0 -0.011200853849921099 -0.015691384819367233 0 -0.011098457546228393 -0.015597833443646032 0 -0.011247239758417672 -0.015591335789484382 0 -0.011200853849921099 -0.015691384819367233 0 -0.011289571018030867 -0.015660352972670419 0 -0.011247239758417672 -0.015591335789484382 0 -0.011041537180481968 -0.015684650074890043 0 -0.011200853849921099 -0.015691384819367233 0 -0.011098457546228393 -0.015597833443646032 0 -0.011370947730024589 -0.015691121749391562 0 -0.011361598804885225 -0.015586862209408577 0 -0.011509945143171461 -0.015653232229653074 0 -0.011346317076146235 -0.015770082320114624 0 -0.011370947730024589 -0.015691121749391562 0 -0.0112898457136994 -0.01573831994039751 0 -0.011200853849921099 -0.015691384819367233 0 -0.0112898457136994 -0.01573831994039751 0 -0.011289571018030867 -0.015660352972670419 0 -0.011370947730024589 -0.015691121749391562 0 -0.0112898457136994 -0.01573831994039751 0 -0.011289571018030867 -0.015660352972670419 0 -0.011289571018030867 -0.015660352972670419 0 -0.011361598804885225 -0.015586862209408577 0 -0.011247239758417672 -0.015591335789484382 0 -0.011370947730024589 -0.015691121749391562 0 -0.011289571018030867 -0.015660352972670419 0 -0.011361598804885225 -0.015586862209408577 0 -0.011361598804885225 -0.015586862209408577 0 -0.01130423993673566 -0.015501892649108945 0 -0.011417512261593103 -0.015495598481977299 0 -0.011361598804885225 -0.015586862209408577 0 -0.01130423993673566 -0.015501892649108945 0 -0.011247239758417672 -0.015591335789484382 0 -0.01130423993673566 -0.015501892649108945 0 -0.011344962278424393 -0.015394283629911411 0 -0.011417512261593103 -0.015495598481977299 0 -0.011098457546228393 -0.015597833443646032 0 -0.011247239758417672 -0.015591335789484382 0 -0.011197676637540507 -0.015520398492260374 0 -0.01130423993673566 -0.015501892649108945 0 -0.011247239758417672 -0.015591335789484382 0 -0.011197676637540507 -0.015520398492260374 0 -0.011197676637540507 -0.015520398492260374 0 -0.011144187607233302 -0.015449749704218431 0 -0.011232579855351732 -0.015442774762497202 0 -0.01130423993673566 -0.015501892649108945 0 -0.011197676637540507 -0.015520398492260374 0 -0.011232579855351732 -0.015442774762497202 0 -0.011017385377462469 -0.015495447451319739 0 -0.011098457546228393 -0.015597833443646032 0 -0.011197676637540507 -0.015520398492260374 0 -0.011017385377462469 -0.015495447451319739 0 -0.011197676637540507 -0.015520398492260374 0 -0.011144187607233302 -0.015449749704218431 0 -0.011017385377462469 -0.015495447451319739 0 -0.011144187607233302 -0.015449749704218431 0 -0.011165733209435532 -0.015352945296821978 0 -0.011165733209435532 -0.015352945296821978 0 -0.011761176335694349 -0.015580056723748228 0 -0.011389119594424209 -0.015117934994623853 0 -0.011165733209435532 -0.015352945296821978 0 -0.011232579855351732 -0.015442774762497202 0 -0.011344962278424393 -0.015394283629911411 0 -0.011256321944903664 -0.015381226896981921 0 -0.01140092124361952 -0.015473669744796711 0 -0.011144187607233302 -0.015449749704218431 0 -0.011165733209435532 -0.015352945296821978 0 -0.011232579855351732 -0.015442774762497202 0 -0.011761176335694349 -0.015580056723748228 0 -0.011389119594424209 -0.015117934994623853 0 -0.012099018639803975 -0.015377331961511321 0 -0.01130423993673566 -0.015501892649108945 0 -0.011232579855351732 -0.015442774762497202 0 -0.011344962278424393 -0.015394283629911411 0 -0.011519163971133254 -0.015175006030653165 0 -0.012058177438330025 -0.015365551138802652 0 -0.011632855976267486 -0.015220498272494934 0 -0.012092756059511951 -0.015019620817801475 0 -0.012099018639803975 -0.015377331961511321 0 -0.011747953857185314 -0.014999999995358171 0 -0.012256813399198053 -0.015048413731779045 0 -0.012267885220984518 -0.01499999890407392 0 -0.011748200855263013 -0.015000019550940276 0 -0.012033751011835217 -0.015016453454418724 0 -0.011747790375161396 -0.014999964724700301 0 -0.011632855976267486 -0.015220498272494934 0 -0.012092756059511951 -0.015019620817801475 0 -0.01094807667456687 -0.015000000673548107 0 -0.011747790375161396 -0.014999964724700301 0 -0.011632855976267486 -0.015220498272494934 0 -0.010946363584871695 -0.015267287496529624 0 -0.011165733209435532 -0.015352945296821978 0 -0.011389119594424209 -0.015117934994623853 0 -0.010948061808542763 -0.015000020113727074 0 -0.011519163971133254 -0.015175006030653165 0 -0.01278817510208639 -0.015000068943445058 0 -0.012766917676887094 -0.015098473222618147 0 -0.01344400323816766 -0.015127533732210877 0 -0.013563135424777764 -0.014639519744136152 0 -0.014688220731421057 -0.014863641774721608 0 -0.012789866492193011 -0.014999801133448202 0 -0.013563135424777764 -0.014639519744136152 0 -0.01278782554203715 -0.014999996515417401 0 -0.012766412654831086 -0.015096232661131914 0 -0.012267885220984518 -0.01499999890407392 0 -0.013563135424777764 -0.014639519744136152 0 -0.012033751011835217 -0.015016453454418724 0 -0.012766412654831086 -0.015096232661131914 0 -0.012256813399198053 -0.015048413731779045 0 -0.012267885220984518 -0.01499999890407392 0 -0.012497087900952613 -0.015030648412816603 0 -0.012092756059511951 -0.015019620817801475 0 -0.012099018639803975 -0.015377331961511321 0 -0.012497087900952613 -0.015030648412816603 0 -0.012099018639803975 -0.015377331961511321 0 -0.012359140491279424 -0.015713629340751611 0 -0.011761176335694349 -0.015580056723748228 0 -0.012099018639803975 -0.015377331961511321 0 -0.012359140491279424 -0.015713629340751611 0 -0.011344962278424393 -0.015394283629911411 0 -0.011527975501972569 -0.015440933500894705 0 -0.011417512261593103 -0.015495598481977299 0 -0.01140092124361952 -0.015473669744796711 0 -0.012753367688114354 -0.015250768299617683 0 -0.013563135424777764 -0.014639519744136152 0 -0.012753367688114354 -0.015250768299617683 0 -0.015686439343133286 -0.014515551826650545 0 -0.015678642394459479 -0.014463288613785437 0 -0.015677234902801991 -0.014468575427605185 0 -0.015678642394459479 -0.014463288613785437 0 -0.015665185734661951 -0.014435680655907971 0 -0.015677234902801991 -0.014468575427605185 0 -0.012753367688114354 -0.015250768299617683 0 -0.014008901620288687 -0.014756774161302989 0 -0.011673624678281758 -0.014939171471045853 0 -0.01189637484271814 -0.015309552001736776 0 -0.01216794801594843 -0.015077540456385785 0 -0.011673624678281758 -0.014939171471045853 0 -0.01189637484271814 -0.015309552001736776 0 -0.011509945143171461 -0.015653232229653074 0 -0.011527975501972569 -0.015440933500894705 0 -0.011417512261593103 -0.015495598481977299 0 -0.011509945143171461 -0.015653232229653074 0 -0.012753367688114354 -0.015250768299617683 0 -0.011185648779666421 -0.015649274903621894 0 -0.011361598804885225 -0.015586862209408577 0 -0.011417512261593103 -0.015495598481977299 0 -0.011509945143171461 -0.015653232229653074 0 -0.011433871122820835 -0.01578969139665853 0 -0.011370947730024589 -0.015691121749391562 0 -0.011509945143171461 -0.015653232229653074 0 -0.01189637484271814 -0.015309552001736776 0 -0.011509945143171461 -0.015653232229653074 0 -0.011902129294257806 -0.015600909306726942 0 -0.01189637484271814 -0.015309552001736776 0 -0.011902129294257806 -0.015600909306726942 0 -0.012297241910266129 -0.01539905525607986 0 -0.01278817510208639 -0.015000068943445058 0 -0.01344400323816766 -0.015127533732210877 0 -0.015000123459967188 -0.014999361297722658 0 -0.011902129294257806 -0.015600909306726942 0 -0.012297241910266129 -0.01539905525607986 0 -0.01211238763353187 -0.015723412770029477 0 -0.012297241910266129 -0.01539905525607986 0 -0.01211238763353187 -0.015723412770029477 0 -0.012377005774429168 -0.015727197212101657 0 -0.012297241910266129 -0.01539905525607986 0 -0.012507802289911454 -0.015485011528997474 0 -0.012377005774429168 -0.015727197212101657 0 -0.01343304847325503 -0.014980208663661889 0 -0.014517122987139289 -0.014477749561477389 0 -0.012715576145423417 -0.015611424070225149 0 -0.012507802289911454 -0.015485011528997474 0 -0.01264445512720694 -0.01519982004495251 0 -0.014379654741809094 -0.014426976077097088 0 -0.014360616121292833 -0.014302614714132857 0 -0.014418657275330501 -0.01431725989597471 0 -0.01343304847325503 -0.014980208663661889 0 -0.012169589908397787 -0.01576774234896073 0 -0.012715576145423417 -0.015611424070225149 0 -0.012507802289911454 -0.015485011528997474 0 -0.012377005774429168 -0.015727197212101657 0 -0.012297241910266129 -0.01539905525607986 0 -0.012507802289911454 -0.015485011528997474 0 -0.01264445512720694 -0.01519982004495251 0 -0.015649486530989958 -0.014416934840297168 0 -0.015663343697708876 -0.014418002265627092 0 -0.015620241561927123 -0.014412341328616683 0 -0.015663343697708876 -0.014418002265627092 0 -0.015490566303560325 -0.014251251608115618 0 -0.015532273006695531 -0.013903661073713696 0 -0.0157613048474913 -0.014430223185485333 0 -0.015174835934725227 -0.014137799960512563 0 -0.014517122987139289 -0.014477749561477389 0 -0.015174835934725227 -0.014137799960512563 0 -0.015636845896926134 -0.014410199258243783 0 -0.015649486530989958 -0.014416934840297168 0 -0.015620241561927123 -0.014412341328616683 0 -0.014517122987139289 -0.014477749561477389 0 -0.015182265400528664 -0.014513012029155857 0 -0.015641744411903774 -0.014409386025412826 0 -0.015649486530989958 -0.014416934840297168 0 -0.015657775292123477 -0.014427779044750387 0 -0.012297241910266129 -0.01539905525607986 0 -0.01264445512720694 -0.01519982004495251 0 -0.01216794801594843 -0.015077540456385785 0 -0.015641744411903774 -0.014409386025412826 0 -0.015657775292123477 -0.014427779044750387 0 -0.015665185734661951 -0.014435680655907971 0 -0.01189637484271814 -0.015309552001736776 0 -0.012297241910266129 -0.01539905525607986 0 -0.01216794801594843 -0.015077540456385785 0 -0.014517122987139289 -0.014477749561477389 0 -0.014008901620288687 -0.014756774161302989 0 -0.015657775292123477 -0.014427779044750387 0 -0.015677234902801991 -0.014468575427605185 0 -0.015663343697708876 -0.014418002265627092 0 -0.015677234902801991 -0.014468575427605185 0 -0.015663343697708876 -0.014418002265627092 0 -0.015675169448007793 -0.014547175340913102 0 -0.015657775292123477 -0.014427779044750387 0 -0.015665185734661951 -0.014435680655907971 0 -0.015677234902801991 -0.014468575427605185 0 -0.015649486530989958 -0.014416934840297168 0 -0.015657775292123477 -0.014427779044750387 0 -0.015663343697708876 -0.014418002265627092 0 -0.015663343697708876 -0.014418002265627092 0 -0.0155599604291517 -0.014491341721714847 0 -0.015675169448007793 -0.014547175340913102 0 -0.015663343697708876 -0.014418002265627092 0 -0.0155599604291517 -0.014491341721714847 0 -0.015490566303560325 -0.014251251608115618 0 -0.0155599604291517 -0.014491341721714847 0 -0.015675169448007793 -0.014547175340913102 0 -0.015512218148258551 -0.014670896748616581 0 -0.014688220731421057 -0.014863641774721608 0 -0.014763856598779372 -0.014888312655186137 0 -0.015686439343133286 -0.014515551826650545 0 -0.015677234902801991 -0.014468575427605185 0 -0.015675169448007793 -0.014547175340913102 0 -0.01344400323816766 -0.015127533732210877 0 -0.015000123459967188 -0.014999361297722658 0 -0.014125282382156963 -0.015144644435481306 0 -0.014922442193283932 -0.014861795730312266 0 -0.015000123459967188 -0.014999361297722658 0 -0.014999282025292777 -0.01360417656572065 0 -0.014922442193283932 -0.014861795730312266 0 -0.015238036947554406 -0.014183583602697168 0 -0.014999282025292777 -0.01360417656572065 0 -0.014922442193283932 -0.014861795730312266 0 -0.015000123459967188 -0.014999361297722658 0 -0.014125282382156963 -0.015144644435481306 0 -0.014922442193283932 -0.014861795730312266 0 -0.015512218148258551 -0.014670896748616581 0 -0.015353085001810362 -0.014500472873867517 0 -0.014887998729917201 -0.014873874058464742 0 -0.014763856598779372 -0.014888312655186137 0 -0.0155599604291517 -0.014491341721714847 0 -0.015512218148258551 -0.014670896748616581 0 -0.015353085001810362 -0.014500472873867517 0 -0.014922442193283932 -0.014861795730312266 0 -0.015353085001810362 -0.014500472873867517 0 -0.015238036947554406 -0.014183583602697168 0 -0.0155599604291517 -0.014491341721714847 0 -0.015353085001810362 -0.014500472873867517 0 -0.015490566303560325 -0.014251251608115618 0 -0.015353085001810362 -0.014500472873867517 0 -0.015490566303560325 -0.014251251608115618 0 -0.015238036947554406 -0.014183583602697168 0 -0.015238036947554406 -0.014183583602697168 0 -0.014999282025292777 -0.01360417656572065 0 -0.015297710829356074 -0.013892639739281357 0 -0.014999282025292777 -0.01360417656572065 0 -0.015297710829356074 -0.013892639739281357 0 -0.015141389449788146 -0.013648617338825216 0 -0.015297710829356074 -0.013892639739281357 0 -0.015532273006695531 -0.013903661073713696 0 -0.015141389449788146 -0.013648617338825216 0 -0.015490566303560325 -0.014251251608115618 0 -0.015391752267337624 -0.014057003433179827 0 -0.015532273006695531 -0.013903661073713696 0 -0.015490566303560325 -0.014251251608115618 0 -0.015238036947554406 -0.014183583602697168 0 -0.015391752267337624 -0.014057003433179827 0 -0.015238036947554406 -0.014183583602697168 0 -0.015391752267337624 -0.014057003433179827 0 -0.015297710829356074 -0.013892639739281357 0 -0.015391752267337624 -0.014057003433179827 0 -0.015297710829356074 -0.013892639739281357 0 -0.015532273006695531 -0.013903661073713696 0 -0.014379654741809094 -0.014426976077097088 0 -0.014418657275330501 -0.01431725989597471 0 -0.014471895261297826 -0.014391109773477549 0 -0.015095445019893237 -0.013839821942424309 0 -0.015071260195605734 -0.013804519823132183 0 -0.015030947174094951 -0.013818051486317665 0 -0.015174835934725227 -0.014137799960512563 0 -0.015203715498723945 -0.013590666809160549 0 -0.015174835934725227 -0.014137799960512563 0 -0.014758153906481381 -0.013723154232149469 0 -0.014758153906481381 -0.013723154232149469 0 -0.015203715498723945 -0.013590666809160549 0 -0.01343304847325503 -0.014980208663661889 0 -0.014758153906481381 -0.013723154232149469 0 -0.013799600715188595 -0.013592875461121758 0 -0.013963424057390379 -0.013530412280261611 0 -0.0139223806918234 -0.013669943367066159 0 -0.014999992320796513 -0.013420540226977043 0 -0.015230980418093093 -0.013159487558665767 0 -0.014999992876014879 -0.012841878786581508 0 -0.015000126306088555 -0.013420686609132464 0 -0.015203715498723945 -0.013590666809160549 0 -0.015000095625092431 -0.013602983967596002 0 -0.015203715498723945 -0.013590666809160549 0 -0.014999992320796513 -0.013420540226977043 0 -0.015273121644119484 -0.013493025896018272 0 -0.015230980418093093 -0.013159487558665767 0 -0.014999999626629675 -0.013602958214276801 0 -0.014999999514361262 -0.013420576089707804 0 -0.01528087474634591 -0.013499039009279876 0 -0.015666125113885088 -0.013347308668193222 0 -0.015273121644119484 -0.013493025896018272 0 -0.015230980418093093 -0.013159487558665767 0 -0.015230980418093093 -0.013159487558665767 0 -0.014999992876014879 -0.012841878786581508 0 -0.015211194725821242 -0.012694398399365783 0 -0.015666125113885088 -0.013347308668193222 0 -0.015230980418093093 -0.013159487558665767 0 -0.015211194725821242 -0.012694398399365783 0 -0.014758153906481381 -0.013723154232149469 0 -0.014921992321766499 -0.012898300256791007 0 -0.014921992321766499 -0.012898300256791007 0 -0.015000078502755809 -0.012677168747154232 0 -0.015000000660868795 -0.012841835183408517 0 -0.015214412231726567 -0.012687594326989859 0 -0.014999997579543116 -0.012676915865368857 0 -0.015000128138820854 -0.012841749429246083 0 -0.014921992321766499 -0.012898300256791007 0 -0.015215570886571604 -0.012687276046806549 0 -0.014999997150365874 -0.012676908816729202 0 -0.015000000666032106 -0.012382301047864398 0 -0.014921992321766499 -0.012898300256791007 0 -0.014999958782979503 -0.012382482226546372 0 -0.015185725264924337 -0.01264155341790377 0 -0.01499992565980191 -0.012382097133067952 0 -0.015304226981005415 -0.012004186741276684 0 -0.014921992321766499 -0.012898300256791007 0 -0.014179170242822644 -0.012183364485834671 0 -0.014250456746349309 -0.012696453670784737 0 -0.013806387977922141 -0.012677101600536617 0 -0.013877317689178869 -0.013026131364831607 0 -0.015185725264924337 -0.01264155341790377 0 -0.015304226981005415 -0.012004186741276684 0 -0.015731453128801833 -0.012048290796124137 0 -0.012652548637488716 -0.013442300233908086 0 -0.014179170242822644 -0.012183364485834671 0 -0.013963424057390379 -0.013530412280261611 0 -0.014165504598816948 -0.013797029901294436 0 -0.0139223806918234 -0.013669943367066159 0 -0.014165504598816948 -0.013797029901294436 0 -0.0139223806918234 -0.013669943367066159 0 -0.013834856917117009 -0.013790105342588279 0 -0.014921992321766499 -0.012898300256791007 0 -0.012652548637488716 -0.013442300233908086 0 -0.012678060965921188 -0.015601627952167277 0 -0.012742134412708364 -0.015937322465416588 0 -0.012514352367895948 -0.015801835954892273 0 -0.01343304847325503 -0.014980208663661889 0 -0.012652548637488716 -0.013442300233908086 0 -0.012652548637488716 -0.013442300233908086 0 -0.011382757180439343 -0.013925586439595811 0 -0.013799600715188595 -0.013592875461121758 0 -0.0139223806918234 -0.013669943367066159 0 -0.013834856917117009 -0.013790105342588279 0 -0.012742134412708364 -0.015937322465416588 0 -0.012514352367895948 -0.015801835954892273 0 -0.01225717193717994 -0.015945597490617896 0 -0.012678060965921188 -0.015601627952167277 0 -0.012514352367895948 -0.015801835954892273 0 -0.012377005774429168 -0.015727197212101657 0 -0.01211238763353187 -0.015723412770029477 0 -0.012377005774429168 -0.015727197212101657 0 -0.01225717193717994 -0.015945597490617896 0 -0.012514352367895948 -0.015801835954892273 0 -0.012377005774429168 -0.015727197212101657 0 -0.01225717193717994 -0.015945597490617896 0 -0.010550257457666041 -0.012050433065504641 0 -0.010780721385120406 -0.011839804150905317 0 -0.010922045894129017 -0.012144693244533296 0 -0.011217691900143958 -0.011839781768669313 0 -0.010780721385120406 -0.011839804150905317 0 -0.010922045894129017 -0.012144693244533296 0 -0.011217691900143958 -0.011839781768669313 0 -0.010922045894129017 -0.012144693244533296 0 -0.011308465974201123 -0.01222296841275335 0 -0.015940877067009383 -0.011576639045535965 0 -0.015654835856994734 -0.011870690087886451 0 -0.015627779900482107 -0.011664400016672277 0 -0.010922045894129017 -0.012144693244533296 0 -0.010965298973742845 -0.012522892455620533 0 -0.011308465974201123 -0.01222296841275335 0 -0.013298843356774809 -0.012103791276657696 0 -0.014179170242822644 -0.012183364485834671 0 -0.010922045894129017 -0.012144693244533296 0 -0.010607571514517916 -0.012299659554174064 0 -0.010965298973742845 -0.012522892455620533 0 -0.010550257457666041 -0.012050433065504641 0 -0.010922045894129017 -0.012144693244533296 0 -0.010607571514517916 -0.012299659554174064 0 -0.013680827535399318 -0.012004525808660717 0 -0.013298843356774809 -0.012103791276657696 0 -0.010505963626662314 -0.012932453515082357 0 -0.010382632966907144 -0.012593652468009855 0 -0.010965298973742845 -0.012522892455620533 0 -0.010382632966907144 -0.012593652468009855 0 -0.010607571514517916 -0.012299659554174064 0 -0.010965298973742845 -0.012522892455620533 0 -0.015878890889163586 -0.011264392900738942 0 -0.016262536972803415 -0.011274304553034156 0 -0.015940877067009383 -0.011576639045535965 0 -0.015940877067009383 -0.011576639045535965 0 -0.015767882419520308 -0.011459404005367078 0 -0.015627779900482107 -0.011664400016672277 0 -0.015878890889163586 -0.011264392900738942 0 -0.015767882419520308 -0.011459404005367078 0 -0.015612109241084705 -0.011331757322228887 0 -0.015878890889163586 -0.011264392900738942 0 -0.015940877067009383 -0.011576639045535965 0 -0.015767882419520308 -0.011459404005367078 0 -0.015284054191616667 -0.011236509852554623 0 -0.015612109241084705 -0.011331757322228887 0 -0.015350648838931251 -0.011584536593171681 0 -0.015767882419520308 -0.011459404005367078 0 -0.015612109241084705 -0.011331757322228887 0 -0.015627779900482107 -0.011664400016672277 0 -0.015612109241084705 -0.011331757322228887 0 -0.015350648838931251 -0.011584536593171681 0 -0.015627779900482107 -0.011664400016672277 0 -0.014999968136840557 -0.010966350151263415 0 -0.015284054191616667 -0.011236509852554623 0 -0.01499997103166466 -0.011674316465104251 0 -0.015284054191616667 -0.011236509852554623 0 -0.01499997103166466 -0.011674316465104251 0 -0.015350648838931251 -0.011584536593171681 0 -0.01499992565980191 -0.012382097133067952 0 -0.01499997103166466 -0.011674316465104251 0 -0.015304226981005415 -0.012004186741276684 0 -0.01499997103166466 -0.011674316465104251 0 -0.015350648838931251 -0.011584536593171681 0 -0.015304226981005415 -0.012004186741276684 0 -0.015304226981005415 -0.012004186741276684 0 -0.015731453128801833 -0.012048290796124137 0 -0.015627779900482107 -0.011664400016672277 0 -0.014179170242822644 -0.012183364485834671 0 -0.015321133997622575 -0.01179764426400538 0 -0.015350648838931251 -0.011584536593171681 0 -0.015304226981005415 -0.012004186741276684 0 -0.015627779900482107 -0.011664400016672277 0 -0.0060776566121490162 -0.014013033734850962 0 -0.0061324820930429612 -0.014113300140118148 0 -0.0063084424881042272 -0.014043368120802329 0 -0.0060776566121490162 -0.014013033734850962 0 -0.0061324835029701666 -0.014089661001714134 0 -0.0061324820930429612 -0.014113300140118148 0 -0.0036196034813088707 -0.013200278074554589 0 -0.0019271097587212794 -0.01197196954324741 0 -0.0011246759112856222 -0.012302092467929087 0 -0.0013811408923150028 -0.012029905258608203 0 -0.0013333768171786262 -0.012423917098666143 0 0.0032285705036896495 -0.010734772195551728 0 0.003295626065336784 -0.010551574520114036 0 0.003318521017738686 -0.010853782384962917 0 0.0019481923317402985 -0.011048585346708214 0 0.00098735568825841129 -0.011567824039644936 0 -0.0011246759112856222 -0.012302092467929087 0 -0.0013811408923150028 -0.012029905258608203 0 -0.0012366811430571541 -0.011879185907081553 0 0.0032285705036896495 -0.010734772195551728 0 0.0031544713384369276 -0.010894856860399156 0 0.0031468297327216727 -0.010694666343518105 0 0.0032285705036896495 -0.010734772195551728 0 0.0032263450796581506 -0.010625720797919128 0 0.0031468297327216727 -0.010694666343518105 0 0.0032285705036896495 -0.010734772195551728 0 0.0032263450796581506 -0.010625720797919128 0 0.003295626065336784 -0.010551574520114036 0 0.0027015820737805681 -0.010533407816888794 0 0.0019481923317402985 -0.011048585346708214 0 0.0032263450796581506 -0.010625720797919128 0 0.0033113103907393597 -0.01054254766944538 0 0.0031987127262360186 -0.010552438765284815 0 0.0032263450796581506 -0.010625720797919128 0 0.0031987127262360186 -0.010552438765284815 0 0.0031321718513307481 -0.010596739231689242 0 0.0032112945757331529 -0.010355066149093217 0 0.0031121969634400519 -0.010267718076858457 0 0.0033678079294180156 -0.010238616478513299 0 0.0033047075363446883 -0.010535414526650586 0 0.0034045483026046222 -0.010427582347762955 0 0.003298352743565549 -0.010444871210073663 0 0.0019481923317402985 -0.011048585346708214 0 -0.0019271097587212794 -0.01197196954324741 0 0.0034045483026046222 -0.010427582347762955 0 0.003298352743565549 -0.010444871210073663 0 0.0033211436500669724 -0.0103664271062764 0 0.0031987127262360186 -0.010552438765284815 0 0.0032334248903478904 -0.010480424813667857 0 0.0031610828818047889 -0.010487979653954357 0 0.0033113103907393597 -0.01054254766944538 0 0.0031987127262360186 -0.010552438765284815 0 0.0032334248903478904 -0.010480424813667857 0 0.0019481923317402985 -0.011048585346708214 0 0.00224780129544647 -0.010756727756033143 0 0.0033113103907393597 -0.01054254766944538 0 0.0032334248903478904 -0.010480424813667857 0 0.003298352743565549 -0.010444871210073663 0 0.003298352743565549 -0.010444871210073663 0 0.0032112945757331529 -0.010355066149093217 0 0.0033211436500669724 -0.0103664271062764 0 0.0032334248903478904 -0.010480424813667857 0 0.003298352743565549 -0.010444871210073663 0 0.0032112945757331529 -0.010355066149093217 0 0.0032334248903478904 -0.010480424813667857 0 0.0032112945757331529 -0.010355066149093217 0 0.0031610828818047889 -0.010487979653954357 0 0.0032112945757331529 -0.010355066149093217 0 0.0033211436500669724 -0.0103664271062764 0 0.0033678079294180156 -0.010238616478513299 0 -0.0019271097587212794 -0.01197196954324741 0 0.00084121496021770479 -0.010141194033835434 0 0.0034045483026046222 -0.010427582347762955 0 0.0033211436500669724 -0.0103664271062764 0 0.0033678079294180156 -0.010238616478513299 0 -0.0024934658004475952 -0.0098738699811887314 0 -0.0024354195523637618 -0.010609906337297064 0 -0.0022684189364999812 -0.010668379155991461 0 -0.0024934658004475952 -0.0098738699811887314 0 -0.0028712419443324747 -0.010819070861120649 0 -0.0024354195523637618 -0.010609906337297064 0 -0.0061324820930429612 -0.014113300140118148 0 -0.0061067345157524234 -0.013931984261877467 0 -0.0060440237944806409 -0.013944063891912405 0 -0.0024934658004475952 -0.0098738699811887314 0 -0.0035469876667585257 -0.01090170058356214 0 -0.0028712419443324747 -0.010819070861120649 0 -0.0061324835029701666 -0.014089661001714134 0 -0.0061324820930429612 -0.014113300140118148 0 -0.0061067345157524234 -0.013931984261877467 0 -0.0019271097587212794 -0.01197196954324741 0 -0.0050987094986926244 -0.012576035882794243 0 -0.0063068226764313052 -0.014181210057009517 0 -0.0064620327933287876 -0.014288514306459953 0 -0.0062800668954589214 -0.014369886566870587 0 -0.0061143582521896419 -0.014250252924403057 0 -0.0064377993295526466 -0.013619113694738623 0 -0.0061324820930429612 -0.014113300140118148 0 -0.0063068226764313052 -0.014181210057009517 0 -0.0062800668954589214 -0.014369886566870587 0 -0.0061324820930429612 -0.014113300140118148 0 -0.0060440237944806409 -0.013944063891912405 0 -0.0059735791035238472 -0.013923817466754111 0 -0.0064620327933287876 -0.014288514306459953 0 -0.0064740560249928279 -0.014060913547291451 0 -0.0066871423906923909 -0.01424069405100694 0 -0.0063068226764313052 -0.014181210057009517 0 -0.0064620327933287876 -0.014288514306459953 0 -0.0064740560249928279 -0.014060913547291451 0 -0.0064740560249928279 -0.014060913547291451 0 -0.0063084424881042272 -0.014043368120802329 0 -0.0064061157306058237 -0.014022627065691656 0 -0.0063068226764313052 -0.014181210057009517 0 -0.0064740560249928279 -0.014060913547291451 0 -0.0063084424881042272 -0.014043368120802329 0 -0.0061324820930429612 -0.014113300140118148 0 -0.0063068226764313052 -0.014181210057009517 0 -0.0063084424881042272 -0.014043368120802329 0 -0.0063084424881042272 -0.014043368120802329 0 -0.0063711370006767232 -0.014006564956572798 0 -0.0063487215439696027 -0.014007375790675208 0 -0.0063084424881042272 -0.014043368120802329 0 -0.0063711370006767232 -0.014006564956572798 0 -0.0064061157306058237 -0.014022627065691656 0 -0.0064740560249928279 -0.014060913547291451 0 -0.0064061157306058237 -0.014022627065691656 0 -0.0064503361175954335 -0.014038049598304651 0 -0.0064061157306058237 -0.014022627065691656 0 -0.0064113185643391475 -0.013998292824657962 0 -0.0064503361175954335 -0.014038049598304651 0 -0.0063711370006767232 -0.014006564956572798 0 -0.0064061157306058237 -0.014022627065691656 0 -0.0064113185643391475 -0.013998292824657962 0 -0.0063711370006767232 -0.014006564956572798 0 -0.0064113185643391475 -0.013998292824657962 0 -0.0063954847779572341 -0.014009833512002148 0 -0.0014361464565894693 -0.01399220580142356 0 -0.0014202355111081284 -0.013970499445938641 0 -0.0015075525090763255 -0.013917252629788126 0 -0.0039674358501662907 -0.013625496795016803 0 -0.0039435520522909046 -0.013997031612120028 0 -0.0063711370006767232 -0.014006564956572798 0 -0.0063487215439696027 -0.014007375790675208 0 -0.0063954847779572341 -0.014009833512002148 0 -0.0017141142392046215 -0.013694182545183337 0 -0.0016245122448808539 -0.013557896324261647 0 -0.0015075525090763255 -0.013917252629788126 0 -0.0010250487194164513 -0.013252315721563998 0 -0.0039674358501662907 -0.013625496795016803 0 -0.0011774487773287699 -0.01295473142916977 0 -0.0010152833272859887 -0.012722719697985649 0 -0.0012847896493198556 -0.012815216915969497 0 -0.0036196034813088707 -0.013200278074554589 0 -0.0039674358501662907 -0.013625496795016803 0 -0.0069713310268453158 -0.014355288980322185 0 -0.0039674358501662907 -0.013625496795016803 0 -0.0011246759112856222 -0.012302092467929087 0 -0.0010152833272859887 -0.012722719697985649 0 -0.0012019612317506244 -0.01260642351391243 0 -0.0060776566121490162 -0.014013033734850962 0 -0.0063084424881042272 -0.014043368120802329 0 -0.0061185912669895924 -0.013804248198534061 0 -0.0010152833272859887 -0.012722719697985649 0 -0.0012019612317506244 -0.01260642351391243 0 -0.0012847896493198556 -0.012815216915969497 0 0.003318521017738686 -0.010853782384962917 0 0.0033251551347578566 -0.011178815207628064 0 0.0031544713384369276 -0.010894856860399156 0 -0.000467321127605074 -0.013623915856249062 0 -0.00048604885866432768 -0.01357249165065888 0 -0.00051983000464350909 -0.013610126782962025 0 -0.0013333768171786262 -0.012423917098666143 0 -0.0012019612317506244 -0.01260642351391243 0 -0.0012847896493198556 -0.012815216915969497 0 0.00098735568825841129 -0.011567824039644936 0 0.00043643558500342926 -0.012624603151775616 0 0.0032285705036896495 -0.010734772195551728 0 0.003318521017738686 -0.010853782384962917 0 0.0031544713384369276 -0.010894856860399156 0 -0.0011246759112856222 -0.012302092467929087 0 -0.0013333768171786262 -0.012423917098666143 0 -0.0012019612317506244 -0.01260642351391243 0 0.00043643558500342926 -0.012624603151775616 0 0.0014114145956107742 -0.012326049904216008 0 -0.000467321127605074 -0.013623915856249062 0 -0.00051039120769321746 -0.013650155238541146 0 -0.00051983000464350909 -0.013610126782962025 0 -0.00047042718574330088 -0.013664103079302955 0 -0.00051039120769321746 -0.013650155238541146 0 -0.00054303929015002753 -0.013681867072648533 0 -0.00012244093109272115 -0.013223928498417947 0 -0.00036907406805790425 -0.012908648873413186 0 -0.0003002240967357863 -0.013470015188421771 0 0.00043643558500342926 -0.012624603151775616 0 -0.00082077451495496585 -0.013829762615216698 0 -0.0010250487194164513 -0.013252315721563998 0 0.00043643558500342926 -0.012624603151775616 0 -0.000467321127605074 -0.013623915856249062 0 -0.00047042718574330088 -0.013664103079302955 0 -0.00051039120769321746 -0.013650155238541146 0 -0.0010250487194164513 -0.013252315721563998 0 -0.00082077451495496585 -0.013829762615216698 0 -0.00051039120769321746 -0.013650155238541146 0 -0.00055473988512944018 -0.013660459664386056 0 -0.00054303929015002753 -0.013681867072648533 0 -0.00051039120769321746 -0.013650155238541146 0 -0.00055473988512944018 -0.013660459664386056 0 -0.00051983000464350909 -0.013610126782962025 0 -0.00055473988512944018 -0.013660459664386056 0 -0.00058302093160650002 -0.013624797302854191 0 -0.00059851481739349422 -0.013710475367517266 0 -0.00055473988512944018 -0.013660459664386056 0 -0.00058302093160650002 -0.013624797302854191 0 -0.00051983000464350909 -0.013610126782962025 0 -0.00058302093160650002 -0.013624797302854191 0 -0.00051983000464350909 -0.013610126782962025 0 -0.00051203426145894312 -0.013508891376242872 0 0.00093679519888398342 -0.012720082042216394 0 0.0016342548593801731 -0.011442795377515268 0 -0.00048604885866432768 -0.01357249165065888 0 -0.00051983000464350909 -0.013610126782962025 0 -0.00051203426145894312 -0.013508891376242872 0 0.0026256462598709391 -0.011510858002372852 0 0.0020486787812560199 -0.010988250656601488 0 0.0016014752491984219 -0.011534264501708592 0 0.0026256462598709391 -0.011510858002372852 0 0.0020590452659735412 -0.012212311860216783 0 0.0016014752491984219 -0.011534264501708592 0 0.00093679519888398342 -0.012720082042216394 0 0.00076825590364898032 -0.012922400120181856 0 -0.00058302093160650002 -0.013624797302854191 0 -0.00057302176620037046 -0.013713151857523311 0 -0.00059851481739349422 -0.013710475367517266 0 0.0020486787812560199 -0.010988250656601488 0 0.0025045514604599777 -0.010768211951223298 0 0.0020958836166557961 -0.010319125388195577 0 0.0026256462598709391 -0.011510858002372852 0 0.0020486787812560199 -0.010988250656601488 0 0.0025045514604599777 -0.010768211951223298 0 0.0025045514604599777 -0.010768211951223298 0 0.0020958836166557961 -0.010319125388195577 0 0.0026245819500774403 -0.010196650010868081 0 0.0020486787812560199 -0.010988250656601488 0 0.0020958836166557961 -0.010319125388195577 0 0.0014748497903297479 -0.01068096684818508 0 0.0020958836166557961 -0.010319125388195577 0 0.0014748497903297479 -0.01068096684818508 0 0.0016795337494854359 -0.0098703997680798725 0 0.0030033374330762546 -0.010610438527449795 0 0.0030369631192333048 -0.010573077462697747 0 0.0028914719455045272 -0.010445958335983281 0 0.0016342548593801731 -0.011442795377515268 0 0.0020561506174149478 -0.011047017705176122 0 0.0029903858337986689 -0.010623588793106209 0 0.0031321718513307481 -0.010596739231689242 0 0.0031468297327216727 -0.010694666343518105 0 0.0030369631192333048 -0.010573077462697747 0 0.0031321718513307481 -0.010596739231689242 0 0.0031007645228927714 -0.010507747353166235 0 0.0029903858337986689 -0.010623588793106209 0 0.0030369631192333048 -0.010573077462697747 0 0.0031321718513307481 -0.010596739231689242 0 0.0031321718513307481 -0.010596739231689242 0 0.0031610828818047889 -0.010487979653954357 0 0.0031007645228927714 -0.010507747353166235 0 0.0031987127262360186 -0.010552438765284815 0 0.0031321718513307481 -0.010596739231689242 0 0.0031610828818047889 -0.010487979653954357 0 0.0032263450796581506 -0.010625720797919128 0 0.0031321718513307481 -0.010596739231689242 0 0.0031468297327216727 -0.010694666343518105 0 0.0014114145956107742 -0.012326049904216008 0 0.0016342548593801731 -0.011442795377515268 0 0.0031544713384369276 -0.010894856860399156 0 0.0029903858337986689 -0.010623588793106209 0 0.0031468297327216727 -0.010694666343518105 0 0.0026256462598709391 -0.011510858002372852 0 0.0031858688202620476 -0.010803012227931612 0 0.0028021123165452482 -0.01088182640850275 0 0.0026256462598709391 -0.011510858002372852 0 0.0025045514604599777 -0.010768211951223298 0 0.0028021123165452482 -0.01088182640850275 0 0.0025045514604599777 -0.010768211951223298 0 0.0028021123165452482 -0.01088182640850275 0 0.0028914719455045272 -0.010445958335983281 0 0.0031858688202620476 -0.010803012227931612 0 0.0028021123165452482 -0.01088182640850275 0 0.0028914719455045272 -0.010445958335983281 0 0.0025045514604599777 -0.010768211951223298 0 0.0028914719455045272 -0.010445958335983281 0 0.0026245819500774403 -0.010196650010868081 0 0.0016342548593801731 -0.011442795377515268 0 0.002805680054000803 -0.010697350785282956 0 0.0028914719455045272 -0.010445958335983281 0 0.0026245819500774403 -0.010196650010868081 0 0.0029431940668945378 -0.010234093524052648 0 0.0028914719455045272 -0.010445958335983281 0 0.0029431940668945378 -0.010234093524052648 0 0.0030503925183864959 -0.010435363712490349 0 0.0029431940668945378 -0.010234093524052648 0 0.0030503925183864959 -0.010435363712490349 0 0.0031121969634400519 -0.010267718076858457 0 0.0030369631192333048 -0.010573077462697747 0 0.0030503925183864959 -0.010435363712490349 0 0.0031007645228927714 -0.010507747353166235 0 0.0030369631192333048 -0.010573077462697747 0 0.0028914719455045272 -0.010445958335983281 0 0.0030503925183864959 -0.010435363712490349 0 0.0031610828818047889 -0.010487979653954357 0 0.0031007645228927714 -0.010507747353166235 0 0.0031339146950974156 -0.01040136609924253 0 0.0030503925183864959 -0.010435363712490349 0 0.0031007645228927714 -0.010507747353166235 0 0.0031339146950974156 -0.01040136609924253 0 0.0032112945757331529 -0.010355066149093217 0 0.0031610828818047889 -0.010487979653954357 0 0.0031339146950974156 -0.01040136609924253 0 0.0032112945757331529 -0.010355066149093217 0 0.0031339146950974156 -0.01040136609924253 0 0.0031121969634400519 -0.010267718076858457 0 0.0030503925183864959 -0.010435363712490349 0 0.0031339146950974156 -0.01040136609924253 0 0.0031121969634400519 -0.010267718076858457 0 0.0026301774341966587 -0.0093348816774375641 0 0.00084121496021770479 -0.010141194033835434 0 0.0017157055162189464 -0.0087762448054413567 0 0.0016110959276603393 -0.0088087989432973635 0 0.0017917907383731497 -0.0088817347732893636 0 0.0031121969634400519 -0.010267718076858457 0 0.002938989372349171 -0.0099484813132371952 0 0.0033678079294180156 -0.010238616478513299 0 0.0029431940668945378 -0.010234093524052648 0 0.0031121969634400519 -0.010267718076858457 0 0.002938989372349171 -0.0099484813132371952 0 0.0026245819500774403 -0.010196650010868081 0 0.0029431940668945378 -0.010234093524052648 0 0.002938989372349171 -0.0099484813132371952 0 0.0026245819500774403 -0.010196650010868081 0 0.002938989372349171 -0.0099484813132371952 0 0.0022503941859396163 -0.0095117579455185688 0 0.0016110959276603393 -0.0088087989432973635 0 0.0015611604408997122 -0.0086577383620743339 0 0.0013449049284752121 -0.0087368879158340879 0 0.0015611604408997122 -0.0086577383620743339 0 0.0016951149739615104 -0.0086896564180457738 0 0.001658750056053525 -0.0085987249410594442 0 0.0016110959276603393 -0.0088087989432973635 0 0.0015611604408997122 -0.0086577383620743339 0 0.0016951149739615104 -0.0086896564180457738 0 0.0016951149739615104 -0.0086896564180457738 0 0.0017270648440104361 -0.0085404924038239381 0 0.0017642840520452957 -0.0086957074334160795 0 0.0017157055162189464 -0.0087762448054413567 0 0.0016951149739615104 -0.0086896564180457738 0 0.0017284070967566309 -0.0087247461355548089 0 0.0016951149739615104 -0.0086896564180457738 0 0.0017284070967566309 -0.0087247461355548089 0 0.0017642840520452957 -0.0086957074334160795 0 0.0017157055162189464 -0.0087762448054413567 0 0.0016110959276603393 -0.0088087989432973635 0 0.0016951149739615104 -0.0086896564180457738 0 0.0020958836166557961 -0.010319125388195577 0 0.0022503941859396163 -0.0095117579455185688 0 0.0016795337494854359 -0.0098703997680798725 0 0.0020958836166557961 -0.010319125388195577 0 0.0026245819500774403 -0.010196650010868081 0 0.0022503941859396163 -0.0095117579455185688 0 0.0015611604408997122 -0.0086577383620743339 0 0.0013449049284752121 -0.0087368879158340879 0 0.0014486684965556614 -0.0085764605637805753 0 0.0026301774341966587 -0.0093348816774375641 0 0.0017104464547530896 -0.0091184616841125995 0 0.0017104464547530896 -0.0091184616841125995 0 0.0012192430674830895 -0.0088574347361255225 0 0.0022503941859396163 -0.0095117579455185688 0 0.0014164843614435645 -0.0090487453151126534 0 0.0016795337494854359 -0.0098703997680798725 0 0.0013113063073878144 -0.0084807234293659012 0 0.0010913467539722548 -0.0083041996397574258 0 0.0010231881442131305 -0.0086658119147645218 0 0.0013449049284752121 -0.0087368879158340879 0 0.0013113063073878144 -0.0084807234293659012 0 0.0010231881442131305 -0.0086658119147645218 0 0.0013113063073878144 -0.0084807234293659012 0 0.0014486684965556614 -0.0085764605637805753 0 0.0015092652135465989 -0.0084006180631938255 0 0.0013449049284752121 -0.0087368879158340879 0 0.0013113063073878144 -0.0084807234293659012 0 0.0014486684965556614 -0.0085764605637805753 0 0.001404621711522794 -0.0082002686010949778 0 0.0013113063073878144 -0.0084807234293659012 0 0.0015092652135465989 -0.0084006180631938255 0 0.001404621711522794 -0.0082002686010949778 0 0.0013113063073878144 -0.0084807234293659012 0 0.0010913467539722548 -0.0083041996397574258 0 0.0016951149739615104 -0.0086896564180457738 0 0.0017270648440104361 -0.0085404924038239381 0 0.001658750056053525 -0.0085987249410594442 0 0.0017961482799957035 -0.0084965471376475116 0 0.001658750056053525 -0.0085987249410594442 0 0.0016552685672661985 -0.0084334368308943246 0 0.00035841979656178426 -0.0082478445508544738 0 0.0017496475095457398 -0.0082927428387878799 0 0.0015611604408997122 -0.0086577383620743339 0 0.001658750056053525 -0.0085987249410594442 0 0.0015667035474702937 -0.0085323804227940819 0 0.0015611604408997122 -0.0086577383620743339 0 0.0014486684965556614 -0.0085764605637805753 0 0.0015667035474702937 -0.0085323804227940819 0 0.0014486684965556614 -0.0085764605637805753 0 0.0015667035474702937 -0.0085323804227940819 0 0.0015092652135465989 -0.0084006180631938255 0 0.0015667035474702937 -0.0085323804227940819 0 0.0015092652135465989 -0.0084006180631938255 0 0.0016552685672661985 -0.0084334368308943246 0 0.001658750056053525 -0.0085987249410594442 0 0.0015667035474702937 -0.0085323804227940819 0 0.0016552685672661985 -0.0084334368308943246 0 0.001404621711522794 -0.0082002686010949778 0 0.0015092652135465989 -0.0084006180631938255 0 0.0016014287195311758 -0.0082781979122632399 0 0.0015092652135465989 -0.0084006180631938255 0 0.0016014287195311758 -0.0082781979122632399 0 0.0016552685672661985 -0.0084334368308943246 0 0.0016014287195311758 -0.0082781979122632399 0 0.0016552685672661985 -0.0084334368308943246 0 0.0017465209767337229 -0.00828335692122701 0 0.00035841979656178426 -0.0082478445508544738 0 0.00052474259253623722 -0.0078196343809000812 0 0.0017961482799957035 -0.0084965471376475116 0 0.0016552685672661985 -0.0084334368308943246 0 0.0017465209767337229 -0.00828335692122701 0 -0.00066064554151955886 -0.0073384601280559961 0 -0.000731494109693993 -0.0070757762624855331 0 -0.00056119757550957894 -0.0070719810158099269 0 0.00035841979656178426 -0.0082478445508544738 0 -0.0027736586900718066 -0.00756225177403209 0 -0.00066064554151955886 -0.0073384601280559961 0 -0.00056119757550957894 -0.0070719810158099269 0 -0.0003994139842031608 -0.0071229737843389188 0 -0.0034977378107238968 -0.0091783017318889503 0 -0.0052639947156356247 -0.0092126349930814668 0 -0.0044028066824073125 -0.0079441104501493404 0 -0.0047200646257999374 -0.0082358671378620196 0 -0.004665692902242299 -0.00824895539845193 0 -0.0047126985815729196 -0.0083364733550232127 0 -0.0043875399063649069 -0.0082200919251685881 0 -0.004665692902242299 -0.00824895539845193 0 -0.0043875399063649069 -0.0082200919251685881 0 -0.0044028066824073125 -0.0079441104501493404 0 -0.004665692902242299 -0.00824895539845193 0 -0.0027736586900718066 -0.00756225177403209 0 -0.0034977378107238968 -0.0091783017318889503 0 -0.0035913004532510525 -0.010129103296501803 0 -0.004593472085570564 -0.010347343242190542 0 -0.004886827842826064 -0.011403698484769551 0 -0.0034977378107238968 -0.0091783017318889503 0 -0.0035560655732079227 -0.0096231328221822628 0 -0.0035913004532510525 -0.010129103296501803 0 -0.0036051740270801264 -0.0092288415881339996 0 -0.0039420251932893637 -0.0094118102938185715 0 -0.0035913004532510525 -0.010129103296501803 0 -0.0039420251932893637 -0.0094118102938185715 0 -0.004593472085570564 -0.010347343242190542 0 -0.0015154675873696216 -0.0085201274459630987 0 -0.0017720706314455212 -0.0086950969484719202 0 -0.0017846808480860919 -0.0084881441445638119 0 0.00035841979656178426 -0.0082478445508544738 0 -0.00087146167835774511 -0.0088674529276692848 0 -0.0015154675873696216 -0.0085201274459630987 0 -0.0017846808480860919 -0.0084881441445638119 0 -0.0015801338812011861 -0.0082955316497719273 0 -0.0034977378107238968 -0.0091783017318889503 0 -0.00087146167835774511 -0.0088674529276692848 0 -0.0021813865056624407 -0.0089428179445308325 0 -0.0023380751185838886 -0.0083835945177783838 0 -0.0036051740270801264 -0.0092288415881339996 0 -0.0035274752837293039 -0.010292479748524031 0 -0.0021813865056624407 -0.0089428179445308325 0 -0.0036051740270801264 -0.0092288415881339996 0 0.0017284070967566309 -0.0087247461355548089 0 0.0017642840520452957 -0.0086957074334160795 0 0.0017760820101597593 -0.0087541945417898177 0 -0.00087146167835774511 -0.0088674529276692848 0 -0.00086871004972325662 -0.009725984301251699 0 0.0016333106309470897 -0.0088800045078858986 0 -0.00086871004972325662 -0.009725984301251699 0 0.0017157055162189464 -0.0087762448054413567 0 0.0017284070967566309 -0.0087247461355548089 0 0.0017760820101597593 -0.0087541945417898177 0 -0.00086871004972325662 -0.009725984301251699 0 -0.0044088642602828519 -0.010736767372131473 0 -0.0023380751185838886 -0.0083835945177783838 0 -0.0036051740270801264 -0.0092288415881339996 0 -0.0045381288781943217 -0.0090489418801522111 0 -0.0019317712567829735 -0.011838313072530856 0 -0.0037938473419972104 -0.012421455850551993 0 -0.0032837176537388216 -0.011575230506118942 0 -0.0036051740270801264 -0.0092288415881339996 0 -0.0039420251932893637 -0.0094118102938185715 0 -0.0045381288781943217 -0.0090489418801522111 0 -0.0032837176537388216 -0.011575230506118942 0 -0.0028712419443324747 -0.010819070861120649 0 -0.0025973701670479743 -0.01114333490468707 0 -0.0032837176537388216 -0.011575230506118942 0 -0.0035469876667585257 -0.01090170058356214 0 -0.0046075905775883096 -0.011941716123818445 0 -0.0032837176537388216 -0.011575230506118942 0 -0.0035469876667585257 -0.01090170058356214 0 -0.0028712419443324747 -0.010819070861120649 0 -0.0024354195523637618 -0.010609906337297064 0 -0.0022694918783541661 -0.01066579922678311 0 -0.0025973701670479743 -0.01114333490468707 0 -0.0019317712567829735 -0.011838313072530856 0 -0.0022694918783541661 -0.01066579922678311 0 -0.0025973701670479743 -0.01114333490468707 0 -0.0028712419443324747 -0.010819070861120649 0 -0.0024354195523637618 -0.010609906337297064 0 -0.0025973701670479743 -0.01114333490468707 0 -0.0019317712567829735 -0.011838313072530856 0 -0.0032837176537388216 -0.011575230506118942 0 -0.0025973701670479743 -0.01114333490468707 0 0.0017157055162189464 -0.0087762448054413567 0 0.0017583022161249567 -0.0087664978623732577 0 0.0017917907383731497 -0.0088817347732893636 0 -0.00086871004972325662 -0.009725984301251699 0 0.00084121496021770479 -0.010141194033835434 0 0.00026438397232187062 -0.010027836701600866 0 0.00084121496021770479 -0.010141194033835434 0 -0.0077527103510537524 -0.012766426653862338 0 -0.0069813750783596206 -0.012541477850215504 0 -0.0074126236014509074 -0.013119596663082052 0 -0.0070205949104838062 -0.013605877387120758 0 -0.0064377993295526466 -0.013619113694738623 0 -0.0064620327933287876 -0.014288514306459953 0 -0.0065047111690540874 -0.014470305854263087 0 -0.0062800668954589214 -0.014369886566870587 0 -0.0064620327933287876 -0.014288514306459953 0 -0.0065047111690540874 -0.014470305854263087 0 -0.0066549023753019586 -0.014397859108825602 0 -0.0061067345157524234 -0.013931984261877467 0 -0.0060440237944806409 -0.013944063891912405 0 -0.0059462170254662924 -0.013899938236384421 0 -0.0061559555276419538 -0.013684312567595896 0 -0.0064377993295526466 -0.013619113694738623 0 -0.0050987094986926244 -0.012576035882794243 0 -0.0052150291218310534 -0.012842471551665286 0 -0.0061067345157524234 -0.013931984261877467 0 -0.0059462170254662924 -0.013899938236384421 0 -0.005905086880804879 -0.013642060652628235 0 -0.0064377993295526466 -0.013619113694738623 0 -0.0065865298764916655 -0.013373603245200481 0 -0.0059462170254662924 -0.013899938236384421 0 -0.005905086880804879 -0.013642060652628235 0 -0.0057815575215395274 -0.013619536104063683 0 -0.0037938473419972104 -0.012421455850551993 0 -0.0032837176537388216 -0.011575230506118942 0 -0.0046075905775883096 -0.011941716123818445 0 -0.0039420251932893637 -0.0094118102938185715 0 -0.0045381288781943217 -0.0090489418801522111 0 -0.0055239304691197411 -0.010264146114303613 0 -0.0037938473419972104 -0.012421455850551993 0 -0.0046075905775883096 -0.011941716123818445 0 -0.005670760822553308 -0.012990179520783728 0 -0.0044088642602828519 -0.010736767372131473 0 -0.006311498917395097 -0.012047471942578172 0 -0.0065865298764916655 -0.013373603245200481 0 -0.0074431223468835322 -0.012689687925263874 0 -0.005905086880804879 -0.013642060652628235 0 -0.0057815575215395274 -0.013619536104063683 0 -0.0056820724653855294 -0.013358950015878814 0 -0.0052150291218310534 -0.012842471551665286 0 -0.006311498917395097 -0.012047471942578172 0 -0.0077862777376041135 -0.01311649050621592 0 -0.0079020348574025106 -0.013495142798863305 0 -0.0080756427680858233 -0.013085798744095312 0 -0.0074126236014509074 -0.013119596663082052 0 -0.0077862777376041135 -0.01311649050621592 0 -0.0079020348574025106 -0.013495142798863305 0 -0.0077527103510537524 -0.012766426653862338 0 -0.0077862777376041135 -0.01311649050621592 0 -0.0080756427680858233 -0.013085798744095312 0 -0.0077527103510537524 -0.012766426653862338 0 -0.0074126236014509074 -0.013119596663082052 0 -0.0077862777376041135 -0.01311649050621592 0 -0.0074126236014509074 -0.013119596663082052 0 -0.0079020348574025106 -0.013495142798863305 0 -0.0078533368957550385 -0.013732059248468466 0 -0.0057815575215395274 -0.013619536104063683 0 -0.0056206160364631573 -0.013333940042267213 0 -0.0056820724653855294 -0.013358950015878814 0 -0.005230672887790549 -0.010088264978488111 0 -0.0075402443586602254 -0.010723732394581215 0 -0.0079020348574025106 -0.013495142798863305 0 -0.0078533368957550385 -0.013732059248468466 0 -0.0082239654372244595 -0.013866723177639914 0 -0.006311498917395097 -0.012047471942578172 0 -0.0083555534587222927 -0.011851816155567173 0 -0.0052012320781514281 -0.010013286277762401 0 -0.0053726983050827017 -0.010758442181017226 0 -0.0064624133363534201 -0.010630228940913341 0 -0.0067829979824633874 -0.010423239723430004 0 -0.0055239304691197411 -0.010264146114303613 0 -0.0071386895092791832 -0.011090574636028836 0 -0.0074556856705651434 -0.011948599331450907 0 -0.0071516352367651968 -0.011857482145077593 0 -0.0078158559308727886 -0.012432776711844677 0 -0.0068730723116153004 -0.0098029999576639913 0 -0.0067829979824633874 -0.010423239723430004 0 -0.0076386292993216734 -0.010486071159740708 0 -0.0074431223468835322 -0.012689687925263874 0 -0.0083555534587222927 -0.011851816155567173 0 -0.0074431223468835322 -0.012689687925263874 0 -0.006311498917395097 -0.012047471942578172 0 -0.0068730723116153004 -0.0098029999576639913 0 -0.0067829979824633874 -0.010423239723430004 0 -0.0055239304691197411 -0.010264146114303613 0 -0.0067829979824633874 -0.010423239723430004 0 -0.0071386895092791832 -0.011090574636028836 0 -0.0076386292993216734 -0.010486071159740708 0 -0.0075402443586602254 -0.010723732394581215 0 -0.0083555534587222927 -0.011851816155567173 0 -0.0039420251932893637 -0.0094118102938185715 0 -0.0052012320781514281 -0.010013286277762401 0 -0.004593472085570564 -0.010347343242190542 0 -0.0045381288781943217 -0.0090489418801522111 0 -0.0068730723116153004 -0.0098029999576639913 0 -0.0055239304691197411 -0.010264146114303613 0 -0.0041227784573936365 -0.0095052126927941284 0 -0.005230672887790549 -0.010088264978488111 0 -0.0052012320781514281 -0.010013286277762401 0 -0.004593472085570564 -0.010347343242190542 0 -0.0053726983050827017 -0.010758442181017226 0 -0.0053726983050827017 -0.010758442181017226 0 -0.004886827842826064 -0.011403698484769551 0 -0.0060684709398534601 -0.011105051713740197 0 -0.0052639947156356247 -0.0092126349930814668 0 -0.0074159800606643173 -0.0096667133604519413 0 -0.0065134534038001528 -0.0093590359564362791 0 -0.0062368171476128789 -0.0090814653995290612 0 -0.0068826413135180111 -0.0089200930096392812 0 -0.004593472085570564 -0.010347343242190542 0 -0.0053726983050827017 -0.010758442181017226 0 -0.004886827842826064 -0.011403698484769551 0 -0.0067934316021730544 -0.0080464618003488492 0 -0.0052639947156356247 -0.0092126349930814668 0 -0.0052639947156356247 -0.0092126349930814668 0 -0.005133581941294367 -0.0091337099514528543 0 -0.0047126985815729196 -0.0083364733550232127 0 -0.0047238831406113263 -0.0082332327873356984 0 -0.004665692902242299 -0.00824895539845193 0 -0.0047126985815729196 -0.0083364733550232127 0 -0.0048498465917045496 -0.0083503662859591744 0 -0.0047238831406113263 -0.0082332327873356984 0 -0.0074159800606643173 -0.0096667133604519413 0 -0.0089828836200087914 -0.010465541144809092 0 -0.0079071901306703822 -0.0099803751172161375 0 -0.0076030592709866547 -0.010345348643306461 0 -0.0082900459470087347 -0.010172839090828757 0 -0.0075402443586602254 -0.010723732394581215 0 -0.0089828836200087914 -0.010465541144809092 0 -0.0075402443586602254 -0.010723732394581215 0 -0.0074159800606643173 -0.0096667133604519413 0 -0.0053726983050827017 -0.010758442181017226 0 -0.0064624133363534201 -0.010630228940913341 0 -0.0060684709398534601 -0.011105051713740197 0 -0.008954733497586501 -0.0083702402173694932 0 -0.0088981274129177456 -0.0083688995600123897 0 -0.0089473119891341803 -0.0083234733881070531 0 -0.0067934316021730544 -0.0080464618003488492 0 -0.0074159800606643173 -0.0096667133604519413 0 -0.0089986783045688124 -0.0083670266132976536 0 -0.008954733497586501 -0.0083702402173694932 0 -0.0089473119891341803 -0.0083234733881070531 0 -0.0089986783045688124 -0.0083670266132976536 0 -0.0089473119891341803 -0.0083234733881070531 0 -0.0090126777484093486 -0.0083139960723651145 0 -0.0089986783045688124 -0.0083670266132976536 0 -0.0090404177305534721 -0.0083604532897130698 0 -0.0090126777484093486 -0.0083139960723651145 0 -0.0090404177305534721 -0.0083604532897130698 0 -0.0090126777484093486 -0.0083139960723651145 0 -0.0090865113008585831 -0.0083497154868484476 0 -0.0099560693550747835 -0.010923214081693531 0 -0.009926887060432054 -0.010917379822729435 0 -0.0099836493309386886 -0.010935459514995347 0 -0.0099560693550747835 -0.010923214081693531 0 -0.0099454593174170582 -0.010912633140426686 0 -0.0099836493309386886 -0.010935459514995347 0 -0.0089828836200087914 -0.010465541144809092 0 -0.010131055409601851 -0.010628755922916192 0 -0.010302483717927278 -0.011499638080479244 0 -0.010131055409601851 -0.010628755922916192 0 -0.010090039705548172 -0.011186086720328503 0 -0.010302483717927278 -0.011499638080479244 0 -0.0084753039519336326 -0.011235754410858185 0 -0.0087863707500358927 -0.011390954131049343 0 -0.0088341017066620141 -0.011102814930916589 0 -0.0099560693550747835 -0.010923214081693531 0 -0.0099453839318627245 -0.010911991687246096 0 -0.009926887060432054 -0.010917379822729435 0 -0.0090060970158262563 -0.011335603377972186 0 -0.0087863707500358927 -0.011390954131049343 0 -0.0088341017066620141 -0.011102814930916589 0 -0.010302483717927278 -0.011499638080479244 0 -0.0089828836200087914 -0.010465541144809092 0 -0.0084753039519336326 -0.011235754410858185 0 -0.0088341017066620141 -0.011102814930916589 0 -0.0087183251080678835 -0.010945113532349469 0 -0.0093473883033709272 -0.01269870718564413 0 -0.011423642272410654 -0.012625215117892977 0 -0.011015644579400241 -0.012596244698458351 0 -0.010888248679475994 -0.012609161899066338 0 -0.01091138530062867 -0.01266118143885174 0 -0.010841144396911997 -0.012533394512453338 0 -0.010830417182611895 -0.012525589502410282 0 -0.010843469504165185 -0.012537381360084294 0 -0.010841144396911997 -0.012533394512453338 0 -0.010831854509932529 -0.012529894831774916 0 -0.010830417182611895 -0.012525589502410282 0 -0.010831854509932529 -0.012529894831774916 0 -0.010825744907129646 -0.012526982768285016 0 -0.010830417182611895 -0.012525589502410282 0 -0.0093837888371562806 -0.011889529685597084 0 -0.0083555534587222927 -0.011851816155567173 0 -0.010302483717927278 -0.011499638080479244 0 -0.0093837888371562806 -0.011889529685597084 0 -0.008023103178206259 -0.012499316561310508 0 -0.0082731728446263815 -0.012841365151152178 0 -0.0084486244106159718 -0.012629984601432746 0 -0.0074431223468835322 -0.012689687925263874 0 -0.0093473883033709272 -0.01269870718564413 0 -0.0083555534587222927 -0.011851816155567173 0 -0.0093473883033709272 -0.01269870718564413 0 -0.010302483717927278 -0.011499638080479244 0 -0.011062977163044713 -0.012477299221268215 0 -0.011015644579400241 -0.012596244698458351 0 -0.010888248679475994 -0.012609161899066338 0 -0.010843469504165185 -0.012537381360084294 0 -0.010841144396911997 -0.012533394512453338 0 -0.010843469504165185 -0.012537381360084294 0 -0.010838854834977887 -0.012535202564327776 0 -0.010843114950859691 -0.012588934898645009 0 -0.010888248679475994 -0.012609161899066338 0 -0.010843469504165185 -0.012537381360084294 0 -0.010843114950859691 -0.012588934898645009 0 -0.010888248679475994 -0.012609161899066338 0 -0.010847679549975541 -0.01265535409205496 0 -0.010843114950859691 -0.012588934898645009 0 -0.010843469504165185 -0.012537381360084294 0 -0.010838854834977887 -0.012535202564327776 0 -0.011460473644981246 -0.012082991585058267 0 -0.01112652127423463 -0.012063176148104107 0 -0.011281850792463067 -0.011925494760144669 0 -0.01112652127423463 -0.012063176148104107 0 -0.010965399433492789 -0.012093194043133856 0 -0.010976028581955517 -0.012244611627662293 0 -0.011460473644981246 -0.012082991585058267 0 -0.01112652127423463 -0.012063176148104107 0 -0.010976028581955517 -0.012244611627662293 0 -0.01112652127423463 -0.012063176148104107 0 -0.011281850792463067 -0.011925494760144669 0 -0.010954219746535919 -0.01195243953718407 0 -0.010796569583854254 -0.011656044608462665 0 -0.011281850792463067 -0.011925494760144669 0 -0.010954219746535919 -0.01195243953718407 0 -0.010954219746535919 -0.01195243953718407 0 -0.010722895807855213 -0.011886702203771617 0 -0.010763859833568052 -0.012113892051600534 0 -0.010796569583854254 -0.011656044608462665 0 -0.010954219746535919 -0.01195243953718407 0 -0.010722895807855213 -0.011886702203771617 0 -0.010722895807855213 -0.011886702203771617 0 -0.010763859833568052 -0.012113892051600534 0 -0.010632370563152695 -0.012026204497335394 0 -0.01112652127423463 -0.012063176148104107 0 -0.010954219746535919 -0.01195243953718407 0 -0.010965399433492789 -0.012093194043133856 0 -0.010954219746535919 -0.01195243953718407 0 -0.010763859833568052 -0.012113892051600534 0 -0.010965399433492789 -0.012093194043133856 0 -0.010763859833568052 -0.012113892051600534 0 -0.010965399433492789 -0.012093194043133856 0 -0.010976028581955517 -0.012244611627662293 0 -0.010359417469544212 -0.011726859135750209 0 -0.010492995681680667 -0.011896035521554575 0 -0.010254593837079544 -0.011914456236529432 0 -0.010722895807855213 -0.011886702203771617 0 -0.010492995681680667 -0.011896035521554575 0 -0.010632370563152695 -0.012026204497335394 0 -0.010537076346473636 -0.011706884160788035 0 -0.010722895807855213 -0.011886702203771617 0 -0.010492995681680667 -0.011896035521554575 0 -0.010492995681680667 -0.011896035521554575 0 -0.010632370563152695 -0.012026204497335394 0 -0.01045581642830536 -0.012138368527077593 0 -0.010763859833568052 -0.012113892051600534 0 -0.010632370563152695 -0.012026204497335394 0 -0.01045581642830536 -0.012138368527077593 0 -0.010492995681680667 -0.011896035521554575 0 -0.01045581642830536 -0.012138368527077593 0 -0.010254593837079544 -0.011914456236529432 0 -0.010434969090757617 -0.012489639650974741 0 -0.010771869614356959 -0.012639334125184818 0 -0.010667149611620864 -0.012719007495727084 0 -0.010763859833568052 -0.012113892051600534 0 -0.01045581642830536 -0.012138368527077593 0 -0.010434969090757617 -0.012489639650974741 0 -0.010763859833568052 -0.012113892051600534 0 -0.010434969090757617 -0.012489639650974741 0 -0.010976028581955517 -0.012244611627662293 0 -0.010434969090757617 -0.012489639650974741 0 -0.010838854834977887 -0.012535202564327776 0 -0.010771869614356959 -0.012639334125184818 0 -0.010384650666862281 -0.012477720611594089 0 -0.011062977163044713 -0.012477299221268215 0 -0.010843114950859691 -0.012588934898645009 0 -0.010838854834977887 -0.012535202564327776 0 -0.010771869614356959 -0.012639334125184818 0 -0.010843114950859691 -0.012588934898645009 0 -0.010771869614356959 -0.012639334125184818 0 -0.010847679549975541 -0.01265535409205496 0 -0.010667149611620864 -0.012719007495727084 0 -0.010847679549975541 -0.01265535409205496 0 -0.010919297329326661 -0.012737947189624437 0 -0.010917832523745893 -0.012683821482534363 0 -0.010601682509274955 -0.013098821825991274 0 -0.010771869614356959 -0.012639334125184818 0 -0.010667149611620864 -0.012719007495727084 0 -0.010847679549975541 -0.01265535409205496 0 -0.010667149611620864 -0.012719007495727084 0 -0.010941753648016698 -0.013122043735823373 0 -0.011441368372129883 -0.013019820839018996 0 -0.010667149611620864 -0.012719007495727084 0 -0.010488303128871898 -0.013207251675346077 0 -0.010189250474537339 -0.012852142056803588 0 -0.010434969090757617 -0.012489639650974741 0 -0.010667149611620864 -0.012719007495727084 0 -0.010189250474537339 -0.012852142056803588 0 -0.010667149611620864 -0.012719007495727084 0 -0.010488303128871898 -0.013207251675346077 0 -0.010941753648016698 -0.013122043735823373 0 -0.010488303128871898 -0.013207251675346077 0 -0.010717641129966662 -0.013397389591402858 0 -0.010461274679038762 -0.013634607205165149 0 -0.010488303128871898 -0.013207251675346077 0 -0.010187924070470157 -0.013548964037118739 0 -0.010461274679038762 -0.013634607205165149 0 -0.010717641129966662 -0.013397389591402858 0 -0.010975658950022083 -0.013589595998837615 0 -0.010461274679038762 -0.013634607205165149 0 -0.010941753648016698 -0.013122043735823373 0 -0.011373383144756982 -0.013097136775266346 0 -0.010975658950022083 -0.013589595998837615 0 -0.010941753648016698 -0.013122043735823373 0 -0.010717641129966662 -0.013397389591402858 0 -0.010975658950022083 -0.013589595998837615 0 -0.010488303128871898 -0.013207251675346077 0 -0.010941753648016698 -0.013122043735823373 0 -0.010717641129966662 -0.013397389591402858 0 -0.0085602184279794415 -0.013362301995541963 0 -0.009284346823921534 -0.014001493831584898 0 -0.011373383144756982 -0.013097136775266346 0 -0.011581559277418118 -0.013061195321909518 0 -0.010975658950022083 -0.013589595998837615 0 -0.0068508534243595055 -0.014351172046585613 0 -0.0067883709765365115 -0.014585723205354239 0 -0.0071968503062428465 -0.014319790615612133 0 -0.0065047111690540874 -0.014470305854263087 0 -0.0066549023753019586 -0.014397859108825602 0 -0.0067883709765365115 -0.014585723205354239 0 -0.0068508534243595055 -0.014351172046585613 0 -0.0066549023753019586 -0.014397859108825602 0 -0.0067883709765365115 -0.014585723205354239 0 -0.0077527103510537524 -0.012766426653862338 0 -0.0085151760955176747 -0.013004026144601839 0 -0.0080756427680858233 -0.013085798744095312 0 -0.0070205949104838062 -0.013605877387120758 0 -0.0085602184279794415 -0.013362301995541963 0 -0.011015644579400241 -0.012596244698458351 0 -0.01091138530062867 -0.01266118143885174 0 -0.010919297329326661 -0.012737947189624437 0 -0.0093473883033709272 -0.01269870718564413 0 -0.010601682509274955 -0.013098821825991274 0 -0.0079020348574025106 -0.013495142798863305 0 -0.0082239654372244595 -0.013866723177639914 0 -0.008695912969754846 -0.012872905262201506 0 -0.0082239654372244595 -0.013866723177639914 0 -0.008695912969754846 -0.012872905262201506 0 -0.0089940662194866374 -0.012963478181406671 0 -0.0080335597075573677 -0.013358614767935529 0 -0.0085602184279794415 -0.013362301995541963 0 -0.0079020348574025106 -0.013495142798863305 0 -0.0085151760955176747 -0.013004026144601839 0 -0.0080756427680858233 -0.013085798744095312 0 -0.01091138530062867 -0.01266118143885174 0 -0.010847679549975541 -0.01265535409205496 0 -0.010919297329326661 -0.012737947189624437 0 -0.010941753648016698 -0.013122043735823373 0 -0.011373383144756982 -0.013097136775266346 0 -0.011441368372129883 -0.013019820839018996 0 -0.010888248679475994 -0.012609161899066338 0 -0.01091138530062867 -0.01266118143885174 0 -0.010847679549975541 -0.01265535409205496 0 -0.011373383144756982 -0.013097136775266346 0 -0.011581559277418118 -0.013061195321909518 0 -0.011433133313721408 -0.013018714728338968 0 -0.010802932823315479 -0.012978197777165417 0 -0.010601682509274955 -0.013098821825991274 0 -0.0085602184279794415 -0.013362301995541963 0 -0.010601682509274955 -0.013098821825991274 0 -0.0094479786474292275 -0.012312036271240553 0 -0.009934953406786122 -0.012157600386621056 0 -0.0096443338950086051 -0.012690183806652584 0 -0.0094479786474292275 -0.012312036271240553 0 -0.0094748421452137983 -0.011938174322538235 0 -0.009934953406786122 -0.012157600386621056 0 -0.0098869509733335303 -0.011497242948669776 0 -0.0094748421452137983 -0.011938174322538235 0 -0.0098518925414914811 -0.011834432538825341 0 -0.0094748421452137983 -0.011938174322538235 0 -0.0098518925414914811 -0.011834432538825341 0 -0.009934953406786122 -0.012157600386621056 0 -0.0098518925414914811 -0.011834432538825341 0 -0.009934953406786122 -0.012157600386621056 0 -0.0099533969988073751 -0.011792368721182717 0 -0.0096052777571187867 -0.012244857336209449 0 -0.009172988035530379 -0.01280445341530863 0 -0.0092908550527845933 -0.0123146169164487 0 -0.010091818461803374 -0.012338191854334799 0 -0.0097325011872980045 -0.012752444306245496 0 -0.0092908550527845933 -0.0123146169164487 0 -0.0099533969988073751 -0.011792368721182717 0 -0.010091818461803374 -0.012338191854334799 0 -0.0096052777571187867 -0.012244857336209449 0 -0.0099162848495891864 -0.011842340268158788 0 -0.0099533969988073751 -0.011792368721182717 0 -0.010254593837079544 -0.011914456236529432 0 -0.010091818461803374 -0.012338191854334799 0 -0.01045581642830536 -0.012138368527077593 0 -0.010254593837079544 -0.011914456236529432 0 -0.010091818461803374 -0.012338191854334799 0 -0.010162786433016173 -0.011642627315944997 0 -0.0099533969988073751 -0.011792368721182717 0 -0.010254593837079544 -0.011914456236529432 0 -0.010434969090757617 -0.012489639650974741 0 -0.010091818461803374 -0.012338191854334799 0 -0.010189250474537339 -0.012852142056803588 0 -0.01045581642830536 -0.012138368527077593 0 -0.010434969090757617 -0.012489639650974741 0 -0.010091818461803374 -0.012338191854334799 0 -0.010189250474537339 -0.012852142056803588 0 -0.0097176802080076955 -0.013168381575099052 0 -0.0097325011872980045 -0.012752444306245496 0 -0.010091818461803374 -0.012338191854334799 0 -0.010189250474537339 -0.012852142056803588 0 -0.0097325011872980045 -0.012752444306245496 0 -0.010488303128871898 -0.013207251675346077 0 -0.010189250474537339 -0.012852142056803588 0 -0.0100802022424967 -0.013276447702686463 0 -0.010488303128871898 -0.013207251675346077 0 -0.0100802022424967 -0.013276447702686463 0 -0.010187924070470157 -0.013548964037118739 0 -0.0100802022424967 -0.013276447702686463 0 -0.0097176802080076955 -0.013168381575099052 0 -0.009753829091627227 -0.013575740701763881 0 -0.0100802022424967 -0.013276447702686463 0 -0.010187924070470157 -0.013548964037118739 0 -0.009753829091627227 -0.013575740701763881 0 -0.010189250474537339 -0.012852142056803588 0 -0.0100802022424967 -0.013276447702686463 0 -0.0097176802080076955 -0.013168381575099052 0 -0.0097176802080076955 -0.013168381575099052 0 -0.009753829091627227 -0.013575740701763881 0 -0.0093424104680952455 -0.013507376263957878 0 -0.0097176802080076955 -0.013168381575099052 0 -0.0093424104680952455 -0.013507376263957878 0 -0.0092780286323078578 -0.01301768819361806 0 -0.0097176802080076955 -0.013168381575099052 0 -0.0097325011872980045 -0.012752444306245496 0 -0.0092780286323078578 -0.01301768819361806 0 -0.0092908550527845933 -0.0123146169164487 0 -0.0097325011872980045 -0.012752444306245496 0 -0.0092780286323078578 -0.01301768819361806 0 -0.0092908550527845933 -0.0123146169164487 0 -0.0092780286323078578 -0.01301768819361806 0 -0.0087184835800414584 -0.012892254044867303 0 -0.0093424104680952455 -0.013507376263957878 0 -0.0092780286323078578 -0.01301768819361806 0 -0.008876050704226271 -0.013460338037929908 0 -0.0092780286323078578 -0.01301768819361806 0 -0.008876050704226271 -0.013460338037929908 0 -0.0087184835800414584 -0.012892254044867303 0 -0.0093424104680952455 -0.013507376263957878 0 -0.008876050704226271 -0.013460338037929908 0 -0.0089924105910453318 -0.013822751841275453 0 -0.0087857471636026713 -0.013321795916055609 0 -0.009172988035530379 -0.01280445341530863 0 -0.0082113062156280153 -0.013515388182256251 0 -0.008876050704226271 -0.013460338037929908 0 -0.0087184835800414584 -0.012892254044867303 0 -0.0082113062156280153 -0.013515388182256251 0 -0.008876050704226271 -0.013460338037929908 0 -0.0086745514518645605 -0.013975893080989335 0 -0.0090678297409843706 -0.012457480228007226 0 -0.0094479786474292275 -0.012312036271240553 0 -0.0096443338950086051 -0.012690183806652584 0 -0.0083319365972203182 -0.014061805355307423 0 -0.0086906248695535291 -0.014210395697716862 0 -0.0086745514518645605 -0.013975893080989335 0 -0.0074466922692956374 -0.014564520528981995 0 -0.0073320644348445641 -0.014646663473980257 0 -0.0074205723876589443 -0.014483141184814833 0 -0.0086906248695535291 -0.014210395697716862 0 -0.0086745514518645605 -0.013975893080989335 0 -0.0087015346275314057 -0.014227629986158398 0 -0.0089924105910453318 -0.013822751841275453 0 -0.0087015346275314057 -0.014227629986158398 0 -0.0094239189225298007 -0.013861346928841493 0 -0.0086745514518645605 -0.013975893080989335 0 -0.0089924105910453318 -0.013822751841275453 0 -0.0087015346275314057 -0.014227629986158398 0 -0.008876050704226271 -0.013460338037929908 0 -0.0086745514518645605 -0.013975893080989335 0 -0.0089924105910453318 -0.013822751841275453 0 -0.0093424104680952455 -0.013507376263957878 0 -0.0089924105910453318 -0.013822751841275453 0 -0.0094239189225298007 -0.013861346928841493 0 -0.0087015346275314057 -0.014227629986158398 0 -0.007998499783979313 -0.014440815184288474 0 -0.008372230638601267 -0.014001470268688011 0 -0.0086687408629129974 -0.014247913814305837 0 -0.0088492881219861038 -0.014349880286704976 0 -0.0079576680491000445 -0.014443233210137549 0 -0.0076207340826544775 -0.014285699588758374 0 -0.0086906248695535291 -0.014210395697716862 0 -0.0087015346275314057 -0.014227629986158398 0 -0.008372230638601267 -0.014001470268688011 0 -0.0087015346275314057 -0.014227629986158398 0 -0.0096024754772049952 -0.014238087623045962 0 -0.0094239189225298007 -0.013861346928841493 0 -0.009753829091627227 -0.013575740701763881 0 -0.0094239189225298007 -0.013861346928841493 0 -0.010026362417423714 -0.013827764148885573 0 -0.0096024754772049952 -0.014238087623045962 0 -0.0094239189225298007 -0.013861346928841493 0 -0.010026362417423714 -0.013827764148885573 0 -0.009753829091627227 -0.013575740701763881 0 -0.0093424104680952455 -0.013507376263957878 0 -0.0094239189225298007 -0.013861346928841493 0 -0.010026362417423714 -0.013827764148885573 0 -0.010461274679038762 -0.013634607205165149 0 -0.010321108352515818 -0.014191728837899131 0 -0.010187924070470157 -0.013548964037118739 0 -0.009753829091627227 -0.013575740701763881 0 -0.010026362417423714 -0.013827764148885573 0 -0.010187924070470157 -0.013548964037118739 0 -0.010026362417423714 -0.013827764148885573 0 -0.010461274679038762 -0.013634607205165149 0 -0.0096024754772049952 -0.014238087623045962 0 -0.010026362417423714 -0.013827764148885573 0 -0.010321108352515818 -0.014191728837899131 0 -0.0088492881219861038 -0.014349880286704976 0 -0.008474347182225065 -0.014035521753682388 0 -0.007998499783979313 -0.014440815184288474 0 -0.0074000817704350519 -0.014134358049353367 0 -0.0071984297835862784 -0.014437214855103624 0 -0.0074000817704350519 -0.014134358049353367 0 -0.0071984297835862784 -0.014437214855103624 0 -0.0072106179109024046 -0.014235375344611681 0 -0.007998499783979313 -0.014440815184288474 0 -0.0075385098682528694 -0.013785616719531796 0 -0.0074000817704350519 -0.014134358049353367 0 -0.0075385098682528694 -0.013785616719531796 0 -0.0074000817704350519 -0.014134358049353367 0 -0.0069704970360291007 -0.014089657502165951 0 -0.0064381701831005599 -0.014337264440315939 0 -0.0062936600747616348 -0.01408125921596696 0 -0.0064440373138450113 -0.014108975716889991 0 -0.0064381701831005599 -0.014337264440315939 0 -0.0067646777162173478 -0.014174675015969241 0 -0.006958304314241358 -0.01437362576518857 0 -0.0064381701831005599 -0.014337264440315939 0 -0.0067646777162173478 -0.014174675015969241 0 -0.0064440373138450113 -0.014108975716889991 0 -0.0070098811326368936 -0.014070375194708395 0 -0.0076207340826544775 -0.014285699588758374 0 -0.007998499783979313 -0.014440815184288474 0 -0.0075385098682528694 -0.013785616719531796 0 -0.008372230638601267 -0.014001470268688011 0 -0.0064381701831005599 -0.014337264440315939 0 -0.0068740637253756481 -0.014576018691838701 0 -0.006958304314241358 -0.01437362576518857 0 -0.0073320644348445641 -0.014646663473980257 0 -0.0068740637253756481 -0.014576018691838701 0 -0.0071905527883398806 -0.014492474538338511 0 -0.0068740637253756481 -0.014576018691838701 0 -0.006958304314241358 -0.01437362576518857 0 -0.0071905527883398806 -0.014492474538338511 0 -0.0067646777162173478 -0.014174675015969241 0 -0.006958304314241358 -0.01437362576518857 0 -0.0072220347887549342 -0.014230409885338502 0 -0.006958304314241358 -0.01437362576518857 0 -0.0072220347887549342 -0.014230409885338502 0 -0.0073266247645369566 -0.014364813097969404 0 -0.0075175447192558868 -0.01427647475750965 0 -0.0072220347887549342 -0.014230409885338502 0 -0.0073266247645369566 -0.014364813097969404 0 -0.006958304314241358 -0.01437362576518857 0 -0.0073266247645369566 -0.014364813097969404 0 -0.0071905527883398806 -0.014492474538338511 0 -0.0073266247645369566 -0.014364813097969404 0 -0.0071905527883398806 -0.014492474538338511 0 -0.0074205723876589443 -0.014483141184814833 0 -0.0073320644348445641 -0.014646663473980257 0 -0.0071905527883398806 -0.014492474538338511 0 -0.0074205723876589443 -0.014483141184814833 0 -0.0068484214521373566 -0.013988653637231787 0 -0.0069498569877455988 -0.0142127997616511 0 -0.0072415082311115724 -0.01396871900687336 0 -0.0064986700902327586 -0.014162577425925726 0 -0.0067249048870505271 -0.014291975324691291 0 -0.0065566752418122556 -0.014012974832074586 0 -0.0067268761984940941 -0.014080704687069552 0 -0.0067893276079548171 -0.014139770931751025 0 -0.0064740560249928279 -0.014060913547291451 0 -0.0068484214521373566 -0.013988653637231787 0 -0.0066871423906923909 -0.01424069405100694 0 -0.0064836358711795996 -0.01406291293352217 0 -0.0067268761984940941 -0.014080704687069552 0 -0.0064740560249928279 -0.014060913547291451 0 -0.0064986700902327586 -0.014162577425925726 0 -0.0064503361175954335 -0.014038049598304651 0 -0.0064620327933287876 -0.014288514306459953 0 -0.0066549023753019586 -0.014397859108825602 0 -0.0066871423906923909 -0.01424069405100694 0 -0.0068508534243595055 -0.014351172046585613 0 -0.0066549023753019586 -0.014397859108825602 0 -0.0066871423906923909 -0.01424069405100694 0 -0.0068508534243595055 -0.014351172046585613 0 -0.0069498569877455988 -0.0142127997616511 0 -0.0071968503062428465 -0.014319790615612133 0 -0.0068508534243595055 -0.014351172046585613 0 -0.0066871423906923909 -0.01424069405100694 0 -0.0069498569877455988 -0.0142127997616511 0 -0.0068484214521373566 -0.013988653637231787 0 -0.0066871423906923909 -0.01424069405100694 0 -0.0069498569877455988 -0.0142127997616511 0 -0.0071968503062428465 -0.014319790615612133 0 -0.007662652406145126 -0.013980773323296917 0 -0.0072415082311115724 -0.01396871900687336 0 -0.0069498569877455988 -0.0142127997616511 0 -0.0071968503062428465 -0.014319790615612133 0 -0.0072415082311115724 -0.01396871900687336 0 -0.010975658950022083 -0.013589595998837615 0 -0.010461274679038762 -0.013634607205165149 0 -0.010321108352515818 -0.014191728837899131 0 -0.009284346823921534 -0.014001493831584898 0 -0.008474347182225065 -0.014035521753682388 0 -0.0070663234924225413 -0.014255030852209421 0 -0.0067249048870505271 -0.014291975324691291 0 -0.0069704970360291007 -0.014089657502165951 0 -0.008474347182225065 -0.014035521753682388 0 -0.0067893276079548171 -0.014139770931751025 0 -0.0071984297835862784 -0.014437214855103624 0 -0.0070663234924225413 -0.014255030852209421 0 -0.0067249048870505271 -0.014291975324691291 0 -0.0070663234924225413 -0.014255030852209421 0 -0.0072106179109024046 -0.014235375344611681 0 -0.0069704970360291007 -0.014089657502165951 0 -0.0070663234924225413 -0.014255030852209421 0 -0.0072106179109024046 -0.014235375344611681 0 -0.0071742976832486986 -0.014336817082746584 0 -0.0071984297835862784 -0.014437214855103624 0 -0.0070663234924225413 -0.014255030852209421 0 -0.0071742976832486986 -0.014336817082746584 0 -0.0071984297835862784 -0.014437214855103624 0 -0.0072106179109024046 -0.014235375344611681 0 -0.0071742976832486986 -0.014336817082746584 0 -0.0069704970360291007 -0.014089657502165951 0 -0.0068822606198489398 -0.013782953373549981 0 -0.0065566752418122556 -0.014012974832074586 0 -0.0067249048870505271 -0.014291975324691291 0 -0.0069704970360291007 -0.014089657502165951 0 -0.0065566752418122556 -0.014012974832074586 0 -0.0075385098682528694 -0.013785616719531796 0 -0.0069704970360291007 -0.014089657502165951 0 -0.0068822606198489398 -0.013782953373549981 0 -0.0074000817704350519 -0.014134358049353367 0 -0.0072106179109024046 -0.014235375344611681 0 -0.0069704970360291007 -0.014089657502165951 0 -0.0070098811326368936 -0.014070375194708395 0 -0.0066160098278629535 -0.013946709966764614 0 -0.0066160098278629535 -0.013946709966764614 0 -0.0064987587890983087 -0.013938462848135075 0 -0.0068822606198489398 -0.013782953373549981 0 -0.0065566752418122556 -0.014012974832074586 0 -0.0064676966326429651 -0.013936563029366657 0 -0.0065566752418122556 -0.014012974832074586 0 -0.0064455428295250184 -0.013976547355930806 0 -0.0064676966326429651 -0.013936563029366657 0 -0.0064986700902327586 -0.014162577425925726 0 -0.0065566752418122556 -0.014012974832074586 0 -0.0064503361175954335 -0.014038049598304651 0 -0.0065566752418122556 -0.014012974832074586 0 -0.0064503361175954335 -0.014038049598304651 0 -0.0064455428295250184 -0.013976547355930806 0 -0.0064113185643391475 -0.013998292824657962 0 -0.0064503361175954335 -0.014038049598304651 0 -0.0064455428295250184 -0.013976547355930806 0 -0.0064455428295250184 -0.013976547355930806 0 -0.0064387793005723374 -0.014012258421810801 0 -0.0064312960020247835 -0.014020326959698615 0 -0.0064387793005723374 -0.014012258421810801 0 -0.0064423480671380092 -0.014059064590919046 0 -0.0064312960020247835 -0.014020326959698615 0 -0.0064387793005723374 -0.014012258421810801 0 -0.0064423480671380092 -0.014059064590919046 0 -0.0063997180287361684 -0.014070713319939662 0 -0.0064387793005723374 -0.014012258421810801 0 -0.0063895866774784024 -0.014033257061371388 0 -0.0063997180287361684 -0.014070713319939662 0 -0.0064455428295250184 -0.013976547355930806 0 -0.0064387793005723374 -0.014012258421810801 0 -0.0064676966326429651 -0.013936563029366657 0 -0.0064387793005723374 -0.014012258421810801 0 -0.0064676966326429651 -0.013936563029366657 0 -0.0063895866774784024 -0.014033257061371388 0 -0.0062936600747616348 -0.01408125921596696 0 -0.0064676966326429651 -0.013936563029366657 0 -0.006340324063026908 -0.014024374901149009 0 -0.0064676966326429651 -0.013936563029366657 0 -0.006340324063026908 -0.014024374901149009 0 -0.0063895866774784024 -0.014033257061371388 0 -0.0062936600747616348 -0.01408125921596696 0 -0.006340324063026908 -0.014024374901149009 0 -0.0063290048811965767 -0.014021768460813331 0 -0.006340324063026908 -0.014024374901149009 0 -0.0063339186254817454 -0.014059036615598937 0 -0.0063290048811965767 -0.014021768460813331 0 -0.0062965531658175384 -0.014055745485644415 0 -0.0063339186254817454 -0.014059036615598937 0 -0.0063290048811965767 -0.014021768460813331 0 -0.0063339186254817454 -0.014059036615598937 0 -0.0063895866774784024 -0.014033257061371388 0 -0.0063997180287361684 -0.014070713319939662 0 -0.006340324063026908 -0.014024374901149009 0 -0.0063339186254817454 -0.014059036615598937 0 -0.0063895866774784024 -0.014033257061371388 0 -0.0063339186254817454 -0.014059036615598937 0 -0.0063558389017482125 -0.014133182867636665 0 -0.0063997180287361684 -0.014070713319939662 0 -0.0063339186254817454 -0.014059036615598937 0 -0.0063558389017482125 -0.014133182867636665 0 -0.0063015957778662385 -0.014126420906417811 0 -0.0063558389017482125 -0.014133182867636665 0 -0.0063015957778662385 -0.014126420906417811 0 -0.0062832441576864771 -0.014202839544054267 0 -0.0062965531658175384 -0.014055745485644415 0 -0.0063339186254817454 -0.014059036615598937 0 -0.0063015957778662385 -0.014126420906417811 0 -0.0062965531658175384 -0.014055745485644415 0 -0.0063015957778662385 -0.014126420906417811 0 -0.0062444445584316595 -0.014163811091648352 0 -0.0062444445584316595 -0.014163811091648352 0 -0.0062065620406220098 -0.01425944723011115 0 -0.0061492979538488729 -0.014242224377322799 0 -0.0062444445584316595 -0.014163811091648352 0 -0.0062065620406220098 -0.01425944723011115 0 -0.0062832441576864771 -0.014202839544054267 0 -0.0063015957778662385 -0.014126420906417811 0 -0.0062444445584316595 -0.014163811091648352 0 -0.0062832441576864771 -0.014202839544054267 0 -0.0062065620406220098 -0.01425944723011115 0 -0.0062832441576864771 -0.014202839544054267 0 -0.0062661552542717051 -0.014298704394977079 0 -0.0063558389017482125 -0.014133182867636665 0 -0.0062832441576864771 -0.014202839544054267 0 -0.0063552814335742988 -0.014212704658891713 0 -0.0062832441576864771 -0.014202839544054267 0 -0.0063552814335742988 -0.014212704658891713 0 -0.0062661552542717051 -0.014298704394977079 0 -0.0063552814335742988 -0.014212704658891713 0 -0.0064493326196681851 -0.014204383487015179 0 -0.0064139964784288451 -0.014126007562919297 0 -0.0063552814335742988 -0.014212704658891713 0 -0.0064493326196681851 -0.014204383487015179 0 -0.006401163863247095 -0.014274092727992523 0 -0.0063558389017482125 -0.014133182867636665 0 -0.0063552814335742988 -0.014212704658891713 0 -0.0064139964784288451 -0.014126007562919297 0 -0.0064493326196681851 -0.014204383487015179 0 -0.0064616983809140547 -0.014108215861165998 0 -0.0065343575571297921 -0.014317097724421 0 -0.0065208389693466942 -0.01403623244888653 0 -0.006037033099022808 -0.014394802964246882 0 -0.0064616983809140547 -0.014108215861165998 0 -0.0064464172584538272 -0.014055614516522852 0 -0.0064267039832532815 -0.014074354611142327 0 -0.0064493326196681851 -0.014204383487015179 0 -0.0064616983809140547 -0.014108215861165998 0 -0.0064139964784288451 -0.014126007562919297 0 -0.0064616983809140547 -0.014108215861165998 0 -0.0064423480671380092 -0.014059064590919046 0 -0.0064139964784288451 -0.014126007562919297 0 -0.0064616983809140547 -0.014108215861165998 0 -0.0064423480671380092 -0.014059064590919046 0 -0.0064344900115958859 -0.014077443365617679 0 -0.0064423480671380092 -0.014059064590919046 0 -0.0063997180287361684 -0.014070713319939662 0 -0.0064139964784288451 -0.014126007562919297 0 -0.0063558389017482125 -0.014133182867636665 0 -0.0063997180287361684 -0.014070713319939662 0 -0.0064139964784288451 -0.014126007562919297 0 -0.0074553445030944533 -0.013710947248220468 0 -0.0070420457660622009 -0.01395431459398468 0 -0.0069071733420273283 -0.013532213598660602 0 -0.0076176880505705756 -0.014183925008226581 0 -0.0074553445030944533 -0.013710947248220468 0 -0.0070420457660622009 -0.01395431459398468 0 -0.0076176880505705756 -0.014183925008226581 0 -0.0072220347887549342 -0.014230409885338502 0 -0.0070420457660622009 -0.01395431459398468 0 -0.0067646777162173478 -0.014174675015969241 0 -0.0072220347887549342 -0.014230409885338502 0 -0.0070420457660622009 -0.01395431459398468 0 -0.0067646777162173478 -0.014174675015969241 0 -0.0070420457660622009 -0.01395431459398468 0 -0.0063999822164505444 -0.013915433784361156 0 -0.0070420457660622009 -0.01395431459398468 0 -0.0063999822164505444 -0.013915433784361156 0 -0.0069071733420273283 -0.013532213598660602 0 -0.0063999822164505444 -0.013915433784361156 0 -0.0063139803845169897 -0.014006851880911398 0 -0.0061608644603072917 -0.014129295037703236 0 -0.0063827599467387655 -0.013906642944367916 0 -0.0064408318142355056 -0.013810451558490354 0 -0.0063999822164505444 -0.013915433784361156 0 -0.0061608644603072917 -0.014129295037703236 0 -0.0059656491699664861 -0.014053802843989447 0 -0.0067646777162173478 -0.014174675015969241 0 -0.0063999822164505444 -0.013915433784361156 0 -0.0064440373138450113 -0.014108975716889991 0 -0.0062936600747616348 -0.01408125921596696 0 -0.0063290048811965767 -0.014021768460813331 0 -0.0064440373138450113 -0.014108975716889991 0 -0.0063999822164505444 -0.013915433784361156 0 -0.0063290048811965767 -0.014021768460813331 0 -0.0064440373138450113 -0.014108975716889991 0 -0.0062965531658175384 -0.014055745485644415 0 -0.0063290048811965767 -0.014021768460813331 0 -0.0063139803845169897 -0.014006851880911398 0 -0.0063999822164505444 -0.013915433784361156 0 -0.0063290048811965767 -0.014021768460813331 0 -0.0063139803845169897 -0.014006851880911398 0 -0.0062965531658175384 -0.014055745485644415 0 -0.0062444445584316595 -0.014163811091648352 0 -0.0062384336446510615 -0.014112226069619094 0 -0.0062965531658175384 -0.014055745485644415 0 -0.0063139803845169897 -0.014006851880911398 0 -0.0062384336446510615 -0.014112226069619094 0 -0.0063139803845169897 -0.014006851880911398 0 -0.0062384336446510615 -0.014112226069619094 0 -0.0061608644603072917 -0.014129295037703236 0 -0.0062384336446510615 -0.014112226069619094 0 -0.0061492979538488729 -0.014242224377322799 0 -0.0061608644603072917 -0.014129295037703236 0 -0.0062444445584316595 -0.014163811091648352 0 -0.0062384336446510615 -0.014112226069619094 0 -0.0061492979538488729 -0.014242224377322799 0 -0.0061492979538488729 -0.014242224377322799 0 -0.0060673540168432816 -0.014385153805427936 0 -0.0061415397131502018 -0.014312539971496558 0 -0.0062065620406220098 -0.01425944723011115 0 -0.0061492979538488729 -0.014242224377322799 0 -0.0061415397131502018 -0.014312539971496558 0 -0.0061492979538488729 -0.014242224377322799 0 -0.006022901257067865 -0.014317782058561726 0 -0.0060673540168432816 -0.014385153805427936 0 -0.006022901257067865 -0.014317782058561726 0 -0.0061608644603072917 -0.014129295037703236 0 -0.0059270806273183634 -0.014259202928403131 0 -0.0061492979538488729 -0.014242224377322799 0 -0.006022901257067865 -0.014317782058561726 0 -0.0061608644603072917 -0.014129295037703236 0 -0.0061608644603072917 -0.014129295037703236 0 -0.0059656491699664861 -0.014053802843989447 0 -0.0059270806273183634 -0.014259202928403131 0 -0.0059656491699664861 -0.014053802843989447 0 -0.0059270806273183634 -0.014259202928403131 0 -0.0057547466609610062 -0.014221582433308452 0 -0.006022901257067865 -0.014317782058561726 0 -0.0059270806273183634 -0.014259202928403131 0 -0.0058989718533369378 -0.014389889583116653 0 -0.0059270806273183634 -0.014259202928403131 0 -0.0058158171982225009 -0.014356058728218785 0 -0.0058989718533369378 -0.014389889583116653 0 -0.0059270806273183634 -0.014259202928403131 0 -0.0057547466609610062 -0.014221582433308452 0 -0.0058158171982225009 -0.014356058728218785 0 -0.0057334258036579894 -0.014343364377782723 0 -0.0057547466609610062 -0.014221582433308452 0 -0.0058158171982225009 -0.014356058728218785 0 -0.0074553445030944533 -0.013710947248220468 0 -0.0069071733420273283 -0.013532213598660602 0 -0.0073259494710245475 -0.013233160253119687 0 -0.0064408318142355056 -0.013810451558490354 0 -0.0064964029785218149 -0.013687732598381087 0 -0.0066851943762097346 -0.015436809002807809 0 -0.0064024964729849461 -0.015168595292288962 0 -0.00593034659270194 -0.014620314948876985 0 -0.0060546464223211437 -0.014619370892239766 0 -0.0058606537129295942 -0.014585077215788939 0 -0.007479486919194523 -0.016087641767447435 0 -0.0069238948089253996 -0.015754551737066358 0 -0.0073233958049386868 -0.015701840489008148 0 -0.0075820065656797284 -0.015820112337192577 0 -0.007479486919194523 -0.016087641767447435 0 -0.0073233958049386868 -0.015701840489008148 0 -0.00593034659270194 -0.014620314948876985 0 -0.0060546464223211437 -0.014619370892239766 0 -0.0059750166275754444 -0.014717813915591845 0 -0.0056320738545337047 -0.014353376887304561 0 -0.0057334258036579894 -0.014343364377782723 0 -0.0057674315042072228 -0.014443996564853087 0 -0.0062807688819396038 -0.014890578696078377 0 -0.0060546464223211437 -0.014619370892239766 0 -0.0059750166275754444 -0.014717813915591845 0 -0.0057334258036579894 -0.014343364377782723 0 -0.0058158171982225009 -0.014356058728218785 0 -0.0057674315042072228 -0.014443996564853087 0 -0.0058158171982225009 -0.014356058728218785 0 -0.0057674315042072228 -0.014443996564853087 0 -0.0058334467878030588 -0.014420438582322845 0 -0.0058334467878030588 -0.014420438582322845 0 -0.0058989718533369378 -0.014389889583116653 0 -0.0058599426572313222 -0.014468607248883531 0 -0.0057674315042072228 -0.014443996564853087 0 -0.0058334467878030588 -0.014420438582322845 0 -0.0058599426572313222 -0.014468607248883531 0 -0.0058158171982225009 -0.014356058728218785 0 -0.0058334467878030588 -0.014420438582322845 0 -0.0058989718533369378 -0.014389889583116653 0 -0.0058989718533369378 -0.014389889583116653 0 -0.0058599426572313222 -0.014468607248883531 0 -0.0059446345757060764 -0.014466634921913957 0 -0.0058599426572313222 -0.014468607248883531 0 -0.0058606136185173291 -0.014575471885463034 0 -0.0059446345757060764 -0.014466634921913957 0 -0.00593034659270194 -0.014620314948876985 0 -0.0059750166275754444 -0.014717813915591845 0 -0.0058606136185173291 -0.014575471885463034 0 -0.0057674315042072228 -0.014443996564853087 0 -0.0058599426572313222 -0.014468607248883531 0 -0.0058606136185173291 -0.014575471885463034 0 -0.0056835040161262234 -0.01456343796946258 0 -0.0059348032004004313 -0.014604561248660568 0 -0.00593034659270194 -0.014620314948876985 0 -0.0058606136185173291 -0.014575471885463034 0 -0.0058606537129295942 -0.014585077215788939 0 -0.0058606136185173291 -0.014575471885463034 0 -0.0058533951546929433 -0.014634316052500271 0 -0.0058606537129295942 -0.014585077215788939 0 -0.0058606136185173291 -0.014575471885463034 0 -0.0059056440288901947 -0.014584610161516406 0 -0.0058533951546929433 -0.014634316052500271 0 -0.0059056440288901947 -0.014584610161516406 0 -0.0059446345757060764 -0.014466634921913957 0 -0.0059786957588136135 -0.014497037395226352 0 -0.0058606136185173291 -0.014575471885463034 0 -0.0059056440288901947 -0.014584610161516406 0 -0.0059446345757060764 -0.014466634921913957 0 -0.0059446345757060764 -0.014466634921913957 0 -0.0060673540168432816 -0.014385153805427936 0 -0.0059786957588136135 -0.014497037395226352 0 -0.006022901257067865 -0.014317782058561726 0 -0.0059446345757060764 -0.014466634921913957 0 -0.0060673540168432816 -0.014385153805427936 0 -0.006022901257067865 -0.014317782058561726 0 -0.0058989718533369378 -0.014389889583116653 0 -0.0059446345757060764 -0.014466634921913957 0 -0.0060673540168432816 -0.014385153805427936 0 -0.005997196377760498 -0.014548498588769224 0 -0.0061429229507109998 -0.014399637601975036 0 -0.0060673540168432816 -0.014385153805427936 0 -0.0061415397131502018 -0.014312539971496558 0 -0.0061429229507109998 -0.014399637601975036 0 -0.0060673540168432816 -0.014385153805427936 0 -0.0059786957588136135 -0.014497037395226352 0 -0.005997196377760498 -0.014548498588769224 0 -0.0059056440288901947 -0.014584610161516406 0 -0.0059786957588136135 -0.014497037395226352 0 -0.005997196377760498 -0.014548498588769224 0 -0.0059056440288901947 -0.014584610161516406 0 -0.005997196377760498 -0.014548498588769224 0 -0.0058724045410420492 -0.014676309310949258 0 -0.005997196377760498 -0.014548498588769224 0 -0.005853766168218452 -0.014785783163940778 0 -0.0058724045410420492 -0.014676309310949258 0 -0.005853766168218452 -0.014785783163940778 0 -0.0058724045410420492 -0.014676309310949258 0 -0.0058111464713154135 -0.014739332009760414 0 -0.005853766168218452 -0.014785783163940778 0 -0.0057979034055156272 -0.014999691437057554 0 -0.0056198166664009333 -0.015000085048739601 0 -0.005853766168218452 -0.014785783163940778 0 -0.0057979034055156272 -0.014999691437057554 0 -0.0058111464713154135 -0.014739332009760414 0 -0.0057993431595740261 -0.015000012309518081 0 -0.0060900473265623712 -0.015076178326654978 0 -0.0057992610641659252 -0.015000007521502332 0 -0.0063566443827615211 -0.015398625097516053 0 -0.0066762882057504009 -0.014999945188869802 0 -0.0058111464713154135 -0.014739332009760414 0 -0.0058533951546929433 -0.014634316052500271 0 -0.0058606537129295942 -0.014585077215788939 0 -0.0058724045410420492 -0.014676309310949258 0 -0.0058111464713154135 -0.014739332009760414 0 -0.0058533951546929433 -0.014634316052500271 0 -0.0059056440288901947 -0.014584610161516406 0 -0.0058724045410420492 -0.014676309310949258 0 -0.0058533951546929433 -0.014634316052500271 0 -0.0060900473265623712 -0.015076178326654978 0 -0.0064024964729849461 -0.015168595292288962 0 -0.0063566443827615211 -0.015398625097516053 0 -0.0069238948089253996 -0.015754551737066358 0 -0.0070649518868128652 -0.015356936096008416 0 -0.0063566443827615211 -0.015398625097516053 0 -0.0066762882057504009 -0.014999945188869802 0 -0.0070649518868128652 -0.015356936096008416 0 -0.0075533579736056121 -0.01499991565159416 0 -0.0066762882057504009 -0.014999945188869802 0 -0.0070649518868128652 -0.015356936096008416 0 -0.0075626044095077902 -0.015487544329578056 0 -0.0075533579736056121 -0.01499991565159416 0 -0.0070649518868128652 -0.015356936096008416 0 -0.0075626044095077902 -0.015487544329578056 0 -0.0070649518868128652 -0.015356936096008416 0 -0.0073233958049386868 -0.015701840489008148 0 -0.0069238948089253996 -0.015754551737066358 0 -0.0070649518868128652 -0.015356936096008416 0 -0.0073233958049386868 -0.015701840489008148 0 -0.0075820065656797284 -0.015820112337192577 0 -0.0075626044095077902 -0.015487544329578056 0 -0.0073233958049386868 -0.015701840489008148 0 -0.0064147219079092807 -0.014391187530166941 0 -0.0063135026555811357 -0.014566539512128562 0 -0.0065314829050461898 -0.014628413707619437 0 -0.0049077219657468066 -0.014776868907960499 0 -0.0048541825896012353 -0.014553457927316807 0 -0.0050175898133621097 -0.014763070478090806 0 -0.0049077219657468066 -0.014776868907960499 0 -0.0048541825896012353 -0.014553457927316807 0 -0.0048233084970585819 -0.014824101910686744 0 -0.0065343575571297921 -0.014317097724421 0 -0.0064147219079092807 -0.014391187530166941 0 -0.0065314829050461898 -0.014628413707619437 0 -0.006037033099022808 -0.014394802964246882 0 -0.0051579264171077105 -0.014830907400493459 0 -0.006037033099022808 -0.014394802964246882 0 -0.0044804431592954707 -0.014169562422985303 0 -0.0064493326196681851 -0.014204383487015179 0 -0.0065343575571297921 -0.014317097724421 0 -0.0064483396821248123 -0.014293824046156889 0 -0.0064483396821248123 -0.014293824046156889 0 -0.0064147219079092807 -0.014391187530166941 0 -0.006401163863247095 -0.014274092727992523 0 -0.0064493326196681851 -0.014204383487015179 0 -0.0064483396821248123 -0.014293824046156889 0 -0.006401163863247095 -0.014274092727992523 0 -0.0065343575571297921 -0.014317097724421 0 -0.0064483396821248123 -0.014293824046156889 0 -0.0064147219079092807 -0.014391187530166941 0 -0.0064147219079092807 -0.014391187530166941 0 -0.006401163863247095 -0.014274092727992523 0 -0.0063343071496868974 -0.014313445683705231 0 -0.0063552814335742988 -0.014212704658891713 0 -0.006401163863247095 -0.014274092727992523 0 -0.0063343071496868974 -0.014313445683705231 0 -0.0062661552542717051 -0.014298704394977079 0 -0.0061429229507109998 -0.014399637601975036 0 -0.0062534503067922954 -0.014435122252926182 0 -0.0064147219079092807 -0.014391187530166941 0 -0.0063343071496868974 -0.014313445683705231 0 -0.0062534503067922954 -0.014435122252926182 0 -0.0063552814335742988 -0.014212704658891713 0 -0.0063343071496868974 -0.014313445683705231 0 -0.0062661552542717051 -0.014298704394977079 0 -0.0063343071496868974 -0.014313445683705231 0 -0.0062661552542717051 -0.014298704394977079 0 -0.0062534503067922954 -0.014435122252926182 0 -0.0062065620406220098 -0.01425944723011115 0 -0.0061415397131502018 -0.014312539971496558 0 -0.0061429229507109998 -0.014399637601975036 0 -0.0062065620406220098 -0.01425944723011115 0 -0.0062661552542717051 -0.014298704394977079 0 -0.0061429229507109998 -0.014399637601975036 0 -0.005997196377760498 -0.014548498588769224 0 -0.0061429229507109998 -0.014399637601975036 0 -0.006114286418961455 -0.014596794553502997 0 -0.0061429229507109998 -0.014399637601975036 0 -0.0062534503067922954 -0.014435122252926182 0 -0.006114286418961455 -0.014596794553502997 0 -0.0064147219079092807 -0.014391187530166941 0 -0.0063135026555811357 -0.014566539512128562 0 -0.0062534503067922954 -0.014435122252926182 0 -0.0063135026555811357 -0.014566539512128562 0 -0.0062534503067922954 -0.014435122252926182 0 -0.006114286418961455 -0.014596794553502997 0 -0.0063135026555811357 -0.014566539512128562 0 -0.006114286418961455 -0.014596794553502997 0 -0.006245089879204785 -0.01481148478283085 0 -0.005997196377760498 -0.014548498588769224 0 -0.005853766168218452 -0.014785783163940778 0 -0.006114286418961455 -0.014596794553502997 0 -0.005853766168218452 -0.014785783163940778 0 -0.006114286418961455 -0.014596794553502997 0 -0.006245089879204785 -0.01481148478283085 0 -0.0056179032542689753 -0.01499998776311676 0 -0.0055920174450223743 -0.015121513842995357 0 -0.005853766168218452 -0.014785783163940778 0 -0.0056198166664009333 -0.015000085048739601 0 -0.006245089879204785 -0.01481148478283085 0 -0.0056178075152970861 -0.015000011239915461 0 -0.0048311365644207044 -0.014999968892940863 0 -0.0048614629401722911 -0.015362520895581079 0 -0.0048309986148589133 -0.01500000046666021 0 -0.0041279994604730046 -0.015454079101508139 0 -0.0041652067113804158 -0.014999996571713912 0 -0.0048306179793419684 -0.015000224497430915 0 -0.0043941587541144449 -0.015353958362747491 0 -0.0048311365644207044 -0.014999968892940863 0 -0.0048614629401722911 -0.015362520895581079 0 -0.0042898568655732215 -0.015383553750428807 0 -0.0063135026555811357 -0.014566539512128562 0 -0.006245089879204785 -0.01481148478283085 0 -0.0065314829050461898 -0.014628413707619437 0 -0.0048614629401722911 -0.015362520895581079 0 -0.0042701785171760593 -0.015667362733851855 0 -0.0042898568655732215 -0.015383553750428807 0 -0.0055920174450223743 -0.015121513842995357 0 -0.0051579264171077105 -0.014830907400493459 0 -0.0043941587541144449 -0.015353958362747491 0 -0.0038463566170308184 -0.015083045426610538 0 -0.0049077219657468066 -0.014776868907960499 0 -0.0048067431589129128 -0.014833747445063484 0 -0.0050031282345267096 -0.014827672703553434 0 -0.0048067431589129128 -0.014833747445063484 0 -0.0047917766538847321 -0.014972759143128221 0 -0.0050031282345267096 -0.014827672703553434 0 -0.0048833771720806505 -0.014861043674522676 0 -0.0051579264171077105 -0.014830907400493459 0 -0.0051579264171077105 -0.014830907400493459 0 -0.0043941587541144449 -0.015353958362747491 0 -0.0041154773810092244 -0.015426403889880477 0 -0.0037710875659905971 -0.015000005484097866 0 -0.0035695074671476057 -0.015771821536174038 0 -0.0043941587541144449 -0.015353958362747491 0 -0.004165213004273657 -0.015000218061256818 0 -0.0041154773810092244 -0.015426403889880477 0 -0.0041651179428652402 -0.014999979504864678 0 -0.0037710875659905971 -0.015000005484097866 0 -0.0037709005583090676 -0.015000017834250638 0 -0.0030933817735913373 -0.015504026427474244 0 -0.0035206682953034742 -0.015776570515381227 0 -0.0037709005583090676 -0.015000017834250638 0 -0.0032333493618460279 -0.014999940531469764 0 -0.0030933817735913373 -0.015504026427474244 0 -0.0037705449574257691 -0.015001369266808125 0 -0.0038463566170308184 -0.015083045426610538 0 -0.0032333493618460279 -0.014999940531469764 0 -0.0030933817735913373 -0.015504026427474244 0 -0.0027944280813975205 -0.015146831969334968 0 -0.0032332652052027666 -0.01499999849871813 0 -0.0026360431239607217 -0.01499999752665503 0 -0.0027715219115392979 -0.015163179806283421 0 -0.0032333258584442072 -0.01499992361923419 0 -0.0022694715409041092 -0.014587541607791623 0 -0.0022731954365288552 -0.014219265303393029 0 -0.0022694715409041092 -0.014587541607791623 0 -0.001548493400728754 -0.013076929948337299 0 -0.0015053847969674328 -0.013211907730724583 0 -0.001335088854810754 -0.013147930578086584 0 -0.001548493400728754 -0.013076929948337299 0 -0.001420192404430712 -0.012928229333170154 0 -0.001335088854810754 -0.013147930578086584 0 -0.0022731954365288552 -0.014219265303393029 0 -0.0030784883792568441 -0.014101038887737378 0 -0.001548493400728754 -0.013076929948337299 0 -0.0015053847969674328 -0.013211907730724583 0 -0.0016771339716938366 -0.013226776874595831 0 -0.0030933817735913373 -0.015504026427474244 0 -0.0033954358476661322 -0.015853460982068593 0 -0.0035206682953034742 -0.015776570515381227 0 -0.0030784883792568441 -0.014101038887737378 0 -0.0038463566170308184 -0.015083045426610538 0 -0.0038463566170308184 -0.015083045426610538 0 -0.0044804431592954707 -0.014169562422985303 0 -0.0043814205654062275 -0.014477963669846038 0 -0.0039674483672344262 -0.014747955674437862 0 -0.0041298948374082446 -0.014172653692730425 0 -0.0021937364892726198 -0.015000000846481802 0 -0.0017084442256409054 -0.015207780976179435 0 -0.0017428891689973266 -0.01499999753074391 0 -0.002008253692646394 -0.015347153022393504 0 -0.0021938189062500318 -0.014999951713772284 0 -0.00175754456776917 -0.015181789858578936 0 -0.0020407322228360226 -0.015371643719879226 0 -0.0021938189062500318 -0.014999951713772284 0 -0.0027623256958175493 -0.015158582364945368 0 -0.0021936073871297638 -0.015000055556590839 0 -0.0017367570960650136 -0.015194096508201641 0 -0.002008253692646394 -0.015347153022393504 0 -0.0020407322228360226 -0.015371643719879226 0 -0.0021938189062500318 -0.014999951713772284 0 -0.0021938189062500318 -0.014999951713772284 0 -0.0026359505869125392 -0.015000007068653657 0 -0.0027623256958175493 -0.015158582364945368 0 -0.0011064135432544368 -0.013031820853090516 0 -0.001420192404430712 -0.012928229333170154 0 -0.001335088854810754 -0.013147930578086584 0 -0.0015540417208078404 -0.014139904391478674 0 -0.0022694715409041092 -0.014587541607791623 0 -0.0026360109899867703 -0.014999993196015372 0 -0.0022694715409041092 -0.014587541607791623 0 -0.0011064135432544368 -0.013031820853090516 0 -0.001335088854810754 -0.013147930578086584 0 -0.0010401676319512527 -0.013318376235375934 0 -0.0010401676319512527 -0.013318376235375934 0 -0.0013478330206638301 -0.013315112681185839 0 -0.0013187184407218073 -0.013471901098007213 0 -0.001335088854810754 -0.013147930578086584 0 -0.0010401676319512527 -0.013318376235375934 0 -0.0013478330206638301 -0.013315112681185839 0 -0.0013478330206638301 -0.013315112681185839 0 -0.0013187184407218073 -0.013471901098007213 0 -0.0015223281746160546 -0.013312846818223959 0 -0.0015053847969674328 -0.013211907730724583 0 -0.001335088854810754 -0.013147930578086584 0 -0.0013478330206638301 -0.013315112681185839 0 -0.0010401676319512527 -0.013318376235375934 0 -0.0013187184407218073 -0.013471901098007213 0 -0.0010136339826736017 -0.013596505438784443 0 -0.0049077219657468066 -0.014776868907960499 0 -0.0050031282345267096 -0.014827672703553434 0 -0.0050175898133621097 -0.014763070478090806 0 -0.0016921501779197574 -0.013216955949252245 0 -0.0017254044130606164 -0.013257357496721512 0 -0.0015223281746160546 -0.013312846818223959 0 -0.0030784883792568441 -0.014101038887737378 0 -0.0044804431592954707 -0.014169562422985303 0 -0.0015053847969674328 -0.013211907730724583 0 -0.0016771339716938366 -0.013226776874595831 0 -0.0015223281746160546 -0.013312846818223959 0 -0.0017254044130606164 -0.013257357496721512 0 -0.0015223281746160546 -0.013312846818223959 0 -0.0016207388818375453 -0.013565807278700345 0 -0.0030784883792568441 -0.014101038887737378 0 -0.0014566496339989755 -0.013530055182950414 0 -0.0015053847969674328 -0.013211907730724583 0 -0.0013478330206638301 -0.013315112681185839 0 -0.0015223281746160546 -0.013312846818223959 0 -0.0013187184407218073 -0.013471901098007213 0 -0.0016207388818375453 -0.013565807278700345 0 -0.001464475276835973 -0.013639311777494584 0 -0.0013187184407218073 -0.013471901098007213 0 -0.0015223281746160546 -0.013312846818223959 0 -0.0016207388818375453 -0.013565807278700345 0 -0.006387920793934695 -0.014017009675738509 0 -0.0064007359846934208 -0.014068019815321169 0 -0.0064267039832532815 -0.014074354611142327 0 -0.0044804431592954707 -0.014169562422985303 0 -0.0039652466941186466 -0.013707598059657378 0 -0.0064464172584538272 -0.014055614516522852 0 -0.006387920793934695 -0.014017009675738509 0 -0.0064267039832532815 -0.014074354611142327 0 -0.0064007359846934208 -0.014068019815321169 0 -0.0064344900115958859 -0.014077443365617679 0 -0.0064229345996894196 -0.014056876096056315 0 -0.0064007359846934208 -0.014068019815321169 0 -0.0064267039832532815 -0.014074354611142327 0 -0.0064344900115958859 -0.014077443365617679 0 -0.0064616983809140547 -0.014108215861165998 0 -0.0064267039832532815 -0.014074354611142327 0 -0.0064344900115958859 -0.014077443365617679 0 -0.0064344900115958859 -0.014077443365617679 0 -0.0064229345996894196 -0.014056876096056315 0 -0.0064312960020247835 -0.014020326959698615 0 -0.0039652466941186466 -0.013707598059657378 0 -0.0039836671172305818 -0.013938833017568764 0 -0.0016207388818375453 -0.013565807278700345 0 -0.0015388395824748762 -0.013792664797302743 0 -0.001464475276835973 -0.013639311777494584 0 -0.0013187184407218073 -0.013471901098007213 0 -0.001464475276835973 -0.013639311777494584 0 -0.0013810071663062757 -0.013719208790481951 0 -0.0013212379915385297 -0.013484498600669333 0 -0.0012997609010896398 -0.013698573027266066 0 -0.0013187184407218073 -0.013471901098007213 0 -0.0010136339826736017 -0.013596505438784443 0 -0.0012229214511939967 -0.013722977829375482 0 -0.0010136339826736017 -0.013596505438784443 0 -0.0010166052416469534 -0.013816613951786214 0 -0.0012229214511939967 -0.013722977829375482 0 -0.0010166052416469534 -0.013816613951786214 0 -0.0012229214511939967 -0.013722977829375482 0 -0.0011716910915088113 -0.014009467292053992 0 -0.0015388395824748762 -0.013792664797302743 0 -0.0013810071663062757 -0.013719208790481951 0 -0.0014563286185511567 -0.013814829984075596 0 -0.0015388395824748762 -0.013792664797302743 0 -0.001464475276835973 -0.013639311777494584 0 -0.0013810071663062757 -0.013719208790481951 0 -0.0012997609010896398 -0.013698573027266066 0 -0.0013389714936591344 -0.013996315688300775 0 -0.0013810071663062757 -0.013719208790481951 0 -0.0014563286185511567 -0.013814829984075596 0 -0.0014198775281936105 -0.013869144056706976 0 -0.0015388395824748762 -0.013792664797302743 0 -0.0014563286185511567 -0.013814829984075596 0 -0.0014699749595361222 -0.013887209369331761 0 -0.0014563286185511567 -0.013814829984075596 0 -0.0014198775281936105 -0.013869144056706976 0 -0.0014699749595361222 -0.013887209369331761 0 -0.0010166052416469534 -0.013816613951786214 0 -0.0011716910915088113 -0.014009467292053992 0 -0.00093656720913290535 -0.014044251155328228 0 -0.00082077451495496585 -0.013829762615216698 0 -0.00075342369219903325 -0.013903660842304979 0 -0.00047042718574330088 -0.013664103079302955 0 -0.00054303929015002753 -0.013681867072648533 0 -0.0005644019282953171 -0.013721217952087169 0 -0.0011267795333698215 -0.014295408329026602 0 -0.0011716910915088113 -0.014009467292053992 0 -0.00093656720913290535 -0.014044251155328228 0 -0.00082077451495496585 -0.013829762615216698 0 -0.0013389714936591344 -0.013996315688300775 0 -0.0016245122448808539 -0.013557896324261647 0 -0.0014897375658395441 -0.013928445530593534 0 -0.0015075525090763255 -0.013917252629788126 0 -0.0010250487194164513 -0.013252315721563998 0 -0.00155672847949834 -0.01400056770629101 0 -0.0014202355111081284 -0.013970499445938641 0 -0.0014699749595361222 -0.013887209369331761 0 -0.0015075525090763255 -0.013917252629788126 0 -0.0014202355111081284 -0.013970499445938641 0 -0.0014198775281936105 -0.013869144056706976 0 -0.0014699749595361222 -0.013887209369331761 0 -0.0014699749595361222 -0.013887209369331761 0 -0.0014897375658395441 -0.013928445530593534 0 -0.0015075525090763255 -0.013917252629788126 0 -0.0064113185643391475 -0.013998292824657962 0 -0.0064455428295250184 -0.013976547355930806 0 -0.0064312960020247835 -0.014020326959698615 0 -0.0064113185643391475 -0.013998292824657962 0 -0.0063954847779572341 -0.014009833512002148 0 -0.0064312960020247835 -0.014020326959698615 0 -0.0064423480671380092 -0.014059064590919046 0 -0.0064344900115958859 -0.014077443365617679 0 -0.0064312960020247835 -0.014020326959698615 0 -0.0015388395824748762 -0.013792664797302743 0 -0.0014699749595361222 -0.013887209369331761 0 -0.0014897375658395441 -0.013928445530593534 0 -0.0039836671172305818 -0.013938833017568764 0 -0.0039435520522909046 -0.013997031612120028 0 -0.0064229345996894196 -0.014056876096056315 0 -0.0063954847779572341 -0.014009833512002148 0 -0.0064312960020247835 -0.014020326959698615 0 -0.00057302176620037046 -0.013713151857523311 0 -0.00058494642926765498 -0.013701972161359977 0 -0.00046724112776506586 -0.013714223091178025 0 -0.00057302176620037046 -0.013713151857523311 0 -0.00059851481739349422 -0.013710475367517266 0 -0.00058494642926765498 -0.013701972161359977 0 0.00076825590364898032 -0.012922400120181856 0 0.0005143143267151419 -0.013328871981242378 0 -0.00059851481739349422 -0.013710475367517266 0 -0.00054303929015002753 -0.013681867072648533 0 -0.0005644019282953171 -0.013721217952087169 0 -0.00055473988512944018 -0.013660459664386056 0 -0.00059851481739349422 -0.013710475367517266 0 -0.00054303929015002753 -0.013681867072648533 0 -0.00075342369219903325 -0.013903660842304979 0 -0.00069246768207170814 -0.013725155669914989 0 -0.00059851481739349422 -0.013710475367517266 0 -0.0007020250780994799 -0.013728273808737163 0 -0.00058494642926765498 -0.013701972161359977 0 -0.00059851481739349422 -0.013710475367517266 0 -0.0005644019282953171 -0.013721217952087169 0 -0.0007020250780994799 -0.013728273808737163 0 -0.0010136339826736017 -0.013596505438784443 0 -0.0010166052416469534 -0.013816613951786214 0 -0.0007020250780994799 -0.013728273808737163 0 -0.0010166052416469534 -0.013816613951786214 0 -0.00093656720913290535 -0.014044251155328228 0 -0.0007020250780994799 -0.013728273808737163 0 -0.0010136339826736017 -0.013596505438784443 0 -0.0007020250780994799 -0.013728273808737163 0 -0.00077503510046448881 -0.013505764528985957 0 -0.0007020250780994799 -0.013728273808737163 0 -0.0006487279947052795 -0.013606298760383377 0 -0.00077503510046448881 -0.013505764528985957 0 -0.0006487279947052795 -0.013606298760383377 0 -0.00058494642926765498 -0.013701972161359977 0 -0.0005476506011655492 -0.013573002226517111 0 -0.0007020250780994799 -0.013728273808737163 0 -0.0006487279947052795 -0.013606298760383377 0 -0.00058494642926765498 -0.013701972161359977 0 -0.00058494642926765498 -0.013701972161359977 0 -0.00050508140093726592 -0.013633023109877256 0 -0.00046724112776506586 -0.013714223091178025 0 -0.00058494642926765498 -0.013701972161359977 0 -0.00050508140093726592 -0.013633023109877256 0 -0.0005476506011655492 -0.013573002226517111 0 -0.00050508140093726592 -0.013633023109877256 0 -0.0005476506011655492 -0.013573002226517111 0 -0.00045430967584722071 -0.013552876943523973 0 -0.0005476506011655492 -0.013573002226517111 0 -0.00047524561363869618 -0.013412003705360069 0 -0.00045430967584722071 -0.013552876943523973 0 -0.0005476506011655492 -0.013573002226517111 0 -0.00061538661497811497 -0.013457152584808823 0 -0.00047524561363869618 -0.013412003705360069 0 -0.0006487279947052795 -0.013606298760383377 0 -0.0005476506011655492 -0.013573002226517111 0 -0.00061538661497811497 -0.013457152584808823 0 -0.00061538661497811497 -0.013457152584808823 0 -0.00057332042823070686 -0.0132889675184076 0 -0.00072503353671221681 -0.013342744232282279 0 -0.00043383069017674563 -0.014370976345232277 0 -0.00036739367708573767 -0.014387714533851671 0 -0.00037408711009220944 -0.014407607654161343 0 -0.00070178849700014553 -0.014661266537710887 0 -0.00030965277359083982 -0.014903284705854655 0 -0.0006357335722154034 -0.015278745474802553 0 -0.00027960522938415082 -0.01540364051597075 0 -0.00039807894547524552 -0.015208407307933961 0 -0.00070178849700014553 -0.014661266537710887 0 -0.00044908185953372657 -0.013866285917491374 0 -0.00061538661497811497 -0.013457152584808823 0 -0.00057332042823070686 -0.0132889675184076 0 -0.00047524561363869618 -0.013412003705360069 0 -0.0010401676319512527 -0.013318376235375934 0 -0.0010136339826736017 -0.013596505438784443 0 -0.00077503510046448881 -0.013505764528985957 0 -0.0006487279947052795 -0.013606298760383377 0 -0.00061538661497811497 -0.013457152584808823 0 -0.00077503510046448881 -0.013505764528985957 0 -0.00061538661497811497 -0.013457152584808823 0 -0.00077503510046448881 -0.013505764528985957 0 -0.00072503353671221681 -0.013342744232282279 0 -0.00057332042823070686 -0.0132889675184076 0 -0.00072503353671221681 -0.013342744232282279 0 -0.00081097520595059395 -0.013155531511843828 0 -0.0010401676319512527 -0.013318376235375934 0 -0.00077503510046448881 -0.013505764528985957 0 -0.00072503353671221681 -0.013342744232282279 0 -0.0010401676319512527 -0.013318376235375934 0 -0.00072503353671221681 -0.013342744232282279 0 -0.00081097520595059395 -0.013155531511843828 0 -0.002008253692646394 -0.015347153022393504 0 -0.0015188994721915818 -0.015479450009510747 0 -0.001381295584668141 -0.015357016554804755 0 -0.0011064135432544368 -0.013031820853090516 0 -0.0010401676319512527 -0.013318376235375934 0 -0.00081097520595059395 -0.013155531511843828 0 -0.0015540417208078404 -0.014139904391478674 0 -0.0011985039157853361 -0.014296823116614558 0 -0.002008253692646394 -0.015347153022393504 0 -0.0020407322228360226 -0.015371643719879226 0 -0.0015188994721915818 -0.015479450009510747 0 -0.0010112220707063444 -0.015623065210083411 0 -0.0015188994721915818 -0.015479450009510747 0 -0.001381295584668141 -0.015357016554804755 0 -0.0011436751638993021 -0.01540108131793474 0 -0.0010328132961724874 -0.0154157005501258 0 -0.0012316475906381165 -0.015330716699377795 0 -0.00096530711831646968 -0.015404000864360471 0 -0.0012477393290139518 -0.015368492513363119 0 -0.0012007458363413792 -0.01537078608981059 0 -0.0012477393290139518 -0.015368492513363119 0 -0.0012007458363413792 -0.01537078608981059 0 -0.00096530711831646968 -0.015404000864360471 0 -0.0012214541997987445 -0.015419387921252111 0 -0.0017428809494713403 -0.014999999305498699 0 -0.00087114208738993089 -0.014999997454770698 0 -0.00094563047971383152 -0.015538179994263891 0 -0.0012214541997987445 -0.015419387921252111 0 -0.00087114208738993089 -0.014999997454770698 0 -0.002008253692646394 -0.015347153022393504 0 -0.0013295719644484049 -0.015366067982440905 0 -0.00175754456776917 -0.015181789858578936 0 -0.0012477393290139518 -0.015368492513363119 0 -0.0017427261348498934 -0.015000135723280931 0 -0.0020186075874617992 -0.015353913805099522 0 -0.0012007458363413792 -0.01537078608981059 0 -0.002008253692646394 -0.015347153022393504 0 -0.0012220673873076856 -0.015452516424193697 0 -0.0013295719644484049 -0.015366067982440905 0 -0.0012477393290139518 -0.015368492513363119 0 -0.0017367570960650136 -0.015194096508201641 0 -0.001231055331077741 -0.015414917012298869 0 -0.0017084442256409054 -0.015207780976179435 0 -0.0017428891689973266 -0.01499999753074391 0 -0.00070178849700014553 -0.014661266537710887 0 -0.0012007458363413792 -0.01537078608981059 0 -0.00070178849700014553 -0.014661266537710887 0 -0.0011985039157853361 -0.014296823116614558 0 -0.0006357335722154034 -0.015278745474802553 0 -0.00090367442175909253 -0.014998487399727874 0 -0.00039807894547524552 -0.015208407307933961 0 -0.0006357335722154034 -0.015278745474802553 0 -0.0010110798518662813 -0.014985242432480493 0 -0.00090367442175909253 -0.014998487399727874 0 -0.0009549762294844466 -0.015515873277949604 0 -0.00022801242394046315 -0.015833455636220642 0 -0.0002418811219376961 -0.015616495259888633 0 -0.00096530711831646968 -0.015404000864360471 0 -0.00031175954816107479 -0.015501474748623472 0 -0.00094563047971383152 -0.015538179994263891 0 -0.00023695841530791634 -0.015632069370507037 0 -0.00055500752747515139 -0.015317210002716871 0 -0.00096530711831646968 -0.015404000864360471 0 -0.00022517839390969821 -0.015637610733720914 0 -0.00094563047971383152 -0.015538179994263891 0 -0.00055500752747515139 -0.015317210002716871 0 -0.00087114208738993089 -0.014999997454770698 0 -0.00055500752747515139 -0.015317210002716871 0 -0.00087114208738993089 -0.014999997454770698 0 5.9946062409783435e-07 -0.014999996326628169 0 -0.00055500752747515139 -0.015317210002716871 0 -0.00017483635448395135 -0.015341594491297754 0 5.9946062409783435e-07 -0.014999996326628169 0 -0.00023695841530791634 -0.015632069370507037 0 -0.00055500752747515139 -0.015317210002716871 0 -0.00017483635448395135 -0.015341594491297754 0 -0.00017483635448395135 -0.015341594491297754 0 5.9946062409783435e-07 -0.014999996326628169 0 9.1359418391516518e-05 -0.015417170077012677 0 -0.00023695841530791634 -0.015632069370507037 0 -0.00017483635448395135 -0.015341594491297754 0 9.1359418391516518e-05 -0.015417170077012677 0 5.9946062409783435e-07 -0.014999996326628169 0 0.00042146111639933785 -0.015343309217832333 0 0.00087231877445269833 -0.014999996949816029 0 5.9946062409783435e-07 -0.014999996326628169 0 0.00042146111639933785 -0.015343309217832333 0 9.1359418391516518e-05 -0.015417170077012677 0 -0.00022801242394046315 -0.015833455636220642 0 0.00046439172502177263 -0.015719936021600042 0 0.00048969898243035755 -0.01614482556326732 0 -0.00022801242394046315 -0.015833455636220642 0 -0.0002418811219376961 -0.015616495259888633 0 0.00046439172502177263 -0.015719936021600042 0 -0.00022517839390969821 -0.015637610733720914 0 0.00041351710125372613 -0.015710896378827239 0 -0.00023695841530791634 -0.015632069370507037 0 9.1359418391516518e-05 -0.015417170077012677 0 0.00046439172502177263 -0.015719936021600042 0 0.00042146111639933785 -0.015343309217832333 0 9.1359418391516518e-05 -0.015417170077012677 0 0.00046439172502177263 -0.015719936021600042 0 0.00046439172502177263 -0.015719936021600042 0 0.00067733650122147671 -0.015573747367588438 0 0.00048969898243035755 -0.01614482556326732 0 0.00071306543305358835 -0.015590233080635283 0 0.00030471882529711374 -0.015797918653490346 0 0.00074185034168940307 -0.015530045623027277 0 0.0010325978347691925 -0.015804624607007083 0 0.00059379185338434787 -0.016035720848017198 0 0.00042146111639933785 -0.015343309217832333 0 0.00046439172502177263 -0.015719936021600042 0 0.00067733650122147671 -0.015573747367588438 0 0.00074185034168940307 -0.015530045623027277 0 0.00087243875843919807 -0.014999997601906128 0 0.0012270279020336527 -0.015476637082184434 0 0.00071306543305358835 -0.015590233080635283 0 0.00087231273864927172 -0.015000085988941364 0 0.00042146111639933785 -0.015343309217832333 0 0.00067733650122147671 -0.015573747367588438 0 0.00087231877445269833 -0.014999996949816029 0 0.00087243875843919807 -0.014999997601906128 0 0.001504098712758375 -0.014999971937413042 0 0.0012270279020336527 -0.015476637082184434 0 0.001504098712758375 -0.014999971937413042 0 0.0016476215480522864 -0.015483422140697676 0 0.0012270279020336527 -0.015476637082184434 0 0.001504098712758375 -0.014999971937413042 0 0.0016476215480522864 -0.015483422140697676 0 0.0021357965480561609 -0.014999996337180278 0 0.0016476215480522864 -0.015483422140697676 0 0.0016736910499762583 -0.015925710371254072 0 0.0020623335305224892 -0.015577755269040679 0 0.0016476215480522864 -0.015483422140697676 0 0.0013264122153768068 -0.015853272322063804 0 0.0016736910499762583 -0.015925710371254072 0 0.0016476215480522864 -0.015483422140697676 0 0.0012270279020336527 -0.015476637082184434 0 0.0013264122153768068 -0.015853272322063804 0 0.00074185034168940307 -0.015530045623027277 0 0.0012270279020336527 -0.015476637082184434 0 0.0010325978347691925 -0.015804624607007083 0 0.0012270279020336527 -0.015476637082184434 0 0.0010325978347691925 -0.015804624607007083 0 0.0013264122153768068 -0.015853272322063804 0 0.0010325978347691925 -0.015804624607007083 0 0.0013264122153768068 -0.015853272322063804 0 0.0011794647018104289 -0.016067382925631861 0 0.0011794647018104289 -0.016067382925631861 0 0.0012710128879249993 -0.016316389013305514 0 0.00059379185338434787 -0.016035720848017198 0 0.0013264122153768068 -0.015853272322063804 0 0.0011794647018104289 -0.016067382925631861 0 0.0014922030608756321 -0.016115850252052477 0 0.0011794647018104289 -0.016067382925631861 0 0.001399202526277929 -0.016231129499962957 0 0.0012710128879249993 -0.016316389013305514 0 0.0011794647018104289 -0.016067382925631861 0 0.0014922030608756321 -0.016115850252052477 0 0.001399202526277929 -0.016231129499962957 0 0.0013264122153768068 -0.015853272322063804 0 0.0016736910499762583 -0.015925710371254072 0 0.0014922030608756321 -0.016115850252052477 0 0.0014922030608756321 -0.016115850252052477 0 0.0017522296697438317 -0.016270603269918901 0 0.001532080180965383 -0.016253654058767549 0 0.0014922030608756321 -0.016115850252052477 0 0.001399202526277929 -0.016231129499962957 0 0.001532080180965383 -0.016253654058767549 0 0.0016736910499762583 -0.015925710371254072 0 0.0014922030608756321 -0.016115850252052477 0 0.0017522296697438317 -0.016270603269918901 0 0.0016736910499762583 -0.015925710371254072 0 0.0017522296697438317 -0.016270603269918901 0 0.0020178714667512861 -0.016125051604701464 0 0.00050496137719596961 -0.01472061666817495 0 0.002150766072225307 -0.015700686913144885 0 0.0014777033372710381 -0.016398697330191236 0 0.0014212114721020683 -0.01645947787945955 0 0.0019968713628294491 -0.016652281903060073 0 0.0017522296697438317 -0.016270603269918901 0 0.0014777033372710381 -0.016398697330191236 0 0.0019968713628294491 -0.016652281903060073 0 0.0017522296697438317 -0.016270603269918901 0 0.001532080180965383 -0.016253654058767549 0 0.0014777033372710381 -0.016398697330191236 0 0.001399202526277929 -0.016231129499962957 0 0.001532080180965383 -0.016253654058767549 0 0.0014777033372710381 -0.016398697330191236 0 0.00049994838291737712 -0.015013125227240449 0 0.00050496137719596961 -0.01472061666817495 0 -0.0002454589669282387 -0.013554322268788901 0 -0.00033273089548975873 -0.013562512162455232 0 -0.00031504797761721667 -0.013529611392545495 0 0.00050496137719596961 -0.01472061666817495 0 0.00026599602229138538 -0.014907144036029427 0 0.0014209569866415297 -0.016488021769783968 0 0.0012710128879249993 -0.016316389013305514 0 0.00083401083548502583 -0.01628205330224608 0 0.001399202526277929 -0.016231129499962957 0 0.0014777033372710381 -0.016398697330191236 0 0.0012710128879249993 -0.016316389013305514 0 0.0014777033372710381 -0.016398697330191236 0 0.0014209569866415297 -0.016488021769783968 0 0.0012710128879249993 -0.016316389013305514 0 -0.00031504797761721667 -0.013529611392545495 0 -0.00035702778923708806 -0.013541825147956757 0 -0.00036976123899282919 -0.013520655324658052 0 -0.00033273089548975873 -0.013562512162455232 0 -0.00031504797761721667 -0.013529611392545495 0 -0.00035702778923708806 -0.013541825147956757 0 -0.00033273089548975873 -0.013562512162455232 0 -0.00035702778923708806 -0.013541825147956757 0 -0.00037314173876649401 -0.013553206586250227 0 -0.00035702778923708806 -0.013541825147956757 0 -0.00037314173876649401 -0.013553206586250227 0 -0.00038076401088583045 -0.013547651518224197 0 -0.00037408711009220944 -0.014407607654161343 0 -0.00032210956307421063 -0.01444311568091533 0 -0.00030860757097455395 -0.014407199921441389 0 -0.00037314173876649401 -0.013553206586250227 0 -0.00040611519798685328 -0.013531051722883164 0 -0.00039758070782735437 -0.013560619077345366 0 -0.00047524561363869618 -0.013412003705360069 0 -0.00039877396713502462 -0.013511706662982525 0 -0.00045430967584722071 -0.013552876943523973 0 -0.00040611519798685328 -0.013531051722883164 0 -0.0004232981374492305 -0.013566168893015465 0 -0.00039758070782735437 -0.013560619077345366 0 -0.00032767359011196765 -0.013677780253142435 0 -0.0003321439659201 -0.013726084451658143 0 -0.00037314173876649401 -0.013553206586250227 0 -0.00040611519798685328 -0.013531051722883164 0 -0.0004009810343269225 -0.013515749295262379 0 -0.00040651111220897564 -0.013613961121605503 0 -0.0003321439659201 -0.013726084451658143 0 -0.00040611519798685328 -0.013531051722883164 0 -0.00039877396713502462 -0.013511706662982525 0 -0.00045430967584722071 -0.013552876943523973 0 -0.00040611519798685328 -0.013531051722883164 0 -0.00045430967584722071 -0.013552876943523973 0 -0.0004232981374492305 -0.013566168893015465 0 -0.00044908185953372657 -0.013866285917491374 0 -0.0003321439659201 -0.013726084451658143 0 -0.00035702778923708806 -0.013541825147956757 0 -0.00038076401088583045 -0.013547651518224197 0 -0.00036976123899282919 -0.013520655324658052 0 -0.0003321439659201 -0.013726084451658143 0 3.080606190499576e-05 -0.014923390313162335 0 -0.00030965277359083982 -0.014903284705854655 0 3.080606190499576e-05 -0.014923390313162335 0 -0.00031175954816107479 -0.015501474748623472 0 0.00030471882529711374 -0.015797918653490346 0 -0.00027960522938415082 -0.01540364051597075 0 -0.00039807894547524552 -0.015208407307933961 0 0.00011346379589438961 -0.015425194255525477 0 -0.00027960522938415082 -0.01540364051597075 0 7.9488745315798386e-05 -0.015529262932825381 0 0.00011346379589438961 -0.015425194255525477 0 -0.00036739367708573767 -0.014387714533851671 0 -0.00037408711009220944 -0.014407607654161343 0 -0.00030860757097455395 -0.014407199921441389 0 0.0012977285173590761 -0.016352078942916695 0 0.00030471882529711374 -0.015797918653490346 0 0.00083401083548502583 -0.01628205330224608 0 0.00022521710172375919 -0.016051351857830472 0 0.00028716420815173382 -0.015864461092417254 0 0.0010325978347691925 -0.015804624607007083 0 0.0011794647018104289 -0.016067382925631861 0 0.00059379185338434787 -0.016035720848017198 0 0.0012710128879249993 -0.016316389013305514 0 0.00083401083548502583 -0.01628205330224608 0 0.00028716420815173382 -0.015864461092417254 0 0.00026599602229138538 -0.014907144036029427 0 3.080606190499576e-05 -0.014923390313162335 0 3.080606190499576e-05 -0.014923390313162335 0 0.00030471882529711374 -0.015797918653490346 0 0.0038865163951698639 -0.015490947976857461 0 0.0033805846429151129 -0.01549281704791225 0 0.0036627916080048265 -0.01585207443014822 0 0.0038865163951698639 -0.015490947976857461 0 0.0036831247808514038 -0.015296654150633807 0 0.0033805846429151129 -0.01549281704791225 0 0.0038865163951698639 -0.015490947976857461 0 0.0036831247808514038 -0.015296654150633807 0 0.0040400612751458221 -0.015249773422579707 0 0.0036831247808514038 -0.015296654150633807 0 0.0040293492902302424 -0.014940554470879037 0 0.0040400612751458221 -0.015249773422579707 0 0.0036414963955211698 -0.014999992394922475 0 0.0031608802400549078 -0.015201862738367581 0 0.0037782920195437364 -0.015202213767858493 0 0.0036831247808514038 -0.015296654150633807 0 0.0031608802400549078 -0.015201862738367581 0 0.0040293492902302424 -0.014940554470879037 0 0.0032297120863588749 -0.015186632918680961 0 0.0038960694229364119 -0.015081917778793839 0 0.0028888823553845804 -0.014999827837170692 0 0.0031608802400549078 -0.015201862738367581 0 0.0026934091086130438 -0.015308538155876157 0 0.0036414963955211698 -0.014999992394922475 0 0.0028888823553845804 -0.014999827837170692 0 0.0031608802400549078 -0.015201862738367581 0 0.0031608802400549078 -0.015201862738367581 0 0.0030199439190303698 -0.015414287985731983 0 0.0026934091086130438 -0.015308538155876157 0 0.0036831247808514038 -0.015296654150633807 0 0.0031608802400549078 -0.015201862738367581 0 0.0033805846429151129 -0.01549281704791225 0 0.0031608802400549078 -0.015201862738367581 0 0.0030199439190303698 -0.015414287985731983 0 0.0033805846429151129 -0.01549281704791225 0 0.0030199439190303698 -0.015414287985731983 0 0.0033805846429151129 -0.01549281704791225 0 0.0029322385632335963 -0.015686506002973936 0 0.0026934091086130438 -0.015308538155876157 0 0.0023226327988968851 -0.015463616895212138 0 0.0029322385632335963 -0.015686506002973936 0 0.0030199439190303698 -0.015414287985731983 0 0.0026934091086130438 -0.015308538155876157 0 0.0029322385632335963 -0.015686506002973936 0 0.0028888823553845804 -0.014999827837170692 0 0.0026934091086130438 -0.015308538155876157 0 0.0021362577304826014 -0.014999956040942257 0 0.002135928097035918 -0.015000115176492872 0 0.0021877648594825529 -0.015472282933905717 0 0.0016476215480522864 -0.015483422140697676 0 0.0021357965480561609 -0.014999996337180278 0 0.0020623335305224892 -0.015577755269040679 0 0.0026934091086130438 -0.015308538155876157 0 0.0021362577304826014 -0.014999956040942257 0 0.0023226327988968851 -0.015463616895212138 0 0.0021877648594825529 -0.015472282933905717 0 0.0022015189199265776 -0.016212612745696197 0 0.0016736910499762583 -0.015925710371254072 0 0.0020623335305224892 -0.015577755269040679 0 0.0020178714667512861 -0.016125051604701464 0 0.0023226327988968851 -0.015463616895212138 0 0.0023896164371146516 -0.01595428383277531 0 0.0029322385632335963 -0.015686506002973936 0 0.0017522296697438317 -0.016270603269918901 0 0.0020178714667512861 -0.016125051604701464 0 0.0019968713628294491 -0.016652281903060073 0 0.0022015189199265776 -0.016212612745696197 0 0.002150766072225307 -0.015700686913144885 0 0.0023896164371146516 -0.01595428383277531 0 0.0027509559689163124 -0.016215004762673527 0 0.0023902894041195792 -0.016504868645972129 0 0.0027509559689163124 -0.016215004762673527 0 0.0031706337035388157 -0.016177670278928479 0 0.0031668188793886848 -0.016749783147520576 0 0.0023896164371146516 -0.01595428383277531 0 0.0027509559689163124 -0.016215004762673527 0 0.0029322385632335963 -0.015686506002973936 0 0.0027509559689163124 -0.016215004762673527 0 0.0029322385632335963 -0.015686506002973936 0 0.0031706337035388157 -0.016177670278928479 0 0.0033805846429151129 -0.01549281704791225 0 0.0029322385632335963 -0.015686506002973936 0 0.0036627916080048265 -0.01585207443014822 0 0.0029322385632335963 -0.015686506002973936 0 0.0031706337035388157 -0.016177670278928479 0 0.0036627916080048265 -0.01585207443014822 0 0.0031706337035388157 -0.016177670278928479 0 0.0037548462325107741 -0.016202462635314684 0 0.0036627916080048265 -0.01585207443014822 0 0.0031706337035388157 -0.016177670278928479 0 0.0037548462325107741 -0.016202462635314684 0 0.0037445349157555334 -0.016545806097566014 0 0.0037548462325107741 -0.016202462635314684 0 0.0037445349157555334 -0.016545806097566014 0 0.0040931421464094281 -0.016342502416742028 0 0.0037548462325107741 -0.016202462635314684 0 0.0036627916080048265 -0.01585207443014822 0 0.0041245332994980155 -0.016054721683140705 0 0.0037548462325107741 -0.016202462635314684 0 0.0041245332994980155 -0.016054721683140705 0 0.0040931421464094281 -0.016342502416742028 0 0.0038865163951698639 -0.015490947976857461 0 0.0036627916080048265 -0.01585207443014822 0 0.0042437396274570922 -0.015694319233595728 0 0.0036627916080048265 -0.01585207443014822 0 0.0042437396274570922 -0.015694319233595728 0 0.0041245332994980155 -0.016054721683140705 0 0.004493805905211065 -0.016635342918802993 0 0.0043814401819444763 -0.016723425089181707 0 0.004434994670691284 -0.016814399507399651 0 0.0040417888196873208 -0.016904874365424968 0 0.0037445349157555334 -0.016545806097566014 0 0.0031668188793886848 -0.016749783147520576 0 0.0040417888196873208 -0.016904874365424968 0 0.0037445349157555334 -0.016545806097566014 0 0.0043515000584963158 -0.016584462473571128 0 0.0037445349157555334 -0.016545806097566014 0 0.0043515000584963158 -0.016584462473571128 0 0.0040931421464094281 -0.016342502416742028 0 0.004202191817987604 -0.016731025975601773 0 0.0040222742900726085 -0.016824041375655005 0 0.0031706337035388157 -0.016177670278928479 0 0.0037445349157555334 -0.016545806097566014 0 0.0031668188793886848 -0.016749783147520576 0 0.004334198549979509 -0.016607061381124558 0 0.0043814401819444763 -0.016723425089181707 0 0.0043253859570502318 -0.016726998522086679 0 0.004493805905211065 -0.016635342918802993 0 0.004334198549979509 -0.016607061381124558 0 0.0043814401819444763 -0.016723425089181707 0 0.004334198549979509 -0.016607061381124558 0 0.0042408845963294948 -0.016673288115438226 0 0.0043253859570502318 -0.016726998522086679 0 0.004334198549979509 -0.016607061381124558 0 0.0042104958599310394 -0.016547689254625488 0 0.0042408845963294948 -0.016673288115438226 0 0.0027509559689163124 -0.016215004762673527 0 0.0031668188793886848 -0.016749783147520576 0 0.0023902894041195792 -0.016504868645972129 0 0.0040222742900726085 -0.016824041375655005 0 0.002150766072225307 -0.015700686913144885 0 0.002150766072225307 -0.015700686913144885 0 0.0019989392456773872 -0.014831527431873808 0 -0.00021350729889608647 -0.013969375511630468 0 -0.00021217423192431765 -0.01320112690896012 0 0.00026112371867787436 -0.013587558149676568 0 0.0042408845963294948 -0.016673288115438226 0 0.0043188250353704541 -0.016745116383303928 0 0.0043253859570502318 -0.016726998522086679 0 -0.00021217423192431765 -0.01320112690896012 0 -0.00020239120975418912 -0.01242063393305788 0 0.0003020589211877293 -0.013052928582728303 0 0.0019989392456773872 -0.014831527431873808 0 0.0020639325794793214 -0.01461484294876826 0 0.0043388822799964675 -0.016759787181058285 0 0.0043253859570502318 -0.016726998522086679 0 0.0043768435332190454 -0.016766095386571329 0 0.0043188250353704541 -0.016745116383303928 0 0.0043388822799964675 -0.016759787181058285 0 0.0043253859570502318 -0.016726998522086679 0 0.0043814401819444763 -0.016723425089181707 0 0.0043253859570502318 -0.016726998522086679 0 0.0043768435332190454 -0.016766095386571329 0 0.0043768435332190454 -0.016766095386571329 0 0.0043889849538603634 -0.016755143573195359 0 0.0043499992472354554 -0.016747997445930505 0 0.0043388822799964675 -0.016759787181058285 0 0.0043768435332190454 -0.016766095386571329 0 0.0043499992472354554 -0.016747997445930505 0 0.0043768435332190454 -0.016766095386571329 0 0.0043889849538603634 -0.016755143573195359 0 0.004434994670691284 -0.016814399507399651 0 0.0043814401819444763 -0.016723425089181707 0 0.0043768435332190454 -0.016766095386571329 0 0.004434994670691284 -0.016814399507399651 0 0.00027209814106545665 -0.013436788132699032 0 0.0005143143267151419 -0.013328871981242378 0 -0.00050508140093726592 -0.013633023109877256 0 -0.00042458462324525509 -0.013613929647733241 0 -0.00046724112776506586 -0.013714223091178025 0 -0.00042458462324525509 -0.013613929647733241 0 -0.00033196153060747747 -0.013628189725246981 0 -0.00046724112776506586 -0.013714223091178025 0 -0.00050508140093726592 -0.013633023109877256 0 -0.00042458462324525509 -0.013613929647733241 0 -0.00045430967584722071 -0.013552876943523973 0 -0.00042458462324525509 -0.013613929647733241 0 -0.00045430967584722071 -0.013552876943523973 0 -0.0004232981374492305 -0.013566168893015465 0 -0.00042458462324525509 -0.013613929647733241 0 -0.00041028931008097645 -0.013583619478729513 0 -0.0004232981374492305 -0.013566168893015465 0 -0.00042458462324525509 -0.013613929647733241 0 -0.00041028931008097645 -0.013583619478729513 0 -0.00037628018137518077 -0.01358198032221215 0 -0.00041028931008097645 -0.013583619478729513 0 -0.0004232981374492305 -0.013566168893015465 0 -0.00039758070782735437 -0.013560619077345366 0 -0.00041028931008097645 -0.013583619478729513 0 -0.00039758070782735437 -0.013560619077345366 0 -0.00037628018137518077 -0.01358198032221215 0 -0.00037314173876649401 -0.013553206586250227 0 -0.00039758070782735437 -0.013560619077345366 0 -0.00037628018137518077 -0.01358198032221215 0 -0.00033273089548975873 -0.013562512162455232 0 -0.00037314173876649401 -0.013553206586250227 0 -0.00037628018137518077 -0.01358198032221215 0 -0.00033273089548975873 -0.013562512162455232 0 -0.00033196153060747747 -0.013628189725246981 0 -0.00037628018137518077 -0.01358198032221215 0 -0.00042458462324525509 -0.013613929647733241 0 -0.00033196153060747747 -0.013628189725246981 0 -0.00037628018137518077 -0.01358198032221215 0 -0.0002454589669282387 -0.013554322268788901 0 -0.00033273089548975873 -0.013562512162455232 0 -0.00033196153060747747 -0.013628189725246981 0 0.00050496137719596961 -0.01472061666817495 0 0.00027209814106545665 -0.013436788132699032 0 0.00041188678307240437 -0.014187930619704043 0 0.00095650921425283187 -0.013540603832310079 0 0.00026112371867787436 -0.013587558149676568 0 0.00041188678307240437 -0.014187930619704043 0 -0.00021350729889608647 -0.013969375511630468 0 0.00026112371867787436 -0.013587558149676568 0 -0.00021217423192431765 -0.01320112690896012 0 0.00026112371867787436 -0.013587558149676568 0 0.0003020589211877293 -0.013052928582728303 0 0.00095650921425283187 -0.013540603832310079 0 0.00026112371867787436 -0.013587558149676568 0 0.0003020589211877293 -0.013052928582728303 0 -0.00020239120975418912 -0.01242063393305788 0 0.0003020589211877293 -0.013052928582728303 0 0.00070941010134171838 -0.012515146060935215 0 0.00095650921425283187 -0.013540603832310079 0 0.0003020589211877293 -0.013052928582728303 0 0.00070941010134171838 -0.012515146060935215 0 -0.00020239120975418912 -0.01242063393305788 0 0.00070941010134171838 -0.012515146060935215 0 0.00031302187394898173 -0.011970077059455162 0 0.00095650921425283187 -0.013540603832310079 0 0.00070941010134171838 -0.012515146060935215 0 0.0015030232045982546 -0.012881427968342225 0 0.00070941010134171838 -0.012515146060935215 0 0.0015030232045982546 -0.012881427968342225 0 0.0013085038020545716 -0.012151920419677661 0 0.0020590452659735412 -0.012212311860216783 0 0.0015030232045982546 -0.012881427968342225 0 0.0013085038020545716 -0.012151920419677661 0 0.0020590452659735412 -0.012212311860216783 0 0.0013085038020545716 -0.012151920419677661 0 0.0016014752491984219 -0.011534264501708592 0 0.0013085038020545716 -0.012151920419677661 0 0.0016014752491984219 -0.011534264501708592 0 0.00081668008719359194 -0.011625261334508681 0 0.00070941010134171838 -0.012515146060935215 0 0.0013085038020545716 -0.012151920419677661 0 0.00081668008719359194 -0.011625261334508681 0 0.0016014752491984219 -0.011534264501708592 0 0.0010250234785700581 -0.01105797171518018 0 0.00081668008719359194 -0.011625261334508681 0 0.0020486787812560199 -0.010988250656601488 0 0.0016014752491984219 -0.011534264501708592 0 0.0014748497903297479 -0.01068096684818508 0 0.0016014752491984219 -0.011534264501708592 0 0.0010250234785700581 -0.01105797171518018 0 0.0014748497903297479 -0.01068096684818508 0 0.0010250234785700581 -0.01105797171518018 0 0.00092409914335354838 -0.010560286745056661 0 0.0014748497903297479 -0.01068096684818508 0 0.0010250234785700581 -0.01105797171518018 0 0.00092409914335354838 -0.010560286745056661 0 0.0005496910185731654 -0.010991700570249391 0 0.00097977870568782799 -0.010467347371864513 0 0.0014094743702202206 -0.010652414668219588 0 0.00084494980953181138 -0.010295621951086466 0 0.0014748497903297479 -0.01068096684818508 0 0.0011247498434929677 -0.009812530230184198 0 0.0014748497903297479 -0.01068096684818508 0 0.0016795337494854359 -0.0098703997680798725 0 0.0011247498434929677 -0.009812530230184198 0 0.0005496910185731654 -0.010991700570249391 0 -0.00012862776717045886 -0.010891084595588598 0 0.00040381648449091531 -0.010388553116744642 0 -0.00012862776717045886 -0.010891084595588598 0 -9.2654254854310911e-05 -0.010199639534344503 0 0.00040381648449091531 -0.010388553116744642 0 0.00092409914335354838 -0.010560286745056661 0 0.0005496910185731654 -0.010991700570249391 0 0.00040381648449091531 -0.010388553116744642 0 0.00097977870568782799 -0.010467347371864513 0 -8.172812949955987e-06 -0.0099708140912548593 0 0.0010250234785700581 -0.01105797171518018 0 0.0005496910185731654 -0.010991700570249391 0 0.00081668008719359194 -0.011625261334508681 0 0.0005496910185731654 -0.010991700570249391 0 0.00027208917262203764 -0.011418871625405124 0 -0.00012862776717045886 -0.010891084595588598 0 0.00027208917262203764 -0.011418871625405124 0 0.00031302187394898173 -0.011970077059455162 0 -0.00017581299291619416 -0.011640879072866372 0 0.00027208917262203764 -0.011418871625405124 0 -0.00017581299291619416 -0.011640879072866372 0 -0.00012862776717045886 -0.010891084595588598 0 0.00027208917262203764 -0.011418871625405124 0 0.00081668008719359194 -0.011625261334508681 0 0.00031302187394898173 -0.011970077059455162 0 0.0005496910185731654 -0.010991700570249391 0 0.00027208917262203764 -0.011418871625405124 0 0.00081668008719359194 -0.011625261334508681 0 0.00070941010134171838 -0.012515146060935215 0 0.00081668008719359194 -0.011625261334508681 0 0.00031302187394898173 -0.011970077059455162 0 -0.00020239120975418912 -0.01242063393305788 0 0.00031302187394898173 -0.011970077059455162 0 -0.00017581299291619416 -0.011640879072866372 0 0.0020639325794793214 -0.01461484294876826 0 0.0021299730065315035 -0.014107664540771859 0 0.0043188250353704541 -0.016745116383303928 0 0.0043388822799964675 -0.016759787181058285 0 0.0044524740944187529 -0.016739360915668411 0 0.0043388822799964675 -0.016759787181058285 0 0.0043209120847853858 -0.016719403463666495 0 0.0043499992472354554 -0.016747997445930505 0 0.0043388822799964675 -0.016759787181058285 0 0.0043209120847853858 -0.016719403463666495 0 0.0044524740944187529 -0.016739360915668411 0 0.0043209120847853858 -0.016719403463666495 0 0.0044524740944187529 -0.016739360915668411 0 0.0042334636457956468 -0.016585848730045663 0 0.0043209120847853858 -0.016719403463666495 0 0.004329676444088877 -0.01670508848559649 0 0.0042334636457956468 -0.016585848730045663 0 0.0043889849538603634 -0.016755143573195359 0 0.0043671856513948478 -0.016749835238663819 0 0.0043499992472354554 -0.016747997445930505 0 0.0043889849538603634 -0.016755143573195359 0 0.0043671856513948478 -0.016749835238663819 0 0.0043948999595996331 -0.016783500939735126 0 0.0043671856513948478 -0.016749835238663819 0 0.0043499992472354554 -0.016747997445930505 0 0.004329676444088877 -0.01670508848559649 0 0.0043209120847853858 -0.016719403463666495 0 0.0043499992472354554 -0.016747997445930505 0 0.004329676444088877 -0.01670508848559649 0 0.004329676444088877 -0.01670508848559649 0 0.0043962506984271555 -0.016769915251244039 0 0.0043402100464759712 -0.016691131994442016 0 0.0043671856513948478 -0.016749835238663819 0 0.0043962506984271555 -0.016769915251244039 0 0.0043948999595996331 -0.016783500939735126 0 0.0043671856513948478 -0.016749835238663819 0 0.004329676444088877 -0.01670508848559649 0 0.0043962506984271555 -0.016769915251244039 0 0.0043962506984271555 -0.016769915251244039 0 0.0043402100464759712 -0.016691131994442016 0 0.0043851939525091548 -0.016744300548383918 0 0.0043962506984271555 -0.016769915251244039 0 0.0043851939525091548 -0.016744300548383918 0 0.0044164050958200689 -0.016770726010308101 0 0.004329676444088877 -0.01670508848559649 0 0.0043402100464759712 -0.016691131994442016 0 0.0042334636457956468 -0.016585848730045663 0 0.0043402100464759712 -0.016691131994442016 0 0.0043369959632871087 -0.016762456267573146 0 0.0042334636457956468 -0.016585848730045663 0 0.0043369959632871087 -0.016762456267573146 0 0.0043851939525091548 -0.016744300548383918 0 0.0043848991115311344 -0.016756813358286535 0 0.0043402100464759712 -0.016691131994442016 0 0.0043369959632871087 -0.016762456267573146 0 0.0043851939525091548 -0.016744300548383918 0 0.0043851939525091548 -0.016744300548383918 0 0.0044079293482785229 -0.01675581890567223 0 0.0044164050958200689 -0.016770726010308101 0 0.0043851939525091548 -0.016744300548383918 0 0.0044079293482785229 -0.01675581890567223 0 0.0043848991115311344 -0.016756813358286535 0 0.0044524740944187529 -0.016739360915668411 0 0.0047188392105956909 -0.016191595976249799 0 0.0042334636457956468 -0.016585848730045663 0 0.0021299730065315035 -0.014107664540771859 0 0.0024196588531828285 -0.013814496959236687 0 0.0039906354112315386 -0.016438517876843573 0 0.0041773440519249586 -0.016460404779042703 0 0.0047188392105956909 -0.016191595976249799 0 0.0042334636457956468 -0.016585848730045663 0 0.0041532037060255178 -0.015525573773619936 0 0.0036001975213496937 -0.015636737358094354 0 0.0042334636457956468 -0.016585848730045663 0 0.0041532037060255178 -0.015525573773619936 0 0.0024196588531828285 -0.013814496959236687 0 0.0012447199075482089 -0.011295041787855438 0 0.0047188392105956909 -0.016191595976249799 0 0.0041532037060255178 -0.015525573773619936 0 0.0048258785313863607 -0.014980783864251713 0 0.0012447199075482089 -0.011295041787855438 0 0.0016845348877595299 -0.011670558719286496 0 0.0041532037060255178 -0.015525573773619936 0 0.0048258785313863607 -0.014980783864251713 0 0.0039055128779466224 -0.014534299314557873 0 0.0041532037060255178 -0.015525573773619936 0 0.0036564629595596324 -0.014965420602862415 0 0.0039055128779466224 -0.014534299314557873 0 0.0036001975213496937 -0.015636737358094354 0 0.0041532037060255178 -0.015525573773619936 0 0.0036564629595596324 -0.014965420602862415 0 0.0036564629595596324 -0.014965420602862415 0 0.0039055128779466224 -0.014534299314557873 0 0.003345980671558486 -0.014572303081757764 0 -0.00043224987631262555 -0.0086145871231873509 0 -0.00044330739881448772 -0.0082956189353626929 0 -0.00028433845088779382 -0.0085690037879291373 0 -0.00043224987631262555 -0.0086145871231873509 0 -0.00044330739881448772 -0.0082956189353626929 0 -0.000835878785942118 -0.008227347270171291 0 -0.00044330739881448772 -0.0082956189353626929 0 -0.00028433845088779382 -0.0085690037879291373 0 -0.00022740039105907507 -0.0086359166344969866 0 -0.00020728732369729039 -0.0086699059661376147 0 -0.00043224987631262555 -0.0086145871231873509 0 -0.00028433845088779382 -0.0085690037879291373 0 0.0012447199075482089 -0.011295041787855438 0 -0.00046534124208382491 -0.007843336392948385 0 -0.00040559429221762586 -0.0096026029345261388 0 -0.00022740039105907507 -0.0086359166344969866 0 -2.539528985556383e-05 -0.0090111744106196583 0 -0.00020728732369729039 -0.0086699059661376147 0 -0.00028433845088779382 -0.0085690037879291373 0 -0.00022740039105907507 -0.0086359166344969866 0 0.0044041523975255131 -0.016750092891036156 0 0.0043848991115311344 -0.016756813358286535 0 0.0043850249371256466 -0.016751344198997816 0 0.0044079293482785229 -0.01675581890567223 0 0.0044041523975255131 -0.016750092891036156 0 0.0043848991115311344 -0.016756813358286535 0 0.0039906354112315386 -0.016438517876843573 0 0.0040262607236650119 -0.014369243896666505 0 0.0043369959632871087 -0.016762456267573146 0 0.0043848991115311344 -0.016756813358286535 0 0.0043850249371256466 -0.016751344198997816 0 0.0036001975213496937 -0.015636737358094354 0 0.0036564629595596324 -0.014965420602862415 0 0.0030516142583132968 -0.01452051245836722 0 0.0036564629595596324 -0.014965420602862415 0 0.003345980671558486 -0.014572303081757764 0 0.0030516142583132968 -0.01452051245836722 0 0.0039055128779466224 -0.014534299314557873 0 0.003345980671558486 -0.014572303081757764 0 0.0028532079229594688 -0.01401937426133526 0 0.0016845348877595299 -0.011670558719286496 0 0.0022484484261001453 -0.010380776359811245 0 -0.00043224987631262555 -0.0086145871231873509 0 -0.000835878785942118 -0.008227347270171291 0 -0.0014175523825061681 -0.0082111924507391656 0 -0.00044330739881448772 -0.0082956189353626929 0 -0.000835878785942118 -0.008227347270171291 0 -0.0009268432054509 -0.0077588216682872909 0 -0.000835878785942118 -0.008227347270171291 0 -0.0014175523825061681 -0.0082111924507391656 0 -0.0009268432054509 -0.0077588216682872909 0 0.0022484484261001453 -0.010380776359811245 0 0.0040262607236650119 -0.014369243896666505 0 0.003345980671558486 -0.014572303081757764 0 0.0028532079229594688 -0.01401937426133526 0 0.0030424696718056965 -0.014499855652823685 0 0.0034830243361414527 -0.014359924009920137 0 0.0040262607236650119 -0.014369243896666505 0 0.0044513731509492139 -0.010577935171611182 0 0.0038865459289656036 -0.010012480249208797 0 0.0033786097764172138 -0.010332195181848152 0 0.0044041523975255131 -0.016750092891036156 0 0.0043850249371256466 -0.016751344198997816 0 0.0044210957322788841 -0.016736885833722633 0 0.0038865459289656036 -0.010012480249208797 0 0.0041167535192489415 -0.0097711903449095965 0 0.0033786097764172138 -0.010332195181848152 0 0.0040262607236650119 -0.014369243896666505 0 0.0050933208803507317 -0.010973579957864459 0 0.0038813735002737929 -0.0048400994580121261 0 0.0050933208803507317 -0.010973579957864459 0 0.0043001346109870575 -0.010205506138007515 0 0.0044513731509492139 -0.010577935171611182 0 0.0038865459289656036 -0.010012480249208797 0 0.0022484484261001453 -0.010380776359811245 0 0.0041106327106450787 -0.010444158275631152 0 0.0042646454756801446 -0.010165059285498223 0 0.0038865459289656036 -0.010012480249208797 0 0.0041167535192489415 -0.0097711903449095965 0 0.0022484484261001453 -0.010380776359811245 0 0.0038813735002737929 -0.0048400994580121261 0 0.0038813735002737929 -0.0048400994580121261 0 0.0018740786372001181 -0.0028044996769891741 0 -0.0016334597869414242 -0.0076711284607888959 0 -0.0009268432054509 -0.0077588216682872909 0 -0.00065699350917946804 -0.0068601186938108231 0 -0.0014175523825061681 -0.0082111924507391656 0 -0.0016334597869414242 -0.0076711284607888959 0 -0.0009268432054509 -0.0077588216682872909 0 0.0053533236743243517 0.0011166769101302741 0 0.0053000872904073893 0.00089816356534445582 0 0.0050028322097328028 0.0010008444809063409 0 0.0053000872904073893 0.00089816356534445582 0 0.0050028322097328028 0.0010008444809063409 0 0.0050384786781045385 0.00066722941163004253 0 0.0053533236743243517 0.0011166769101302741 0 0.0053000872904073893 0.00089816356534445582 0 0.0055513284317290539 0.00079071482980867065 0 0.0038813735002737929 -0.0048400994580121261 0 0.0063511934112428989 0.00019727550255555044 0 -0.00044330739881448772 -0.0082956189353626929 0 2.9115584926293411e-05 -0.0073444116702748793 0 0.0008005828219436441 -0.0074368248149142757 0 -0.00044330739881448772 -0.0082956189353626929 0 -0.00022740039105907507 -0.0086359166344969866 0 -0.00014034583174162279 -0.0086743760687220707 0 2.9115584926293411e-05 -0.0073444116702748793 0 0.00050148942363071767 -0.0070515727647696485 0 0.0008005828219436441 -0.0074368248149142757 0 -0.00044364145718971408 -0.0083057824900309527 0 0.00029606376046627811 -0.0080549059872163809 0 -0.0009268432054509 -0.0077588216682872909 0 -0.00047031184874120379 -0.0075867641793640091 0 -0.00065699350917946804 -0.0068601186938108231 0 -0.00044330739881448772 -0.0082956189353626929 0 2.9115584926293411e-05 -0.0073444116702748793 0 -0.00047031184874120379 -0.0075867641793640091 0 -0.00044330739881448772 -0.0082956189353626929 0 -0.0009268432054509 -0.0077588216682872909 0 -0.00047031184874120379 -0.0075867641793640091 0 2.9115584926293411e-05 -0.0073444116702748793 0 -0.00047031184874120379 -0.0075867641793640091 0 -0.00065699350917946804 -0.0068601186938108231 0 0.0018740786372001181 -0.0028044996769891741 0 0.0023238811262444041 -0.0026859753008105346 0 2.9115584926293411e-05 -0.0073444116702748793 0 -0.00065699350917946804 -0.0068601186938108231 0 0.00016790903096725149 -0.0068087066018421632 0 -0.00065699350917946804 -0.0068601186938108231 0 0.00016790903096725149 -0.0068087066018421632 0 0.00027586624909837468 -0.0061266871417374512 0 2.9115584926293411e-05 -0.0073444116702748793 0 0.00050148942363071767 -0.0070515727647696485 0 0.00016790903096725149 -0.0068087066018421632 0 0.00050148942363071767 -0.0070515727647696485 0 0.00064429009318820092 -0.0067309269206447166 0 0.00083124966006526064 -0.0069725980431863833 0 0.00050148942363071767 -0.0070515727647696485 0 0.00016790903096725149 -0.0068087066018421632 0 0.00064429009318820092 -0.0067309269206447166 0 0.00064429009318820092 -0.0067309269206447166 0 0.00084123706854804842 -0.0063481804941131099 0 0.00027586624909837468 -0.0061266871417374512 0 0.00016790903096725149 -0.0068087066018421632 0 0.00064429009318820092 -0.0067309269206447166 0 0.00027586624909837468 -0.0061266871417374512 0 0.00064429009318820092 -0.0067309269206447166 0 0.00084123706854804842 -0.0063481804941131099 0 0.0010166062363298504 -0.0066179682807478608 0 0.00084123706854804842 -0.0063481804941131099 0 0.0010166062363298504 -0.0066179682807478608 0 0.0012287697355296812 -0.0062945710516718982 0 0.0010166062363298504 -0.0066179682807478608 0 0.0014271860037567549 -0.0065371293377651969 0 0.0012287697355296812 -0.0062945710516718982 0 0.0010166062363298504 -0.0066179682807478608 0 0.0011782621617576904 -0.0069139051231932027 0 0.00083124966006526064 -0.0069725980431863833 0 0.0010166062363298504 -0.0066179682807478608 0 0.0011782621617576904 -0.0069139051231932027 0 0.0014271860037567549 -0.0065371293377651969 0 0.00064429009318820092 -0.0067309269206447166 0 0.0010166062363298504 -0.0066179682807478608 0 0.00083124966006526064 -0.0069725980431863833 0 -0.00014034583174162279 -0.0086743760687220707 0 0.0005304371130827177 -0.0086040895145450599 0 0.00023027141389371603 -0.0088820880825067616 0 0.00050148942363071767 -0.0070515727647696485 0 0.00083124966006526064 -0.0069725980431863833 0 0.0008005828219436441 -0.0074368248149142757 0 0.0011782621617576904 -0.0069139051231932027 0 0.00083124966006526064 -0.0069725980431863833 0 0.0008005828219436441 -0.0074368248149142757 0 0.0011782621617576904 -0.0069139051231932027 0 0.0008005828219436441 -0.0074368248149142757 0 0.0017325361853301538 -0.0068380878747315993 0 -0.00014034583174162279 -0.0086743760687220707 0 0.0005304371130827177 -0.0086040895145450599 0 0.00066978774635616896 -0.0084382944929919917 0 0.00029606376046627811 -0.0080549059872163809 0 0.001209470486405648 -0.0076452264154214496 0 0.0005304371130827177 -0.0086040895145450599 0 0.00023027141389371603 -0.0088820880825067616 0 0.00052151461315609517 -0.0090208740450878726 0 0.0011782621617576904 -0.0069139051231932027 0 0.0017325361853301538 -0.0068380878747315993 0 0.0014271860037567549 -0.0065371293377651969 0 0.0017325361853301538 -0.0068380878747315993 0 0.0014271860037567549 -0.0065371293377651969 0 0.0018649306619367323 -0.0063515281036807345 0 0.0014271860037567549 -0.0065371293377651969 0 0.0012287697355296812 -0.0062945710516718982 0 0.0015510183727365874 -0.006172712333556719 0 0.0014271860037567549 -0.0065371293377651969 0 0.0018649306619367323 -0.0063515281036807345 0 0.0015510183727365874 -0.006172712333556719 0 0.001209470486405648 -0.0076452264154214496 0 0.0018047753960173875 -0.0073486999590361736 0 0.0017325361853301538 -0.0068380878747315993 0 0.0018649306619367323 -0.0063515281036807345 0 0.0026695760640935706 -0.0063943591998278189 0 0.0005304371130827177 -0.0086040895145450599 0 0.00085113977334437692 -0.0091818918699236533 0 0.0014164843614435645 -0.0090487453151126534 0 0.0005304371130827177 -0.0086040895145450599 0 0.00066978774635616896 -0.0084382944929919917 0 0.0010231881442131305 -0.0086658119147645218 0 0.00066978774635616896 -0.0084382944929919917 0 0.0010913467539722548 -0.0083041996397574258 0 0.0010231881442131305 -0.0086658119147645218 0 0.00054611091284301812 -0.0086106945436996828 0 0.0012192430674830895 -0.0088574347361255225 0 0.00085113977334437692 -0.0091818918699236533 0 0.0014164843614435645 -0.0090487453151126534 0 0.0011247498434929677 -0.009812530230184198 0 0.0014164843614435645 -0.0090487453151126534 0 0.0016795337494854359 -0.0098703997680798725 0 0.0011247498434929677 -0.009812530230184198 0 0.00085113977334437692 -0.0091818918699236533 0 0.0011247498434929677 -0.009812530230184198 0 0.00064617916458903086 -0.0095736001694507293 0 0.00084494980953181138 -0.010295621951086466 0 0.0011247498434929677 -0.009812530230184198 0 0.00064617916458903086 -0.0095736001694507293 0 0.00084494980953181138 -0.010295621951086466 0 0.00064617916458903086 -0.0095736001694507293 0 0.000249898954181995 -0.00992823249347944 0 0.00064617916458903086 -0.0095736001694507293 0 0.000249898954181995 -0.00992823249347944 0 0.00028675014836759366 -0.0091916007707241697 0 0.0012447199075482089 -0.011295041787855438 0 -8.172812949955987e-06 -0.0099708140912548593 0 0.000249898954181995 -0.00992823249347944 0 1.1688178545441522e-05 -0.0094222567621145281 0 0.00028675014836759366 -0.0091916007707241697 0 -0.00040559429221762586 -0.0096026029345261388 0 0.000249898954181995 -0.00992823249347944 0 1.1688178545441522e-05 -0.0094222567621145281 0 1.1688178545441522e-05 -0.0094222567621145281 0 -2.539528985556383e-05 -0.0090111744106196583 0 0.00028675014836759366 -0.0091916007707241697 0 -0.00040559429221762586 -0.0096026029345261388 0 1.1688178545441522e-05 -0.0094222567621145281 0 -2.539528985556383e-05 -0.0090111744106196583 0 -0.00014034583174162279 -0.0086743760687220707 0 -2.539528985556383e-05 -0.0090111744106196583 0 0.00023027141389371603 -0.0088820880825067616 0 -0.00022740039105907507 -0.0086359166344969866 0 -0.00014034583174162279 -0.0086743760687220707 0 -2.539528985556383e-05 -0.0090111744106196583 0 -2.539528985556383e-05 -0.0090111744106196583 0 0.00023027141389371603 -0.0088820880825067616 0 0.00028675014836759366 -0.0091916007707241697 0 0.00023027141389371603 -0.0088820880825067616 0 0.00052151461315609517 -0.0090208740450878726 0 0.00028675014836759366 -0.0091916007707241697 0 0.0005304371130827177 -0.0086040895145450599 0 0.00085113977334437692 -0.0091818918699236533 0 0.00052151461315609517 -0.0090208740450878726 0 0.00085113977334437692 -0.0091818918699236533 0 0.00064617916458903086 -0.0095736001694507293 0 0.00052151461315609517 -0.0090208740450878726 0 0.00064617916458903086 -0.0095736001694507293 0 0.00052151461315609517 -0.0090208740450878726 0 0.00028675014836759366 -0.0091916007707241697 0 0.0077076877558783221 -0.0083552011218905355 0 0.0076584331541727788 -0.0087533281085932883 0 0.0072483749961752275 -0.0085044774821039972 0 0.0077076877558783221 -0.0083552011218905355 0 0.0072483749961752275 -0.0085044774821039972 0 0.0073373078762207777 -0.0079707572176562248 0 0.0077076877558783221 -0.0083552011218905355 0 0.0079151419009669613 -0.0085191859753702952 0 0.0076584331541727788 -0.0087533281085932883 0 0.0080788637445154375 -0.0082937129108321093 0 0.0081900907207945409 -0.0085571460205061088 0 0.0079151419009669613 -0.0085191859753702952 0 0.0077076877558783221 -0.0083552011218905355 0 0.0080788637445154375 -0.0082937129108321093 0 0.0079151419009669613 -0.0085191859753702952 0 0.0080788637445154375 -0.0082937129108321093 0 0.0080172212830508585 -0.0081016438396773853 0 0.0084071771853985941 -0.0084232080264214498 0 0.0080788637445154375 -0.0082937129108321093 0 0.0081900907207945409 -0.0085571460205061088 0 0.0084071771853985941 -0.0084232080264214498 0 0.0081900907207945409 -0.0085571460205061088 0 0.0079151419009669613 -0.0085191859753702952 0 0.0080558501880875818 -0.0087690455366160637 0 0.0079151419009669613 -0.0085191859753702952 0 0.0080558501880875818 -0.0087690455366160637 0 0.0076584331541727788 -0.0087533281085932883 0 0.0080558501880875818 -0.0087690455366160637 0 0.0076584331541727788 -0.0087533281085932883 0 0.0080339318842900711 -0.0092746079573653283 0 0.0080558501880875818 -0.0087690455366160637 0 0.0084462343589156545 -0.0088723644625387354 0 0.0080339318842900711 -0.0092746079573653283 0 0.006719926344403041 -0.016221347956859956 0 0.0066356044144971257 -0.016776136071825692 0 0.0063837925294139919 -0.016730432084934781 0 0.0081900907207945409 -0.0085571460205061088 0 0.0080558501880875818 -0.0087690455366160637 0 0.0084462343589156545 -0.0088723644625387354 0 0.0076073060125361608 -0.012657733755881756 0 0.0072314054329318707 -0.012944589292070176 0 0.0076584331541727788 -0.0087533281085932883 0 0.0076159442558930935 -0.0092036959691402763 0 0.0080339318842900711 -0.0092746079573653283 0 0.0076584331541727788 -0.0087533281085932883 0 0.0071942074678169399 -0.0091766520267670421 0 0.0076159442558930935 -0.0092036959691402763 0 0.0071942074678169399 -0.0091766520267670421 0 0.0068073328695686637 -0.0086903373166948798 0 0.0072483749961752275 -0.0085044774821039972 0 0.0075183965596469383 -0.0097448385374351992 0 0.0092147819858911535 -0.0088314600184668784 0 0.0083556560654574411 -0.011097908160021628 0 0.0073115381961638111 -0.0098961539041127131 0 0.0076748818623935903 -0.011703846748560504 0 0.0076584331541727788 -0.0087533281085932883 0 0.0071942074678169399 -0.0091766520267670421 0 0.0072483749961752275 -0.0085044774821039972 0 0.0092147819858911535 -0.0088314600184668784 0 0.0097216744968265188 -0.011374396377726479 0 0.010895501415900748 -0.010496109006562561 0 0.011240896166630219 -0.010069839032792471 0 0.011430511571907519 -0.01105617107339084 0 0.010895501415900748 -0.010496109006562561 0 0.011240896166630219 -0.010069839032792471 0 0.010720119382569752 -0.010063253440186696 0 0.0092147819858911535 -0.0088314600184668784 0 0.011084238587019459 -0.0069377725962116799 0 0.011202978321514208 -0.0058830179545744463 0 0.01101836489134627 -0.0049531644802271492 0 0.010831521174400907 -0.0048954881115257426 0 0.011202978321514208 -0.0058830179545744463 0 0.010831521174400907 -0.0048954881115257426 0 0.010361792129768243 -0.0048864837227275033 0 0.0068073328695686637 -0.0086903373166948798 0 0.0067300465330109079 -0.0082464128231893082 0 0.0072483749961752275 -0.0085044774821039972 0 0.0092147819858911535 -0.0088314600184668784 0 0.0088581229707748576 -0.0064607283591227339 0 0.0067300465330109079 -0.0082464128231893082 0 0.0072483749961752275 -0.0085044774821039972 0 0.0073373078762207777 -0.0079707572176562248 0 0.0067300465330109079 -0.0082464128231893082 0 0.0073373078762207777 -0.0079707572176562248 0 0.0066546656115526346 -0.0078131216917670197 0 0.0089055842348061132 -0.00612960069544946 0 0.0092276915358567614 -0.0054090612135509891 0 0.01101836489134627 -0.0049531644802271492 0 0.010831521174400907 -0.0048954881115257426 0 0.010671289355755864 -0.0045641530149741517 0 0.0088581229707748576 -0.0064607283591227339 0 0.0092276915358567614 -0.0054090612135509891 0 0.01101836489134627 -0.0049531644802271492 0 0.010830579814467695 -0.0042908526200802263 0 0.010671289355755864 -0.0045641530149741517 0 0.010391469495325554 -0.003796209481705214 0 0.010528250501615976 -0.0038255942367205003 0 0.010460469446986859 -0.003862371019805454 0 0.0092276915358567614 -0.0054090612135509891 0 0.010294186631252882 -0.003743913928486566 0 0.010528250501615976 -0.0038255942367205003 0 0.010460469446986859 -0.003862371019805454 0 0.010566092000206067 -0.0039309989213182663 0 0.010460469446986859 -0.003862371019805454 0 0.010566092000206067 -0.0039309989213182663 0 0.010479571699848545 -0.0039024180336979081 0 0.010460469446986859 -0.003862371019805454 0 0.010435142721983003 -0.0038802253928296999 0 0.010479571699848545 -0.0039024180336979081 0 0.010391469495325554 -0.003796209481705214 0 0.010404545654974897 -0.0038581106940635246 0 0.010356606584909696 -0.0038388450232658472 0 0.010391469495325554 -0.003796209481705214 0 0.010460469446986859 -0.003862371019805454 0 0.010404545654974897 -0.0038581106940635246 0 0.010460469446986859 -0.003862371019805454 0 0.010435142721983003 -0.0038802253928296999 0 0.010404545654974897 -0.0038581106940635246 0 0.010435142721983003 -0.0038802253928296999 0 0.010404772095644161 -0.0038857205144340419 0 0.010404545654974897 -0.0038581106940635246 0 0.010404772095644161 -0.0038857205144340419 0 0.01038018260526344 -0.0038705449658737929 0 0.010380027475705909 -0.0038930282280707283 0 0.010404772095644161 -0.0038857205144340419 0 0.010404545654974897 -0.0038581106940635246 0 0.01038018260526344 -0.0038705449658737929 0 0.010404545654974897 -0.0038581106940635246 0 0.01038018260526344 -0.0038705449658737929 0 0.010356606584909696 -0.0038388450232658472 0 0.01038018260526344 -0.0038705449658737929 0 0.010358242996029072 -0.003868958809285325 0 0.010356606584909696 -0.0038388450232658472 0 0.01038018260526344 -0.0038705449658737929 0 0.010358242996029072 -0.003868958809285325 0 0.010380027475705909 -0.0038930282280707283 0 0.010323783084065993 -0.003879024901233223 0 0.010356606584909696 -0.0038388450232658472 0 0.010251202046260541 -0.0037582990875042544 0 0.010358242996029072 -0.003868958809285325 0 0.010323783084065993 -0.003879024901233223 0 0.010356606584909696 -0.0038388450232658472 0 0.010391469495325554 -0.003796209481705214 0 0.010356606584909696 -0.0038388450232658472 0 0.010251202046260541 -0.0037582990875042544 0 0.0089055842348061132 -0.00612960069544946 0 0.0084891205743133791 -0.0041964206251685785 0 0.0077076877558783221 -0.0083552011218905355 0 0.0073373078762207777 -0.0079707572176562248 0 0.0080205522144220272 -0.008110804016769009 0 0.0077076877558783221 -0.0083552011218905355 0 0.0080788637445154375 -0.0082937129108321093 0 0.0080205522144220272 -0.008110804016769009 0 0.0089117189167315404 -0.0072600884608160481 0 0.0084891205743133791 -0.0041964206251685785 0 0.0080811010491409693 0.00060911597674729472 0 0.0079373656246750027 0.00076821077791210308 0 0.0078763663719091763 0.00070377948760513929 0 0.009195477558158591 -0.0010997155435502144 0 0.0084891205743133791 -0.0041964206251685785 0 0.0080811010491409693 0.00060911597674729472 0 0.0078763663719091763 0.00070377948760513929 0 0.00797300667030614 0.00060703376074679595 0 0.0080811010491409693 0.00060911597674729472 0 0.00797300667030614 0.00060703376074679595 0 0.0080386568961522027 0.00056467262754090607 0 0.0078763663719091763 0.00070377948760513929 0 0.00797300667030614 0.00060703376074679595 0 0.0078801094254484852 0.00059940394931451587 0 0.0078763663719091763 0.00070377948760513929 0 0.0077646716103879718 0.00065412055077362767 0 0.0077252352083778614 0.00069849924809910853 0 0.0077646716103879718 0.00065412055077362767 0 0.0077252352083778614 0.00069849924809910853 0 0.0076385273149653732 0.00059635430744541115 0 0.0078763663719091763 0.00070377948760513929 0 0.0078801094254484852 0.00059940394931451587 0 0.0077646716103879718 0.00065412055077362767 0 0.007514905567967774 0.00095487301538444542 0 0.0072694199612630492 0.00077072831059043384 0 0.0076385273149653732 0.00059635430744541115 0 0.0075159147546243 0.0015935914778179177 0 0.0076805190547663315 0.00033544573627913052 0 0.007514905567967774 0.00095487301538444542 0 0.0073175896001617729 0.0010419307232574537 0 0.0072694199612630492 0.00077072831059043384 0 0.007514905567967774 0.00095487301538444542 0 0.0073175896001617729 0.0010419307232574537 0 0.0074399096578746859 0.0012016982131756247 0 0.0075159147546243 0.0015935914778179177 0 0.0076154368429363836 -0.0032691079763111659 0 0.0073175896001617729 0.0010419307232574537 0 0.0074399096578746859 0.0012016982131756247 0 0.0073377698036593275 0.0012213082902599113 0 0.0084891205743133791 -0.0041964206251685785 0 0.0076154368429363836 -0.0032691079763111659 0 0.0078763663719091763 0.00070377948760513929 0 0.0077252352083778614 0.00069849924809910853 0 0.0077184322795921419 0.00078196899200864284 0 0.0079373656246750027 0.00076821077791210308 0 0.0078763663719091763 0.00070377948760513929 0 0.0077184322795921419 0.00078196899200864284 0 0.0066441091739092451 0.00079850260476282042 0 0.0070085401748558613 0.0010189876732116143 0 0.0069409063590534555 0.00072301461606636037 0 0.0063511934112428989 0.00019727550255555044 0 0.0061857277836972636 -0.0010615260709383079 0 0.0069082962600901035 -0.0041988355481887805 0 0.0063252590134189402 -0.0027626038901526527 0 0.0052773882280448972 -0.003726633163784437 0 0.0072694199612630492 0.00077072831059043384 0 0.0070085401748558613 0.0010189876732116143 0 0.0069409063590534555 0.00072301461606636037 0 0.0073175896001617729 0.0010419307232574537 0 0.0072694199612630492 0.00077072831059043384 0 0.0070085401748558613 0.0010189876732116143 0 0.0073175896001617729 0.0010419307232574537 0 0.0070085401748558613 0.0010189876732116143 0 0.0073377698036593275 0.0012213082902599113 0 0.0061857277836972636 -0.0010615260709383079 0 0.0063615808260551014 -0.0050671132358262412 0 0.0052773882280448972 -0.003726633163784437 0 0.0058301240995421019 -0.0049987829645176569 0 0.0042583928355555663 -0.0046670094748190076 0 0.0069082962600901035 -0.0041988355481887805 0 0.0052773882280448972 -0.003726633163784437 0 0.0058301240995421019 -0.0049987829645176569 0 0.0050933208803507317 -0.010973579957864459 0 0.0049688902863041177 -0.014744314656981028 0 0.0069416794021810559 -0.011568279065507722 0 0.0053812762208959595 -0.011924253413913545 0 0.0059002338733044188 -0.012346242301900918 0 0.0069416794021810559 -0.011568279065507722 0 0.0053812762208959595 -0.011924253413913545 0 0.0050265054474575516 -0.011171997159452943 0 0.0050933208803507317 -0.010973579957864459 0 0.0063615808260551014 -0.0050671132358262412 0 0.0044307248453656503 -0.016736219979363406 0 0.0044428586628296636 -0.01675266165609221 0 0.0045580007976426008 -0.016701629476799023 0 0.0053812762208959595 -0.011924253413913545 0 0.0059002338733044188 -0.012346242301900918 0 0.0048406947122521353 -0.013148119506174819 0 0.0049688902863041177 -0.014744314656981028 0 0.0057892400025706245 -0.016127044028447286 0 0.0044307248453656503 -0.016736219979363406 0 0.0044428586628296636 -0.01675266165609221 0 0.0044201372299018183 -0.016746362648919679 0 0.0044210957322788841 -0.016736885833722633 0 0.0044428586628296636 -0.01675266165609221 0 0.0044201372299018183 -0.016746362648919679 0 0.0044307248453656503 -0.016736219979363406 0 0.0044201372299018183 -0.016746362648919679 0 0.0044260943733788983 -0.016759682181044577 0 0.0044079293482785229 -0.01675581890567223 0 0.0044201372299018183 -0.016746362648919679 0 0.0044260943733788983 -0.016759682181044577 0 0.0044079293482785229 -0.01675581890567223 0 0.0044041523975255131 -0.016750092891036156 0 0.0044201372299018183 -0.016746362648919679 0 0.0044041523975255131 -0.016750092891036156 0 0.0044210957322788841 -0.016736885833722633 0 0.0044201372299018183 -0.016746362648919679 0 0.0080172212830508585 -0.0081016438396773853 0 0.0084071771853985941 -0.0084232080264214498 0 0.0088263015969527493 -0.0082802749326114714 0 0.0084071771853985941 -0.0084232080264214498 0 0.0088263015969527493 -0.0082802749326114714 0 0.0088530563467535388 -0.0084730814699562375 0 0.0084071771853985941 -0.0084232080264214498 0 0.0088530563467535388 -0.0084730814699562375 0 0.0084462343589156545 -0.0088723644625387354 0 0.0069951031739273663 -0.010428259856124035 0 0.0076073060125361608 -0.012657733755881756 0 0.0081900907207945409 -0.0085571460205061088 0 0.0084071771853985941 -0.0084232080264214498 0 0.0084462343589156545 -0.0088723644625387354 0 0.0073081739961189541 -0.0058115883860042532 0 0.007358838890066683 -0.0061774742093488079 0 0.0076752509632010074 -0.0058856531006706266 0 0.0076154368429363836 -0.0032691079763111659 0 0.0069951031739273663 -0.010428259856124035 0 0.0053812762208959595 -0.011924253413913545 0 0.00461766770411518 -0.011534170735332182 0 0.0050265054474575516 -0.011171997159452943 0 0.0076154368429363836 -0.0032691079763111659 0 0.0063615808260551014 -0.0050671132358262412 0 0.0069951031739273663 -0.010428259856124035 0 0.0063615808260551014 -0.0050671132358262412 0 0.0069951031739273663 -0.010428259856124035 0 0.0057892400025706245 -0.016127044028447286 0 0.0053812762208959595 -0.011924253413913545 0 0.00461766770411518 -0.011534170735332182 0 0.0048406947122521353 -0.013148119506174819 0 0.0072498946113390642 -0.015676133543329789 0 0.007340405228658098 -0.016529305542750124 0 0.006719926344403041 -0.016221347956859956 0 0.007340405228658098 -0.016529305542750124 0 0.006719926344403041 -0.016221347956859956 0 0.0069249610899064489 -0.01681791485692917 0 0.006719926344403041 -0.016221347956859956 0 0.0066356044144971257 -0.016776136071825692 0 0.0069249610899064489 -0.01681791485692917 0 0.0066356044144971257 -0.016776136071825692 0 0.0069249610899064489 -0.01681791485692917 0 0.006607966684414204 -0.017061114159773742 0 0.0069249610899064489 -0.01681791485692917 0 0.006607966684414204 -0.017061114159773742 0 0.0068311950819373067 -0.01707305738038602 0 0.0044307248453656503 -0.016736219979363406 0 0.0045580007976426008 -0.016701629476799023 0 0.0045492381173978186 -0.016616433103752524 0 0.0057892400025706245 -0.016127044028447286 0 0.0070527668346915297 -0.016487333697810278 0 0.0071510647800887986 -0.016651722693325443 0 0.0069249610899064489 -0.01681791485692917 0 0.007195527802452719 -0.016927500288100653 0 0.0057892400025706245 -0.016127044028447286 0 0.0051925263387964651 -0.017171911540214749 0 0.0069249610899064489 -0.01681791485692917 0 0.007195527802452719 -0.016927500288100653 0 0.0068311950819373067 -0.01707305738038602 0 0.0051925263387964651 -0.017171911540214749 0 0.0062746676066727262 -0.017632167145387255 0 0.0051925263387964651 -0.017171911540214749 0 0.0045543574725428141 -0.017453668529864602 0 0.00477514278775609 -0.018692555754306922 0 0.0051260398048906444 -0.017879964665977546 0 0.005624482763389272 -0.01779081732290478 0 0.0043904513390250616 -0.01678265820092642 0 0.0044029359188049082 -0.016843595753476232 0 0.0044186290102855201 -0.016803022017720465 0 0.00477514278775609 -0.018692555754306922 0 0.0046524999106062354 -0.017933816739924256 0 0.0051260398048906444 -0.017879964665977546 0 0.007195527802452719 -0.016927500288100653 0 0.0067128977348443449 -0.017350774299655279 0 0.0068311950819373067 -0.01707305738038602 0 0.0067128977348443449 -0.017350774299655279 0 0.0066787551753109391 -0.017181338650568034 0 0.0068311950819373067 -0.01707305738038602 0 0.0067128977348443449 -0.017350774299655279 0 0.0065681831117208253 -0.017240674377170792 0 0.0064276331928290013 -0.017331152463256463 0 0.0067128977348443449 -0.017350774299655279 0 0.0065681831117208253 -0.017240674377170792 0 0.0066787551753109391 -0.017181338650568034 0 0.006607966684414204 -0.017061114159773742 0 0.0066787551753109391 -0.017181338650568034 0 0.0068311950819373067 -0.01707305738038602 0 0.0065681831117208253 -0.017240674377170792 0 0.006607966684414204 -0.017061114159773742 0 0.0066787551753109391 -0.017181338650568034 0 0.0044079293482785229 -0.01675581890567223 0 0.0044164050958200689 -0.016770726010308101 0 0.0044260943733788983 -0.016759682181044577 0 0.0044164050958200689 -0.016770726010308101 0 0.0044260943733788983 -0.016759682181044577 0 0.0044308368812599735 -0.016785793174160568 0 0.004275489261663273 -0.016670692655414043 0 0.0051925263387964651 -0.017171911540214749 0 0.0044307248453656503 -0.016736219979363406 0 0.0043904513390250616 -0.01678265820092642 0 0.0044228460643384584 -0.016772932132133603 0 0.0044260943733788983 -0.016759682181044577 0 0.0044308368812599735 -0.016785793174160568 0 0.0044228460643384584 -0.016772932132133603 0 0.0044308368812599735 -0.016785793174160568 0 0.0044228460643384584 -0.016772932132133603 0 0.0044186290102855201 -0.016803022017720465 0 0.0044307248453656503 -0.016736219979363406 0 0.0044260943733788983 -0.016759682181044577 0 0.0044228460643384584 -0.016772932132133603 0 0.0043904513390250616 -0.01678265820092642 0 0.0044228460643384584 -0.016772932132133603 0 0.0044186290102855201 -0.016803022017720465 0 0.0044029359188049082 -0.016843595753476232 0 0.0044186290102855201 -0.016803022017720465 0 0.0044434703047457015 -0.016824189235319423 0 0.0044029359188049082 -0.016843595753476232 0 0.0044434703047457015 -0.016824189235319423 0 0.0044662745242406016 -0.01688881965906823 0 0.0044308368812599735 -0.016785793174160568 0 0.0044186290102855201 -0.016803022017720465 0 0.0044434703047457015 -0.016824189235319423 0 0.0043962506984271555 -0.016769915251244039 0 0.0044164050958200689 -0.016770726010308101 0 0.0044262186213721898 -0.016796609739470569 0 0.0044308368812599735 -0.016785793174160568 0 0.0044434703047457015 -0.016824189235319423 0 0.0044262186213721898 -0.016796609739470569 0 0.0044164050958200689 -0.016770726010308101 0 0.0044308368812599735 -0.016785793174160568 0 0.0044262186213721898 -0.016796609739470569 0 0.0044434703047457015 -0.016824189235319423 0 0.0044262186213721898 -0.016796609739470569 0 0.0044356101171919796 -0.016833469223612552 0 0.0043962506984271555 -0.016769915251244039 0 0.0044262186213721898 -0.016796609739470569 0 0.0044356101171919796 -0.016833469223612552 0 0.0043962506984271555 -0.016769915251244039 0 0.0044356101171919796 -0.016833469223612552 0 0.0043948999595996331 -0.016783500939735126 0 0.0044356101171919796 -0.016833469223612552 0 0.0044554130057435481 -0.016881549416216252 0 0.0043948999595996331 -0.016783500939735126 0 0.0044029359188049082 -0.016843595753476232 0 0.0044662745242406016 -0.01688881965906823 0 0.0045238319993937751 -0.017017141381905364 0 0.0044434703047457015 -0.016824189235319423 0 0.0044356101171919796 -0.016833469223612552 0 0.0044662745242406016 -0.01688881965906823 0 0.0044356101171919796 -0.016833469223612552 0 0.0044554130057435481 -0.016881549416216252 0 0.0044662745242406016 -0.01688881965906823 0 0.0044554130057435481 -0.016881549416216252 0 0.0044662745242406016 -0.01688881965906823 0 0.0045238319993937751 -0.017017141381905364 0 0.0044503170570630562 -0.016782469442531915 0 0.0045238319993937751 -0.017017141381905364 0 0.0046844798984772788 -0.016707112011442021 0 0.0044503170570630562 -0.016782469442531915 0 0.0046844798984772788 -0.016707112011442021 0 0.004397252535977266 -0.016724738893869457 0 0.0044554130057435481 -0.016881549416216252 0 0.0044503170570630562 -0.016782469442531915 0 0.0045238319993937751 -0.017017141381905364 0 0.0044503170570630562 -0.016782469442531915 0 0.0043948999595996331 -0.016783500939735126 0 0.004397252535977266 -0.016724738893869457 0 0.0044554130057435481 -0.016881549416216252 0 0.0044503170570630562 -0.016782469442531915 0 0.0043948999595996331 -0.016783500939735126 0 0.005624482763389272 -0.01779081732290478 0 0.0057333959926666343 -0.017594232811414822 0 0.0062039227930277508 -0.017423623422022232 0 0.005624482763389272 -0.01779081732290478 0 0.0057333959926666343 -0.017594232811414822 0 0.0054132380109068933 -0.017663708242518918 0 0.0051260398048906444 -0.017879964665977546 0 0.005624482763389272 -0.01779081732290478 0 0.0054132380109068933 -0.017663708242518918 0 0.0057333959926666343 -0.017594232811414822 0 0.0054132380109068933 -0.017663708242518918 0 0.0051174946468693595 -0.017427642179677356 0 0.0045543574725428141 -0.017453668529864602 0 0.0045089903498911101 -0.017031898866789828 0 0.0045238319993937751 -0.017017141381905364 0 0.0051174946468693595 -0.017427642179677356 0 0.0046844798984772788 -0.016707112011442021 0 0.0051260398048906444 -0.017879964665977546 0 0.0054132380109068933 -0.017663708242518918 0 0.0051174946468693595 -0.017427642179677356 0 0.0046524999106062354 -0.017933816739924256 0 0.0045238319993937751 -0.017017141381905364 0 0.0051174946468693595 -0.017427642179677356 0 0.0057333959926666343 -0.017594232811414822 0 0.0051174946468693595 -0.017427642179677356 0 0.0046844798984772788 -0.016707112011442021 0 0.0046524999106062354 -0.017933816739924256 0 0.0051260398048906444 -0.017879964665977546 0 0.0051174946468693595 -0.017427642179677356 0 0.0053223745532749453 -0.017457092252058128 0 0.0056782126311313063 -0.017386282548118203 0 0.0054734601587915687 -0.017263386403195906 0 0.0056767575751421858 -0.017555616956599501 0 0.005015552435046102 -0.017104196602241682 0 0.0057333959926666343 -0.017594232811414822 0 0.0056782126311313063 -0.017386282548118203 0 0.0062039227930277508 -0.017423623422022232 0 0.0057333959926666343 -0.017594232811414822 0 0.0053223745532749453 -0.017457092252058128 0 0.0056782126311313063 -0.017386282548118203 0 0.0059650027982739925 -0.017282244799741851 0 0.0062039227930277508 -0.017423623422022232 0 0.0062075020085228735 -0.017179906818344162 0 0.0056782126311313063 -0.017386282548118203 0 0.0059650027982739925 -0.017282244799741851 0 0.0062039227930277508 -0.017423623422022232 0 0.0063540451613481172 -0.017370519307884812 0 0.0065776120973473663 -0.01727313263055337 0 0.0062075020085228735 -0.017179906818344162 0 0.0062039227930277508 -0.017423623422022232 0 0.0063540451613481172 -0.017370519307884812 0 0.0062075020085228735 -0.017179906818344162 0 0.0063540451613481172 -0.017370519307884812 0 0.0063695341336485398 -0.017373205699116073 0 0.0064528832598475701 -0.017372054192562603 0 0.0063540451613481172 -0.017370519307884812 0 0.0063695341336485398 -0.017373205699116073 0 0.0063285191094746224 -0.017374810651750779 0 0.0062039227930277508 -0.017423623422022232 0 0.0063540451613481172 -0.017370519307884812 0 0.0063285191094746224 -0.017374810651750779 0 0.0063695341336485398 -0.017373205699116073 0 0.0063285191094746224 -0.017374810651750779 0 0.0063380002786742242 -0.01731274460354558 0 0.0063695341336485398 -0.017373205699116073 0 0.0063705630032755561 -0.017348114090194537 0 0.0063380002786742242 -0.01731274460354558 0 0.0063695341336485398 -0.017373205699116073 0 0.0064132123208432345 -0.017374473187532966 0 0.0064528832598475701 -0.017372054192562603 0 0.0063695341336485398 -0.017373205699116073 0 0.0063705630032755561 -0.017348114090194537 0 0.0064132123208432345 -0.017374473187532966 0 0.0063705630032755561 -0.017348114090194537 0 0.0064132123208432345 -0.017374473187532966 0 0.0064159222728975831 -0.017361110722107255 0 0.0062039227930277508 -0.017423623422022232 0 0.0063285191094746224 -0.017374810651750779 0 0.0064276331928290013 -0.017331152463256463 0 0.0067128977348443449 -0.017350774299655279 0 0.0062039227930277508 -0.017423623422022232 0 0.0064276331928290013 -0.017331152463256463 0 0.0062746676066727262 -0.017632167145387255 0 0.0062024654017153085 -0.017402790303872394 0 0.0063285191094746224 -0.017374810651750779 0 0.0064276331928290013 -0.017331152463256463 0 0.0063708107543982238 -0.017286296787651291 0 0.0065681831117208253 -0.017240674377170792 0 0.0064276331928290013 -0.017331152463256463 0 0.0064562454878041176 -0.017203879610387947 0 0.0065681831117208253 -0.017240674377170792 0 0.006607966684414204 -0.017061114159773742 0 0.0064562454878041176 -0.017203879610387947 0 0.006607966684414204 -0.017061114159773742 0 0.0064562454878041176 -0.017203879610387947 0 0.0064265426974971463 -0.017013711764584379 0 0.0064562454878041176 -0.017203879610387947 0 0.0063758203074210131 -0.017205314686018915 0 0.0064265426974971463 -0.017013711764584379 0 0.0063758203074210131 -0.017205314686018915 0 0.0063309008030834509 -0.0171723442320874 0 0.0064265426974971463 -0.017013711764584379 0 0.0064276331928290013 -0.017331152463256463 0 0.0064562454878041176 -0.017203879610387947 0 0.0063708107543982238 -0.017286296787651291 0 0.0063758203074210131 -0.017205314686018915 0 0.0063708107543982238 -0.017286296787651291 0 0.0063330542293110331 -0.017244468427114409 0 0.0064562454878041176 -0.017203879610387947 0 0.0063758203074210131 -0.017205314686018915 0 0.0063708107543982238 -0.017286296787651291 0 0.0063285191094746224 -0.017374810651750779 0 0.0063708107543982238 -0.017286296787651291 0 0.0063380002786742242 -0.01731274460354558 0 0.0063380002786742242 -0.01731274460354558 0 0.0063420859915258353 -0.017298875550581228 0 0.0063118730525272889 -0.017257795459817947 0 0.0063380002786742242 -0.01731274460354558 0 0.0063330542293110331 -0.017244468427114409 0 0.0063118730525272889 -0.017257795459817947 0 0.0063708107543982238 -0.017286296787651291 0 0.0063380002786742242 -0.01731274460354558 0 0.0063330542293110331 -0.017244468427114409 0 0.0063420859915258353 -0.017298875550581228 0 0.0062871945175986231 -0.017234963069298559 0 0.0064159222728975831 -0.017361110722107255 0 0.0063705630032755561 -0.017348114090194537 0 0.0063420859915258353 -0.017298875550581228 0 0.0064159222728975831 -0.017361110722107255 0 0.0063705630032755561 -0.017348114090194537 0 0.0063380002786742242 -0.01731274460354558 0 0.0063420859915258353 -0.017298875550581228 0 0.0063420859915258353 -0.017298875550581228 0 0.0062871945175986231 -0.017234963069298559 0 0.0063118730525272889 -0.017257795459817947 0 0.0062213764938648924 -0.017140449103763066 0 0.0063309008030834509 -0.0171723442320874 0 0.0064265426974971463 -0.017013711764584379 0 0.0063758203074210131 -0.017205314686018915 0 0.0063330542293110331 -0.017244468427114409 0 0.0063309008030834509 -0.0171723442320874 0 0.0063330542293110331 -0.017244468427114409 0 0.0062807846718316972 -0.017215606820331679 0 0.0063309008030834509 -0.0171723442320874 0 0.0063330542293110331 -0.017244468427114409 0 0.0063118730525272889 -0.017257795459817947 0 0.0062807846718316972 -0.017215606820331679 0 0.0062213764938648924 -0.017140449103763066 0 0.0062807846718316972 -0.017215606820331679 0 0.0063309008030834509 -0.0171723442320874 0 0.0062871945175986231 -0.017234963069298559 0 0.0063118730525272889 -0.017257795459817947 0 0.0062807846718316972 -0.017215606820331679 0 0.0071671471234997872 -0.013931909603796767 0 0.0073996191895245233 -0.014746885903961355 0 0.0071671471234997872 -0.013931909603796767 0 0.0072314054329318707 -0.012944589292070176 0 0.0071942074678169399 -0.0091766520267670421 0 0.0076024509685991741 -0.009686790058994043 0 0.0076159442558930935 -0.0092036959691402763 0 0.0076024509685991741 -0.009686790058994043 0 0.0076159442558930935 -0.0092036959691402763 0 0.0080339318842900711 -0.0092746079573653283 0 0.0066356044144971257 -0.016776136071825692 0 0.0063837925294139919 -0.016730432084934781 0 0.0064265426974971463 -0.017013711764584379 0 0.0066356044144971257 -0.016776136071825692 0 0.006607966684414204 -0.017061114159773742 0 0.0064265426974971463 -0.017013711764584379 0 0.0062213764938648924 -0.017140449103763066 0 0.0063837925294139919 -0.016730432084934781 0 0.0064265426974971463 -0.017013711764584379 0 0.010895501415900748 -0.010496109006562561 0 0.011430511571907519 -0.01105617107339084 0 0.010724507238605024 -0.010867545370670244 0 0.011430511571907519 -0.01105617107339084 0 0.010896654737934471 -0.011461937071261419 0 0.010724507238605024 -0.010867545370670244 0 0.0075183965596469383 -0.0097448385374351992 0 0.0071671471234997872 -0.013931909603796767 0 0.0083556560654574411 -0.011097908160021628 0 0.0094088156524950277 -0.012295220123227832 0 0.0076748818623935903 -0.011703846748560504 0 0.0062871945175986231 -0.017234963069298559 0 0.0064159222728975831 -0.017361110722107255 0 0.0065317970153196559 -0.017432732005682169 0 0.0094088156524950277 -0.012295220123227832 0 0.0076748818623935903 -0.011703846748560504 0 0.008054996534988831 -0.01349816945925073 0 0.0071671471234997872 -0.013931909603796767 0 0.0082956197102368925 -0.014102828781279872 0 0.0097216744968265188 -0.011374396377726479 0 0.0082956197102368925 -0.014102828781279872 0 0.010896654737934471 -0.011461937071261419 0 0.010940158370928977 -0.012119830133068169 0 0.011608427672588016 -0.012019130460245379 0 0.011430511571907519 -0.01105617107339084 0 0.010896654737934471 -0.011461937071261419 0 0.011608427672588016 -0.012019130460245379 0 0.0082956197102368925 -0.014102828781279872 0 0.0090466473856434752 -0.014837121585314883 0 0.0065317970153196559 -0.017432732005682169 0 0.0065824666245019826 -0.017367290586540338 0 0.0069111717814242541 -0.017342682358328476 0 0.010940158370928977 -0.012119830133068169 0 0.011608427672588016 -0.012019130460245379 0 0.0109164306841553 -0.012630057522621715 0 0.010940158370928977 -0.012119830133068169 0 0.0109164306841553 -0.012630057522621715 0 0.010847504899135132 -0.012617970977295617 0 0.0064132123208432345 -0.017374473187532966 0 0.0064702644031793015 -0.017393637886794121 0 0.0064528832598475701 -0.017372054192562603 0 0.0064159222728975831 -0.017361110722107255 0 0.0064702644031793015 -0.017393637886794121 0 0.0065317970153196559 -0.017432732005682169 0 0.0064132123208432345 -0.017374473187532966 0 0.0064159222728975831 -0.017361110722107255 0 0.0064702644031793015 -0.017393637886794121 0 0.0064702644031793015 -0.017393637886794121 0 0.0065317970153196559 -0.017432732005682169 0 0.0065824666245019826 -0.017367290586540338 0 0.0064702644031793015 -0.017393637886794121 0 0.0065824666245019826 -0.017367290586540338 0 0.0064528832598475701 -0.017372054192562603 0 0.0065824666245019826 -0.017367290586540338 0 0.0064528832598475701 -0.017372054192562603 0 0.0065776120973473663 -0.01727313263055337 0 0.0063540451613481172 -0.017370519307884812 0 0.0064528832598475701 -0.017372054192562603 0 0.0065776120973473663 -0.01727313263055337 0 0.0065824666245019826 -0.017367290586540338 0 0.0065776120973473663 -0.01727313263055337 0 0.0069111717814242541 -0.017342682358328476 0 0.0065776120973473663 -0.01727313263055337 0 0.0069111717814242541 -0.017342682358328476 0 0.006831970959213572 -0.017105802857385756 0 0.006831970959213572 -0.017105802857385756 0 0.0066057437163536993 -0.016997362571376136 0 0.007073593254034216 -0.016766819533720834 0 0.0070858228704509625 -0.016785611578292215 0 0.0072912743376221346 -0.017303014285593086 0 0.006831970959213572 -0.017105802857385756 0 0.007073593254034216 -0.016766819533720834 0 0.0070625175412538663 -0.016959351945625784 0 0.0066057437163536993 -0.016997362571376136 0 0.006483222620356369 -0.016759133271222863 0 0.007073593254034216 -0.016766819533720834 0 0.0065776120973473663 -0.01727313263055337 0 0.006831970959213572 -0.017105802857385756 0 0.0066057437163536993 -0.016997362571376136 0 0.0065776120973473663 -0.01727313263055337 0 0.0066057437163536993 -0.016997362571376136 0 0.0062075020085228735 -0.017179906818344162 0 0.0062075020085228735 -0.017179906818344162 0 0.0057471540042454694 -0.017150373822147666 0 0.0058189375468037756 -0.016925122736611634 0 0.0059650027982739925 -0.017282244799741851 0 0.0062075020085228735 -0.017179906818344162 0 0.0057471540042454694 -0.017150373822147666 0 0.0062075020085228735 -0.017179906818344162 0 0.0061615249721708419 -0.01684529885878942 0 0.0058189375468037756 -0.016925122736611634 0 0.0066057437163536993 -0.016997362571376136 0 0.0062075020085228735 -0.017179906818344162 0 0.0061615249721708419 -0.01684529885878942 0 0.0066057437163536993 -0.016997362571376136 0 0.0061615249721708419 -0.01684529885878942 0 0.006483222620356369 -0.016759133271222863 0 0.006483222620356369 -0.016759133271222863 0 0.0062655825851246141 -0.016595364339890045 0 0.0065689187254267803 -0.016428249792827192 0 0.0061615249721708419 -0.01684529885878942 0 0.006483222620356369 -0.016759133271222863 0 0.0062655825851246141 -0.016595364339890045 0 0.0061615249721708419 -0.01684529885878942 0 0.005929292433976492 -0.016584771101628499 0 0.0058189375468037756 -0.016925122736611634 0 0.0061615249721708419 -0.01684529885878942 0 0.0062655825851246141 -0.016595364339890045 0 0.005929292433976492 -0.016584771101628499 0 0.005929292433976492 -0.016584771101628499 0 0.0061996638994811868 -0.016326691527701727 0 0.0056822057065285805 -0.016308321342337197 0 0.0061996638994811868 -0.016326691527701727 0 0.0056822057065285805 -0.016308321342337197 0 0.0060424631015727533 -0.016042303927571961 0 0.0062655825851246141 -0.016595364339890045 0 0.005929292433976492 -0.016584771101628499 0 0.0061996638994811868 -0.016326691527701727 0 0.0061996638994811868 -0.016326691527701727 0 0.0065689187254267803 -0.016428249792827192 0 0.0065941842506315913 -0.01596951428902919 0 0.0062655825851246141 -0.016595364339890045 0 0.0061996638994811868 -0.016326691527701727 0 0.0065689187254267803 -0.016428249792827192 0 0.0065689187254267803 -0.016428249792827192 0 0.0070233184362371521 -0.016187126034335725 0 0.007073593254034216 -0.016766819533720834 0 0.0065689187254267803 -0.016428249792827192 0 0.0070233184362371521 -0.016187126034335725 0 0.0065941842506315913 -0.01596951428902919 0 0.0070233184362371521 -0.016187126034335725 0 0.007073593254034216 -0.016766819533720834 0 0.0076062706978458411 -0.016155338158123866 0 0.006483222620356369 -0.016759133271222863 0 0.0065689187254267803 -0.016428249792827192 0 0.007073593254034216 -0.016766819533720834 0 0.0044463916881501003 -0.016828723246876516 0 0.0046232304735188126 -0.016947572730818108 0 0.004434994670691284 -0.016814399507399651 0 0.004828217429334705 -0.01719030339341153 0 0.004917801598005477 -0.016840854562689772 0 0.0043889849538603634 -0.016755143573195359 0 0.004434994670691284 -0.016814399507399651 0 0.004397252535977266 -0.016724738893869457 0 0.0043889849538603634 -0.016755143573195359 0 0.0043948999595996331 -0.016783500939735126 0 0.004397252535977266 -0.016724738893869457 0 0.005015552435046102 -0.017104196602241682 0 0.0046232304735188126 -0.016947572730818108 0 0.0053223745532749453 -0.017457092252058128 0 0.004828217429334705 -0.01719030339341153 0 0.0052103677673407487 -0.017146465846137993 0 0.004828217429334705 -0.01719030339341153 0 0.0052103677673407487 -0.017146465846137993 0 0.004917801598005477 -0.016840854562689772 0 0.0055225091912580286 -0.017006116310591585 0 0.0055116148790395267 -0.016710214540152368 0 0.004917801598005477 -0.016840854562689772 0 0.0052103677673407487 -0.017146465846137993 0 0.0055225091912580286 -0.017006116310591585 0 0.004917801598005477 -0.016840854562689772 0 0.0053223745532749453 -0.017457092252058128 0 0.0052103677673407487 -0.017146465846137993 0 0.0054734601587915687 -0.017263386403195906 0 0.0052103677673407487 -0.017146465846137993 0 0.0054734601587915687 -0.017263386403195906 0 0.0055225091912580286 -0.017006116310591585 0 0.0056782126311313063 -0.017386282548118203 0 0.0059650027982739925 -0.017282244799741851 0 0.0057471540042454694 -0.017150373822147666 0 0.0056782126311313063 -0.017386282548118203 0 0.0054734601587915687 -0.017263386403195906 0 0.0057471540042454694 -0.017150373822147666 0 0.0054734601587915687 -0.017263386403195906 0 0.0057471540042454694 -0.017150373822147666 0 0.0055225091912580286 -0.017006116310591585 0 0.0055225091912580286 -0.017006116310591585 0 0.0058189375468037756 -0.016925122736611634 0 0.0055116148790395267 -0.016710214540152368 0 0.0057471540042454694 -0.017150373822147666 0 0.0055225091912580286 -0.017006116310591585 0 0.0058189375468037756 -0.016925122736611634 0 0.005929292433976492 -0.016584771101628499 0 0.0058189375468037756 -0.016925122736611634 0 0.0055116148790395267 -0.016710214540152368 0 0.005929292433976492 -0.016584771101628499 0 0.0055116148790395267 -0.016710214540152368 0 0.0056822057065285805 -0.016308321342337197 0 0.0055116148790395267 -0.016710214540152368 0 0.0056822057065285805 -0.016308321342337197 0 0.0051839751091529405 -0.016500687020112967 0 0.0056822057065285805 -0.016308321342337197 0 0.0051839751091529405 -0.016500687020112967 0 0.0052864210085610567 -0.016179368549697783 0 0.0051839751091529405 -0.016500687020112967 0 0.0049003779336400837 -0.016221564751051798 0 0.0052864210085610567 -0.016179368549697783 0 0.0055116148790395267 -0.016710214540152368 0 0.0051839751091529405 -0.016500687020112967 0 0.004917801598005477 -0.016840854562689772 0 0.0051839751091529405 -0.016500687020112967 0 0.0047533275940644781 -0.016466711728922858 0 0.0049003779336400837 -0.016221564751051798 0 0.004917801598005477 -0.016840854562689772 0 0.0047533275940644781 -0.016466711728922858 0 0.0043515000584963158 -0.016584462473571128 0 0.0051839751091529405 -0.016500687020112967 0 0.004917801598005477 -0.016840854562689772 0 0.0047533275940644781 -0.016466711728922858 0 0.0047533275940644781 -0.016466711728922858 0 0.0043515000584963158 -0.016584462473571128 0 0.0044761789272802057 -0.016273807409516599 0 0.0043515000584963158 -0.016584462473571128 0 0.0040931421464094281 -0.016342502416742028 0 0.0044761789272802057 -0.016273807409516599 0 0.004202191817987604 -0.016731025975601773 0 0.0048865588680497727 -0.016859840605225801 0 0.004493805905211065 -0.016635342918802993 0 0.004434994670691284 -0.016814399507399651 0 0.004917801598005477 -0.016840854562689772 0 0.0040417888196873208 -0.016904874365424968 0 0.004917801598005477 -0.016840854562689772 0 0.0043515000584963158 -0.016584462473571128 0 0.0042437396274570922 -0.015694319233595728 0 0.0041245332994980155 -0.016054721683140705 0 0.0046060443821158287 -0.015938530966158524 0 0.0042437396274570922 -0.015694319233595728 0 0.0046060443821158287 -0.015938530966158524 0 0.0045670447265528805 -0.015651752325297291 0 0.0041245332994980155 -0.016054721683140705 0 0.0044761789272802057 -0.016273807409516599 0 0.0046060443821158287 -0.015938530966158524 0 0.0041245332994980155 -0.016054721683140705 0 0.0040931421464094281 -0.016342502416742028 0 0.0044761789272802057 -0.016273807409516599 0 0.0044761789272802057 -0.016273807409516599 0 0.0049003779336400837 -0.016221564751051798 0 0.0046060443821158287 -0.015938530966158524 0 0.0049003779336400837 -0.016221564751051798 0 0.0046060443821158287 -0.015938530966158524 0 0.0050586310051046364 -0.015927145261428521 0 0.0047533275940644781 -0.016466711728922858 0 0.0044761789272802057 -0.016273807409516599 0 0.0049003779336400837 -0.016221564751051798 0 0.0046060443821158287 -0.015938530966158524 0 0.004855513645582306 -0.015648709944143201 0 0.0050586310051046364 -0.015927145261428521 0 0.0046060443821158287 -0.015938530966158524 0 0.0045670447265528805 -0.015651752325297291 0 0.004855513645582306 -0.015648709944143201 0 0.0050586310051046364 -0.015927145261428521 0 0.0055426327537851866 -0.015933822437085611 0 0.0052738204255096443 -0.015556252584923718 0 0.004855513645582306 -0.015648709944143201 0 0.0050586310051046364 -0.015927145261428521 0 0.0052738204255096443 -0.015556252584923718 0 0.0050586310051046364 -0.015927145261428521 0 0.0052864210085610567 -0.016179368549697783 0 0.0055426327537851866 -0.015933822437085611 0 0.0049003779336400837 -0.016221564751051798 0 0.0050586310051046364 -0.015927145261428521 0 0.0052864210085610567 -0.016179368549697783 0 0.0056822057065285805 -0.016308321342337197 0 0.0052864210085610567 -0.016179368549697783 0 0.0055426327537851866 -0.015933822437085611 0 0.0056822057065285805 -0.016308321342337197 0 0.0055426327537851866 -0.015933822437085611 0 0.0060424631015727533 -0.016042303927571961 0 0.0055426327537851866 -0.015933822437085611 0 0.0052738204255096443 -0.015556252584923718 0 0.0058678607809956622 -0.01563359723703488 0 0.0055680312770160943 -0.015284680580537089 0 0.0052738204255096443 -0.015556252584923718 0 0.0058678607809956622 -0.01563359723703488 0 0.0055680312770160943 -0.015284680580537089 0 0.0051565108771717463 -0.015250453703182029 0 0.0052738204255096443 -0.015556252584923718 0 0.0055680312770160943 -0.015284680580537089 0 0.0051565108771717463 -0.015250453703182029 0 0.005147736245770404 -0.014999721447575748 0 0.0055680312770160943 -0.015284680580537089 0 0.005147736245770404 -0.014999721447575748 0 0.0059527468554197429 -0.014999894741746896 0 0.005147736245770404 -0.014999721447575748 0 0.0048967744455245881 -0.015115305620972927 0 0.0047355281543880563 -0.014947112413196359 0 0.0051470625650291936 -0.014999996001284259 0 0.0045894131808254038 -0.015027912011827524 0 0.0051565108771717463 -0.015250453703182029 0 0.005147736245770404 -0.014999721447575748 0 0.0048967744455245881 -0.015115305620972927 0 0.0051565108771717463 -0.015250453703182029 0 0.0048967744455245881 -0.015115305620972927 0 0.0049138289761307963 -0.015349936920546429 0 0.004855513645582306 -0.015648709944143201 0 0.0049138289761307963 -0.015349936920546429 0 0.0052738204255096443 -0.015556252584923718 0 0.0051565108771717463 -0.015250453703182029 0 0.0049138289761307963 -0.015349936920546429 0 0.0052738204255096443 -0.015556252584923718 0 0.004855513645582306 -0.015648709944143201 0 0.0049138289761307963 -0.015349936920546429 0 0.0046973383074670359 -0.015471810153960912 0 0.0045670447265528805 -0.015651752325297291 0 0.0046973383074670359 -0.015471810153960912 0 0.0044786859559265216 -0.015436876923509441 0 0.0045670447265528805 -0.015651752325297291 0 0.004855513645582306 -0.015648709944143201 0 0.0046973383074670359 -0.015471810153960912 0 0.004685834293779929 -0.015242948484691163 0 0.0045087408666842146 -0.015190355053093869 0 0.0044786859559265216 -0.015436876923509441 0 0.0046973383074670359 -0.015471810153960912 0 0.004685834293779929 -0.015242948484691163 0 0.0044786859559265216 -0.015436876923509441 0 0.0049138289761307963 -0.015349936920546429 0 0.0046973383074670359 -0.015471810153960912 0 0.004685834293779929 -0.015242948484691163 0 0.0048967744455245881 -0.015115305620972927 0 0.0047355281543880563 -0.014947112413196359 0 0.0046683296266177539 -0.015090848394819424 0 0.0051471948101676299 -0.015000001954724011 0 0.0043943755947853597 -0.014999994057958497 0 0.0044663199823225608 -0.015108457037827396 0 0.0048967744455245881 -0.015115305620972927 0 0.0049138289761307963 -0.015349936920546429 0 0.004685834293779929 -0.015242948484691163 0 0.0048967744455245881 -0.015115305620972927 0 0.004685834293779929 -0.015242948484691163 0 0.0046683296266177539 -0.015090848394819424 0 0.0047355281543880563 -0.014947112413196359 0 0.0046683296266177539 -0.015090848394819424 0 0.0044520495635370942 -0.015065741278205574 0 0.0046683296266177539 -0.015090848394819424 0 0.0045087408666842146 -0.015190355053093869 0 0.0044520495635370942 -0.015065741278205574 0 0.004685834293779929 -0.015242948484691163 0 0.0046683296266177539 -0.015090848394819424 0 0.0045087408666842146 -0.015190355053093869 0 0.0043943755947853597 -0.014999994057958497 0 0.0044663199823225608 -0.015108457037827396 0 0.0037782920195437364 -0.015202213767858493 0 0.0047355281543880563 -0.014947112413196359 0 0.0044520495635370942 -0.015065741278205574 0 0.0040293492902302424 -0.014940554470879037 0 0.0045894131808254038 -0.015027912011827524 0 0.0038960694229364119 -0.015081917778793839 0 0.0036414963955211698 -0.014999992394922475 0 0.0043943755947853597 -0.014999994057958497 0 0.0037782920195437364 -0.015202213767858493 0 0.0043114479450244263 -0.015195967781834912 0 0.0044520495635370942 -0.015065741278205574 0 0.0040293492902302424 -0.014940554470879037 0 0.0045087408666842146 -0.015190355053093869 0 0.0043114479450244263 -0.015195967781834912 0 0.0044520495635370942 -0.015065741278205574 0 0.0043114479450244263 -0.015195967781834912 0 0.0040293492902302424 -0.014940554470879037 0 0.0040400612751458221 -0.015249773422579707 0 0.0038865163951698639 -0.015490947976857461 0 0.0041953167418177862 -0.015416220272434725 0 0.0040400612751458221 -0.015249773422579707 0 0.0043114479450244263 -0.015195967781834912 0 0.0041953167418177862 -0.015416220272434725 0 0.0040400612751458221 -0.015249773422579707 0 0.0045087408666842146 -0.015190355053093869 0 0.0043114479450244263 -0.015195967781834912 0 0.0044786859559265216 -0.015436876923509441 0 0.0043114479450244263 -0.015195967781834912 0 0.0041953167418177862 -0.015416220272434725 0 0.0044786859559265216 -0.015436876923509441 0 0.0042437396274570922 -0.015694319233595728 0 0.0045670447265528805 -0.015651752325297291 0 0.0044786859559265216 -0.015436876923509441 0 0.0042437396274570922 -0.015694319233595728 0 0.0041953167418177862 -0.015416220272434725 0 0.0044786859559265216 -0.015436876923509441 0 0.0038865163951698639 -0.015490947976857461 0 0.0042437396274570922 -0.015694319233595728 0 0.0041953167418177862 -0.015416220272434725 0 0.0073051637450132906 -0.015705058962929914 0 0.0065941842506315913 -0.01596951428902919 0 0.006550705214801539 -0.015521635346831708 0 0.0073051637450132906 -0.015705058962929914 0 0.006550705214801539 -0.015521635346831708 0 0.0071744240300981935 -0.015322965502465629 0 0.0073051637450132906 -0.015705058962929914 0 0.0071744240300981935 -0.015322965502465629 0 0.008210595761453221 -0.015377382695938259 0 0.0070233184362371521 -0.016187126034335725 0 0.0073051637450132906 -0.015705058962929914 0 0.0076062706978458411 -0.016155338158123866 0 0.0070233184362371521 -0.016187126034335725 0 0.0073051637450132906 -0.015705058962929914 0 0.0065941842506315913 -0.01596951428902919 0 0.0061996638994811868 -0.016326691527701727 0 0.0065941842506315913 -0.01596951428902919 0 0.0060424631015727533 -0.016042303927571961 0 0.0065941842506315913 -0.01596951428902919 0 0.0060424631015727533 -0.016042303927571961 0 0.0062666128055711588 -0.015794225492362323 0 0.0055426327537851866 -0.015933822437085611 0 0.0060424631015727533 -0.016042303927571961 0 0.0058678607809956622 -0.01563359723703488 0 0.0060424631015727533 -0.016042303927571961 0 0.0058678607809956622 -0.01563359723703488 0 0.0062666128055711588 -0.015794225492362323 0 0.0058678607809956622 -0.01563359723703488 0 0.0062666128055711588 -0.015794225492362323 0 0.006550705214801539 -0.015521635346831708 0 0.0065941842506315913 -0.01596951428902919 0 0.0062666128055711588 -0.015794225492362323 0 0.006550705214801539 -0.015521635346831708 0 0.006550705214801539 -0.015521635346831708 0 0.0060763610101237028 -0.015325343223268867 0 0.0067584266007781127 -0.014999815631825663 0 0.0058678607809956622 -0.01563359723703488 0 0.006550705214801539 -0.015521635346831708 0 0.0060763610101237028 -0.015325343223268867 0 0.0055680312770160943 -0.015284680580537089 0 0.0058678607809956622 -0.01563359723703488 0 0.0060763610101237028 -0.015325343223268867 0 0.0055680312770160943 -0.015284680580537089 0 0.0060763610101237028 -0.015325343223268867 0 0.0059527468554197429 -0.014999894741746896 0 0.0060763610101237028 -0.015325343223268867 0 0.0059527468554197429 -0.014999894741746896 0 0.0067584266007781127 -0.014999815631825663 0 0.006550705214801539 -0.015521635346831708 0 0.0067584266007781127 -0.014999815631825663 0 0.0071744240300981935 -0.015322965502465629 0 0.0067584266007781127 -0.014999815631825663 0 0.0071744240300981935 -0.015322965502465629 0 0.0075640393859763722 -0.014999761382946415 0 0.0075640393859763722 -0.014999761382946415 0 0.0083695955105233776 -0.014999823156765169 0 0.008210595761453221 -0.015377382695938259 0 0.0083695955105233776 -0.014999823156765169 0 0.008210595761453221 -0.015377382695938259 0 0.0088207395882373696 -0.015351299122028648 0 0.0071744240300981935 -0.015322965502465629 0 0.0075640393859763722 -0.014999761382946415 0 0.008210595761453221 -0.015377382695938259 0 0.0073051637450132906 -0.015705058962929914 0 0.008210595761453221 -0.015377382695938259 0 0.0081367364972919336 -0.015674125063121522 0 0.008210595761453221 -0.015377382695938259 0 0.0081367364972919336 -0.015674125063121522 0 0.0090026587063360541 -0.015387147074161537 0 0.0081367364972919336 -0.015674125063121522 0 0.0090026587063360541 -0.015387147074161537 0 0.0084545679840775222 -0.0161953837646454 0 0.0073051637450132906 -0.015705058962929914 0 0.0081367364972919336 -0.015674125063121522 0 0.0076062706978458411 -0.016155338158123866 0 0.008210595761453221 -0.015377382695938259 0 0.0090026587063360541 -0.015387147074161537 0 0.0088207395882373696 -0.015351299122028648 0 0.0090026587063360541 -0.015387147074161537 0 0.0091743708229919309 -0.015563419944689552 0 0.0088207395882373696 -0.015351299122028648 0 0.01028888173468254 -0.01504679239103349 0 0.0090026587063360541 -0.015387147074161537 0 0.010006289032036682 -0.01557530495492877 0 0.01028888173468254 -0.01504679239103349 0 0.0090026587063360541 -0.015387147074161537 0 0.010496759091242102 -0.014280585281160904 0 0.0090639587120121476 -0.015358795671692073 0 0.0098374289969332188 -0.014951360229729097 0 0.0091743708229919309 -0.015563419944689552 0 0.0088207395882373696 -0.015351299122028648 0 0.0093477438701844353 -0.015334796401868181 0 0.0083695955105233776 -0.014999823156765169 0 0.0088207395882373696 -0.015351299122028648 0 0.009175015553184545 -0.014999877937023419 0 0.0088207395882373696 -0.015351299122028648 0 0.009175015553184545 -0.014999877937023419 0 0.0093477438701844353 -0.015334796401868181 0 0.009175015553184545 -0.014999877937023419 0 0.0099804526909534862 -0.014999903435234949 0 0.0093477438701844353 -0.015334796401868181 0 0.0099804526909534862 -0.014999903435234949 0 0.0099146319772041025 -0.015476880333382131 0 0.0093477438701844353 -0.015334796401868181 0 0.0099804526909534862 -0.014999903435234949 0 0.0099146319772041025 -0.015476880333382131 0 0.010758789170019155 -0.014989221415833849 0 0.011153320401487558 -0.01437352790650053 0 0.011104868033181715 -0.014438067973125414 0 0.011158127399988654 -0.014421284218160971 0 0.0098374289969332188 -0.014951360229729097 0 0.010513426979673925 -0.014916897580219378 0 0.0091743708229919309 -0.015563419944689552 0 0.0099146319772041025 -0.015476880333382131 0 0.0093477438701844353 -0.015334796401868181 0 0.010786310627166378 -0.014999968094636927 0 0.011275327978862711 -0.015551187228641709 0 0.011628416959377507 -0.014999993593334874 0 0.010786395913150981 -0.015000045507402436 0 0.011144729180046466 -0.01504945124360889 0 0.010786927519083557 -0.014999401266248937 0 0.010758789170019155 -0.014989221415833849 0 0.011004250099226065 -0.014537858996474206 0 0.0099804526909534862 -0.014999903435234949 0 0.010786927519083557 -0.014999401266248937 0 0.010758789170019155 -0.014989221415833849 0 0.010513426979673925 -0.014916897580219378 0 0.010734859504054475 -0.014975470664139491 0 0.011153320401487558 -0.01437352790650053 0 0.010758789170019155 -0.014989221415833849 0 0.011104868033181715 -0.014438067973125414 0 0.011104868033181715 -0.014438067973125414 0 0.011004250099226065 -0.014537858996474206 0 0.011258494535098451 -0.014299018781141393 0 0.010758789170019155 -0.014989221415833849 0 0.011104868033181715 -0.014438067973125414 0 0.011004250099226065 -0.014537858996474206 0 0.011104868033181715 -0.014438067973125414 0 0.011258494535098451 -0.014299018781141393 0 0.011301110495653287 -0.014349235202935622 0 0.011104868033181715 -0.014438067973125414 0 0.011301110495653287 -0.014349235202935622 0 0.011158127399988654 -0.014421284218160971 0 0.011301110495653287 -0.014349235202935622 0 0.01126087880411431 -0.014508304609052503 0 0.011158127399988654 -0.014421284218160971 0 0.011301110495653287 -0.014349235202935622 0 0.01126087880411431 -0.014508304609052503 0 0.011456196608985803 -0.01429899710473387 0 0.01126087880411431 -0.014508304609052503 0 0.011456196608985803 -0.01429899710473387 0 0.011333476146299362 -0.014575727633658395 0 0.011258494535098451 -0.014299018781141393 0 0.011301110495653287 -0.014349235202935622 0 0.011395686567456341 -0.014131655971881086 0 0.011301110495653287 -0.014349235202935622 0 0.011395686567456341 -0.014131655971881086 0 0.011456196608985803 -0.01429899710473387 0 0.011395686567456341 -0.014131655971881086 0 0.011452394826356009 -0.014015069745889269 0 0.011456196608985803 -0.01429899710473387 0 0.011395686567456341 -0.014131655971881086 0 0.011452394826356009 -0.014015069745889269 0 0.011436344983641027 -0.01389333765868902 0 0.010496759091242102 -0.014280585281160904 0 0.011158127399988654 -0.014421284218160971 0 0.010896347997669295 -0.014706226583610902 0 0.010496759091242102 -0.014280585281160904 0 0.011153320401487558 -0.01437352790650053 0 0.011158127399988654 -0.014421284218160971 0 0.01126087880411431 -0.014508304609052503 0 0.011158127399988654 -0.014421284218160971 0 0.010896347997669295 -0.014706226583610902 0 0.01126087880411431 -0.014508304609052503 0 0.011033699568253674 -0.014822448157062275 0 0.010896347997669295 -0.014706226583610902 0 0.01126087880411431 -0.014508304609052503 0 0.011033699568253674 -0.014822448157062275 0 0.011333476146299362 -0.014575727633658395 0 0.011033699568253674 -0.014822448157062275 0 0.010896347997669295 -0.014706226583610902 0 0.010724864947158866 -0.015261146626507351 0 0.01028888173468254 -0.01504679239103349 0 0.010896347997669295 -0.014706226583610902 0 0.010724864947158866 -0.015261146626507351 0 0.01028888173468254 -0.01504679239103349 0 0.010496759091242102 -0.014280585281160904 0 0.010896347997669295 -0.014706226583610902 0 0.011033699568253674 -0.014822448157062275 0 0.010724864947158866 -0.015261146626507351 0 0.010857137389068135 -0.01526218654870609 0 0.010724864947158866 -0.015261146626507351 0 0.010732518365300469 -0.015485528887933456 0 0.010589041703507846 -0.0158198572023837 0 0.010724864947158866 -0.015261146626507351 0 0.010732518365300469 -0.015485528887933456 0 0.010857137389068135 -0.01526218654870609 0 0.011033699568253674 -0.014822448157062275 0 0.011107652340097082 -0.014917639977700977 0 0.010857137389068135 -0.01526218654870609 0 0.011033699568253674 -0.014822448157062275 0 0.011107652340097082 -0.014917639977700977 0 0.011333476146299362 -0.014575727633658395 0 0.011107652340097082 -0.014917639977700977 0 0.011264969211065954 -0.014842880389705999 0 0.011333476146299362 -0.014575727633658395 0 0.011107652340097082 -0.014917639977700977 0 0.010977197233866861 -0.015261064326735102 0 0.010857137389068135 -0.01526218654870609 0 0.011107652340097082 -0.014917639977700977 0 0.011264969211065954 -0.014842880389705999 0 0.010977197233866861 -0.015261064326735102 0 0.011264969211065954 -0.014842880389705999 0 0.010977197233866861 -0.015261064326735102 0 0.011389747148472119 -0.015420289370950883 0 0.010977197233866861 -0.015261064326735102 0 0.011161917474044472 -0.015330341278526999 0 0.011083898451033027 -0.015493497440727833 0 0.011193613907907452 -0.015017217884562862 0 0.011419822062034591 -0.01446416201571999 0 0.010977197233866861 -0.015261064326735102 0 0.010788859773492556 -0.015366474848218117 0 0.011083898451033027 -0.015493497440727833 0 0.010977197233866861 -0.015261064326735102 0 0.010788859773492556 -0.015366474848218117 0 0.010857137389068135 -0.01526218654870609 0 0.01025823731028719 -0.014799520890650905 0 0.011010700870069202 -0.014573405087219441 0 0.010953346101548432 -0.015337527003550547 0 0.010788859773492556 -0.015366474848218117 0 0.010732518365300469 -0.015485528887933456 0 0.010953346101548432 -0.015337527003550547 0 0.010458423899064777 -0.015053345504432979 0 0.010952674439015368 -0.015324191434148643 0 0.010732518365300469 -0.015485528887933456 0 0.010589041703507846 -0.0158198572023837 0 0.010953346101548432 -0.015337527003550547 0 0.010788859773492556 -0.015366474848218117 0 0.010732518365300469 -0.015485528887933456 0 0.010857137389068135 -0.01526218654870609 0 0.011493512919678458 -0.013987543638404799 0 0.011452394826356009 -0.014015069745889269 0 0.011478431129248991 -0.013762055789342658 0 0.011493512919678458 -0.013987543638404799 0 0.011452394826356009 -0.014015069745889269 0 0.011456196608985803 -0.01429899710473387 0 0.011493512919678458 -0.013987543638404799 0 0.01160070468916494 -0.014430062692112621 0 0.011456196608985803 -0.01429899710473387 0 0.01160070468916494 -0.014430062692112621 0 0.011456196608985803 -0.01429899710473387 0 0.011333476146299362 -0.014575727633658395 0 0.011264969211065954 -0.014842880389705999 0 0.01160070468916494 -0.014430062692112621 0 0.011333476146299362 -0.014575727633658395 0 0.011965165305696928 -0.013769033244859705 0 0.011600588039191504 -0.01383996094391984 0 0.011509742247977676 -0.013564351221091335 0 0.011622485579046575 -0.01447942477353188 0 0.011419822062034591 -0.01446416201571999 0 0.011264969211065954 -0.014842880389705999 0 0.01160070468916494 -0.014430062692112621 0 0.011389747148472119 -0.015420289370950883 0 0.01160070468916494 -0.014430062692112621 0 0.011600588039191504 -0.01383996094391984 0 0.011517332871559734 -0.013868937040759461 0 0.01160070468916494 -0.014430062692112621 0 0.011965165305696928 -0.013769033244859705 0 0.011600588039191504 -0.01383996094391984 0 0.011493512919678458 -0.013987543638404799 0 0.01160070468916494 -0.014430062692112621 0 0.011517332871559734 -0.013868937040759461 0 0.011600588039191504 -0.01383996094391984 0 0.011528772947504082 -0.013705198328944635 0 0.011509742247977676 -0.013564351221091335 0 0.011600588039191504 -0.01383996094391984 0 0.011517332871559734 -0.013868937040759461 0 0.011528772947504082 -0.013705198328944635 0 0.011520623654592542 -0.013639902046134671 0 0.011508936686361585 -0.013708478064142122 0 0.011540034690129283 -0.013546222516328249 0 0.011517332871559734 -0.013868937040759461 0 0.011528772947504082 -0.013705198328944635 0 0.011508936686361585 -0.013708478064142122 0 0.011520623654592542 -0.013639902046134671 0 0.011532421175856242 -0.013566622212170112 0 0.011540034690129283 -0.013546222516328249 0 0.011528772947504082 -0.013705198328944635 0 0.011520623654592542 -0.013639902046134671 0 0.011508936686361585 -0.013708478064142122 0 0.011528772947504082 -0.013705198328944635 0 0.011520623654592542 -0.013639902046134671 0 0.011520223212307263 -0.013610939365702814 0 0.011493512919678458 -0.013987543638404799 0 0.011517332871559734 -0.013868937040759461 0 0.011508936686361585 -0.013708478064142122 0 0.011493512919678458 -0.013987543638404799 0 0.011508936686361585 -0.013708478064142122 0 0.011507534849242027 -0.013660456524990134 0 0.012039900452624777 -0.013068759363950239 0 0.012040157757887738 -0.013102783844115251 0 0.012074217781814268 -0.013096761546103784 0 0.011532421175856242 -0.013566622212170112 0 0.011509742247977676 -0.013564351221091335 0 0.011578501948668116 -0.013470227156519179 0 0.011532421175856242 -0.013566622212170112 0 0.011520223212307263 -0.013610939365702814 0 0.011509742247977676 -0.013564351221091335 0 0.011520623654592542 -0.013639902046134671 0 0.011532421175856242 -0.013566622212170112 0 0.011520223212307263 -0.013610939365702814 0 0.011528772947504082 -0.013705198328944635 0 0.011520223212307263 -0.013610939365702814 0 0.011509742247977676 -0.013564351221091335 0 0.011736770689900259 -0.013332261514876001 0 0.01184190103055046 -0.012970844905775002 0 0.011419822062034591 -0.01446416201571999 0 0.011736770689900259 -0.013332261514876001 0 0.011560370551537214 -0.013552279849928135 0 0.011490401882787344 -0.013516522356822099 0 0.011576031970264135 -0.013517372689513014 0 0.01184190103055046 -0.012970844905775002 0 0.011188170254875746 -0.013605548387853826 0 0.011490401882787344 -0.013516522356822099 0 0.011487501214832944 -0.013463917876428104 0 0.011576031970264135 -0.013517372689513014 0 0.011419822062034591 -0.01446416201571999 0 0.011188170254875746 -0.013605548387853826 0 0.012091660521969128 -0.011872626125062591 0 0.011655404973848399 -0.011992559904705843 0 0.01230297576881585 -0.012333398039034525 0 0.012218258639977598 -0.013154765637157001 0 0.012111483078867237 -0.013123172976256176 0 0.012214358019844702 -0.01306144055927996 0 0.012091660521969128 -0.011872626125062591 0 0.011655404973848399 -0.011992559904705843 0 0.011626161799573514 -0.011517007833485289 0 0.01184190103055046 -0.012970844905775002 0 0.013119297066299683 -0.010797249640581433 0 0.010865574482078184 -0.013530190767467073 0 0.010532349987517911 -0.014213927608967371 0 0.0099946624002605622 -0.013884249655327224 0 0.010865574482078184 -0.013530190767467073 0 0.011010700870069202 -0.014573405087219441 0 0.012107368181592382 -0.014298973822848398 0 0.010865574482078184 -0.013530190767467073 0 0.011010700870069202 -0.014573405087219441 0 0.010532349987517911 -0.014213927608967371 0 0.01025823731028719 -0.014799520890650905 0 0.010532349987517911 -0.014213927608967371 0 0.0099946624002605622 -0.013884249655327224 0 0.01025823731028719 -0.014799520890650905 0 0.011010700870069202 -0.014573405087219441 0 0.010532349987517911 -0.014213927608967371 0 0.01025823731028719 -0.014799520890650905 0 0.0089680247459131505 -0.014195522916052679 0 0.0099946624002605622 -0.013884249655327224 0 0.010458423899064777 -0.015053345504432979 0 0.011188170254875746 -0.013605548387853826 0 0.0089680247459131505 -0.014195522916052679 0 0.0099946624002605622 -0.013884249655327224 0 0.0097052061612693842 -0.012571103125514953 0 0.012091660521969128 -0.011872626125062591 0 0.01230297576881585 -0.012333398039034525 0 0.012543094107792177 -0.011827571454855189 0 0.012091660521969128 -0.011872626125062591 0 0.012543094107792177 -0.011827571454855189 0 0.012200740459142496 -0.011419465162878679 0 0.011188170254875746 -0.013605548387853826 0 0.011019902353446617 -0.012336445191774943 0 0.010865574482078184 -0.013530190767467073 0 0.0097052061612693842 -0.012571103125514953 0 0.011007137748921852 -0.011850017200171032 0 0.010865574482078184 -0.013530190767467073 0 0.011832515960425073 -0.012671278562277734 0 0.011007137748921852 -0.011850017200171032 0 0.010865574482078184 -0.013530190767467073 0 0.0099946624002605622 -0.013884249655327224 0 0.0097052061612693842 -0.012571103125514953 0 0.011832515960425073 -0.012671278562277734 0 0.011987368939450137 -0.011519927606440687 0 0.011007137748921852 -0.011850017200171032 0 0.011133118297568793 -0.015452537106890322 0 0.011600598674255586 -0.014668819085231643 0 0.011832515960425073 -0.012671278562277734 0 0.012107368181592382 -0.014298973822848398 0 0.013214766924798366 -0.012109293841376798 0 0.011832515960425073 -0.012671278562277734 0 0.013214766924798366 -0.012109293841376798 0 0.011987368939450137 -0.011519927606440687 0 0.010198462867183447 -0.016845548155266333 0 0.009957482547573511 -0.016909187936276594 0 0.01032171611090793 -0.016326464417667018 0 0.0095539596355345424 -0.017323690476065773 0 0.010315256853747146 -0.01634501936874817 0 0.010865574482078184 -0.013530190767467073 0 0.011832515960425073 -0.012671278562277734 0 0.012107368181592382 -0.014298973822848398 0 0.011010700870069202 -0.014573405087219441 0 0.012107368181592382 -0.014298973822848398 0 0.010953346101548432 -0.015337527003550547 0 0.0091753077591894168 -0.017485889809676018 0 0.0083791468223305913 -0.01710083242853119 0 0.0093011804683161853 -0.016564618846275646 0 0.010198462867183447 -0.016845548155266333 0 0.009957482547573511 -0.016909187936276594 0 0.0099667818649978521 -0.016831640889642879 0 0.009957482547573511 -0.016909187936276594 0 0.0099667818649978521 -0.016831640889642879 0 0.010038208881780563 -0.016811679412168046 0 0.0095539596355345424 -0.017323690476065773 0 0.0090407768259348834 -0.016461380265459929 0 0.009957482547573511 -0.016909187936276594 0 0.010038208881780563 -0.016811679412168046 0 0.010161300780693874 -0.016810284274703571 0 0.006831970959213572 -0.017105802857385756 0 0.0072071002772201064 -0.017151654924440929 0 0.0070625175412538663 -0.016959351945625784 0 0.0090407768259348834 -0.016461380265459929 0 0.0072912743376221346 -0.017303014285593086 0 0.0076587641214758851 -0.017483264919134139 0 0.0083791468223305913 -0.01710083242853119 0 0.0078229674954726804 -0.016709466585405654 0 0.0082634379122449638 -0.018241334585024506 0 0.0076587641214758851 -0.017483264919134139 0 0.0083791468223305913 -0.01710083242853119 0 0.0091753077591894168 -0.017485889809676018 0 0.0082634379122449638 -0.018241334585024506 0 0.0083791468223305913 -0.01710083242853119 0 0.0083791468223305913 -0.01710083242853119 0 0.0078229674954726804 -0.016709466585405654 0 0.0084545679840775222 -0.0161953837646454 0 0.0083791468223305913 -0.01710083242853119 0 0.0084545679840775222 -0.0161953837646454 0 0.0093011804683161853 -0.016564618846275646 0 0.007073593254034216 -0.016766819533720834 0 0.0078229674954726804 -0.016709466585405654 0 0.0076062706978458411 -0.016155338158123866 0 0.007073593254034216 -0.016766819533720834 0 0.0076587641214758851 -0.017483264919134139 0 0.0078229674954726804 -0.016709466585405654 0 0.0081367364972919336 -0.015674125063121522 0 0.0076062706978458411 -0.016155338158123866 0 0.0084545679840775222 -0.0161953837646454 0 0.0078229674954726804 -0.016709466585405654 0 0.0076062706978458411 -0.016155338158123866 0 0.0084545679840775222 -0.0161953837646454 0 0.0090026587063360541 -0.015387147074161537 0 0.0093189663177860611 -0.015983893384604476 0 0.010006289032036682 -0.01557530495492877 0 0.0090026587063360541 -0.015387147074161537 0 0.0084545679840775222 -0.0161953837646454 0 0.0093189663177860611 -0.015983893384604476 0 0.01028888173468254 -0.01504679239103349 0 0.010724864947158866 -0.015261146626507351 0 0.010006289032036682 -0.01557530495492877 0 0.010724864947158866 -0.015261146626507351 0 0.010006289032036682 -0.01557530495492877 0 0.010589041703507846 -0.0158198572023837 0 0.010006289032036682 -0.01557530495492877 0 0.010589041703507846 -0.0158198572023837 0 0.0099032759685766907 -0.016048015450492684 0 0.0093189663177860611 -0.015983893384604476 0 0.010006289032036682 -0.01557530495492877 0 0.0099032759685766907 -0.016048015450492684 0 0.012107368181592382 -0.014298973822848398 0 0.010589041703507846 -0.0158198572023837 0 0.010953346101548432 -0.015337527003550547 0 0.0099032759685766907 -0.016048015450492684 0 0.01032171611090793 -0.016326464417667018 0 0.0093011804683161853 -0.016564618846275646 0 0.010198462867183447 -0.016845548155266333 0 0.010589041703507846 -0.0158198572023837 0 0.01032171611090793 -0.016326464417667018 0 0.011133118297568793 -0.015452537106890322 0 0.01070400658643285 -0.015802280967753529 0 0.010589041703507846 -0.0158198572023837 0 0.0099032759685766907 -0.016048015450492684 0 0.01032171611090793 -0.016326464417667018 0 0.0084545679840775222 -0.0161953837646454 0 0.0093189663177860611 -0.015983893384604476 0 0.0093011804683161853 -0.016564618846275646 0 0.0091753077591894168 -0.017485889809676018 0 0.01032171611090793 -0.016326464417667018 0 0.0093011804683161853 -0.016564618846275646 0 0.0093189663177860611 -0.015983893384604476 0 0.0099032759685766907 -0.016048015450492684 0 0.0093011804683161853 -0.016564618846275646 0 0.015000126415893929 -0.013256266863885948 0 0.015048257260697724 -0.014751659593005133 0 0.015506340624488796 -0.01421267849828009 0 0.015000126415893929 -0.013256266863885948 0 0.015658039611432535 -0.013241126040576747 0 0.015419930994369271 -0.012980599403301015 0 0.015000126415893929 -0.013256266863885948 0 0.015658039611432535 -0.013241126040576747 0 0.015675489738185153 -0.013691153014556623 0 0.015658039611432535 -0.013241126040576747 0 0.015675489738185153 -0.013691153014556623 0 0.016227147791817009 -0.013551886906530841 0 0.015675489738185153 -0.013691153014556623 0 0.015506340624488796 -0.01421267849828009 0 0.016049576470793268 -0.014192119561330855 0 0.015000126415893929 -0.013256266863885948 0 0.015675489738185153 -0.013691153014556623 0 0.015506340624488796 -0.01421267849828009 0 0.015000126415893929 -0.013256266863885948 0 0.014999525583468242 -0.015000105003012765 0 0.015048257260697724 -0.014751659593005133 0 0.014999525583468242 -0.015000105003012765 0 0.015048257260697724 -0.014751659593005133 0 0.014155666282810229 -0.014999560741750137 0 0.015048257260697724 -0.014751659593005133 0 0.015860693522729497 -0.014839649149807238 0 0.015506340624488796 -0.01421267849828009 0 0.015213085173786976 -0.014821297073544027 0 0.014494201165715381 -0.014935957534070307 0 0.015048257260697724 -0.014751659593005133 0 0.014106411021381632 -0.015178922824819387 0 0.014155666282810229 -0.014999560741750137 0 0.014494201165715381 -0.014935957534070307 0 0.01415511418057522 -0.015000165118380177 0 0.015860693522729497 -0.014839649149807238 0 0.015506340624488796 -0.01421267849828009 0 0.016049576470793268 -0.014192119561330855 0 0.013839975106528042 -0.015135982726753327 0 0.013677652184793087 -0.015670911662645826 0 0.01344717842609418 -0.015283100872492709 0 0.013677652184793087 -0.015670911662645826 0 0.013308098523257763 -0.015475811056975274 0 0.013323131961098845 -0.015896993836356482 0 0.014494201165715381 -0.014935957534070307 0 0.014894813260012659 -0.014904709023803473 0 0.013677652184793087 -0.015670911662645826 0 0.01344717842609418 -0.015283100872492709 0 0.013308098523257763 -0.015475811056975274 0 0.014494201165715381 -0.014935957534070307 0 0.013034201993372387 -0.015112233337043656 0 0.014092048305710439 -0.015214497974653133 0 0.014154816063290608 -0.015000001841002274 0 0.013312671898522607 -0.014999988157878254 0 0.013839975106528042 -0.015135982726753327 0 0.01344717842609418 -0.015283100872492709 0 0.013098903839054403 -0.015063757212573707 0 0.014092048305710439 -0.015214497974653133 0 0.013312671898522607 -0.014999988157878254 0 0.013236790872586487 -0.015113383957060893 0 0.013098903839054403 -0.015063757212573707 0 0.013087373264125225 -0.015216634595020513 0 0.012989614476809337 -0.015190889727820683 0 0.01344717842609418 -0.015283100872492709 0 0.013098903839054403 -0.015063757212573707 0 0.013211795926292942 -0.015261559180237005 0 0.01344717842609418 -0.015283100872492709 0 0.013211795926292942 -0.015261559180237005 0 0.013308098523257763 -0.015475811056975274 0 0.013098903839054403 -0.015063757212573707 0 0.013211795926292942 -0.015261559180237005 0 0.013087373264125225 -0.015216634595020513 0 0.013211795926292942 -0.015261559180237005 0 0.013087373264125225 -0.015216634595020513 0 0.013048997661930106 -0.015352197836939408 0 0.013087373264125225 -0.015216634595020513 0 0.013048997661930106 -0.015352197836939408 0 0.012989614476809337 -0.015190889727820683 0 0.013211795926292942 -0.015261559180237005 0 0.013048997661930106 -0.015352197836939408 0 0.013308098523257763 -0.015475811056975274 0 0.013308098523257763 -0.015475811056975274 0 0.013124080645200278 -0.015592233164296275 0 0.013323131961098845 -0.015896993836356482 0 0.013048997661930106 -0.015352197836939408 0 0.013124080645200278 -0.015592233164296275 0 0.012963588969328829 -0.015487083894924576 0 0.013048997661930106 -0.015352197836939408 0 0.013308098523257763 -0.015475811056975274 0 0.013124080645200278 -0.015592233164296275 0 0.013124080645200278 -0.015592233164296275 0 0.013323131961098845 -0.015896993836356482 0 0.012973931874989148 -0.01589910369309968 0 0.013323131961098845 -0.015896993836356482 0 0.012936421544791264 -0.016166168548649988 0 0.012973931874989148 -0.01589910369309968 0 0.014894813260012659 -0.014904709023803473 0 0.014863624120621033 -0.015001783303725974 0 0.013677652184793087 -0.015670911662645826 0 0.013323131961098845 -0.015896993836356482 0 0.013516887667392308 -0.016194445968387965 0 0.015675489738185153 -0.013691153014556623 0 0.016049576470793268 -0.014192119561330855 0 0.016227147791817009 -0.013551886906530841 0 0.014863624120621033 -0.015001783303725974 0 0.014653382745474638 -0.014119414394250076 0 0.015658039611432535 -0.013241126040576747 0 0.016227147791817009 -0.013551886906530841 0 0.016033865220693996 -0.013146110431223875 0 0.016227147791817009 -0.013551886906530841 0 0.016033865220693996 -0.013146110431223875 0 0.016402905524262729 -0.012923527082938549 0 0.013516887667392308 -0.016194445968387965 0 0.013161034170852169 -0.016440632182306979 0 0.013362284320465294 -0.016715623316260635 0 0.013323131961098845 -0.015896993836356482 0 0.013516887667392308 -0.016194445968387965 0 0.013161034170852169 -0.016440632182306979 0 0.013323131961098845 -0.015896993836356482 0 0.013161034170852169 -0.016440632182306979 0 0.012936421544791264 -0.016166168548649988 0 0.013161034170852169 -0.016440632182306979 0 0.012936421544791264 -0.016166168548649988 0 0.012672167807462956 -0.016379734075031526 0 0.013161034170852169 -0.016440632182306979 0 0.012672167807462956 -0.016379734075031526 0 0.012896848087565914 -0.016678037036830556 0 0.012936421544791264 -0.016166168548649988 0 0.012672167807462956 -0.016379734075031526 0 0.012673585411282533 -0.016058506096839915 0 0.012672167807462956 -0.016379734075031526 0 0.012369563707061673 -0.016430338407329031 0 0.012426769592558411 -0.016632631896689988 0 0.012369563707061673 -0.016430338407329031 0 0.012317222604753868 -0.016190370659837507 0 0.01212485956748463 -0.016537533208535536 0 0.012369563707061673 -0.016430338407329031 0 0.01212485956748463 -0.016537533208535536 0 0.012426769592558411 -0.016632631896689988 0 0.012672167807462956 -0.016379734075031526 0 0.012317222604753868 -0.016190370659837507 0 0.012673585411282533 -0.016058506096839915 0 0.012672167807462956 -0.016379734075031526 0 0.012369563707061673 -0.016430338407329031 0 0.012317222604753868 -0.016190370659837507 0 0.012317222604753868 -0.016190370659837507 0 0.012451879562028364 -0.015945552865893893 0 0.012673585411282533 -0.016058506096839915 0 0.012317222604753868 -0.016190370659837507 0 0.012225613491962488 -0.015878523460163836 0 0.012451879562028364 -0.015945552865893893 0 0.012225613491962488 -0.015878523460163836 0 0.012451879562028364 -0.015945552865893893 0 0.012411956088188451 -0.01570538526375306 0 0.012451879562028364 -0.015945552865893893 0 0.012600901773656002 -0.015843562777935308 0 0.012673585411282533 -0.016058506096839915 0 0.012451879562028364 -0.015945552865893893 0 0.012600901773656002 -0.015843562777935308 0 0.012411956088188451 -0.01570538526375306 0 0.012600901773656002 -0.015843562777935308 0 0.012673585411282533 -0.016058506096839915 0 0.012807780907980376 -0.015772946244966418 0 0.012936421544791264 -0.016166168548649988 0 0.012673585411282533 -0.016058506096839915 0 0.012973931874989148 -0.01589910369309968 0 0.012673585411282533 -0.016058506096839915 0 0.012973931874989148 -0.01589910369309968 0 0.012807780907980376 -0.015772946244966418 0 0.013124080645200278 -0.015592233164296275 0 0.012807780907980376 -0.015772946244966418 0 0.012833650816280476 -0.015584695326063271 0 0.013124080645200278 -0.015592233164296275 0 0.012973931874989148 -0.01589910369309968 0 0.012807780907980376 -0.015772946244966418 0 0.012600901773656002 -0.015843562777935308 0 0.012807780907980376 -0.015772946244966418 0 0.012637166963457401 -0.015658742110225023 0 0.012807780907980376 -0.015772946244966418 0 0.012833650816280476 -0.015584695326063271 0 0.012637166963457401 -0.015658742110225023 0 0.012833650816280476 -0.015584695326063271 0 0.012637166963457401 -0.015658742110225023 0 0.012679946742600772 -0.015506062254410109 0 0.012637166963457401 -0.015658742110225023 0 0.012679946742600772 -0.015506062254410109 0 0.012505041892026053 -0.01555886295297796 0 0.012833650816280476 -0.015584695326063271 0 0.012679946742600772 -0.015506062254410109 0 0.012847659670693973 -0.015420233531793648 0 0.012679946742600772 -0.015506062254410109 0 0.012847659670693973 -0.015420233531793648 0 0.012691585824870536 -0.015325687338566709 0 0.012679946742600772 -0.015506062254410109 0 0.012691585824870536 -0.015325687338566709 0 0.012526457866463571 -0.015412597413182455 0 0.013124080645200278 -0.015592233164296275 0 0.012833650816280476 -0.015584695326063271 0 0.012963588969328829 -0.015487083894924576 0 0.013048997661930106 -0.015352197836939408 0 0.012963588969328829 -0.015487083894924576 0 0.012847659670693973 -0.015420233531793648 0 0.012833650816280476 -0.015584695326063271 0 0.012963588969328829 -0.015487083894924576 0 0.012847659670693973 -0.015420233531793648 0 0.013034201993372387 -0.015112233337043656 0 0.012559942509092304 -0.014984145419583586 0 0.013048997661930106 -0.015352197836939408 0 0.012847659670693973 -0.015420233531793648 0 0.012854613096075074 -0.015257719598769304 0 0.013098903839054403 -0.015063757212573707 0 0.012840318826388808 -0.015091243170831072 0 0.012465619126656618 -0.01497692631846036 0 0.013048997661930106 -0.015352197836939408 0 0.012989614476809337 -0.015190889727820683 0 0.012854613096075074 -0.015257719598769304 0 0.013312671898522607 -0.014999988157878254 0 0.013236790872586487 -0.015113383957060893 0 0.012465691425706939 -0.014976613134015559 0 0.012989614476809337 -0.015190889727820683 0 0.012854613096075074 -0.015257719598769304 0 0.012840318826388808 -0.015091243170831072 0 0.012847659670693973 -0.015420233531793648 0 0.012854613096075074 -0.015257719598769304 0 0.012691585824870536 -0.015325687338566709 0 0.012691585824870536 -0.015325687338566709 0 0.012619037521953543 -0.015222905441424121 0 0.012546943651967552 -0.015290643006873354 0 0.012691585824870536 -0.015325687338566709 0 0.012619037521953543 -0.015222905441424121 0 0.012723851928690119 -0.015204814721202099 0 0.012619037521953543 -0.015222905441424121 0 0.012723851928690119 -0.015204814721202099 0 0.01261191641294206 -0.015137335551413745 0 0.012854613096075074 -0.015257719598769304 0 0.012691585824870536 -0.015325687338566709 0 0.012723851928690119 -0.015204814721202099 0 0.012854613096075074 -0.015257719598769304 0 0.012723851928690119 -0.015204814721202099 0 0.012840318826388808 -0.015091243170831072 0 0.012840318826388808 -0.015091243170831072 0 0.012537849763295096 -0.015071517357884217 0 0.01261191641294206 -0.015137335551413745 0 0.012723851928690119 -0.015204814721202099 0 0.012840318826388808 -0.015091243170831072 0 0.01261191641294206 -0.015137335551413745 0 0.013098903839054403 -0.015063757212573707 0 0.012989614476809337 -0.015190889727820683 0 0.012840318826388808 -0.015091243170831072 0 0.012381742744941594 -0.014999783739110036 0 0.012233200964461977 -0.015241125790521778 0 0.012001900179982773 -0.01519008273957816 0 0.012381742744941594 -0.014999783739110036 0 0.012409406839747219 -0.015149246135640124 0 0.012233200964461977 -0.015241125790521778 0 0.012381742744941594 -0.014999783739110036 0 0.012537849763295096 -0.015071517357884217 0 0.012409406839747219 -0.015149246135640124 0 0.012381742744941594 -0.014999783739110036 0 0.012465619126656618 -0.01497692631846036 0 0.012537849763295096 -0.015071517357884217 0 0.012840318826388808 -0.015091243170831072 0 0.012465619126656618 -0.01497692631846036 0 0.012537849763295096 -0.015071517357884217 0 0.012537849763295096 -0.015071517357884217 0 0.01251958379097904 -0.015139874133429368 0 0.01261191641294206 -0.015137335551413745 0 0.01251958379097904 -0.015139874133429368 0 0.01261191641294206 -0.015137335551413745 0 0.012514863255615915 -0.015202261259446532 0 0.012537849763295096 -0.015071517357884217 0 0.01251958379097904 -0.015139874133429368 0 0.012409406839747219 -0.015149246135640124 0 0.01251958379097904 -0.015139874133429368 0 0.012409406839747219 -0.015149246135640124 0 0.012514863255615915 -0.015202261259446532 0 0.012514863255615915 -0.015202261259446532 0 0.012546943651967552 -0.015290643006873354 0 0.012404303332019209 -0.015302064041995361 0 0.012409406839747219 -0.015149246135640124 0 0.012514863255615915 -0.015202261259446532 0 0.012404303332019209 -0.015302064041995361 0 0.012619037521953543 -0.015222905441424121 0 0.01261191641294206 -0.015137335551413745 0 0.012514863255615915 -0.015202261259446532 0 0.012619037521953543 -0.015222905441424121 0 0.012514863255615915 -0.015202261259446532 0 0.012546943651967552 -0.015290643006873354 0 0.012691585824870536 -0.015325687338566709 0 0.012546943651967552 -0.015290643006873354 0 0.012526457866463571 -0.015412597413182455 0 0.012546943651967552 -0.015290643006873354 0 0.012404303332019209 -0.015302064041995361 0 0.012526457866463571 -0.015412597413182455 0 0.012404303332019209 -0.015302064041995361 0 0.012233200964461977 -0.015241125790521778 0 0.012347857314667646 -0.015475725141898735 0 0.012409406839747219 -0.015149246135640124 0 0.012404303332019209 -0.015302064041995361 0 0.012233200964461977 -0.015241125790521778 0 0.012233200964461977 -0.015241125790521778 0 0.012347857314667646 -0.015475725141898735 0 0.012127494503499193 -0.01553738380402965 0 0.012347857314667646 -0.015475725141898735 0 0.012411956088188451 -0.01570538526375306 0 0.012127494503499193 -0.01553738380402965 0 0.012404303332019209 -0.015302064041995361 0 0.012347857314667646 -0.015475725141898735 0 0.012526457866463571 -0.015412597413182455 0 0.012347857314667646 -0.015475725141898735 0 0.012526457866463571 -0.015412597413182455 0 0.012505041892026053 -0.01555886295297796 0 0.012679946742600772 -0.015506062254410109 0 0.012526457866463571 -0.015412597413182455 0 0.012505041892026053 -0.01555886295297796 0 0.012600901773656002 -0.015843562777935308 0 0.012637166963457401 -0.015658742110225023 0 0.012411956088188451 -0.01570538526375306 0 0.012347857314667646 -0.015475725141898735 0 0.012505041892026053 -0.01555886295297796 0 0.012411956088188451 -0.01570538526375306 0 0.012637166963457401 -0.015658742110225023 0 0.012505041892026053 -0.01555886295297796 0 0.012411956088188451 -0.01570538526375306 0 0.012225613491962488 -0.015878523460163836 0 0.012411956088188451 -0.01570538526375306 0 0.012127494503499193 -0.01553738380402965 0 0.011931853676239867 -0.01578130171651557 0 0.011758717155725679 -0.015514076452976972 0 0.011725273189008723 -0.016047418504820641 0 0.012225613491962488 -0.015878523460163836 0 0.011931853676239867 -0.01578130171651557 0 0.012127494503499193 -0.01553738380402965 0 0.011931853676239867 -0.01578130171651557 0 0.011758717155725679 -0.015514076452976972 0 0.012127494503499193 -0.01553738380402965 0 0.011758717155725679 -0.015514076452976972 0 0.012127494503499193 -0.01553738380402965 0 0.012001900179982773 -0.01519008273957816 0 0.012381742744941594 -0.014999783739110036 0 0.012001900179982773 -0.01519008273957816 0 0.011628416959377507 -0.014999993593334874 0 0.011758717155725679 -0.015514076452976972 0 0.012001900179982773 -0.01519008273957816 0 0.011628416959377507 -0.014999993593334874 0 0.012233200964461977 -0.015241125790521778 0 0.012127494503499193 -0.01553738380402965 0 0.012001900179982773 -0.01519008273957816 0 0.011275327978862711 -0.015551187228641709 0 0.011758717155725679 -0.015514076452976972 0 0.011628416959377507 -0.014999993593334874 0 0.011275327978862711 -0.015551187228641709 0 0.011758717155725679 -0.015514076452976972 0 0.011725273189008723 -0.016047418504820641 0 0.011144729180046466 -0.01504945124360889 0 0.011452980375878545 -0.015242467000482691 0 0.011004250099226065 -0.014537858996474206 0 0.011258494535098451 -0.014299018781141393 0 0.011194668435572852 -0.014244985235961988 0 0.011258494535098451 -0.014299018781141393 0 0.011194668435572852 -0.014244985235961988 0 0.011351369218878977 -0.013904918030100331 0 0.012317222604753868 -0.016190370659837507 0 0.012225613491962488 -0.015878523460163836 0 0.011725273189008723 -0.016047418504820641 0 0.012225613491962488 -0.015878523460163836 0 0.011931853676239867 -0.01578130171651557 0 0.011725273189008723 -0.016047418504820641 0 0.012317222604753868 -0.016190370659837507 0 0.011725273189008723 -0.016047418504820641 0 0.01212485956748463 -0.016537533208535536 0 0.011452980375878545 -0.015242467000482691 0 0.011710861565334229 -0.014623061417450211 0 0.011470853103453582 -0.013418257067444692 0 0.011351369218878977 -0.013904918030100331 0 0.011470859033194971 -0.013501467834184669 0 0.011710861565334229 -0.014623061417450211 0 0.011145106493876848 -0.013717614260755552 0 0.011194668435572852 -0.014244985235961988 0 0.010966337359812421 -0.013782123169572164 0 0.011351369218878977 -0.013904918030100331 0 0.011395686567456341 -0.014131655971881086 0 0.011351369218878977 -0.013904918030100331 0 0.011436344983641027 -0.01389333765868902 0 0.011351369218878977 -0.013904918030100331 0 0.011436344983641027 -0.01389333765868902 0 0.011453321822784374 -0.013686923713896092 0 0.011258494535098451 -0.014299018781141393 0 0.011395686567456341 -0.014131655971881086 0 0.011351369218878977 -0.013904918030100331 0 0.011351369218878977 -0.013904918030100331 0 0.011453321822784374 -0.013686923713896092 0 0.011470859033194971 -0.013501467834184669 0 0.011538317232314875 -0.013487532777422052 0 0.011622657553769521 -0.013359274400635623 0 0.011545378620880363 -0.013517006918263729 0 0.011538317232314875 -0.013487532777422052 0 0.011478431129248991 -0.013762055789342658 0 0.011545378620880363 -0.013517006918263729 0 0.011493512919678458 -0.013987543638404799 0 0.011478431129248991 -0.013762055789342658 0 0.011507534849242027 -0.013660456524990134 0 0.011478431129248991 -0.013762055789342658 0 0.011545378620880363 -0.013517006918263729 0 0.011507534849242027 -0.013660456524990134 0 0.011478431129248991 -0.013762055789342658 0 0.011436344983641027 -0.01389333765868902 0 0.011453321822784374 -0.013686923713896092 0 0.011452394826356009 -0.014015069745889269 0 0.011478431129248991 -0.013762055789342658 0 0.011436344983641027 -0.01389333765868902 0 0.011538317232314875 -0.013487532777422052 0 0.011478431129248991 -0.013762055789342658 0 0.011453321822784374 -0.013686923713896092 0 0.011538317232314875 -0.013487532777422052 0 0.011453321822784374 -0.013686923713896092 0 0.011470859033194971 -0.013501467834184669 0 0.011538317232314875 -0.013487532777422052 0 0.011470859033194971 -0.013501467834184669 0 0.011640799158937501 -0.013303412937456627 0 0.011470853103453582 -0.013418257067444692 0 0.011470859033194971 -0.013501467834184669 0 0.011476279305567796 -0.013333242989551524 0 0.011470859033194971 -0.013501467834184669 0 0.011820161473404103 -0.013077989642726086 0 0.012059465326588104 -0.012738625316125145 0 0.011397935939433423 -0.013245582441426313 0 0.0121060220976961 -0.014079308322195545 0 0.011470859033194971 -0.013501467834184669 0 0.011640799158937501 -0.013303412937456627 0 0.011820161473404103 -0.013077989642726086 0 0.011640799158937501 -0.013303412937456627 0 0.011758546978598549 -0.013187121132320548 0 0.011820161473404103 -0.013077989642726086 0 0.011758546978598549 -0.013187121132320548 0 0.011911092422860701 -0.013045074124517032 0 0.011820161473404103 -0.013077989642726086 0 0.011538317232314875 -0.013487532777422052 0 0.011640799158937501 -0.013303412937456627 0 0.011622657553769521 -0.013359274400635623 0 0.011640799158937501 -0.013303412937456627 0 0.011622657553769521 -0.013359274400635623 0 0.011758546978598549 -0.013187121132320548 0 0.011622657553769521 -0.013359274400635623 0 0.011675371072442259 -0.013305732641921173 0 0.011545378620880363 -0.013517006918263729 0 0.011622657553769521 -0.013359274400635623 0 0.011675371072442259 -0.013305732641921173 0 0.011758546978598549 -0.013187121132320548 0 0.011675371072442259 -0.013305732641921173 0 0.011758546978598549 -0.013187121132320548 0 0.011882092337948836 -0.013100021011804897 0 0.011758546978598549 -0.013187121132320548 0 0.011882092337948836 -0.013100021011804897 0 0.011911092422860701 -0.013045074124517032 0 0.011675371072442259 -0.013305732641921173 0 0.011882092337948836 -0.013100021011804897 0 0.01180285787837396 -0.013198041788324958 0 0.011882092337948836 -0.013100021011804897 0 0.01180285787837396 -0.013198041788324958 0 0.011940237980476387 -0.013082558378408011 0 0.011675371072442259 -0.013305732641921173 0 0.01180285787837396 -0.013198041788324958 0 0.01165272913976537 -0.013352802100657833 0 0.011675371072442259 -0.013305732641921173 0 0.011578310228737797 -0.01346282296847473 0 0.01165272913976537 -0.013352802100657833 0 0.011578310228737797 -0.01346282296847473 0 0.011540034690129283 -0.013546222516328249 0 0.01165272913976537 -0.013352802100657833 0 0.011675371072442259 -0.013305732641921173 0 0.011578310228737797 -0.01346282296847473 0 0.011545378620880363 -0.013517006918263729 0 0.011578310228737797 -0.01346282296847473 0 0.011545378620880363 -0.013517006918263729 0 0.011507534849242027 -0.013660456524990134 0 0.011578310228737797 -0.01346282296847473 0 0.011507534849242027 -0.013660456524990134 0 0.011540034690129283 -0.013546222516328249 0 0.011508936686361585 -0.013708478064142122 0 0.011507534849242027 -0.013660456524990134 0 0.011540034690129283 -0.013546222516328249 0 0.011532421175856242 -0.013566622212170112 0 0.011540034690129283 -0.013546222516328249 0 0.011578501948668116 -0.013470227156519179 0 0.011736770689900259 -0.013332261514876001 0 0.01189660389387708 -0.013206586877842002 0 0.011509742247977676 -0.013564351221091335 0 0.011578501948668116 -0.013470227156519179 0 0.011688686206022791 -0.013350323681874689 0 0.012039900452624777 -0.013068759363950239 0 0.012074217781814268 -0.013096761546103784 0 0.012099786991256713 -0.013093212694733132 0 0.011540034690129283 -0.013546222516328249 0 0.011578501948668116 -0.013470227156519179 0 0.01165272913976537 -0.013352802100657833 0 0.011578501948668116 -0.013470227156519179 0 0.01165272913976537 -0.013352802100657833 0 0.011688686206022791 -0.013350323681874689 0 0.012040157757887738 -0.013102783844115251 0 0.012074217781814268 -0.013096761546103784 0 0.012111483078867237 -0.013123172976256176 0 0.01184190103055046 -0.012970844905775002 0 0.012228090447952348 -0.013183498327920372 0 0.012074217781814268 -0.013096761546103784 0 0.012099786991256713 -0.013093212694733132 0 0.012103056180506007 -0.013111569403003401 0 0.012074217781814268 -0.013096761546103784 0 0.012103056180506007 -0.013111569403003401 0 0.012111483078867237 -0.013123172976256176 0 0.012111483078867237 -0.013123172976256176 0 0.01211055383944426 -0.013122226540731448 0 0.012104091287267282 -0.01311544603556229 0 0.012103056180506007 -0.013111569403003401 0 0.012111483078867237 -0.013123172976256176 0 0.01211055383944426 -0.013122226540731448 0 0.01189660389387708 -0.013206586877842002 0 0.012153942079091457 -0.013146294122039409 0 0.012099786991256713 -0.013093212694733132 0 0.012136412255031549 -0.01312503824327135 0 0.012204207408377906 -0.013123335781265141 0 0.011688686206022791 -0.013350323681874689 0 0.011888556581151578 -0.013212526686105744 0 0.012204207408377906 -0.013123335781265141 0 0.012118368769910414 -0.013124601687107487 0 0.012177738086940983 -0.013199105804770933 0 0.012104091287267282 -0.01311544603556229 0 0.012136412255031549 -0.01312503824327135 0 0.012118368769910414 -0.013124601687107487 0 0.012177738086940983 -0.013199105804770933 0 0.012103056180506007 -0.013111569403003401 0 0.012136412255031549 -0.01312503824327135 0 0.012118368769910414 -0.013124601687107487 0 0.012118368769910414 -0.013124601687107487 0 0.01211055383944426 -0.013122226540731448 0 0.012104091287267282 -0.01311544603556229 0 0.012103056180506007 -0.013111569403003401 0 0.012118368769910414 -0.013124601687107487 0 0.01211055383944426 -0.013122226540731448 0 0.012099786991256713 -0.013093212694733132 0 0.012103056180506007 -0.013111569403003401 0 0.012136412255031549 -0.01312503824327135 0 0.011972076155233371 -0.01312513102477878 0 0.011798267072468477 -0.013234904010149352 0 0.011920620160369011 -0.013125188314108959 0 0.011888556581151578 -0.013212526686105744 0 0.011972076155233371 -0.01312513102477878 0 0.012061373394772597 -0.013113617590079811 0 0.011888556581151578 -0.013212526686105744 0 0.011972076155233371 -0.01312513102477878 0 0.011798267072468477 -0.013234904010149352 0 0.011688686206022791 -0.013350323681874689 0 0.011888556581151578 -0.013212526686105744 0 0.011798267072468477 -0.013234904010149352 0 0.01165272913976537 -0.013352802100657833 0 0.011688686206022791 -0.013350323681874689 0 0.011798267072468477 -0.013234904010149352 0 0.01180285787837396 -0.013198041788324958 0 0.01165272913976537 -0.013352802100657833 0 0.011798267072468477 -0.013234904010149352 0 0.01180285787837396 -0.013198041788324958 0 0.011798267072468477 -0.013234904010149352 0 0.011920620160369011 -0.013125188314108959 0 0.01180285787837396 -0.013198041788324958 0 0.011920620160369011 -0.013125188314108959 0 0.011940237980476387 -0.013082558378408011 0 0.011940237980476387 -0.013082558378408011 0 0.012060004335309845 -0.013028161882659999 0 0.012069901060883044 -0.012973285973181854 0 0.012060004335309845 -0.013028161882659999 0 0.012222745060041661 -0.012903055164331358 0 0.012069901060883044 -0.012973285973181854 0 0.011972076155233371 -0.01312513102477878 0 0.011920620160369011 -0.013125188314108959 0 0.012060004335309845 -0.013028161882659999 0 0.011920620160369011 -0.013125188314108959 0 0.011940237980476387 -0.013082558378408011 0 0.012060004335309845 -0.013028161882659999 0 0.012222745060041661 -0.012903055164331358 0 0.012403030303357213 -0.012812845891257117 0 0.012342026530371196 -0.012769701614107397 0 0.012222745060041661 -0.012903055164331358 0 0.012342026530371196 -0.012769701614107397 0 0.012069901060883044 -0.012973285973181854 0 0.01220908739609783 -0.012965399603165763 0 0.012286134406367503 -0.012968987028110963 0 0.012403030303357213 -0.012812845891257117 0 0.012222745060041661 -0.012903055164331358 0 0.01220908739609783 -0.012965399603165763 0 0.012403030303357213 -0.012812845891257117 0 0.012060004335309845 -0.013028161882659999 0 0.012222745060041661 -0.012903055164331358 0 0.01220908739609783 -0.012965399603165763 0 0.011972076155233371 -0.01312513102477878 0 0.012060004335309845 -0.013028161882659999 0 0.01208681093300675 -0.013060735369074527 0 0.012060004335309845 -0.013028161882659999 0 0.01220908739609783 -0.012965399603165763 0 0.01208681093300675 -0.013060735369074527 0 0.01220908739609783 -0.012965399603165763 0 0.01208681093300675 -0.013060735369074527 0 0.012152943337673224 -0.013071508475528267 0 0.011972076155233371 -0.01312513102477878 0 0.01208681093300675 -0.013060735369074527 0 0.012061373394772597 -0.013113617590079811 0 0.011888556581151578 -0.013212526686105744 0 0.012061373394772597 -0.013113617590079811 0 0.012204207408377906 -0.013123335781265141 0 0.012061373394772597 -0.013113617590079811 0 0.012152943337673224 -0.013071508475528267 0 0.012204207408377906 -0.013123335781265141 0 0.01208681093300675 -0.013060735369074527 0 0.012061373394772597 -0.013113617590079811 0 0.012152943337673224 -0.013071508475528267 0 0.01220908739609783 -0.012965399603165763 0 0.012152943337673224 -0.013071508475528267 0 0.012286134406367503 -0.012968987028110963 0 0.012286134406367503 -0.012968987028110963 0 0.012254086820458155 -0.01303433980043847 0 0.012373325095852646 -0.01297889953857894 0 0.012152943337673224 -0.013071508475528267 0 0.012254086820458155 -0.01303433980043847 0 0.012204207408377906 -0.013123335781265141 0 0.012152943337673224 -0.013071508475528267 0 0.012286134406367503 -0.012968987028110963 0 0.012254086820458155 -0.01303433980043847 0 0.012204207408377906 -0.013123335781265141 0 0.012373325095852646 -0.01297889953857894 0 0.012177738086940983 -0.013199105804770933 0 0.012254086820458155 -0.01303433980043847 0 0.012204207408377906 -0.013123335781265141 0 0.012373325095852646 -0.01297889953857894 0 0.012136412255031549 -0.01312503824327135 0 0.012204207408377906 -0.013123335781265141 0 0.012177738086940983 -0.013199105804770933 0 0.012680342220037713 -0.012559845022243462 0 0.012674013198927105 -0.012705640159180333 0 0.012373325095852646 -0.01297889953857894 0 0.012177738086940983 -0.013199105804770933 0 0.012742925001794426 -0.012721285023442566 0 0.012286134406367503 -0.012968987028110963 0 0.012373325095852646 -0.01297889953857894 0 0.012493952429166901 -0.012834777380323738 0 0.012373325095852646 -0.01297889953857894 0 0.012742925001794426 -0.012721285023442566 0 0.012493952429166901 -0.012834777380323738 0 0.012286134406367503 -0.012968987028110963 0 0.012493952429166901 -0.012834777380323738 0 0.012403030303357213 -0.012812845891257117 0 0.012742925001794426 -0.012721285023442566 0 0.012628226517270762 -0.012699382603953072 0 0.012853953528889369 -0.012529735782077696 0 0.012742925001794426 -0.012721285023442566 0 0.012493952429166901 -0.012834777380323738 0 0.012628226517270762 -0.012699382603953072 0 0.012628226517270762 -0.012699382603953072 0 0.012553975640934373 -0.012630385213525948 0 0.012853953528889369 -0.012529735782077696 0 0.012493952429166901 -0.012834777380323738 0 0.012628226517270762 -0.012699382603953072 0 0.012403030303357213 -0.012812845891257117 0 0.012628226517270762 -0.012699382603953072 0 0.012403030303357213 -0.012812845891257117 0 0.012553975640934373 -0.012630385213525948 0 0.012342026530371196 -0.012769701614107397 0 0.012553975640934373 -0.012630385213525948 0 0.012472026805684185 -0.012623074264974577 0 0.012403030303357213 -0.012812845891257117 0 0.012342026530371196 -0.012769701614107397 0 0.012553975640934373 -0.012630385213525948 0 0.012553975640934373 -0.012630385213525948 0 0.012669447693159374 -0.012449842533309765 0 0.012472026805684185 -0.012623074264974577 0 0.012553975640934373 -0.012630385213525948 0 0.012669447693159374 -0.012449842533309765 0 0.012853953528889369 -0.012529735782077696 0 0.012669447693159374 -0.012449842533309765 0 0.012650528270756667 -0.012446230328227758 0 0.012472026805684185 -0.012623074264974577 0 0.012650528270756667 -0.012446230328227758 0 0.012346205806463811 -0.012682631903669805 0 0.012472026805684185 -0.012623074264974577 0 0.012346205806463811 -0.012682631903669805 0 0.012472026805684185 -0.012623074264974577 0 0.012230239732996412 -0.012813511897095354 0 0.012342026530371196 -0.012769701614107397 0 0.012472026805684185 -0.012623074264974577 0 0.012230239732996412 -0.012813511897095354 0 0.012342026530371196 -0.012769701614107397 0 0.012230239732996412 -0.012813511897095354 0 0.012069901060883044 -0.012973285973181854 0 0.012230239732996412 -0.012813511897095354 0 0.012069901060883044 -0.012973285973181854 0 0.012035001471391459 -0.012962344636865174 0 0.011882092337948836 -0.013100021011804897 0 0.011940237980476387 -0.013082558378408011 0 0.012069901060883044 -0.012973285973181854 0 0.011882092337948836 -0.013100021011804897 0 0.012069901060883044 -0.012973285973181854 0 0.012035001471391459 -0.012962344636865174 0 0.011882092337948836 -0.013100021011804897 0 0.012035001471391459 -0.012962344636865174 0 0.011911092422860701 -0.013045074124517032 0 0.012035001471391459 -0.012962344636865174 0 0.011911092422860701 -0.013045074124517032 0 0.012077344054456932 -0.012885742876577478 0 0.012230239732996412 -0.012813511897095354 0 0.012035001471391459 -0.012962344636865174 0 0.012077344054456932 -0.012885742876577478 0 0.012346205806463811 -0.012682631903669805 0 0.012230239732996412 -0.012813511897095354 0 0.012077344054456932 -0.012885742876577478 0 0.012346205806463811 -0.012682631903669805 0 0.012077344054456932 -0.012885742876577478 0 0.012059465326588104 -0.012738625316125145 0 0.011911092422860701 -0.013045074124517032 0 0.012077344054456932 -0.012885742876577478 0 0.011820161473404103 -0.013077989642726086 0 0.012077344054456932 -0.012885742876577478 0 0.011820161473404103 -0.013077989642726086 0 0.012059465326588104 -0.012738625316125145 0 0.011710861565334229 -0.014623061417450211 0 0.0121060220976961 -0.014079308322195545 0 0.012672167807462956 -0.016379734075031526 0 0.012426769592558411 -0.016632631896689988 0 0.012896848087565914 -0.016678037036830556 0 0.0121060220976961 -0.014079308322195545 0 0.012891663139035558 -0.015272946793177686 0 0.012104576364383621 -0.013737526552299966 0 0.013067965736303677 -0.013836543869943985 0 0.013013128414755387 -0.014022131345633074 0 0.0121060220976961 -0.014079308322195545 0 0.012669079827698373 -0.013240654013494496 0 0.012346205806463811 -0.012682631903669805 0 0.012059465326588104 -0.012738625316125145 0 0.012532516066329564 -0.012489652844557822 0 0.012650528270756667 -0.012446230328227758 0 0.012346205806463811 -0.012682631903669805 0 0.012532516066329564 -0.012489652844557822 0 0.012650528270756667 -0.012446230328227758 0 0.012532516066329564 -0.012489652844557822 0 0.012721308305178263 -0.012380055282325256 0 0.013067965736303677 -0.013836543869943985 0 0.013013128414755387 -0.014022131345633074 0 0.013930353315164047 -0.014314102706231159 0 0.013161034170852169 -0.016440632182306979 0 0.012896848087565914 -0.016678037036830556 0 0.013362284320465294 -0.016715623316260635 0 0.012891663139035558 -0.015272946793177686 0 0.014653382745474638 -0.014119414394250076 0 0.012669079827698373 -0.013240654013494496 0 0.013976617463078028 -0.012760923696175926 0 0.013067965736303677 -0.013836543869943985 0 0.013930353315164047 -0.014314102706231159 0 0.014041025132409598 -0.013941984448854547 0 0.013976617463078028 -0.012760923696175926 0 0.014653382745474638 -0.014119414394250076 0 0.016247432832127765 -0.012715918871604536 0 0.016202129238447667 -0.012866589661920159 0 0.015718439511921235 -0.01281371662762487 0 0.016033865220693996 -0.013146110431223875 0 0.016402905524262729 -0.012923527082938549 0 0.015718439511921235 -0.01281371662762487 0 0.014653382745474638 -0.014119414394250076 0 0.016378762135845822 -0.012650148616362406 0 0.013130832042841994 -0.011299487391215876 0 0.013635194604085007 -0.011884361265713919 0 0.014391859954814673 -0.011592667877096853 0 0.016247432832127765 -0.012715918871604536 0 0.015725058488677071 -0.012494306718208658 0 0.015718439511921235 -0.01281371662762487 0 0.013976617463078028 -0.012760923696175926 0 0.015165914153144076 -0.011989063429955645 0 0.014076432004056266 -0.011876045910869307 0 0.013635194604085007 -0.011884361265713919 0 0.014391859954814673 -0.011592667877096853 0 0.013635194604085007 -0.011884361265713919 0 0.012862217545001399 -0.012170182300634554 0 0.013230019309869553 -0.012266395169851141 0 0.013976617463078028 -0.012760923696175926 0 0.013139604711934878 -0.012057302709176777 0 0.013130832042841994 -0.011299487391215876 0 0.013635194604085007 -0.011884361265713919 0 0.012862217545001399 -0.012170182300634554 0 0.012650528270756667 -0.012446230328227758 0 0.012721308305178263 -0.012380055282325256 0 0.012862217545001399 -0.012170182300634554 0 0.012669447693159374 -0.012449842533309765 0 0.012650528270756667 -0.012446230328227758 0 0.012862217545001399 -0.012170182300634554 0 0.013230019309869553 -0.012266395169851141 0 0.012853953528889369 -0.012529735782077696 0 0.013237338353641352 -0.012524588021159138 0 0.012669447693159374 -0.012449842533309765 0 0.012862217545001399 -0.012170182300634554 0 0.012853953528889369 -0.012529735782077696 0 0.012862217545001399 -0.012170182300634554 0 0.013230019309869553 -0.012266395169851141 0 0.012853953528889369 -0.012529735782077696 0 0.012742925001794426 -0.012721285023442566 0 0.013237338353641352 -0.012524588021159138 0 0.012794529929980723 -0.01271388321292485 0 0.013237338353641352 -0.012524588021159138 0 0.013872132757855458 -0.012746922416020883 0 0.012794529929980723 -0.01271388321292485 0 0.012742925001794426 -0.012721285023442566 0 0.012853953528889369 -0.012529735782077696 0 0.013237338353641352 -0.012524588021159138 0 0.013237338353641352 -0.012524588021159138 0 0.014303076403892086 -0.012090688684067223 0 0.013872132757855458 -0.012746922416020883 0 0.013237338353641352 -0.012524588021159138 0 0.013814735905878605 -0.012132327093513345 0 0.014303076403892086 -0.012090688684067223 0 0.013230019309869553 -0.012266395169851141 0 0.013237338353641352 -0.012524588021159138 0 0.013814735905878605 -0.012132327093513345 0 0.013635194604085007 -0.011884361265713919 0 0.013230019309869553 -0.012266395169851141 0 0.013814735905878605 -0.012132327093513345 0 0.014076432004056266 -0.011876045910869307 0 0.013635194604085007 -0.011884361265713919 0 0.013814735905878605 -0.012132327093513345 0 0.013814735905878605 -0.012132327093513345 0 0.014677253771459559 -0.011955784837867063 0 0.014303076403892086 -0.012090688684067223 0 0.014076432004056266 -0.011876045910869307 0 0.013814735905878605 -0.012132327093513345 0 0.014677253771459559 -0.011955784837867063 0 0.014303076403892086 -0.012090688684067223 0 0.014913512996707642 -0.011472169484023569 0 0.013872132757855458 -0.012746922416020883 0 0.014759557793431129 -0.011523566983711828 0 0.014263583826560183 -0.011606931270757239 0 0.014677253771459559 -0.011955784837867063 0 0.014303076403892086 -0.012090688684067223 0 0.014913512996707642 -0.011472169484023569 0 0.014677253771459559 -0.011955784837867063 0 0.01499924260507879 -0.011915021460159735 0 0.015031690787535289 -0.012180765373364337 0 0.014677253771459559 -0.011955784837867063 0 0.014913512996707642 -0.011472169484023569 0 0.01499924260507879 -0.011915021460159735 0 0.015000126415893929 -0.013256266863885948 0 0.01499924260507879 -0.011915021460159735 0 0.015031690787535289 -0.012180765373364337 0 0.015000126415893929 -0.013256266863885948 0 0.015031690787535289 -0.012180765373364337 0 0.01531974593500938 -0.012648916774781806 0 0.014970332955424572 -0.012154161668253205 0 0.015165914153144076 -0.011989063429955645 0 0.014677253771459559 -0.011955784837867063 0 0.015031690787535289 -0.012180765373364337 0 0.014391859954814673 -0.011592667877096853 0 0.015031690787535289 -0.012180765373364337 0 0.01531974593500938 -0.012648916774781806 0 0.015725058488677071 -0.012494306718208658 0 0.014076432004056266 -0.011876045910869307 0 0.014677253771459559 -0.011955784837867063 0 0.014391859954814673 -0.011592667877096853 0 0.01531974593500938 -0.012648916774781806 0 0.015725058488677071 -0.012494306718208658 0 0.015718439511921235 -0.01281371662762487 0 0.01531974593500938 -0.012648916774781806 0 0.015718439511921235 -0.01281371662762487 0 0.015419930994369271 -0.012980599403301015 0 0.015658039611432535 -0.013241126040576747 0 0.016033865220693996 -0.013146110431223875 0 0.015718439511921235 -0.01281371662762487 0 0.015658039611432535 -0.013241126040576747 0 0.015718439511921235 -0.01281371662762487 0 0.015419930994369271 -0.012980599403301015 0 0.015000126415893929 -0.013256266863885948 0 0.01531974593500938 -0.012648916774781806 0 0.015419930994369271 -0.012980599403301015 0 0.014777036725029124 -0.010144331902487053 0 0.014998799675336712 -0.010093407960167168 0 0.014752924862423545 -0.010429470992848732 0 0.015174164632953607 -0.0094044986673876754 0 0.015075125137540517 -0.0089888364034578904 0 0.014999723252285558 -0.0092882707677558896 0 0.015174164632953607 -0.0094044986673876754 0 0.014999843017591023 -0.01009167021130975 0 0.014999723252285558 -0.0092882707677558896 0 0.014942821619087844 -0.0097742777710738173 0 0.014940668555316127 -0.0093342460404934706 0 0.015174164632953607 -0.0094044986673876754 0 0.0150221957188968 -0.0088582997207420841 0 0.015075125137540517 -0.0089888364034578904 0 0.014777036725029124 -0.010144331902487053 0 0.014752924862423545 -0.010429470992848732 0 0.014813436628505995 -0.010080253894719353 0 0.014942821619087844 -0.0097742777710738173 0 0.014999880804129872 -0.010092381461666232 0 0.014913512996707642 -0.011472169484023569 0 0.01499924260507879 -0.011915021460159735 0 0.014998799675336712 -0.010093407960167168 0 0.014998799675336712 -0.010093407960167168 0 0.014937697276401998 -0.010676862316880503 0 0.014752924862423545 -0.010429470992848732 0 0.014913512996707642 -0.011472169484023569 0 0.014998799675336712 -0.010093407960167168 0 0.014937697276401998 -0.010676862316880503 0 0.014937697276401998 -0.010676862316880503 0 0.014752924862423545 -0.010429470992848732 0 0.014805981887795578 -0.010530619006345318 0 0.014913512996707642 -0.011472169484023569 0 0.014937697276401998 -0.010676862316880503 0 0.014805981887795578 -0.010530619006345318 0 0.014752924862423545 -0.010429470992848732 0 0.014323274847555818 -0.010281806408360024 0 0.014144997212830072 -0.010227138354206255 0 0.014752924862423545 -0.010429470992848732 0 0.014805981887795578 -0.010530619006345318 0 0.014323274847555818 -0.010281806408360024 0 0.014263583826560183 -0.011606931270757239 0 0.013548297075646058 -0.011407038731270336 0 0.014805981887795578 -0.010530619006345318 0 0.01421200768704205 -0.010137724301155376 0 0.014323274847555818 -0.010281806408360024 0 0.01421200768704205 -0.010137724301155376 0 0.014323274847555818 -0.010281806408360024 0 0.014041110635573459 -0.010192007341943716 0 0.014323274847555818 -0.010281806408360024 0 0.014012083756094239 -0.010181000349141645 0 0.014041110635573459 -0.010192007341943716 0 0.014323274847555818 -0.010281806408360024 0 0.014144997212830072 -0.010227138354206255 0 0.014012083756094239 -0.010181000349141645 0 0.013914536743150642 -0.010060882054541143 0 0.014144997212830072 -0.010227138354206255 0 0.014012083756094239 -0.010181000349141645 0 0.013914536743150642 -0.010060882054541143 0 0.014144997212830072 -0.010227138354206255 0 0.013886369784228131 -0.01008729689050031 0 0.014752924862423545 -0.010429470992848732 0 0.014813436628505995 -0.010080253894719353 0 0.015006498083598305 -0.0098162706136752948 0 0.014752924862423545 -0.010429470992848732 0 0.014144997212830072 -0.010227138354206255 0 0.013886369784228131 -0.01008729689050031 0 0.01471639897426336 -0.010347877148928921 0 0.014450791952536025 -0.0099219865938610964 0 0.014813436628505995 -0.010080253894719353 0 0.014826669630214845 -0.0097555056803123354 0 0.015006498083598305 -0.0098162706136752948 0 0.014777036725029124 -0.010144331902487053 0 0.014813436628505995 -0.010080253894719353 0 0.014826669630214845 -0.0097555056803123354 0 0.015174164632953607 -0.0094044986673876754 0 0.015020063095787666 -0.0089367814210330708 0 0.0150221957188968 -0.0088582997207420841 0 0.014450791952536025 -0.0099219865938610964 0 0.014235487892620354 -0.0089210281968070352 0 0.015006498083598305 -0.0098162706136752948 0 0.01486720850210785 -0.0084967896082437447 0 0.014898952863243642 -0.0089231767015381346 0 0.014940668555316127 -0.0093342460404934706 0 0.014967492996727857 -0.0089957673935049977 0 0.013886369784228131 -0.01008729689050031 0 0.013805478792944977 -0.0097918476367439 0 0.0136101152315907 -0.0092629270487264454 0 0.014826669630214845 -0.0097555056803123354 0 0.015006498083598305 -0.0098162706136752948 0 0.014898952863243642 -0.0089231767015381346 0 0.013914536743150642 -0.010060882054541143 0 0.013886369784228131 -0.01008729689050031 0 0.013805478792944977 -0.0097918476367439 0 0.013805478792944977 -0.0097918476367439 0 0.013782225044385404 -0.0096231620924828142 0 0.0136101152315907 -0.0092629270487264454 0 0.013828947670986389 -0.0098247230340721605 0 0.013782225044385404 -0.0096231620924828142 0 0.01383877929362054 -0.0096790845287309159 0 0.013828947670986389 -0.0098247230340721605 0 0.01383877929362054 -0.0096790845287309159 0 0.013864991489429157 -0.0099460959038398748 0 0.013914536743150642 -0.010060882054541143 0 0.013828947670986389 -0.0098247230340721605 0 0.013805478792944977 -0.0097918476367439 0 0.013828947670986389 -0.0098247230340721605 0 0.013805478792944977 -0.0097918476367439 0 0.013782225044385404 -0.0096231620924828142 0 0.013782225044385404 -0.0096231620924828142 0 0.01383877929362054 -0.0096790845287309159 0 0.013858898293958912 -0.0093429815463766178 0 0.013913320334564367 -0.0095086531104862353 0 0.013949271954865108 -0.0090429269395461039 0 0.013858898293958912 -0.0093429815463766178 0 0.01383877929362054 -0.0096790845287309159 0 0.013913320334564367 -0.0095086531104862353 0 0.013858898293958912 -0.0093429815463766178 0 0.01383877929362054 -0.0096790845287309159 0 0.013856810293960563 -0.0098711464625424444 0 0.013913320334564367 -0.0095086531104862353 0 0.01383877929362054 -0.0096790845287309159 0 0.013856810293960563 -0.0098711464625424444 0 0.013864991489429157 -0.0099460959038398748 0 0.013856810293960563 -0.0098711464625424444 0 0.013898618975760045 -0.0098550119944845697 0 0.013913320334564367 -0.0095086531104862353 0 0.013856810293960563 -0.0098711464625424444 0 0.013838726983549906 -0.01014127403771114 0 0.013898618975760045 -0.0098550119944845697 0 0.013856810293960563 -0.0098711464625424444 0 0.013879320342196032 -0.010097599872868297 0 0.013838726983549906 -0.01014127403771114 0 0.013864991489429157 -0.0099460959038398748 0 0.013914679707307169 -0.010076211709831142 0 0.013879320342196032 -0.010097599872868297 0 0.013856810293960563 -0.0098711464625424444 0 0.013864991489429157 -0.0099460959038398748 0 0.013879320342196032 -0.010097599872868297 0 0.013914536743150642 -0.010060882054541143 0 0.013864991489429157 -0.0099460959038398748 0 0.013914679707307169 -0.010076211709831142 0 0.013914536743150642 -0.010060882054541143 0 0.013828947670986389 -0.0098247230340721605 0 0.013864991489429157 -0.0099460959038398748 0 0.013914679707307169 -0.010076211709831142 0 0.014012083756094239 -0.010181000349141645 0 0.013879320342196032 -0.010097599872868297 0 0.013914536743150642 -0.010060882054541143 0 0.013914679707307169 -0.010076211709831142 0 0.014012083756094239 -0.010181000349141645 0 0.014012083756094239 -0.010181000349141645 0 0.013879320342196032 -0.010097599872868297 0 0.013904809060038954 -0.010166651067070249 0 0.013904809060038954 -0.010166651067070249 0 0.014041110635573459 -0.010192007341943716 0 0.013855869351032482 -0.010174091820287459 0 0.014012083756094239 -0.010181000349141645 0 0.013904809060038954 -0.010166651067070249 0 0.014041110635573459 -0.010192007341943716 0 0.013548297075646058 -0.011407038731270336 0 0.013527765071110262 -0.01093744329642966 0 0.01421200768704205 -0.010137724301155376 0 0.014041110635573459 -0.010192007341943716 0 0.013855869351032482 -0.010174091820287459 0 0.013264919347450957 -0.011968865927923907 0 0.012742925001794426 -0.012721285023442566 0 0.013024840420160669 -0.011699424212573058 0 0.012742925001794426 -0.012721285023442566 0 0.012794529929980723 -0.01271388321292485 0 0.013024840420160669 -0.011699424212573058 0 0.013527765071110262 -0.01093744329642966 0 0.013960307497076569 -0.010597031786961433 0 0.013024840420160669 -0.011699424212573058 0 0.013920282206566088 -0.0105485909142572 0 0.013667226302092527 -0.011333941596653898 0 0.013264919347450957 -0.011968865927923907 0 0.013024840420160669 -0.011699424212573058 0 0.013667226302092527 -0.011333941596653898 0 0.013904809060038954 -0.010166651067070249 0 0.013855869351032482 -0.010174091820287459 0 0.013838726983549906 -0.01014127403771114 0 0.013855869351032482 -0.010174091820287459 0 0.013838726983549906 -0.01014127403771114 0 0.013920282206566088 -0.0105485909142572 0 0.013879320342196032 -0.010097599872868297 0 0.013904809060038954 -0.010166651067070249 0 0.013838726983549906 -0.01014127403771114 0 0.013838726983549906 -0.01014127403771114 0 0.013947846657279455 -0.01007604805024539 0 0.013920282206566088 -0.0105485909142572 0 0.013838726983549906 -0.01014127403771114 0 0.013947846657279455 -0.01007604805024539 0 0.013898618975760045 -0.0098550119944845697 0 0.013947846657279455 -0.01007604805024539 0 0.013920282206566088 -0.0105485909142572 0 0.014233419762606314 -0.010046879755548705 0 0.013264919347450957 -0.011968865927923907 0 0.013667226302092527 -0.011333941596653898 0 0.014175039794343184 -0.01124609699757283 0 0.012680342220037713 -0.012559845022243462 0 0.013197434191201781 -0.012305517396002387 0 0.013920282206566088 -0.0105485909142572 0 0.014026197080081741 -0.011010019246561526 0 0.013667226302092527 -0.011333941596653898 0 0.013920282206566088 -0.0105485909142572 0 0.014026197080081741 -0.011010019246561526 0 0.01430494964248291 -0.010867688934773485 0 0.014026197080081741 -0.011010019246561526 0 0.013667226302092527 -0.011333941596653898 0 0.014175039794343184 -0.01124609699757283 0 0.013920282206566088 -0.0105485909142572 0 0.01430494964248291 -0.010867688934773485 0 0.014431534732645334 -0.010498805536372507 0 0.01430494964248291 -0.010867688934773485 0 0.014431534732645334 -0.010498805536372507 0 0.01495612354245131 -0.01096170245859497 0 0.014175039794343184 -0.01124609699757283 0 0.01430494964248291 -0.010867688934773485 0 0.01495612354245131 -0.01096170245859497 0 0.012111483078867237 -0.013123172976256176 0 0.012104091287267282 -0.01311544603556229 0 0.012214358019844702 -0.01306144055927996 0 0.013197434191201781 -0.012305517396002387 0 0.013119297066299683 -0.010797249640581433 0 0.014026197080081741 -0.011010019246561526 0 0.014175039794343184 -0.01124609699757283 0 0.01430494964248291 -0.010867688934773485 0 0.013920282206566088 -0.0105485909142572 0 0.014431534732645334 -0.010498805536372507 0 0.014233419762606314 -0.010046879755548705 0 0.014431534732645334 -0.010498805536372507 0 0.014233419762606314 -0.010046879755548705 0 0.014755691665629612 -0.010038999786644933 0 0.014233419762606314 -0.010046879755548705 0 0.014755691665629612 -0.010038999786644933 0 0.014189811108032177 -0.0090584003510663143 0 0.014233419762606314 -0.010046879755548705 0 0.014033595034561518 -0.00961089984558622 0 0.014189811108032177 -0.0090584003510663143 0 0.013947846657279455 -0.01007604805024539 0 0.014233419762606314 -0.010046879755548705 0 0.014033595034561518 -0.00961089984558622 0 0.013947846657279455 -0.01007604805024539 0 0.013898618975760045 -0.0098550119944845697 0 0.014033595034561518 -0.00961089984558622 0 0.013898618975760045 -0.0098550119944845697 0 0.014033595034561518 -0.00961089984558622 0 0.013913320334564367 -0.0095086531104862353 0 0.013913320334564367 -0.0095086531104862353 0 0.014021056486408221 -0.00919276489214714 0 0.013949271954865108 -0.0090429269395461039 0 0.014033595034561518 -0.00961089984558622 0 0.013913320334564367 -0.0095086531104862353 0 0.014021056486408221 -0.00919276489214714 0 0.014021056486408221 -0.00919276489214714 0 0.013935209478340992 -0.0089025184640705631 0 0.014189811108032177 -0.0090584003510663143 0 0.014033595034561518 -0.00961089984558622 0 0.014021056486408221 -0.00919276489214714 0 0.014189811108032177 -0.0090584003510663143 0 0.014021056486408221 -0.00919276489214714 0 0.013935209478340992 -0.0089025184640705631 0 0.013949271954865108 -0.0090429269395461039 0 0.013949271954865108 -0.0090429269395461039 0 0.013874072440570281 -0.008631576047889734 0 0.013927490587711592 -0.008928276823532413 0 0.013935209478340992 -0.0089025184640705631 0 0.013949271954865108 -0.0090429269395461039 0 0.013874072440570281 -0.008631576047889734 0 0.013935209478340992 -0.0089025184640705631 0 0.013874072440570281 -0.008631576047889734 0 0.013689996774529728 -0.0085764879000020788 0 0.013660090329940051 -0.0083751948659261076 0 0.013689996774529728 -0.0085764879000020788 0 0.013473375809967037 -0.0083120371513221471 0 0.013874072440570281 -0.008631576047889734 0 0.013660090329940051 -0.0083751948659261076 0 0.013689996774529728 -0.0085764879000020788 0 0.01345511339881366 -0.008218403236196067 0 0.013673489623281571 -0.0082676123297599925 0 0.013468201988903522 -0.0081673035528974196 0 0.013660090329940051 -0.0083751948659261076 0 0.01345511339881366 -0.008218403236196067 0 0.013473375809967037 -0.0083120371513221471 0 0.013660090329940051 -0.0083751948659261076 0 0.01345511339881366 -0.008218403236196067 0 0.013673489623281571 -0.0082676123297599925 0 0.013660090329940051 -0.0083751948659261076 0 0.013673489623281571 -0.0082676123297599925 0 0.013833361432872412 -0.0083956672708329367 0 0.013673489623281571 -0.0082676123297599925 0 0.013919700131349043 -0.0083120248582226816 0 0.013770011215476436 -0.0082256305635987435 0 0.013673489623281571 -0.0082676123297599925 0 0.013833361432872412 -0.0083956672708329367 0 0.013919700131349043 -0.0083120248582226816 0 0.013874072440570281 -0.008631576047889734 0 0.013660090329940051 -0.0083751948659261076 0 0.013833361432872412 -0.0083956672708329367 0 0.013874072440570281 -0.008631576047889734 0 0.013833361432872412 -0.0083956672708329367 0 0.013997477716678565 -0.0084632096124656383 0 0.013833361432872412 -0.0083956672708329367 0 0.013997477716678565 -0.0084632096124656383 0 0.014200587584239616 -0.0084000669890494407 0 0.013919700131349043 -0.0083120248582226816 0 0.014200064948497997 -0.0083134356044200202 0 0.014200587584239616 -0.0084000669890494407 0 0.013833361432872412 -0.0083956672708329367 0 0.013919700131349043 -0.0083120248582226816 0 0.014200587584239616 -0.0084000669890494407 0 0.013919700131349043 -0.0083120248582226816 0 0.014200064948497997 -0.0083134356044200202 0 0.013770011215476436 -0.0082256305635987435 0 0.014200064948497997 -0.0083134356044200202 0 0.014200587584239616 -0.0084000669890494407 0 0.014530876983695352 -0.0083724957914893625 0 0.014200064948497997 -0.0083134356044200202 0 0.014530876983695352 -0.0083724957914893625 0 0.014520058406426945 -0.0083063256916485074 0 0.014200587584239616 -0.0084000669890494407 0 0.014586577775515131 -0.0084479243634976425 0 0.014530876983695352 -0.0083724957914893625 0 0.013997477716678565 -0.0084632096124656383 0 0.014200587584239616 -0.0084000669890494407 0 0.014586577775515131 -0.0084479243634976425 0 0.013997477716678565 -0.0084632096124656383 0 0.01473962235615733 -0.00849359669840021 0 0.01486720850210785 -0.0084967896082437447 0 0.014031635516050982 -0.0085220580361949818 0 0.014235487892620354 -0.0089210281968070352 0 0.013997477716678565 -0.0084632096124656383 0 0.014586577775515131 -0.0084479243634976425 0 0.01473962235615733 -0.00849359669840021 0 0.013997477716678565 -0.0084632096124656383 0 0.013927490587711592 -0.008928276823532413 0 0.0136101152315907 -0.0092629270487264454 0 0.013874072440570281 -0.008631576047889734 0 0.013997477716678565 -0.0084632096124656383 0 0.013927490587711592 -0.008928276823532413 0 0.013949271954865108 -0.0090429269395461039 0 0.013927490587711592 -0.008928276823532413 0 0.013858898293958912 -0.0093429815463766178 0 0.013927490587711592 -0.008928276823532413 0 0.013858898293958912 -0.0093429815463766178 0 0.0136101152315907 -0.0092629270487264454 0 0.013782225044385404 -0.0096231620924828142 0 0.013858898293958912 -0.0093429815463766178 0 0.0136101152315907 -0.0092629270487264454 0 0.01486720850210785 -0.0084967896082437447 0 0.014851386808016894 -0.0086354358260278177 0 0.014898952863243642 -0.0089231767015381346 0 0.01473962235615733 -0.00849359669840021 0 0.01486720850210785 -0.0084967896082437447 0 0.014851386808016894 -0.0086354358260278177 0 0.015020063095787666 -0.0089367814210330708 0 0.014898952863243642 -0.0089231767015381346 0 0.01490652499115371 -0.0088056628893820963 0 0.014899430314329847 -0.0086850834184643948 0 0.014851002132077056 -0.0086228203754549308 0 0.01490652499115371 -0.0088056628893820963 0 0.01473962235615733 -0.00849359669840021 0 0.014851002132077056 -0.0086228203754549308 0 0.014851386808016894 -0.0086354358260278177 0 0.014851002132077056 -0.0086228203754549308 0 0.014851386808016894 -0.0086354358260278177 0 0.01490652499115371 -0.0088056628893820963 0 0.014851386808016894 -0.0086354358260278177 0 0.014898952863243642 -0.0089231767015381346 0 0.01490652499115371 -0.0088056628893820963 0 0.015020063095787666 -0.0089367814210330708 0 0.01490652499115371 -0.0088056628893820963 0 0.0150221957188968 -0.0088582997207420841 0 0.0150221957188968 -0.0088582997207420841 0 0.014912781637724467 -0.0086053513393876142 0 0.01500969019393791 -0.0086669506299781405 0 0.014899430314329847 -0.0086850834184643948 0 0.01490652499115371 -0.0088056628893820963 0 0.0150221957188968 -0.0088582997207420841 0 0.014899430314329847 -0.0086850834184643948 0 0.0150221957188968 -0.0088582997207420841 0 0.014912781637724467 -0.0086053513393876142 0 0.014912781637724467 -0.0086053513393876142 0 0.014896818476462077 -0.0084452937975975986 0 0.01500969019393791 -0.0086669506299781405 0 0.014912781637724467 -0.0086053513393876142 0 0.014774139024997225 -0.0084448886242255144 0 0.014896818476462077 -0.0084452937975975986 0 0.014912781637724467 -0.0086053513393876142 0 0.014811697319957596 -0.0085313313618048166 0 0.014774139024997225 -0.0084448886242255144 0 0.014899430314329847 -0.0086850834184643948 0 0.014851002132077056 -0.0086228203754549308 0 0.014811697319957596 -0.0085313313618048166 0 0.014899430314329847 -0.0086850834184643948 0 0.014912781637724467 -0.0086053513393876142 0 0.014811697319957596 -0.0085313313618048166 0 0.01473962235615733 -0.00849359669840021 0 0.014851002132077056 -0.0086228203754549308 0 0.014811697319957596 -0.0085313313618048166 0 0.014586577775515131 -0.0084479243634976425 0 0.014811697319957596 -0.0085313313618048166 0 0.014774139024997225 -0.0084448886242255144 0 0.014586577775515131 -0.0084479243634976425 0 0.01473962235615733 -0.00849359669840021 0 0.014811697319957596 -0.0085313313618048166 0 0.014586577775515131 -0.0084479243634976425 0 0.014774139024997225 -0.0084448886242255144 0 0.014530876983695352 -0.0083724957914893625 0 0.014774139024997225 -0.0084448886242255144 0 0.014530876983695352 -0.0083724957914893625 0 0.014745598379492611 -0.0083360510000094461 0 0.014530876983695352 -0.0083724957914893625 0 0.014520058406426945 -0.0083063256916485074 0 0.014745598379492611 -0.0083360510000094461 0 0.014675093083981149 -0.0082609226531979493 0 0.014876127131255081 -0.0082404364460622413 0 0.014767517521909176 -0.0081730866857743605 0 0.014520058406426945 -0.0083063256916485074 0 0.014675093083981149 -0.0082609226531979493 0 0.014745598379492611 -0.0083360510000094461 0 0.014675093083981149 -0.0082609226531979493 0 0.014745598379492611 -0.0083360510000094461 0 0.014876127131255081 -0.0082404364460622413 0 0.014745598379492611 -0.0083360510000094461 0 0.014896818476462077 -0.0084452937975975986 0 0.014876127131255081 -0.0082404364460622413 0 0.014774139024997225 -0.0084448886242255144 0 0.014745598379492611 -0.0083360510000094461 0 0.014896818476462077 -0.0084452937975975986 0 0.014896818476462077 -0.0084452937975975986 0 0.014993650220673921 -0.0084350833830529846 0 0.014876127131255081 -0.0082404364460622413 0 0.014993650220673921 -0.0084350833830529846 0 0.014876127131255081 -0.0082404364460622413 0 0.014992323931735833 -0.0081342729085501705 0 0.014876127131255081 -0.0082404364460622413 0 0.014871562099213843 -0.0080339593239066413 0 0.014992323931735833 -0.0081342729085501705 0 0.014876127131255081 -0.0082404364460622413 0 0.014871562099213843 -0.0080339593239066413 0 0.014767517521909176 -0.0081730866857743605 0 0.014871562099213843 -0.0080339593239066413 0 0.01499976497333546 -0.007682252711649881 0 0.014992323931735833 -0.0081342729085501705 0 0.01499976497333546 -0.007682252711649881 0 0.014992323931735833 -0.0081342729085501705 0 0.014999633929963441 -0.0084840544396994882 0 0.014993650220673921 -0.0084350833830529846 0 0.014992323931735833 -0.0081342729085501705 0 0.014999633929963441 -0.0084840544396994882 0 0.014999633929963441 -0.0084840544396994882 0 0.015042257802507987 -0.0087341363628950664 0 0.014999723252285558 -0.0092882707677558896 0 0.014993650220673921 -0.0084350833830529846 0 0.014999633929963441 -0.0084840544396994882 0 0.015042257802507987 -0.0087341363628950664 0 0.014993650220673921 -0.0084350833830529846 0 0.015042257802507987 -0.0087341363628950664 0 0.01500969019393791 -0.0086669506299781405 0 0.014896818476462077 -0.0084452937975975986 0 0.014993650220673921 -0.0084350833830529846 0 0.01500969019393791 -0.0086669506299781405 0 0.015042257802507987 -0.0087341363628950664 0 0.01500969019393791 -0.0086669506299781405 0 0.015075125137540517 -0.0089888364034578904 0 0.0150221957188968 -0.0088582997207420841 0 0.01500969019393791 -0.0086669506299781405 0 0.015075125137540517 -0.0089888364034578904 0 0.015042257802507987 -0.0087341363628950664 0 0.015075125137540517 -0.0089888364034578904 0 0.014999723252285558 -0.0092882707677558896 0 0.012983042243198194 -0.0089901225565354476 0 0.012901384209587202 -0.0087344605119593632 0 0.013219535401949558 -0.0091798041998286829 0 0.010092176010551075 -0.011701147990831653 0 0.0097500171374683073 -0.011606576868102857 0 0.010048341488571758 -0.012097701706037014 0 0.0097500171374683073 -0.011606576868102857 0 0.010048341488571758 -0.012097701706037014 0 0.0099951285105315101 -0.01224804235973051 0 0.011411033212246909 -0.010052456767161115 0 0.010938364744455861 -0.011437892100722307 0 0.010092176010551075 -0.011701147990831653 0 0.010291098596069151 -0.011917997114445012 0 0.010048341488571758 -0.012097701706037014 0 0.012983042243198194 -0.0089901225565354476 0 0.012611047524399344 -0.00872860548549486 0 0.012600005267284583 -0.0094021920505762066 0 0.012611047524399344 -0.00872860548549486 0 0.012901384209587202 -0.0087344605119593632 0 0.012919609664139525 -0.0087868880728225809 0 0.012983042243198194 -0.0089901225565354476 0 0.012611047524399344 -0.00872860548549486 0 0.012901384209587202 -0.0087344605119593632 0 0.012901384209587202 -0.0087344605119593632 0 0.012919609664139525 -0.0087868880728225809 0 0.013073841884697495 -0.0089132498337271462 0 0.011411033212246909 -0.010052456767161115 0 0.011228043813333425 -0.010044741148514821 0 0.0097500171374683073 -0.011606576868102857 0 0.0099527813482752341 -0.011260961020724391 0 0.0095332947340203717 -0.011010648443299636 0 0.010092176010551075 -0.011701147990831653 0 0.010400827701882722 -0.011482788761410121 0 0.0099527813482752341 -0.011260961020724391 0 0.010092176010551075 -0.011701147990831653 0 0.0097500171374683073 -0.011606576868102857 0 0.0099527813482752341 -0.011260961020724391 0 0.010021875047692178 -0.01102936298198938 0 0.010724507238605024 -0.010867545370670244 0 0.010369455383567157 -0.010415711272760045 0 0.010896654737934471 -0.011461937071261419 0 0.010021875047692178 -0.01102936298198938 0 0.010724507238605024 -0.010867545370670244 0 0.010896654737934471 -0.011461937071261419 0 0.010940158370928977 -0.012119830133068169 0 0.010417595878078742 -0.011848154536603516 0 0.010896654737934471 -0.011461937071261419 0 0.010021875047692178 -0.01102936298198938 0 0.010417595878078742 -0.011848154536603516 0 0.01021966383993944 -0.011250721362331998 0 0.010532617453376227 -0.011951528330218703 0 0.010092176010551075 -0.011701147990831653 0 0.010400827701882722 -0.011482788761410121 0 0.010291098596069151 -0.011917997114445012 0 0.010400827701882722 -0.011482788761410121 0 0.010642318681904553 -0.012042677965084561 0 0.010291098596069151 -0.011917997114445012 0 0.010642318681904553 -0.012042677965084561 0 0.010291098596069151 -0.011917997114445012 0 0.010275905138628432 -0.012277815658797309 0 0.010291098596069151 -0.011917997114445012 0 0.010275905138628432 -0.012277815658797309 0 0.010048341488571758 -0.012097701706037014 0 0.010642318681904553 -0.012042677965084561 0 0.010275905138628432 -0.012277815658797309 0 0.010479642257783011 -0.012576992056938978 0 0.010275905138628432 -0.012277815658797309 0 0.010139715544469786 -0.012653794227648934 0 0.010479642257783011 -0.012576992056938978 0 0.010275905138628432 -0.012277815658797309 0 0.010139715544469786 -0.012653794227648934 0 0.0099813743595960017 -0.01226968043105941 0 0.010940158370928977 -0.012119830133068169 0 0.010417595878078742 -0.011848154536603516 0 0.010847504899135132 -0.012617970977295617 0 0.010532617453376227 -0.011951528330218703 0 0.010822895759989046 -0.01256138764720824 0 0.010642318681904553 -0.012042677965084561 0 0.010847504899135132 -0.012617970977295617 0 0.010479642257783011 -0.012576992056938978 0 0.0090466473856434752 -0.014837121585314883 0 0.0090407768259348834 -0.016461380265459929 0 0.0069111717814242541 -0.017342682358328476 0 0.006831970959213572 -0.017105802857385756 0 0.0072071002772201064 -0.017151654924440929 0 0.010440134123919975 -0.013075092128939005 0 0.010847504899135132 -0.012617970977295617 0 0.010479642257783011 -0.012576992056938978 0 0.0109164306841553 -0.012630057522621715 0 0.010440134123919975 -0.013075092128939005 0 0.010847504899135132 -0.012617970977295617 0 0.010440134123919975 -0.013075092128939005 0 0.010139715544469786 -0.012653794227648934 0 0.010479642257783011 -0.012576992056938978 0 0.0090407768259348834 -0.016461380265459929 0 0.010706992530118614 -0.014000262868937817 0 0.010038208881780563 -0.016811679412168046 0 0.010161300780693874 -0.016810284274703571 0 0.010084630035388406 -0.016647000148178964 0 0.013214766924798366 -0.012109293841376798 0 0.013939152673327751 -0.009976975254313375 0 0.013109358576784984 -0.010565067191705241 0 0.011600598674255586 -0.014668819085231643 0 0.011527102062222305 -0.012118030225580946 0 0.0099667818649978521 -0.016831640889642879 0 0.010084630035388406 -0.016647000148178964 0 0.01000220586216145 -0.016506664442059615 0 0.0099667818649978521 -0.016831640889642879 0 0.010038208881780563 -0.016811679412168046 0 0.010084630035388406 -0.016647000148178964 0 0.01135502748615067 -0.013482821986577454 0 0.010502328697497653 -0.01242284754417735 0 0.010640470628202276 -0.01201224053523923 0 0.010706992530118614 -0.014000262868937817 0 0.010938364744455861 -0.011437892100722307 0 0.010706992530118614 -0.014000262868937817 0 0.011527102062222305 -0.012118030225580946 0 0.013939152673327751 -0.009976975254313375 0 0.012929231823122441 -0.0098010310293172292 0 0.013109358576784984 -0.010565067191705241 0 0.012983042243198194 -0.0089901225565354476 0 0.01319136440964824 -0.0092607612299569729 0 0.013219535401949558 -0.0091798041998286829 0 0.012983042243198194 -0.0089901225565354476 0 0.013939152673327751 -0.009976975254313375 0 0.012929231823122441 -0.0098010310293172292 0 0.01287803530791853 -0.0089456722378476582 0 0.011527102062222305 -0.012118030225580946 0 0.010521197591679902 -0.012071360594667508 0 0.010938364744455861 -0.011437892100722307 0 0.010275905138628432 -0.012277815658797309 0 0.010048341488571758 -0.012097701706037014 0 0.0099813743595960017 -0.01226968043105941 0 0.011527102062222305 -0.012118030225580946 0 0.010938364744455861 -0.011437892100722307 0 0.012611047524399344 -0.00872860548549486 0 0.012600005267284583 -0.0094021920505762066 0 0.01201444142433087 -0.0098641083254146188 0 0.012600005267284583 -0.0094021920505762066 0 0.012491848785670818 -0.0099146613855774276 0 0.01201444142433087 -0.0098641083254146188 0 0.012983042243198194 -0.0089901225565354476 0 0.012600005267284583 -0.0094021920505762066 0 0.012929231823122441 -0.0098010310293172292 0 0.012600005267284583 -0.0094021920505762066 0 0.012929231823122441 -0.0098010310293172292 0 0.012491848785670818 -0.0099146613855774276 0 0.012929231823122441 -0.0098010310293172292 0 0.012695063663571097 -0.010229105906840863 0 0.013109358576784984 -0.010565067191705241 0 0.012929231823122441 -0.0098010310293172292 0 0.012695063663571097 -0.010229105906840863 0 0.012491848785670818 -0.0099146613855774276 0 0.012695063663571097 -0.010229105906840863 0 0.012185916497216594 -0.010303690733973555 0 0.012529358336104201 -0.010885039795444083 0 0.012695063663571097 -0.010229105906840863 0 0.012491848785670818 -0.0099146613855774276 0 0.012185916497216594 -0.010303690733973555 0 0.012491848785670818 -0.0099146613855774276 0 0.012185916497216594 -0.010303690733973555 0 0.01201444142433087 -0.0098641083254146188 0 0.012185916497216594 -0.010303690733973555 0 0.01192558360061417 -0.010751778615041778 0 0.011534527799840854 -0.010339591046195315 0 0.01192558360061417 -0.010751778615041778 0 0.012529358336104201 -0.010885039795444083 0 0.011987368939450137 -0.011519927606440687 0 0.013214766924798366 -0.012109293841376798 0 0.013109358576784984 -0.010565067191705241 0 0.012529358336104201 -0.010885039795444083 0 0.01192558360061417 -0.010751778615041778 0 0.011987368939450137 -0.011519927606440687 0 0.011495424728202875 -0.011024003592124099 0 0.012185916497216594 -0.010303690733973555 0 0.01192558360061417 -0.010751778615041778 0 0.012529358336104201 -0.010885039795444083 0 0.012695063663571097 -0.010229105906840863 0 0.013109358576784984 -0.010565067191705241 0 0.012529358336104201 -0.010885039795444083 0 0.013214766924798366 -0.012109293841376798 0 0.012529358336104201 -0.010885039795444083 0 0.011987368939450137 -0.011519927606440687 0 0.011987368939450137 -0.011519927606440687 0 0.011007137748921852 -0.011850017200171032 0 0.011495424728202875 -0.011024003592124099 0 0.0097052061612693842 -0.012571103125514953 0 0.011007137748921852 -0.011850017200171032 0 0.010654743595258385 -0.010738804498328685 0 0.011007137748921852 -0.011850017200171032 0 0.011495424728202875 -0.011024003592124099 0 0.011004195791762142 -0.010681811797752874 0 0.011495424728202875 -0.011024003592124099 0 0.011004195791762142 -0.010681811797752874 0 0.011534527799840854 -0.010339591046195315 0 0.01192558360061417 -0.010751778615041778 0 0.011495424728202875 -0.011024003592124099 0 0.011534527799840854 -0.010339591046195315 0 0.011007137748921852 -0.011850017200171032 0 0.011004195791762142 -0.010681811797752874 0 0.010654743595258385 -0.010738804498328685 0 0.011004195791762142 -0.010681811797752874 0 0.010660978151106606 -0.010683310321937154 0 0.011534527799840854 -0.010339591046195315 0 0.011807490227519613 -0.010283709403471309 0 0.012235672212112251 -0.010188179351475309 0 0.012235672212112251 -0.010188179351475309 0 0.012973830117586708 -0.0095641855138743175 0 0.012543094107792177 -0.011827571454855189 0 0.012779565509581821 -0.011316941350558602 0 0.012200740459142496 -0.011419465162878679 0 0.011019902353446617 -0.012336445191774943 0 0.012235672212112251 -0.010188179351475309 0 0.013013202359003098 -0.0080102221910405072 0 0.013356745616477816 -0.0082743518268034739 0 0.013547955768091475 -0.0079810623842737002 0 0.013013202359003098 -0.0080102221910405072 0 0.013356745616477816 -0.0082743518268034739 0 0.013094131170738765 -0.0084519729033449564 0 0.013356745616477816 -0.0082743518268034739 0 0.013693007311835355 -0.0083336213121956333 0 0.013379793711876984 -0.0085771078935395692 0 0.013356745616477816 -0.0082743518268034739 0 0.013094131170738765 -0.0084519729033449564 0 0.013379793711876984 -0.0085771078935395692 0 0.012611047524399344 -0.00872860548549486 0 0.010660978151106606 -0.010683310321937154 0 0.01201444142433087 -0.0098641083254146188 0 0.012445592050484702 -0.0084861231750671309 0 0.012235672212112251 -0.010188179351475309 0 0.012611047524399344 -0.00872860548549486 0 0.013013202359003098 -0.0080102221910405072 0 0.013094131170738765 -0.0084519729033449564 0 0.010660978151106606 -0.010683310321937154 0 0.01201444142433087 -0.0098641083254146188 0 0.011534527799840854 -0.010339591046195315 0 0.012185916497216594 -0.010303690733973555 0 0.01201444142433087 -0.0098641083254146188 0 0.011534527799840854 -0.010339591046195315 0 0.01403774522723473 -0.0079254928668755879 0 0.013547955768091475 -0.0079810623842737002 0 0.013693007311835355 -0.0083336213121956333 0 0.013119297066299683 -0.010797249640581433 0 0.012973830117586708 -0.0095641855138743175 0 0.012091660521969128 -0.011872626125062591 0 0.011626161799573514 -0.011517007833485289 0 0.012200740459142496 -0.011419465162878679 0 0.013356745616477816 -0.0082743518268034739 0 0.013547955768091475 -0.0079810623842737002 0 0.013693007311835355 -0.0083336213121956333 0 0.01403774522723473 -0.0079254928668755879 0 0.013693007311835355 -0.0083336213121956333 0 0.01409431586595334 -0.0084130419207457726 0 0.013119297066299683 -0.010797249640581433 0 0.014505216573091071 -0.0089677141668058936 0 0.014431534732645334 -0.010498805536372507 0 0.01495612354245131 -0.01096170245859497 0 0.014755691665629612 -0.010038999786644933 0 0.014505216573091071 -0.0089677141668058936 0 0.014234796307327647 -0.0092089469443664279 0 0.01409431586595334 -0.0084130419207457726 0 0.013693529664146574 -0.0088215021512843099 0 0.014189811108032177 -0.0090584003510663143 0 0.013693007311835355 -0.0083336213121956333 0 0.013693529664146574 -0.0088215021512843099 0 0.013379793711876984 -0.0085771078935395692 0 0.013693007311835355 -0.0083336213121956333 0 0.01409431586595334 -0.0084130419207457726 0 0.013693529664146574 -0.0088215021512843099 0 0.013693529664146574 -0.0088215021512843099 0 0.013838512263600864 -0.0089504223355006823 0 0.01355997571976093 -0.0089080906749726685 0 0.013693529664146574 -0.0088215021512843099 0 0.013422685838404757 -0.0088245205224856422 0 0.01355997571976093 -0.0089080906749726685 0 0.013693529664146574 -0.0088215021512843099 0 0.014189811108032177 -0.0090584003510663143 0 0.013838512263600864 -0.0089504223355006823 0 0.013935209478340992 -0.0089025184640705631 0 0.014189811108032177 -0.0090584003510663143 0 0.013838512263600864 -0.0089504223355006823 0 0.012611047524399344 -0.00872860548549486 0 0.013036596760212691 -0.0087039914534748127 0 0.012919609664139525 -0.0087868880728225809 0 0.012611047524399344 -0.00872860548549486 0 0.013094131170738765 -0.0084519729033449564 0 0.013036596760212691 -0.0087039914534748127 0 0.013094131170738765 -0.0084519729033449564 0 0.013036596760212691 -0.0087039914534748127 0 0.013379793711876984 -0.0085771078935395692 0 0.013036596760212691 -0.0087039914534748127 0 0.013379793711876984 -0.0085771078935395692 0 0.013422685838404757 -0.0088245205224856422 0 0.013693529664146574 -0.0088215021512843099 0 0.013379793711876984 -0.0085771078935395692 0 0.013422685838404757 -0.0088245205224856422 0 0.013036596760212691 -0.0087039914534748127 0 0.013422685838404757 -0.0088245205224856422 0 0.013168976176706135 -0.0088206154416193751 0 0.013422685838404757 -0.0088245205224856422 0 0.013323542240344648 -0.008889417764203664 0 0.01355997571976093 -0.0089080906749726685 0 0.013422685838404757 -0.0088245205224856422 0 0.013168976176706135 -0.0088206154416193751 0 0.013323542240344648 -0.008889417764203664 0 0.013168976176706135 -0.0088206154416193751 0 0.013123204026564306 -0.0088555325090446477 0 0.013323542240344648 -0.008889417764203664 0 0.012919609664139525 -0.0087868880728225809 0 0.013123204026564306 -0.0088555325090446477 0 0.013073841884697495 -0.0089132498337271462 0 0.013036596760212691 -0.0087039914534748127 0 0.013168976176706135 -0.0088206154416193751 0 0.012919609664139525 -0.0087868880728225809 0 0.013168976176706135 -0.0088206154416193751 0 0.012919609664139525 -0.0087868880728225809 0 0.013123204026564306 -0.0088555325090446477 0 0.013123204026564306 -0.0088555325090446477 0 0.013323542240344648 -0.008889417764203664 0 0.013073841884697495 -0.0089132498337271462 0 0.013323542240344648 -0.008889417764203664 0 0.013415373070765766 -0.0089082936490401873 0 0.013073841884697495 -0.0089132498337271462 0 0.013415373070765766 -0.0089082936490401873 0 0.01355997571976093 -0.0089080906749726685 0 0.013594446062432267 -0.0088478940448317705 0 0.013323542240344648 -0.008889417764203664 0 0.013415373070765766 -0.0089082936490401873 0 0.01355997571976093 -0.0089080906749726685 0 0.013415373070765766 -0.0089082936490401873 0 0.013344099838010007 -0.0090020303856282857 0 0.013545521042832324 -0.0088569583661932249 0 0.013415373070765766 -0.0089082936490401873 0 0.013594446062432267 -0.0088478940448317705 0 0.013545521042832324 -0.0088569583661932249 0 0.011975192636691171 -0.0092565397875800197 0 0.011228043813333425 -0.010044741148514821 0 0.013415373070765766 -0.0089082936490401873 0 0.013344099838010007 -0.0090020303856282857 0 0.013073841884697495 -0.0089132498337271462 0 0.013935209478340992 -0.0089025184640705631 0 0.013838512263600864 -0.0089504223355006823 0 0.013715555358581783 -0.0088365100238083378 0 0.013838512263600864 -0.0089504223355006823 0 0.01355997571976093 -0.0089080906749726685 0 0.013715555358581783 -0.0088365100238083378 0 0.01355997571976093 -0.0089080906749726685 0 0.013594446062432267 -0.0088478940448317705 0 0.013715555358581783 -0.0088365100238083378 0 0.013594446062432267 -0.0088478940448317705 0 0.013527801995308165 -0.0084589168458589232 0 0.013545521042832324 -0.0088569583661932249 0 0.013594446062432267 -0.0088478940448317705 0 0.013715555358581783 -0.0088365100238083378 0 0.013527801995308165 -0.0084589168458589232 0 0.013935209478340992 -0.0089025184640705631 0 0.013715555358581783 -0.0088365100238083378 0 0.013689996774529728 -0.0085764879000020788 0 0.013715555358581783 -0.0088365100238083378 0 0.013689996774529728 -0.0085764879000020788 0 0.013527801995308165 -0.0084589168458589232 0 0.013689996774529728 -0.0085764879000020788 0 0.013473375809967037 -0.0083120371513221471 0 0.013527801995308165 -0.0084589168458589232 0 0.013473375809967037 -0.0083120371513221471 0 0.013527801995308165 -0.0084589168458589232 0 0.013261563535442181 -0.0082083834827614728 0 0.013375631406273646 -0.0084528725410590259 0 0.01349841371284807 -0.0084452725509197041 0 0.013527801995308165 -0.0084589168458589232 0 0.013261563535442181 -0.0082083834827614728 0 0.013120731974584941 -0.0080373214381248437 0 0.013261563535442181 -0.0082083834827614728 0 0.013009601404179012 -0.0080941001021821845 0 0.013062120020353877 -0.0080902467854563186 0 0.013261563535442181 -0.0082083834827614728 0 0.013265478388729495 -0.0081626093583787029 0 0.013062120020353877 -0.0080902467854563186 0 0.013473375809967037 -0.0083120371513221471 0 0.013261563535442181 -0.0082083834827614728 0 0.013265478388729495 -0.0081626093583787029 0 0.01345511339881366 -0.008218403236196067 0 0.013473375809967037 -0.0083120371513221471 0 0.013265478388729495 -0.0081626093583787029 0 0.012851968916742808 -0.0080049333878258033 0 0.012857272858185942 -0.0079794554369776241 0 0.01280628876378497 -0.0079798147288439956 0 0.012886955318514175 -0.0080001013606350157 0 0.012851968916742808 -0.0080049333878258033 0 0.012857272858185942 -0.0079794554369776241 0 0.012886955318514175 -0.0080001013606350157 0 0.012851968916742808 -0.0080049333878258033 0 0.0129132348394785 -0.0080462382847113992 0 0.012077280041579571 -0.0086308288953129975 0 0.011975192636691171 -0.0092565397875800197 0 0.011975192636691171 -0.0092565397875800197 0 0.01349841371284807 -0.0084452725509197041 0 0.012886955318514175 -0.0080001013606350157 0 0.0128508397709148 -0.0079311035603485767 0 0.013120731974584941 -0.0080373214381248437 0 0.013261563535442181 -0.0082083834827614728 0 0.013120731974584941 -0.0080373214381248437 0 0.01302707651026519 -0.0080819913658232313 0 0.012886955318514175 -0.0080001013606350157 0 0.01302707651026519 -0.0080819913658232313 0 0.0129132348394785 -0.0080462382847113992 0 0.012886955318514175 -0.0080001013606350157 0 0.013120731974584941 -0.0080373214381248437 0 0.01302707651026519 -0.0080819913658232313 0 0.01302707651026519 -0.0080819913658232313 0 0.0129132348394785 -0.0080462382847113992 0 0.013009601404179012 -0.0080941001021821845 0 0.013261563535442181 -0.0082083834827614728 0 0.01302707651026519 -0.0080819913658232313 0 0.013009601404179012 -0.0080941001021821845 0 0.013009601404179012 -0.0080941001021821845 0 0.012912852811284773 -0.0080294604115022546 0 0.013062120020353877 -0.0080902467854563186 0 0.0129132348394785 -0.0080462382847113992 0 0.013009601404179012 -0.0080941001021821845 0 0.012880892966248747 -0.0080257252036020632 0 0.013009601404179012 -0.0080941001021821845 0 0.012880892966248747 -0.0080257252036020632 0 0.012912852811284773 -0.0080294604115022546 0 0.0129132348394785 -0.0080462382847113992 0 0.012880892966248747 -0.0080257252036020632 0 0.012820203254642575 -0.0079926344088664669 0 0.012851968916742808 -0.0080049333878258033 0 0.0129132348394785 -0.0080462382847113992 0 0.012820203254642575 -0.0079926344088664669 0 0.012851968916742808 -0.0080049333878258033 0 0.012820203254642575 -0.0079926344088664669 0 0.01280628876378497 -0.0079798147288439956 0 0.012820203254642575 -0.0079926344088664669 0 0.01279118127312383 -0.0079406775514635399 0 0.01280628876378497 -0.0079798147288439956 0 0.01279118127312383 -0.0079406775514635399 0 0.01280628876378497 -0.0079798147288439956 0 0.012824673043943116 -0.0079405896474570858 0 0.01280628876378497 -0.0079798147288439956 0 0.012824673043943116 -0.0079405896474570858 0 0.012829763242912223 -0.0079617406135643401 0 0.012824673043943116 -0.0079405896474570858 0 0.012866108520056473 -0.0079396724331524011 0 0.012862496939000831 -0.0079048888773681422 0 0.012824673043943116 -0.0079405896474570858 0 0.012829763242912223 -0.0079617406135643401 0 0.012866108520056473 -0.0079396724331524011 0 0.010780226331868193 -0.0094036090255140061 0 0.011066975564439134 -0.0092717502193971364 0 0.012829763242912223 -0.0079617406135643401 0 0.012814490708248475 -0.0079796848927101392 0 0.012801662892892409 -0.0079778071972678288 0 0.012829763242912223 -0.0079617406135643401 0 0.012814490708248475 -0.0079796848927101392 0 0.012839927557716697 -0.0079781929378375093 0 0.010780226331868193 -0.0094036090255140061 0 0.011420705179304373 -0.0088534071976759058 0 0.011975192636691171 -0.0092565397875800197 0 0.011066975564439134 -0.0092717502193971364 0 0.01280628876378497 -0.0079798147288439956 0 0.012829763242912223 -0.0079617406135643401 0 0.012801662892892409 -0.0079778071972678288 0 0.012857272858185942 -0.0079794554369776241 0 0.01280628876378497 -0.0079798147288439956 0 0.012801662892892409 -0.0079778071972678288 0 0.0093207361237133465 -0.010478024938844338 0 0.0097607725212988678 -0.010494924666068614 0 0.0095332947340203717 -0.011010648443299636 0 0.0097607725212988678 -0.010494924666068614 0 0.0098177561165263445 -0.010828922460531052 0 0.0095332947340203717 -0.011010648443299636 0 0.0099520880727351733 -0.010496705652099585 0 0.0097607725212988678 -0.010494924666068614 0 0.0098177561165263445 -0.010828922460531052 0 0.010780226331868193 -0.0094036090255140061 0 0.0098163563990685369 -0.010653265716680134 0 0.0099520880727351733 -0.010496705652099585 0 0.0098177561165263445 -0.010828922460531052 0 0.010167863818012388 -0.010974802240363377 0 0.0093187690678072782 -0.0094464145960520586 0 0.0096621936577043245 -0.010224227531172704 0 0.0097715413064804607 -0.009456892436864121 0 0.0098177561165263445 -0.010828922460531052 0 0.0099527813482752341 -0.011260961020724391 0 0.010167863818012388 -0.010974802240363377 0 0.010400827701882722 -0.011482788761410121 0 0.0099527813482752341 -0.011260961020724391 0 0.010167863818012388 -0.010974802240363377 0 0.0098177561165263445 -0.010828922460531052 0 0.0099527813482752341 -0.011260961020724391 0 0.0095332947340203717 -0.011010648443299636 0 0.010369455383567157 -0.010415711272760045 0 0.010145771217146261 -0.0098868548559272428 0 0.010720119382569752 -0.010063253440186696 0 0.010895501415900748 -0.010496109006562561 0 0.010369455383567157 -0.010415711272760045 0 0.010720119382569752 -0.010063253440186696 0 0.010895501415900748 -0.010496109006562561 0 0.010724507238605024 -0.010867545370670244 0 0.010369455383567157 -0.010415711272760045 0 0.010021875047692178 -0.01102936298198938 0 0.0096621936577043245 -0.010224227531172704 0 0.010369455383567157 -0.010415711272760045 0 0.01021966383993944 -0.011250721362331998 0 0.0098163563990685369 -0.010653265716680134 0 0.0096621936577043245 -0.010224227531172704 0 0.010369455383567157 -0.010415711272760045 0 0.010145771217146261 -0.0098868548559272428 0 0.010145771217146261 -0.0098868548559272428 0 0.010557137769754995 -0.0094691881251319637 0 0.0097715413064804607 -0.009456892436864121 0 0.0096621936577043245 -0.010224227531172704 0 0.010145771217146261 -0.0098868548559272428 0 0.0097715413064804607 -0.009456892436864121 0 0.010839041856358098 -0.010375547815765869 0 0.011325595840644451 -0.0078628938667822338 0 0.010720119382569752 -0.010063253440186696 0 0.010637994891355378 -0.0093589456163547455 0 0.010527337029112882 -0.0093546293492565782 0 0.011240896166630219 -0.010069839032792471 0 0.010720119382569752 -0.010063253440186696 0 0.010637994891355378 -0.0093589456163547455 0 0.010145771217146261 -0.0098868548559272428 0 0.010720119382569752 -0.010063253440186696 0 0.010557137769754995 -0.0094691881251319637 0 0.01051371564908133 -0.0048319583537875885 0 0.010378971514917632 -0.004624491854708257 0 0.010671289355755864 -0.0045641530149741517 0 0.010831521174400907 -0.0048954881115257426 0 0.01051371564908133 -0.0048319583537875885 0 0.010671289355755864 -0.0045641530149741517 0 0.010703628512850711 -0.0060198948488956747 0 0.011084238587019459 -0.0069377725962116799 0 0.012871642855388247 -0.0079617048120100738 0 0.012876569685841366 -0.0079536935596067875 0 0.012924424123585677 -0.0078898942882424331 0 0.011084238587019459 -0.0069377725962116799 0 0.01150269319544607 -0.0068833960010551013 0 0.011558817424456821 -0.007057246664451111 0 0.011594184399695411 -0.0070581575207386794 0 0.011610297593338774 -0.0071108267653203078 0 0.011084238587019459 -0.0069377725962116799 0 0.011325595840644451 -0.0078628938667822338 0 0.011325595840644451 -0.0078628938667822338 0 0.01150269319544607 -0.0068833960010551013 0 0.012878226995859826 -0.0079589615021693448 0 0.012876569685841366 -0.0079536935596067875 0 0.012863691870860457 -0.0079596622941255461 0 0.012878177687827798 -0.0079653688257561635 0 0.012878226995859826 -0.0079589615021693448 0 0.012863691870860457 -0.0079596622941255461 0 0.01150269319544607 -0.0068833960010551013 0 0.012164789389564624 -0.007531395577082203 0 0.010830579814467695 -0.0042908526200802263 0 0.010671289355755864 -0.0045641530149741517 0 0.010486515703699441 -0.0042606179341140122 0 0.010378971514917632 -0.004624491854708257 0 0.010671289355755864 -0.0045641530149741517 0 0.010486515703699441 -0.0042606179341140122 0 0.012878177687827798 -0.0079653688257561635 0 0.012839927557716697 -0.0079781929378375093 0 0.012863691870860457 -0.0079596622941255461 0 0.012829763242912223 -0.0079617406135643401 0 0.012839927557716697 -0.0079781929378375093 0 0.012863691870860457 -0.0079596622941255461 0 0.012829763242912223 -0.0079617406135643401 0 0.012863691870860457 -0.0079596622941255461 0 0.012866108520056473 -0.0079396724331524011 0 0.011325595840644451 -0.0078628938667822338 0 0.011420705179304373 -0.0088534071976759058 0 0.012876569685841366 -0.0079536935596067875 0 0.012863691870860457 -0.0079596622941255461 0 0.012866108520056473 -0.0079396724331524011 0 0.012876569685841366 -0.0079536935596067875 0 0.012866108520056473 -0.0079396724331524011 0 0.012924424123585677 -0.0078898942882424331 0 0.012866108520056473 -0.0079396724331524011 0 0.012862496939000831 -0.0079048888773681422 0 0.012924424123585677 -0.0078898942882424331 0 0.010378971514917632 -0.004624491854708257 0 0.010486515703699441 -0.0042606179341140122 0 0.010413043757062182 -0.0038818877468160509 0 0.010486515703699441 -0.0042606179341140122 0 0.010566092000206067 -0.0039309989213182663 0 0.010413043757062182 -0.0038818877468160509 0 0.01150269319544607 -0.0068833960010551013 0 0.011680018272283434 -0.0057740831240785644 0 0.0092276915358567614 -0.0054090612135509891 0 0.010592444186967972 -0.0048144008419282128 0 0.010694000008073062 -0.00429797885736542 0 0.010486515703699441 -0.0042606179341140122 0 0.010566092000206067 -0.0039309989213182663 0 0.010566092000206067 -0.0039309989213182663 0 0.010508466528376368 -0.0038366118476427513 0 0.010413043757062182 -0.0038818877468160509 0 0.010508466528376368 -0.0038366118476427513 0 0.010413043757062182 -0.0038818877468160509 0 0.010763732799687972 -0.003747990295687233 0 0.012924424123585677 -0.0078898942882424331 0 0.012968079946141114 -0.0076694593255987788 0 0.01283172508806006 -0.0078296788805583915 0 0.011680018272283434 -0.0057740831240785644 0 0.011884311612772442 -0.005754682984777367 0 0.012862496939000831 -0.0079048888773681422 0 0.012924424123585677 -0.0078898942882424331 0 0.01283172508806006 -0.0078296788805583915 0 0.010508466528376368 -0.0038366118476427513 0 0.010763732799687972 -0.003747990295687233 0 0.010521088952490994 -0.0038554651385644635 0 0.010508466528376368 -0.0038366118476427513 0 0.010521088952490994 -0.0038554651385644635 0 0.010459669824355061 -0.0038961944442365373 0 0.010521088952490994 -0.0038554651385644635 0 0.010459669824355061 -0.0038961944442365373 0 0.010413134927075001 -0.0039363039593233607 0 0.010763732799687972 -0.003747990295687233 0 0.010521088952490994 -0.0038554651385644635 0 0.010488845410599487 -0.0039614001284269179 0 0.010521088952490994 -0.0038554651385644635 0 0.010488845410599487 -0.0039614001284269179 0 0.010413134927075001 -0.0039363039593233607 0 0.011884311612772442 -0.005754682984777367 0 0.012163527597158297 -0.0058018276909516048 0 0.010763732799687972 -0.003747990295687233 0 0.010488845410599487 -0.0039614001284269179 0 0.011534849052790211 -0.0043619592772648937 0 0.010488845410599487 -0.0039614001284269179 0 0.011534849052790211 -0.0043619592772648937 0 0.011063119637501147 -0.005039105684819376 0 0.010488845410599487 -0.0039614001284269179 0 0.011063119637501147 -0.005039105684819376 0 0.0099156244916490856 -0.0041343830276593715 0 0.0122887138850071 -0.0069382597926781623 0 0.012657835438924821 -0.0075863849619679166 0 0.012428164928122929 -0.007396332003389192 0 0.0122887138850071 -0.0069382597926781623 0 0.012854532476036216 -0.0071638016709285428 0 0.012657835438924821 -0.0075863849619679166 0 0.012968079946141114 -0.0076694593255987788 0 0.012854532476036216 -0.0071638016709285428 0 0.012657835438924821 -0.0075863849619679166 0 0.012657835438924821 -0.0075863849619679166 0 0.012743904492265814 -0.007876551786786725 0 0.012636943972594376 -0.0077398527905191278 0 0.012657835438924821 -0.0075863849619679166 0 0.01283172508806006 -0.0078296788805583915 0 0.012743904492265814 -0.007876551786786725 0 0.012968079946141114 -0.0076694593255987788 0 0.012657835438924821 -0.0075863849619679166 0 0.01283172508806006 -0.0078296788805583915 0 0.01279118127312383 -0.0079406775514635399 0 0.012824673043943116 -0.0079405896474570858 0 0.01283172508806006 -0.0078296788805583915 0 0.012824673043943116 -0.0079405896474570858 0 0.012862496939000831 -0.0079048888773681422 0 0.01283172508806006 -0.0078296788805583915 0 0.01279118127312383 -0.0079406775514635399 0 0.01283172508806006 -0.0078296788805583915 0 0.012743904492265814 -0.007876551786786725 0 0.012820203254642575 -0.0079926344088664669 0 0.01279118127312383 -0.0079406775514635399 0 0.012743904492265814 -0.007876551786786725 0 0.012820203254642575 -0.0079926344088664669 0 0.012743904492265814 -0.007876551786786725 0 0.012775988872107848 -0.0079345244542434364 0 0.012880892966248747 -0.0080257252036020632 0 0.012820203254642575 -0.0079926344088664669 0 0.012775988872107848 -0.0079345244542434364 0 0.012775988872107848 -0.0079345244542434364 0 0.012912852811284773 -0.0080294604115022546 0 0.012869574538911528 -0.0079805009018326482 0 0.012880892966248747 -0.0080257252036020632 0 0.012775988872107848 -0.0079345244542434364 0 0.012912852811284773 -0.0080294604115022546 0 0.012775988872107848 -0.0079345244542434364 0 0.012869574538911528 -0.0079805009018326482 0 0.012632623231766572 -0.007776928258265009 0 0.012775988872107848 -0.0079345244542434364 0 0.012636943972594376 -0.0077398527905191278 0 0.012632623231766572 -0.007776928258265009 0 0.012743904492265814 -0.007876551786786725 0 0.012775988872107848 -0.0079345244542434364 0 0.012636943972594376 -0.0077398527905191278 0 0.01345511339881366 -0.008218403236196067 0 0.013265478388729495 -0.0081626093583787029 0 0.013248892117504102 -0.0081137863064017074 0 0.013265478388729495 -0.0081626093583787029 0 0.013248892117504102 -0.0081137863064017074 0 0.013039271372600714 -0.0080506556320061526 0 0.013248892117504102 -0.0081137863064017074 0 0.013039271372600714 -0.0080506556320061526 0 0.013034478705388724 -0.0080296021437116002 0 0.013265478388729495 -0.0081626093583787029 0 0.013039271372600714 -0.0080506556320061526 0 0.013062120020353877 -0.0080902467854563186 0 0.012912852811284773 -0.0080294604115022546 0 0.013062120020353877 -0.0080902467854563186 0 0.012869574538911528 -0.0079805009018326482 0 0.013039271372600714 -0.0080506556320061526 0 0.013062120020353877 -0.0080902467854563186 0 0.012869574538911528 -0.0079805009018326482 0 0.012869574538911528 -0.0079805009018326482 0 0.012821944626828506 -0.0079365958054766865 0 0.012632623231766572 -0.007776928258265009 0 0.013039271372600714 -0.0080506556320061526 0 0.012821944626828506 -0.0079365958054766865 0 0.013034478705388724 -0.0080296021437116002 0 0.013039271372600714 -0.0080506556320061526 0 0.012869574538911528 -0.0079805009018326482 0 0.012821944626828506 -0.0079365958054766865 0 0.013034478705388724 -0.0080296021437116002 0 0.012842558068332821 -0.0079597640793853969 0 0.013240385276299321 -0.0080881936067104566 0 0.012821944626828506 -0.0079365958054766865 0 0.013034478705388724 -0.0080296021437116002 0 0.012842558068332821 -0.0079597640793853969 0 0.013248892117504102 -0.0081137863064017074 0 0.013034478705388724 -0.0080296021437116002 0 0.013240385276299321 -0.0080881936067104566 0 0.012842558068332821 -0.0079597640793853969 0 0.012622012373077751 -0.0078061271081847905 0 0.012447917716270884 -0.0078209763182753526 0 0.012842558068332821 -0.0079597640793853969 0 0.012447917716270884 -0.0078209763182753526 0 0.012993079878050115 -0.0080838084773032521 0 0.012821944626828506 -0.0079365958054766865 0 0.012622012373077751 -0.0078061271081847905 0 0.012632623231766572 -0.007776928258265009 0 0.012821944626828506 -0.0079365958054766865 0 0.012842558068332821 -0.0079597640793853969 0 0.012622012373077751 -0.0078061271081847905 0 0.012622012373077751 -0.0078061271081847905 0 0.012447917716270884 -0.0078209763182753526 0 0.012426975437753495 -0.0074864743434469444 0 0.012636943972594376 -0.0077398527905191278 0 0.012632623231766572 -0.007776928258265009 0 0.012428164928122929 -0.007396332003389192 0 0.012657835438924821 -0.0075863849619679166 0 0.012636943972594376 -0.0077398527905191278 0 0.012428164928122929 -0.007396332003389192 0 0.012622012373077751 -0.0078061271081847905 0 0.012632623231766572 -0.007776928258265009 0 0.012426975437753495 -0.0074864743434469444 0 0.012632623231766572 -0.007776928258265009 0 0.012426975437753495 -0.0074864743434469444 0 0.012428164928122929 -0.007396332003389192 0 0.012426975437753495 -0.0074864743434469444 0 0.012428164928122929 -0.007396332003389192 0 0.01221844347947563 -0.007002405185950359 0 0.0122887138850071 -0.0069382597926781623 0 0.012428164928122929 -0.007396332003389192 0 0.01221844347947563 -0.007002405185950359 0 0.0122887138850071 -0.0069382597926781623 0 0.01221844347947563 -0.007002405185950359 0 0.011936163596400443 -0.0064915399681435854 0 0.012426975437753495 -0.0074864743434469444 0 0.01221844347947563 -0.007002405185950359 0 0.012257847601950336 -0.0070760141350471135 0 0.01221844347947563 -0.007002405185950359 0 0.012065198614639394 -0.0067433452309918979 0 0.012257847601950336 -0.0070760141350471135 0 0.012065198614639394 -0.0067433452309918979 0 0.012257847601950336 -0.0070760141350471135 0 0.012100966760768583 -0.0067377406884422449 0 0.012065198614639394 -0.0067433452309918979 0 0.011936163596400443 -0.0064915399681435854 0 0.011806541824470029 -0.0065285111664987591 0 0.01221844347947563 -0.007002405185950359 0 0.012065198614639394 -0.0067433452309918979 0 0.011936163596400443 -0.0064915399681435854 0 0.012447917716270884 -0.0078209763182753526 0 0.012257847601950336 -0.0070760141350471135 0 0.011977955052013291 -0.0071117558346891502 0 0.012447917716270884 -0.0078209763182753526 0 0.012426975437753495 -0.0074864743434469444 0 0.012257847601950336 -0.0070760141350471135 0 0.012257847601950336 -0.0070760141350471135 0 0.012086537746803443 -0.0068359853715572677 0 0.012100966760768583 -0.0067377406884422449 0 0.013245808877909672 -0.0071479932279521876 0 0.013226549760110409 -0.0071434595987973229 0 0.013262566595113634 -0.007124222518556783 0 0.012720171423610571 -0.0063353774504686195 0 0.012494262969964719 -0.0071888876675012606 0 0.012257847601950336 -0.0070760141350471135 0 0.012086537746803443 -0.0068359853715572677 0 0.011977955052013291 -0.0071117558346891502 0 0.01317718826513929 -0.0041462895014849812 0 0.013205321172629922 -0.0040723125169627623 0 0.013145668556516348 -0.0040791261347945269 0 0.013237472065663442 -0.005825832419229968 0 0.012720171423610571 -0.0063353774504686195 0 0.01317718826513929 -0.0041462895014849812 0 0.013215642555881542 -0.0041518855288526363 0 0.013205321172629922 -0.0040723125169627623 0 0.013215642555881542 -0.0041518855288526363 0 0.013285693861062825 -0.0040680106666478094 0 0.013205321172629922 -0.0040723125169627623 0 0.012720171423610571 -0.0063353774504686195 0 0.011905065080877986 -0.0067394499834534469 0 0.012070575791058118 -0.0067286427434803961 0 0.012100966760768583 -0.0067377406884422449 0 0.012072568753364397 -0.006698364576002468 0 0.012720171423610571 -0.0063353774504686195 0 0.012707792475763256 -0.0052734620140061726 0 0.013247759091070864 -0.0040002258917103623 0 0.013285693861062825 -0.0040680106666478094 0 0.013205321172629922 -0.0040723125169627623 0 0.013205321172629922 -0.0040723125169627623 0 0.013145668556516348 -0.0040791261347945269 0 0.013168501790581783 -0.0039813586794797034 0 0.013247759091070864 -0.0040002258917103623 0 0.013205321172629922 -0.0040723125169627623 0 0.013168501790581783 -0.0039813586794797034 0 0.011936163596400443 -0.0064915399681435854 0 0.011806541824470029 -0.0065285111664987591 0 0.011509688070319881 -0.0062458149782968885 0 0.012100966760768583 -0.0067377406884422449 0 0.012072568753364397 -0.006698364576002468 0 0.011806541824470029 -0.0065285111664987591 0 0.012072568753364397 -0.006698364576002468 0 0.011806541824470029 -0.0065285111664987591 0 0.011884846322308101 -0.006671621517162685 0 0.012065198614639394 -0.0067433452309918979 0 0.012100966760768583 -0.0067377406884422449 0 0.011806541824470029 -0.0065285111664987591 0 0.012072568753364397 -0.006698364576002468 0 0.011884846322308101 -0.006671621517162685 0 0.011872822621385892 -0.006751321058714922 0 0.013247759091070864 -0.0040002258917103623 0 0.013285693861062825 -0.0040680106666478094 0 0.01335214575220425 -0.0039818865969771904 0 0.012707792475763256 -0.0052734620140061726 0 0.01272917031425394 -0.0053743931764022677 0 0.011509688070319881 -0.0062458149782968885 0 0.011053761487087036 -0.0058772358766775151 0 0.011181340017912197 -0.0057121325672178204 0 0.011806541824470029 -0.0065285111664987591 0 0.011884846322308101 -0.006671621517162685 0 0.011826610912901636 -0.0067336886079741977 0 0.011739367701298178 -0.0063495056551456305 0 0.011421371895927242 -0.006479291644398426 0 0.011884846322308101 -0.006671621517162685 0 0.011826610912901636 -0.0067336886079741977 0 0.011872822621385892 -0.006751321058714922 0 0.011806541824470029 -0.0065285111664987591 0 0.011509688070319881 -0.0062458149782968885 0 0.011053761487087036 -0.0058772358766775151 0 0.011509688070319881 -0.0062458149782968885 0 0.011181340017912197 -0.0057121325672178204 0 0.01163340035605819 -0.0062112775119262569 0 0.011181340017912197 -0.0057121325672178204 0 0.01163340035605819 -0.0062112775119262569 0 0.011390206220660552 -0.0056610422058712999 0 0.011936163596400443 -0.0064915399681435854 0 0.011509688070319881 -0.0062458149782968885 0 0.01163340035605819 -0.0062112775119262569 0 0.01163340035605819 -0.0062112775119262569 0 0.011650246428164953 -0.0061874111632950922 0 0.012172699010754427 -0.0061562702999152863 0 0.01163340035605819 -0.0062112775119262569 0 0.011650246428164953 -0.0061874111632950922 0 0.011390206220660552 -0.0056610422058712999 0 0.011650246428164953 -0.0061874111632950922 0 0.01178356973691122 -0.006079132640581345 0 0.011390206220660552 -0.0056610422058712999 0 0.0092766819931406723 -0.0012863905955830426 0 0.0089961006278004001 -0.0017773754743642381 0 0.0094562558690146261 -0.0014413669378154437 0 0.01178356973691122 -0.006079132640581345 0 0.011472996537717821 -0.0061362045370708853 0 0.010844317890585403 -0.0059997382082598201 0 0.010506123531086778 -0.0036667990791552784 0 0.0099603940782571846 -0.0038578327901949584 0 0.011650246428164953 -0.0061874111632950922 0 0.01178356973691122 -0.006079132640581345 0 0.011472996537717821 -0.0061362045370708853 0 0.011650246428164953 -0.0061874111632950922 0 0.011472996537717821 -0.0061362045370708853 0 0.012172699010754427 -0.0061562702999152863 0 0.011472996537717821 -0.0061362045370708853 0 0.011063119637501147 -0.005039105684819376 0 0.012172699010754427 -0.0061562702999152863 0 0.011472996537717821 -0.0061362045370708853 0 0.010844317890585403 -0.0059997382082598201 0 0.011063119637501147 -0.005039105684819376 0 0.0099603940782571846 -0.0038578327901949584 0 0.0099006362120848106 -0.0040874452208327057 0 0.010844317890585403 -0.0059997382082598201 0 0.011063119637501147 -0.005039105684819376 0 0.0099156244916490856 -0.0041343830276593715 0 0.011534849052790211 -0.0043619592772648937 0 0.011063119637501147 -0.005039105684819376 0 0.012172699010754427 -0.0061562702999152863 0 0.0122887138850071 -0.0069382597926781623 0 0.012854532476036216 -0.0071638016709285428 0 0.012172699010754427 -0.0061562702999152863 0 0.012163527597158297 -0.0058018276909516048 0 0.012203839329588953 -0.0061510018982453259 0 0.0122887138850071 -0.0069382597926781623 0 0.011936163596400443 -0.0064915399681435854 0 0.012172699010754427 -0.0061562702999152863 0 0.011936163596400443 -0.0064915399681435854 0 0.01163340035605819 -0.0062112775119262569 0 0.012172699010754427 -0.0061562702999152863 0 0.014999835776206593 -0.0060743902247141941 0 0.015369156753279512 -0.0062013980779460857 0 0.015448206449150015 -0.0054781038590285677 0 0.015823694040214043 -0.0058456044418913932 0 0.015369156753279512 -0.0062013980779460857 0 0.015448206449150015 -0.0054781038590285677 0 0.015520834086599621 -0.0067409775425561055 0 0.015435564985643836 -0.0068157199642648681 0 0.015823694040214043 -0.0058456044418913932 0 0.015404000781825123 -0.0068137495445330671 0 0.015369156753279512 -0.0062013980779460857 0 0.015282184879361199 -0.0076552677303819714 0 0.015201132335368781 -0.0069866835029304937 0 0.015404000781825123 -0.0068137495445330671 0 0.015404000781825123 -0.0068137495445330671 0 0.015261633078275142 -0.0066206841836172203 0 0.015369156753279512 -0.0062013980779460857 0 0.014999835776206593 -0.0060743902247141941 0 0.015261633078275142 -0.0066206841836172203 0 0.015000093738161389 -0.0068770477143402248 0 0.014999835776206593 -0.0060743902247141941 0 0.015261633078275142 -0.0066206841836172203 0 0.015369156753279512 -0.0062013980779460857 0 0.015404000781825123 -0.0068137495445330671 0 0.015261633078275142 -0.0066206841836172203 0 0.015461453474072297 -0.0068428912877851761 0 0.015261633078275142 -0.0066206841836172203 0 0.015461453474072297 -0.0068428912877851761 0 0.015000093738161389 -0.0068770477143402248 0 0.014871562099213843 -0.0080339593239066413 0 0.01499976497333546 -0.007682252711649881 0 0.014839491795406237 -0.0082985732026520445 0 0.014999951087880159 -0.0076805074246915428 0 0.015461453474072297 -0.0068428912877851761 0 0.015000093738161389 -0.0068770477143402248 0 0.015000021888901059 -0.0076804805468493982 0 0.015124139576597955 -0.0075715816334018639 0 0.014871562099213843 -0.0080339593239066413 0 0.014839491795406237 -0.0082985732026520445 0 0.014744281938666271 -0.0082217194682767322 0 0.014767517521909176 -0.0081730866857743605 0 0.014744281938666271 -0.0082217194682767322 0 0.014656455390108673 -0.0082537957698345012 0 0.014871562099213843 -0.0080339593239066413 0 0.014767517521909176 -0.0081730866857743605 0 0.014744281938666271 -0.0082217194682767322 0 0.014744281938666271 -0.0082217194682767322 0 0.014621868956767778 -0.0083112911364931659 0 0.014656455390108673 -0.0082537957698345012 0 0.014876874960046188 -0.0076826249899628945 0 0.015124139576597955 -0.0075715816334018639 0 0.014532806704073586 -0.0083584143823987461 0 0.014839491795406237 -0.0082985732026520445 0 0.014621868956767778 -0.0083112911364931659 0 0.015201132335368781 -0.0069866835029304937 0 0.015404000781825123 -0.0068137495445330671 0 0.015461453474072297 -0.0068428912877851761 0 0.014839491795406237 -0.0082985732026520445 0 0.014744281938666271 -0.0082217194682767322 0 0.014621868956767778 -0.0083112911364931659 0 0.014621868956767778 -0.0083112911364931659 0 0.014506605981664403 -0.0083205290521078164 0 0.014529338506578367 -0.0083361916404486799 0 0.014506605981664403 -0.0083205290521078164 0 0.014473350384752611 -0.0083190323355145784 0 0.014529338506578367 -0.0083361916404486799 0 0.014621868956767778 -0.0083112911364931659 0 0.014539168535283583 -0.0082929327004468596 0 0.014506605981664403 -0.0083205290521078164 0 0.014675093083981149 -0.0082609226531979493 0 0.014656455390108673 -0.0082537957698345012 0 0.014539168535283583 -0.0082929327004468596 0 0.014621868956767778 -0.0083112911364931659 0 0.014656455390108673 -0.0082537957698345012 0 0.014539168535283583 -0.0082929327004468596 0 0.014675093083981149 -0.0082609226531979493 0 0.014767517521909176 -0.0081730866857743605 0 0.014656455390108673 -0.0082537957698345012 0 0.014520058406426945 -0.0083063256916485074 0 0.014675093083981149 -0.0082609226531979493 0 0.014539168535283583 -0.0082929327004468596 0 0.014520058406426945 -0.0083063256916485074 0 0.014539168535283583 -0.0082929327004468596 0 0.014416716393681634 -0.0083035831586661252 0 0.014539168535283583 -0.0082929327004468596 0 0.014416716393681634 -0.0083035831586661252 0 0.014392205652074717 -0.0083184555800694272 0 0.014539168535283583 -0.0082929327004468596 0 0.014392205652074717 -0.0083184555800694272 0 0.014506605981664403 -0.0083205290521078164 0 0.014392205652074717 -0.0083184555800694272 0 0.014506605981664403 -0.0083205290521078164 0 0.014473350384752611 -0.0083190323355145784 0 0.014392205652074717 -0.0083184555800694272 0 0.014473350384752611 -0.0083190323355145784 0 0.014383079077212686 -0.0083131386396760685 0 0.014458896053105552 -0.0082846964840365672 0 0.014419836274769969 -0.0082620092019061661 0 0.014383079077212686 -0.0083131386396760685 0 0.014458896053105552 -0.0082846964840365672 0 0.014473350384752611 -0.0083190323355145784 0 0.014383079077212686 -0.0083131386396760685 0 0.014458896053105552 -0.0082846964840365672 0 0.014473350384752611 -0.0083190323355145784 0 0.014513903620921526 -0.0082869828865954256 0 0.014473350384752611 -0.0083190323355145784 0 0.014529338506578367 -0.0083361916404486799 0 0.014513903620921526 -0.0082869828865954256 0 0.014532806704073586 -0.0083584143823987461 0 0.014529338506578367 -0.0083361916404486799 0 0.014513903620921526 -0.0082869828865954256 0 0.014532806704073586 -0.0083584143823987461 0 0.014621868956767778 -0.0083112911364931659 0 0.014529338506578367 -0.0083361916404486799 0 0.015282184879361199 -0.0076552677303819714 0 0.015201132335368781 -0.0069866835029304937 0 0.01453738252309514 -0.0081034058015788755 0 0.014532806704073586 -0.0083584143823987461 0 0.014513903620921526 -0.0082869828865954256 0 0.01453738252309514 -0.0081034058015788755 0 0.014876874960046188 -0.0076826249899628945 0 0.014560699296814427 -0.0080729210897819478 0 0.014484756233504545 -0.0082292789678223739 0 0.014438909110496421 -0.0082396124497651144 0 0.01453738252309514 -0.0081034058015788755 0 0.014513903620921526 -0.0082869828865954256 0 0.014484756233504545 -0.0082292789678223739 0 0.01453738252309514 -0.0081034058015788755 0 0.014484756233504545 -0.0082292789678223739 0 0.014419836274769969 -0.0082620092019061661 0 0.014438909110496421 -0.0082396124497651144 0 0.014458896053105552 -0.0082846964840365672 0 0.014484756233504545 -0.0082292789678223739 0 0.014419836274769969 -0.0082620092019061661 0 0.014458896053105552 -0.0082846964840365672 0 0.014513903620921526 -0.0082869828865954256 0 0.014484756233504545 -0.0082292789678223739 0 0.014352572975923348 -0.00828510250422748 0 0.014419836274769969 -0.0082620092019061661 0 0.014382580084717711 -0.0082655185605668563 0 0.014352572975923348 -0.00828510250422748 0 0.014382580084717711 -0.0082655185605668563 0 0.014364892778482369 -0.0082721645878984559 0 0.014419836274769969 -0.0082620092019061661 0 0.014382580084717711 -0.0082655185605668563 0 0.014438909110496421 -0.0082396124497651144 0 0.014379876714543289 -0.0082729249838657606 0 0.014347253688910943 -0.0082750580365279422 0 0.01435834888190606 -0.008194071979882209 0 0.014395422728850714 -0.00835081361694116 0 0.014019949005534748 -0.0079951619925536788 0 0.014364892778482369 -0.0082721645878984559 0 0.014347253688910943 -0.0082750580365279422 0 0.014362549174976234 -0.0082769641668937466 0 0.014382580084717711 -0.0082655185605668563 0 0.014364892778482369 -0.0082721645878984559 0 0.014362549174976234 -0.0082769641668937466 0 0.014352572975923348 -0.00828510250422748 0 0.014364892778482369 -0.0082721645878984559 0 0.014347253688910943 -0.0082750580365279422 0 0.013713922920351503 -0.0083914301655820429 0 0.013837062608815533 -0.0082718302054434114 0 0.01355842206616046 -0.0082472698375585206 0 0.014379876714543289 -0.0082729249838657606 0 0.014347253688910943 -0.0082750580365279422 0 0.014225419800867846 -0.0083309826995649622 0 0.013713922920351503 -0.0083914301655820429 0 0.014225419800867846 -0.0083309826995649622 0 0.013837062608815533 -0.0082718302054434114 0 0.014137602507722549 -0.0083681855044035001 0 0.014198850945311245 -0.0082967353584154462 0 0.014352572975923348 -0.00828510250422748 0 0.014383079077212686 -0.0083131386396760685 0 0.014225419800867846 -0.0083309826995649622 0 0.014352572975923348 -0.00828510250422748 0 0.014347253688910943 -0.0082750580365279422 0 0.014225419800867846 -0.0083309826995649622 0 0.014352572975923348 -0.00828510250422748 0 0.014419836274769969 -0.0082620092019061661 0 0.014383079077212686 -0.0083131386396760685 0 0.014392205652074717 -0.0083184555800694272 0 0.014383079077212686 -0.0083131386396760685 0 0.014225419800867846 -0.0083309826995649622 0 0.014225419800867846 -0.0083309826995649622 0 0.014248320004043431 -0.0082902711201214806 0 0.013993358372144889 -0.0082493802785945265 0 0.014392205652074717 -0.0083184555800694272 0 0.014225419800867846 -0.0083309826995649622 0 0.014248320004043431 -0.0082902711201214806 0 0.014416716393681634 -0.0083035831586661252 0 0.014392205652074717 -0.0083184555800694272 0 0.014248320004043431 -0.0082902711201214806 0 0.014200064948497997 -0.0083134356044200202 0 0.014248320004043431 -0.0082902711201214806 0 0.013993358372144889 -0.0082493802785945265 0 0.014200064948497997 -0.0083134356044200202 0 0.014520058406426945 -0.0083063256916485074 0 0.014416716393681634 -0.0083035831586661252 0 0.014200064948497997 -0.0083134356044200202 0 0.014416716393681634 -0.0083035831586661252 0 0.014248320004043431 -0.0082902711201214806 0 0.014200064948497997 -0.0083134356044200202 0 0.013993358372144889 -0.0082493802785945265 0 0.013770011215476436 -0.0082256305635987435 0 0.013993358372144889 -0.0082493802785945265 0 0.013686339796829575 -0.0082079419983488479 0 0.013770011215476436 -0.0082256305635987435 0 0.014225419800867846 -0.0083309826995649622 0 0.013993358372144889 -0.0082493802785945265 0 0.013837062608815533 -0.0082718302054434114 0 0.013993358372144889 -0.0082493802785945265 0 0.013837062608815533 -0.0082718302054434114 0 0.013686339796829575 -0.0082079419983488479 0 0.013837062608815533 -0.0082718302054434114 0 0.013686339796829575 -0.0082079419983488479 0 0.01355842206616046 -0.0082472698375585206 0 0.013686339796829575 -0.0082079419983488479 0 0.013514301935139269 -0.0081631280117984897 0 0.013770011215476436 -0.0082256305635987435 0 0.013686339796829575 -0.0082079419983488479 0 0.013428431206182688 -0.0081566842439260764 0 0.01355842206616046 -0.0082472698375585206 0 0.013686339796829575 -0.0082079419983488479 0 0.013428431206182688 -0.0081566842439260764 0 0.013514301935139269 -0.0081631280117984897 0 0.013514301935139269 -0.0081631280117984897 0 0.013770011215476436 -0.0082256305635987435 0 0.013468201988903522 -0.0081673035528974196 0 0.013673489623281571 -0.0082676123297599925 0 0.013770011215476436 -0.0082256305635987435 0 0.013468201988903522 -0.0081673035528974196 0 0.01345511339881366 -0.008218403236196067 0 0.013248892117504102 -0.0081137863064017074 0 0.013468201988903522 -0.0081673035528974196 0 0.013248892117504102 -0.0081137863064017074 0 0.013468201988903522 -0.0081673035528974196 0 0.013240385276299321 -0.0080881936067104566 0 0.013428431206182688 -0.0081566842439260764 0 0.013514301935139269 -0.0081631280117984897 0 0.013240385276299321 -0.0080881936067104566 0 0.013514301935139269 -0.0081631280117984897 0 0.013468201988903522 -0.0081673035528974196 0 0.013240385276299321 -0.0080881936067104566 0 0.013428431206182688 -0.0081566842439260764 0 0.013240385276299321 -0.0080881936067104566 0 0.013194866711388436 -0.0081059688221832918 0 0.012842558068332821 -0.0079597640793853969 0 0.013240385276299321 -0.0080881936067104566 0 0.013194866711388436 -0.0081059688221832918 0 0.012842558068332821 -0.0079597640793853969 0 0.013194866711388436 -0.0081059688221832918 0 0.012993079878050115 -0.0080838084773032521 0 0.013194866711388436 -0.0081059688221832918 0 0.013352415820102203 -0.0082560936284882119 0 0.012993079878050115 -0.0080838084773032521 0 0.013713922920351503 -0.0083914301655820429 0 0.01355842206616046 -0.0082472698375585206 0 0.013352415820102203 -0.0082560936284882119 0 0.013428431206182688 -0.0081566842439260764 0 0.013194866711388436 -0.0081059688221832918 0 0.01355842206616046 -0.0082472698375585206 0 0.013194866711388436 -0.0081059688221832918 0 0.01355842206616046 -0.0082472698375585206 0 0.013352415820102203 -0.0082560936284882119 0 0.014379876714543289 -0.0082729249838657606 0 0.014411459592827219 -0.008211375414386636 0 0.01435834888190606 -0.008194071979882209 0 0.014137602507722549 -0.0083681855044035001 0 0.013143297346330955 -0.0078309313474855952 0 0.013713922920351503 -0.0083914301655820429 0 0.013352415820102203 -0.0082560936284882119 0 0.013325834586204883 -0.0085848073124985737 0 0.012447917716270884 -0.0078209763182753526 0 0.012993079878050115 -0.0080838084773032521 0 0.013325834586204883 -0.0085848073124985737 0 0.013352415820102203 -0.0082560936284882119 0 0.012993079878050115 -0.0080838084773032521 0 0.013325834586204883 -0.0085848073124985737 0 0.012171784236656231 -0.0079158195984710064 0 0.013143297346330955 -0.0078309313474855952 0 0.012447917716270884 -0.0078209763182753526 0 0.011514508583488575 -0.0076104649413071121 0 0.011977955052013291 -0.0071117558346891502 0 0.013298708394671455 -0.0071017985770978195 0 0.013298006863347899 -0.0071330913536952955 0 0.013262566595113634 -0.007124222518556783 0 0.013143297346330955 -0.0078309313474855952 0 0.012494262969964719 -0.0071888876675012606 0 0.013143297346330955 -0.0078309313474855952 0 0.014019949005534748 -0.0079951619925536788 0 0.013298708394671455 -0.0071017985770978195 0 0.013298006863347899 -0.0071330913536952955 0 0.013340296514974495 -0.0071133812255706882 0 0.013298006863347899 -0.0071330913536952955 0 0.013330764979871807 -0.0071623944934664377 0 0.013340296514974495 -0.0071133812255706882 0 0.013298006863347899 -0.0071330913536952955 0 0.013287837813228636 -0.0071565426930812861 0 0.013330764979871807 -0.0071623944934664377 0 0.013298006863347899 -0.0071330913536952955 0 0.013273398752624904 -0.007140479161259608 0 0.013287837813228636 -0.0071565426930812861 0 0.013298006863347899 -0.0071330913536952955 0 0.013262566595113634 -0.007124222518556783 0 0.013273398752624904 -0.007140479161259608 0 0.013245808877909672 -0.0071479932279521876 0 0.013262566595113634 -0.007124222518556783 0 0.013273398752624904 -0.007140479161259608 0 0.01317718826513929 -0.0041462895014849812 0 0.013098310947902668 -0.0041396129537050611 0 0.013145668556516348 -0.0040791261347945269 0 0.013245808877909672 -0.0071479932279521876 0 0.013273398752624904 -0.007140479161259608 0 0.013287837813228636 -0.0071565426930812861 0 0.013098310947902668 -0.0041396129537050611 0 0.013145668556516348 -0.0040791261347945269 0 0.013096142997778655 -0.00404034885072194 0 0.013237472065663442 -0.005825832419229968 0 0.013020244260422637 -0.0057246347059519568 0 0.013145668556516348 -0.0040791261347945269 0 0.013096142997778655 -0.00404034885072194 0 0.013168501790581783 -0.0039813586794797034 0 0.013096142997778655 -0.00404034885072194 0 0.013031614502847722 -0.0039951514285940922 0 0.013021008270999968 -0.0041296180696159413 0 0.013096142997778655 -0.00404034885072194 0 0.013031614502847722 -0.0039951514285940922 0 0.013109123578059274 -0.0039262366943134969 0 0.014967005270816418 -0.0036310716363278021 0 0.014817626435364587 -0.0054767701428118576 0 0.013020244260422637 -0.0057246347059519568 0 0.014259146382378698 -0.0071694108967680437 0 0.013098310947902668 -0.0041396129537050611 0 0.013096142997778655 -0.00404034885072194 0 0.013021008270999968 -0.0041296180696159413 0 0.012874716318869101 -0.0059101026752228589 0 0.014885420100641835 -0.0062393576239093236 0 0.014920451090147134 -0.0060388631260456299 0 0.013020244260422637 -0.0057246347059519568 0 0.014817626435364587 -0.0054767701428118576 0 0.014113280244376865 -0.0085171251283047873 0 0.014370135657927344 -0.0085521151241884988 0 0.014251789443621666 -0.0084686967589939714 0 0.016762298206764874 -0.0041589421044485493 0 0.016621639480814354 -0.0040743251605576004 0 0.016452561079567919 -0.0041222515858117615 0 0.014647914508676887 -0.0083042663941548349 0 0.014648183423742099 -0.0083014776121505315 0 0.014696738081064495 -0.0084012753039275339 0 0.014817626435364587 -0.0054767701428118576 0 0.015825443506936914 -0.0063863881216000536 0 0.014259146382378698 -0.0071694108967680437 0 0.014563025350143829 -0.008602140064979974 0 0.014817626435364587 -0.0054767701428118576 0 0.014259146382378698 -0.0071694108967680437 0 0.016831263598108138 -0.0038386531173263999 0 0.016762298206764874 -0.0041589421044485493 0 0.016621639480814354 -0.0040743251605576004 0 0.016831263598108138 -0.0038386531173263999 0 0.016621639480814354 -0.0040743251605576004 0 0.01658580794645409 -0.0038910185854648129 0 0.01658580794645409 -0.0038910185854648129 0 0.01645048387719596 -0.0038889721592259168 0 0.016490434480341789 -0.0037107272784015558 0 0.01658580794645409 -0.0038910185854648129 0 0.01645048387719596 -0.0038889721592259168 0 0.016508479799362822 -0.004004836570512994 0 0.016621639480814354 -0.0040743251605576004 0 0.01658580794645409 -0.0038910185854648129 0 0.016508479799362822 -0.004004836570512994 0 0.01645048387719596 -0.0038889721592259168 0 0.016508479799362822 -0.004004836570512994 0 0.016396975380721868 -0.0040278273343648859 0 0.016508479799362822 -0.004004836570512994 0 0.016431753825005158 -0.0040749399868227733 0 0.016396975380721868 -0.0040278273343648859 0 0.016431753825005158 -0.0040749399868227733 0 0.016383144572836392 -0.0040983186430879137 0 0.016396975380721868 -0.0040278273343648859 0 0.014647914508676887 -0.0083042663941548349 0 0.014697409700753849 -0.0084104650504767293 0 0.014696738081064495 -0.0084012753039275339 0 0.016508479799362822 -0.004004836570512994 0 0.016431753825005158 -0.0040749399868227733 0 0.016481652825555727 -0.0040671308048627636 0 0.016431753825005158 -0.0040749399868227733 0 0.016481652825555727 -0.0040671308048627636 0 0.016452561079567919 -0.0041222515858117615 0 0.016431753825005158 -0.0040749399868227733 0 0.016452561079567919 -0.0041222515858117615 0 0.016383144572836392 -0.0040983186430879137 0 0.016621639480814354 -0.0040743251605576004 0 0.016481652825555727 -0.0040671308048627636 0 0.016452561079567919 -0.0041222515858117615 0 0.016621639480814354 -0.0040743251605576004 0 0.016508479799362822 -0.004004836570512994 0 0.016481652825555727 -0.0040671308048627636 0 0.014370135657927344 -0.0085521151241884988 0 0.014349062384448486 -0.0084640530366795596 0 0.014251789443621666 -0.0084686967589939714 0 0.014370135657927344 -0.0085521151241884988 0 0.014450090591444566 -0.0084969012950879448 0 0.014513903065748871 -0.0085088046077696888 0 0.014370135657927344 -0.0085521151241884988 0 0.014403803197416879 -0.0084969783118752258 0 0.014349062384448486 -0.0084640530366795596 0 0.014370135657927344 -0.0085521151241884988 0 0.014403803197416879 -0.0084969783118752258 0 0.014450090591444566 -0.0084969012950879448 0 0.014403803197416879 -0.0084969783118752258 0 0.01442626233415885 -0.0084582817205721798 0 0.014450090591444566 -0.0084969012950879448 0 0.01442626233415885 -0.0084582817205721798 0 0.014379902308575164 -0.0083711990241603414 0 0.014349062384448486 -0.0084640530366795596 0 0.01442626233415885 -0.0084582817205721798 0 0.014379902308575164 -0.0083711990241603414 0 0.014460297029387233 -0.0083941870896675156 0 0.014403803197416879 -0.0084969783118752258 0 0.01442626233415885 -0.0084582817205721798 0 0.014349062384448486 -0.0084640530366795596 0 0.014379902308575164 -0.0083711990241603414 0 0.014349062384448486 -0.0084640530366795596 0 0.014259843906757084 -0.008353501971661818 0 0.014379902308575164 -0.0083711990241603414 0 0.014259843906757084 -0.008353501971661818 0 0.014324184620565389 -0.0082614716767241986 0 0.014349062384448486 -0.0084640530366795596 0 0.014251789443621666 -0.0084686967589939714 0 0.014259843906757084 -0.008353501971661818 0 0.014113280244376865 -0.0085171251283047873 0 0.014251789443621666 -0.0084686967589939714 0 0.014259843906757084 -0.008353501971661818 0 0.014259146382378698 -0.0071694108967680437 0 0.014019949005534748 -0.0079951619925536788 0 0.014113280244376865 -0.0085171251283047873 0 0.014259843906757084 -0.008353501971661818 0 0.014167793036086264 -0.0082166633576961044 0 0.014259843906757084 -0.008353501971661818 0 0.014167793036086264 -0.0082166633576961044 0 0.014324184620565389 -0.0082614716767241986 0 0.014019949005534748 -0.0079951619925536788 0 0.014406033042448091 -0.0082782268333633224 0 0.014382580084717711 -0.0082655185605668563 0 0.014362549174976234 -0.0082769641668937466 0 0.014386556786652991 -0.00828415685966934 0 0.014382580084717711 -0.0082655185605668563 0 0.014438909110496421 -0.0082396124497651144 0 0.014386556786652991 -0.00828415685966934 0 0.014406033042448091 -0.0082782268333633224 0 0.014436186355910173 -0.0082923108662724433 0 0.014379902308575164 -0.0083711990241603414 0 0.014324184620565389 -0.0082614716767241986 0 0.01446621726244603 -0.0083001139178115 0 0.014438909110496421 -0.0082396124497651144 0 0.014386556786652991 -0.00828415685966934 0 0.01446621726244603 -0.0083001139178115 0 0.01446621726244603 -0.0083001139178115 0 0.01453738252309514 -0.0081034058015788755 0 0.014569528603106462 -0.0083991275784060029 0 0.014438909110496421 -0.0082396124497651144 0 0.01446621726244603 -0.0083001139178115 0 0.01453738252309514 -0.0081034058015788755 0 0.01453738252309514 -0.0081034058015788755 0 0.014825875175591327 -0.0084314598522088093 0 0.014569528603106462 -0.0083991275784060029 0 0.015282184879361199 -0.0076552677303819714 0 0.01453738252309514 -0.0081034058015788755 0 0.014825875175591327 -0.0084314598522088093 0 0.014825875175591327 -0.0084314598522088093 0 0.014663133304917425 -0.0084976562828375287 0 0.014569528603106462 -0.0083991275784060029 0 0.015469130280190761 -0.0067570856825797491 0 0.014999634547196097 -0.0062503165438490089 0 0.014825875175591327 -0.0084314598522088093 0 0.014663133304917425 -0.0084976562828375287 0 0.014655173289118561 -0.0085638493066452735 0 0.014663133304917425 -0.0084976562828375287 0 0.014583513030671718 -0.008489190838431325 0 0.014569528603106462 -0.0083991275784060029 0 0.014583513030671718 -0.008489190838431325 0 0.014569528603106462 -0.0083991275784060029 0 0.014507951660726303 -0.008464052106083822 0 0.01446621726244603 -0.0083001139178115 0 0.014569528603106462 -0.0083991275784060029 0 0.014460297029387233 -0.0083941870896675156 0 0.014379902308575164 -0.0083711990241603414 0 0.01446621726244603 -0.0083001139178115 0 0.014460297029387233 -0.0083941870896675156 0 0.01442626233415885 -0.0084582817205721798 0 0.014460297029387233 -0.0083941870896675156 0 0.014507951660726303 -0.008464052106083822 0 0.014569528603106462 -0.0083991275784060029 0 0.014460297029387233 -0.0083941870896675156 0 0.014507951660726303 -0.008464052106083822 0 0.014583513030671718 -0.008489190838431325 0 0.014507951660726303 -0.008464052106083822 0 0.014513903065748871 -0.0085088046077696888 0 0.01442626233415885 -0.0084582817205721798 0 0.014507951660726303 -0.008464052106083822 0 0.014450090591444566 -0.0084969012950879448 0 0.014507951660726303 -0.008464052106083822 0 0.014450090591444566 -0.0084969012950879448 0 0.014513903065748871 -0.0085088046077696888 0 0.014697409700753849 -0.0084104650504767293 0 0.014671193380117796 -0.0084835812277216198 0 0.014651914759900292 -0.0085441635963925868 0 0.014370135657927344 -0.0085521151241884988 0 0.014513903065748871 -0.0085088046077696888 0 0.014651914759900292 -0.0085441635963925868 0 0.014697409700753849 -0.0084104650504767293 0 0.014696738081064495 -0.0084012753039275339 0 0.014651914759900292 -0.0085441635963925868 0 0.014563025350143829 -0.008602140064979974 0 0.014619297959451039 -0.0085058538421342172 0 0.014583513030671718 -0.008489190838431325 0 0.014513903065748871 -0.0085088046077696888 0 0.014651914759900292 -0.0085441635963925868 0 0.014671193380117796 -0.0084835812277216198 0 0.014655173289118561 -0.0085638493066452735 0 0.014651914759900292 -0.0085441635963925868 0 0.015506226289199078 -0.006321523739485478 0 0.014999634547196097 -0.0062503165438490089 0 0.016218493235371185 -0.004171517150526027 0 0.016308807490383829 -0.0041386638060751414 0 0.016125346321215449 -0.0042256590263752307 0 0.016218493235371185 -0.004171517150526027 0 0.016267837699048663 -0.0041258127409392062 0 0.016308807490383829 -0.0041386638060751414 0 0.016267837699048663 -0.0041258127409392062 0 0.016308807490383829 -0.0041386638060751414 0 0.016308237105522462 -0.0040957124229113722 0 0.016267837699048663 -0.0041258127409392062 0 0.016308237105522462 -0.0040957124229113722 0 0.016283405345399297 -0.0040733891689698877 0 0.016267837699048663 -0.0041258127409392062 0 0.016240307126429081 -0.0041154528746576704 0 0.016283405345399297 -0.0040733891689698877 0 0.016240307126429081 -0.0041154528746576704 0 0.016231982380262938 -0.0040468440455601849 0 0.016199223374771365 -0.0041456492606638182 0 0.016218493235371185 -0.004171517150526027 0 0.016267837699048663 -0.0041258127409392062 0 0.016240307126429081 -0.0041154528746576704 0 0.016218493235371185 -0.004171517150526027 0 0.016240307126429081 -0.0041154528746576704 0 0.016199223374771365 -0.0041456492606638182 0 0.015825443506936914 -0.0063863881216000536 0 0.015506226289199078 -0.006321523739485478 0 0.016452561079567919 -0.0041222515858117615 0 0.016308807490383829 -0.0041386638060751414 0 0.016383144572836392 -0.0040983186430879137 0 0.016308807490383829 -0.0041386638060751414 0 0.016343054119851628 -0.0040898062604589284 0 0.016383144572836392 -0.0040983186430879137 0 0.016308237105522462 -0.0040957124229113722 0 0.01633279670337924 -0.0040565753513815252 0 0.016283405345399297 -0.0040733891689698877 0 0.016308807490383829 -0.0041386638060751414 0 0.016343054119851628 -0.0040898062604589284 0 0.016308237105522462 -0.0040957124229113722 0 0.016343054119851628 -0.0040898062604589284 0 0.016308237105522462 -0.0040957124229113722 0 0.01633279670337924 -0.0040565753513815252 0 0.016343054119851628 -0.0040898062604589284 0 0.016383144572836392 -0.0040983186430879137 0 0.016396975380721868 -0.0040278273343648859 0 0.016343054119851628 -0.0040898062604589284 0 0.016396975380721868 -0.0040278273343648859 0 0.01633279670337924 -0.0040565753513815252 0 0.01645048387719596 -0.0038889721592259168 0 0.016396975380721868 -0.0040278273343648859 0 0.016332485047632288 -0.0039588438595214272 0 0.016396975380721868 -0.0040278273343648859 0 0.016332485047632288 -0.0039588438595214272 0 0.01633279670337924 -0.0040565753513815252 0 0.016332485047632288 -0.0039588438595214272 0 0.01633279670337924 -0.0040565753513815252 0 0.016283405345399297 -0.0040733891689698877 0 0.016231982380262938 -0.0040468440455601849 0 0.01624306847501392 -0.0038722244087122776 0 0.016157813378612933 -0.0040144585705295379 0 0.016332485047632288 -0.0039588438595214272 0 0.016283405345399297 -0.0040733891689698877 0 0.016231982380262938 -0.0040468440455601849 0 0.016332485047632288 -0.0039588438595214272 0 0.016231982380262938 -0.0040468440455601849 0 0.01624306847501392 -0.0038722244087122776 0 0.016231982380262938 -0.0040468440455601849 0 0.016173708943176164 -0.0041249425862606645 0 0.016199223374771365 -0.0041456492606638182 0 0.016240307126429081 -0.0041154528746576704 0 0.016283405345399297 -0.0040733891689698877 0 0.016231982380262938 -0.0040468440455601849 0 0.01645048387719596 -0.0038889721592259168 0 0.016332485047632288 -0.0039588438595214272 0 0.016375561745062113 -0.0037516220897317004 0 0.016332485047632288 -0.0039588438595214272 0 0.01624306847501392 -0.0038722244087122776 0 0.016375561745062113 -0.0037516220897317004 0 0.016042417592333293 -0.0038719480072415377 0 0.015900797763450849 -0.0039982261608593481 0 0.015728672462706338 -0.0038858682397080141 0 0.01624306847501392 -0.0038722244087122776 0 0.016042417592333293 -0.0038719480072415377 0 0.016157813378612933 -0.0040144585705295379 0 0.016042417592333293 -0.0038719480072415377 0 0.016060996068178467 -0.0040493645359797811 0 0.016157813378612933 -0.0040144585705295379 0 0.016157813378612933 -0.0040144585705295379 0 0.016118651042206691 -0.0041163373363116108 0 0.016173708943176164 -0.0041249425862606645 0 0.016231982380262938 -0.0040468440455601849 0 0.016157813378612933 -0.0040144585705295379 0 0.016173708943176164 -0.0041249425862606645 0 0.016060996068178467 -0.0040493645359797811 0 0.016157813378612933 -0.0040144585705295379 0 0.016118651042206691 -0.0041163373363116108 0 0.016060996068178467 -0.0040493645359797811 0 0.016118651042206691 -0.0041163373363116108 0 0.016053642595866429 -0.0041396915512945673 0 0.016060996068178467 -0.0040493645359797811 0 0.016053642595866429 -0.0041396915512945673 0 0.015957346068410084 -0.0041171792213698091 0 0.016053642595866429 -0.0041396915512945673 0 0.015957346068410084 -0.0041171792213698091 0 0.015996488139890446 -0.0042203961595553277 0 0.016060996068178467 -0.0040493645359797811 0 0.015900797763450849 -0.0039982261608593481 0 0.015957346068410084 -0.0041171792213698091 0 0.016042417592333293 -0.0038719480072415377 0 0.016060996068178467 -0.0040493645359797811 0 0.015900797763450849 -0.0039982261608593481 0 0.015900797763450849 -0.0039982261608593481 0 0.015957346068410084 -0.0041171792213698091 0 0.015829915789349957 -0.0041904125499208633 0 0.015957346068410084 -0.0041171792213698091 0 0.015996488139890446 -0.0042203961595553277 0 0.015829915789349957 -0.0041904125499208633 0 0.015922763491944096 -0.0043899787041801726 0 0.016151755895844357 -0.0042692491469648692 0 0.016106225987761187 -0.004259044660157885 0 0.015996488139890446 -0.0042203961595553277 0 0.015922763491944096 -0.0043899787041801726 0 0.015829915789349957 -0.0041904125499208633 0 0.016004731801362866 -0.0050674826830147211 0 0.016151755895844357 -0.0042692491469648692 0 0.015862939855699126 -0.0046227714991775685 0 0.016053642595866429 -0.0041396915512945673 0 0.015996488139890446 -0.0042203961595553277 0 0.016106893087932179 -0.0041965589191017482 0 0.015996488139890446 -0.0042203961595553277 0 0.015922763491944096 -0.0043899787041801726 0 0.016106225987761187 -0.004259044660157885 0 0.016218493235371185 -0.004171517150526027 0 0.016171236585266806 -0.0041872898700879724 0 0.016125346321215449 -0.0042256590263752307 0 0.016218493235371185 -0.004171517150526027 0 0.016171236585266806 -0.0041872898700879724 0 0.016199223374771365 -0.0041456492606638182 0 0.016171236585266806 -0.0041872898700879724 0 0.016173708943176164 -0.0041249425862606645 0 0.016199223374771365 -0.0041456492606638182 0 0.016171236585266806 -0.0041872898700879724 0 0.016173708943176164 -0.0041249425862606645 0 0.016140196327204072 -0.0041748259397488691 0 0.016118651042206691 -0.0041163373363116108 0 0.016173708943176164 -0.0041249425862606645 0 0.016140196327204072 -0.0041748259397488691 0 0.016171236585266806 -0.0041872898700879724 0 0.016148590478366146 -0.0041989904455771764 0 0.016140196327204072 -0.0041748259397488691 0 0.016171236585266806 -0.0041872898700879724 0 0.016148590478366146 -0.0041989904455771764 0 0.016125346321215449 -0.0042256590263752307 0 0.015996488139890446 -0.0042203961595553277 0 0.016106893087932179 -0.0041965589191017482 0 0.016106225987761187 -0.004259044660157885 0 0.016148590478366146 -0.0041989904455771764 0 0.016125346321215449 -0.0042256590263752307 0 0.016140196327204072 -0.0041748259397488691 0 0.016125346321215449 -0.0042256590263752307 0 0.016140196327204072 -0.0041748259397488691 0 0.016106893087932179 -0.0041965589191017482 0 0.016118651042206691 -0.0041163373363116108 0 0.016140196327204072 -0.0041748259397488691 0 0.016106893087932179 -0.0041965589191017482 0 0.016118651042206691 -0.0041163373363116108 0 0.016053642595866429 -0.0041396915512945673 0 0.016106893087932179 -0.0041965589191017482 0 0.016125346321215449 -0.0042256590263752307 0 0.016106893087932179 -0.0041965589191017482 0 0.016106225987761187 -0.004259044660157885 0 0.014999634547196097 -0.0062503165438490089 0 0.015073540262654275 -0.0062138016310036535 0 0.014663133304917425 -0.0084976562828375287 0 0.014655173289118561 -0.0085638493066452735 0 0.014651914759900292 -0.0085441635963925868 0 0.014663133304917425 -0.0084976562828375287 0 0.014583513030671718 -0.008489190838431325 0 0.014651914759900292 -0.0085441635963925868 0 0.015922763491944096 -0.0043899787041801726 0 0.016151755895844357 -0.0042692491469648692 0 0.015862939855699126 -0.0046227714991775685 0 0.015862939855699126 -0.0046227714991775685 0 0.01556999498373412 -0.0043083395737414714 0 0.015473225993952743 -0.0048649968623317857 0 0.015922763491944096 -0.0043899787041801726 0 0.015862939855699126 -0.0046227714991775685 0 0.01556999498373412 -0.0043083395737414714 0 0.015922763491944096 -0.0043899787041801726 0 0.01556999498373412 -0.0043083395737414714 0 0.015829915789349957 -0.0041904125499208633 0 0.015900797763450849 -0.0039982261608593481 0 0.015829915789349957 -0.0041904125499208633 0 0.015728672462706338 -0.0038858682397080141 0 0.01556999498373412 -0.0043083395737414714 0 0.015829915789349957 -0.0041904125499208633 0 0.015728672462706338 -0.0038858682397080141 0 0.01556999498373412 -0.0043083395737414714 0 0.015728672462706338 -0.0038858682397080141 0 0.015367316631633578 -0.0039277314407291288 0 0.015367316631633578 -0.0039277314407291288 0 0.014999958256989228 -0.0044676072565270168 0 0.01500000375349372 -0.0036645483189472108 0 0.01556999498373412 -0.0043083395737414714 0 0.014999958256989228 -0.0044676072565270168 0 0.015473225993952743 -0.0048649968623317857 0 0.01556999498373412 -0.0043083395737414714 0 0.015367316631633578 -0.0039277314407291288 0 0.014999958256989228 -0.0044676072565270168 0 0.014999958256989228 -0.0044676072565270168 0 0.015473225993952743 -0.0048649968623317857 0 0.014999997863458268 -0.0052707799101091041 0 0.016004731801362866 -0.0050674826830147211 0 0.015862939855699126 -0.0046227714991775685 0 0.015473225993952743 -0.0048649968623317857 0 0.016004731801362866 -0.0050674826830147211 0 0.015473225993952743 -0.0048649968623317857 0 0.015448206449150015 -0.0054781038590285677 0 0.015520834086599621 -0.0067409775425561055 0 0.015469130280190761 -0.0067570856825797491 0 0.015823694040214043 -0.0058456044418913932 0 0.016004731801362866 -0.0050674826830147211 0 0.015448206449150015 -0.0054781038590285677 0 0.015473225993952743 -0.0048649968623317857 0 0.015448206449150015 -0.0054781038590285677 0 0.014999997863458268 -0.0052707799101091041 0 0.014999835776206593 -0.0060743902247141941 0 0.015448206449150015 -0.0054781038590285677 0 0.014999997863458268 -0.0052707799101091041 0 0.01499997311420906 -0.0021149468954017735 0 0.015479951679758814 -0.0022781138826623764 0 0.015452986829857447 -0.0017853467545381253 0 0.01499997311420906 -0.0021149468954017735 0 0.015479951679758814 -0.0022781138826623764 0 0.015353957675443661 -0.0026531787312165309 0 0.015820846594190894 -0.0020745771102543592 0 0.015492785245913947 -0.0018217915620533395 0 0.01581473919743024 -0.0020874969734764387 0 0.015479951679758814 -0.0022781138826623764 0 0.015744668759408574 -0.0026670633855604498 0 0.01581473919743024 -0.0020874969734764387 0 0.015479951679758814 -0.0022781138826623764 0 0.015452986829857447 -0.0017853467545381253 0 0.01581473919743024 -0.0020874969734764387 0 0.015744668759408574 -0.0026670633855604498 0 0.015979347569739021 -0.0025189502834816789 0 0.015479951679758814 -0.0022781138826623764 0 0.015744668759408574 -0.0026670633855604498 0 0.015353957675443661 -0.0026531787312165309 0 0.01499997311420906 -0.0021149468954017735 0 0.015353957675443661 -0.0026531787312165309 0 0.014999984154398049 -0.0028897072568699234 0 0.015353957675443661 -0.0026531787312165309 0 0.014999984154398049 -0.0028897072568699234 0 0.015534579236491588 -0.0032913207084719386 0 0.014999984154398049 -0.0028897072568699234 0 0.014999990764097814 -0.0036644033105321661 0 0.015534579236491588 -0.0032913207084719386 0 0.0150000969027634 -0.0036643858035174666 0 0.015525029070151236 -0.0033244314958716919 0 0.015367316631633578 -0.0039277314407291288 0 0.01500000375349372 -0.0036645483189472108 0 0.015504174819081546 -0.0033699069517653165 0 0.015728672462706338 -0.0038858682397080141 0 0.015504174819081546 -0.0033699069517653165 0 0.01589442031520754 -0.0035793683968889404 0 0.015728672462706338 -0.0038858682397080141 0 0.015367316631633578 -0.0039277314407291288 0 0.015504174819081546 -0.0033699069517653165 0 0.015504174819081546 -0.0033699069517653165 0 0.01602636812336523 -0.0029855864661531813 0 0.01589442031520754 -0.0035793683968889404 0 0.015525029070151236 -0.0033244314958716919 0 0.015993161329538104 -0.0030111591688091474 0 0.015744668759408574 -0.0026670633855604498 0 0.015534579236491588 -0.0032913207084719386 0 0.01602636812336523 -0.0029855864661531813 0 0.015744668759408574 -0.0026670633855604498 0 0.015353957675443661 -0.0026531787312165309 0 0.015534579236491588 -0.0032913207084719386 0 0.01602636812336523 -0.0029855864661531813 0 0.016243231539592229 -0.0035957695171080486 0 0.016363659511517921 -0.00291991005814177 0 0.01602636812336523 -0.0029855864661531813 0 0.016363659511517921 -0.00291991005814177 0 0.016059918871366201 -0.0027222830795211208 0 0.01602636812336523 -0.0029855864661531813 0 0.01589442031520754 -0.0035793683968889404 0 0.016243231539592229 -0.0035957695171080486 0 0.016042417592333293 -0.0038719480072415377 0 0.01589442031520754 -0.0035793683968889404 0 0.016243231539592229 -0.0035957695171080486 0 0.01624306847501392 -0.0038722244087122776 0 0.016042417592333293 -0.0038719480072415377 0 0.016243231539592229 -0.0035957695171080486 0 0.016042417592333293 -0.0038719480072415377 0 0.015728672462706338 -0.0038858682397080141 0 0.01589442031520754 -0.0035793683968889404 0 0.016243231539592229 -0.0035957695171080486 0 0.016375561745062113 -0.0037516220897317004 0 0.016415344453062634 -0.0035975860416639568 0 0.01624306847501392 -0.0038722244087122776 0 0.016243231539592229 -0.0035957695171080486 0 0.016375561745062113 -0.0037516220897317004 0 0.016381753747981204 -0.0035491960977517977 0 0.016312053824253114 -0.0031740974968213183 0 0.016243231539592229 -0.0035957695171080486 0 0.016420991347961204 -0.0034448115772227868 0 0.016415344453062634 -0.0035975860416639568 0 0.016243231539592229 -0.0035957695171080486 0 0.016363659511517921 -0.00291991005814177 0 0.01689660854419479 -0.002895176344888931 0 0.015982667644487299 -0.0024235124865384121 0 0.016312053824253114 -0.0031740974968213183 0 0.015810177186300883 -0.0028056588794286644 0 0.015425225432603473 -0.0027468749195036627 0 0.015991683304457906 -0.003148288084921872 0 0.016205878263558997 -0.0025279574596888538 0 0.016154437161711666 -0.0023667060226145952 0 0.01689660854419479 -0.002895176344888931 0 0.016363659511517921 -0.00291991005814177 0 0.016205878263558997 -0.0025279574596888538 0 0.01689660854419479 -0.002895176344888931 0 0.016363659511517921 -0.00291991005814177 0 0.016059918871366201 -0.0027222830795211208 0 0.016205878263558997 -0.0025279574596888538 0 0.015744668759408574 -0.0026670633855604498 0 0.01602636812336523 -0.0029855864661531813 0 0.016059918871366201 -0.0027222830795211208 0 0.015744668759408574 -0.0026670633855604498 0 0.016059918871366201 -0.0027222830795211208 0 0.015979347569739021 -0.0025189502834816789 0 0.015979347569739021 -0.0025189502834816789 0 0.016205878263558997 -0.0025279574596888538 0 0.01616703981776129 -0.0023776390738448833 0 0.016059918871366201 -0.0027222830795211208 0 0.015979347569739021 -0.0025189502834816789 0 0.016205878263558997 -0.0025279574596888538 0 0.016047600009594747 -0.0024796562089318512 0 0.015982667644487299 -0.0024235124865384121 0 0.015982667644487299 -0.0024235124865384121 0 0.015669945812221718 -0.0020948830458390991 0 0.015824345683607452 -0.0020475664813264672 0 0.016189746119679053 -0.0023106493004430781 0 0.016043452425792065 -0.0018357529918188336 0 0.015425225432603473 -0.0027468749195036627 0 0.015522192746860692 -0.0024982189138193444 0 0.015293497047277093 -0.0023417466906746438 0 0.015425225432603473 -0.0027468749195036627 0 0.015522192746860692 -0.0024982189138193444 0 0.015633912532095801 -0.0026166156849075821 0 0.015820846594190894 -0.0020745771102543592 0 0.015982667644487299 -0.0024235124865384121 0 0.01581473919743024 -0.0020874969734764387 0 0.015979347569739021 -0.0025189502834816789 0 0.01616703981776129 -0.0023776390738448833 0 0.015522192746860692 -0.0024982189138193444 0 0.015524154119313299 -0.0023336230672841912 0 0.015293497047277093 -0.0023417466906746438 0 0.015810177186300883 -0.0028056588794286644 0 0.015777635324413532 -0.0024155823651239626 0 0.015633912532095801 -0.0026166156849075821 0 0.015522192746860692 -0.0024982189138193444 0 0.015777635324413532 -0.0024155823651239626 0 0.015524154119313299 -0.0023336230672841912 0 0.015810177186300883 -0.0028056588794286644 0 0.015425225432603473 -0.0027468749195036627 0 0.015633912532095801 -0.0026166156849075821 0 0.015810177186300883 -0.0028056588794286644 0 0.015777635324413532 -0.0024155823651239626 0 0.016048148414372038 -0.002595694350707244 0 0.015522192746860692 -0.0024982189138193444 0 0.015777635324413532 -0.0024155823651239626 0 0.015633912532095801 -0.0026166156849075821 0 0.015777635324413532 -0.0024155823651239626 0 0.016048148414372038 -0.002595694350707244 0 0.015957859211115547 -0.002191986068721979 0 0.016048148414372038 -0.002595694350707244 0 0.016421017168642173 -0.0026688079778037586 0 0.016253333358555829 -0.002357129697365738 0 0.016421017168642173 -0.0026688079778037586 0 0.016521004961425417 -0.0022536425726366995 0 0.016253333358555829 -0.002357129697365738 0 0.016445228871572556 -0.0027478085213760387 0 0.016902335278768589 -0.0022307282347520888 0 0.01653551575632849 -0.0028113960860472833 0 0.016646668123655017 -0.0032021840794420335 0 0.017030604616056051 -0.0029162471723643219 0 0.01653551575632849 -0.0028113960860472833 0 0.016646668123655017 -0.0032021840794420335 0 0.016189113051672404 -0.0032816763437007158 0 0.015810177186300883 -0.0028056588794286644 0 0.016048148414372038 -0.002595694350707244 0 0.015991683304457906 -0.003148288084921872 0 0.016445228871572556 -0.0027478085213760387 0 0.016312053824253114 -0.0031740974968213183 0 0.016048148414372038 -0.002595694350707244 0 0.016421017168642173 -0.0026688079778037586 0 0.015991683304457906 -0.003148288084921872 0 0.016646668123655017 -0.0032021840794420335 0 0.016189113051672404 -0.0032816763437007158 0 0.016542539922798749 -0.0035126873607768182 0 0.016420991347961204 -0.0034448115772227868 0 0.016415344453062634 -0.0035975860416639568 0 0.016542539922798749 -0.0035126873607768182 0 0.016312053824253114 -0.0031740974968213183 0 0.016542771289780003 -0.0035253960704107997 0 0.016415344453062634 -0.0035975860416639568 0 0.016490434480341789 -0.0037107272784015558 0 0.016542539922798749 -0.0035126873607768182 0 0.016375561745062113 -0.0037516220897317004 0 0.016415344453062634 -0.0035975860416639568 0 0.016490434480341789 -0.0037107272784015558 0 0.01645048387719596 -0.0038889721592259168 0 0.016375561745062113 -0.0037516220897317004 0 0.016490434480341789 -0.0037107272784015558 0 0.016831263598108138 -0.0038386531173263999 0 0.01658580794645409 -0.0038910185854648129 0 0.016659172364215356 -0.0036908386714591085 0 0.01658580794645409 -0.0038910185854648129 0 0.016490434480341789 -0.0037107272784015558 0 0.016659172364215356 -0.0036908386714591085 0 0.016490434480341789 -0.0037107272784015558 0 0.016659172364215356 -0.0036908386714591085 0 0.016542539922798749 -0.0035126873607768182 0 0.016646668123655017 -0.0032021840794420335 0 0.016542539922798749 -0.0035126873607768182 0 0.016928090054655922 -0.0034493503926570275 0 0.016659172364215356 -0.0036908386714591085 0 0.016542539922798749 -0.0035126873607768182 0 0.016928090054655922 -0.0034493503926570275 0 0.013031614502847722 -0.0039951514285940922 0 0.013048761740938782 -0.0038581205998458839 0 0.013109123578059274 -0.0039262366943134969 0 0.016831263598108138 -0.0038386531173263999 0 0.016659172364215356 -0.0036908386714591085 0 0.016928090054655922 -0.0034493503926570275 0 0.014967005270816418 -0.0036310716363278021 0 0.014978737070208662 -0.0037155665167787439 0 0.013109123578059274 -0.0039262366943134969 0 0.013168501790581783 -0.0039813586794797034 0 0.013161467795655676 -0.0038513226699879418 0 0.013096142997778655 -0.00404034885072194 0 0.013109123578059274 -0.0039262366943134969 0 0.013168501790581783 -0.0039813586794797034 0 0.013048761740938782 -0.0038581205998458839 0 0.013109123578059274 -0.0039262366943134969 0 0.013161467795655676 -0.0038513226699879418 0 0.013048761740938782 -0.0038581205998458839 0 0.013071537258852607 -0.0037228280855539269 0 0.013161467795655676 -0.0038513226699879418 0 0.013071537258852607 -0.0037228280855539269 0 0.013161467795655676 -0.0038513226699879418 0 0.013194946889606266 -0.003756730249363282 0 0.016646668123655017 -0.0032021840794420335 0 0.016928090054655922 -0.0034493503926570275 0 0.017030604616056051 -0.0029162471723643219 0 0.014978737070208662 -0.0037155665167787439 0 0.01505314451706192 -0.00328316928938661 0 0.017030604616056051 -0.0029162471723643219 0 0.016890895673322335 -0.0025560652936966093 0 0.017116612324155137 -0.0022690754531221229 0 0.01653551575632849 -0.0028113960860472833 0 0.017030604616056051 -0.0029162471723643219 0 0.016890895673322335 -0.0025560652936966093 0 0.01505314451706192 -0.00328316928938661 0 0.015113218559851824 -0.0030425729911855372 0 0.01653551575632849 -0.0028113960860472833 0 0.016890895673322335 -0.0025560652936966093 0 0.016899504738057149 -0.002218018408534013 0 0.013071537258852607 -0.0037228280855539269 0 0.013194946889606266 -0.003756730249363282 0 0.013187737582741653 -0.0036684724889016521 0 0.013071537258852607 -0.0037228280855539269 0 0.013097425102218849 -0.0035911653501823648 0 0.013187737582741653 -0.0036684724889016521 0 0.013097425102218849 -0.0035911653501823648 0 0.013162324344521574 -0.0035326057968444887 0 0.013215216302150579 -0.0035823237223703694 0 0.016890895673322335 -0.0025560652936966093 0 0.017116612324155137 -0.0022690754531221229 0 0.016899504738057149 -0.002218018408534013 0 0.016899504738057149 -0.002218018408534013 0 0.01664191744827109 -0.0020255950929278467 0 0.016521004961425417 -0.0022536425726366995 0 0.016899504738057149 -0.002218018408534013 0 0.016835097036134231 -0.0018937543928885907 0 0.01664191744827109 -0.0020255950929278467 0 0.017116612324155137 -0.0022690754531221229 0 0.016899504738057149 -0.002218018408534013 0 0.016835097036134231 -0.0018937543928885907 0 0.016835097036134231 -0.0018937543928885907 0 0.017213115431165028 -0.0015929612440111814 0 0.016576404379060914 -0.0014743704010346135 0 0.017116612324155137 -0.0022690754531221229 0 0.016835097036134231 -0.0018937543928885907 0 0.017213115431165028 -0.0015929612440111814 0 0.016835097036134231 -0.0018937543928885907 0 0.016555776857641213 -0.0017799401251383567 0 0.01664191744827109 -0.0020255950929278467 0 0.016835097036134231 -0.0018937543928885907 0 0.016576404379060914 -0.0014743704010346135 0 0.016555776857641213 -0.0017799401251383567 0 0.013097425102218849 -0.0035911653501823648 0 0.013162324344521574 -0.0035326057968444887 0 0.013126920519304237 -0.0034664517068076963 0 0.015113218559851824 -0.0030425729911855372 0 0.015005348985444675 -0.0020027981013706684 0 0.013246325099403223 -0.00097614758291954522 0 0.013205936276770667 -0.0011503674346234366 0 0.013142904451777612 -0.0010406864663780845 0 0.016895596034324233 -0.0015028936816206761 0 0.016815263088236124 -0.0011737370224726986 0 0.016757828683138402 -0.0013530319217001136 0 0.015005348985444675 -0.0020027981013706684 0 0.013615634614063014 0.00029798125658803804 0 0.016895596034324233 -0.0015028936816206761 0 0.016960229029190428 -0.001050021544085893 0 0.016815263088236124 -0.0011737370224726986 0 0.016896445040061131 -0.0010170382892748099 0 0.016960229029190428 -0.001050021544085893 0 0.016815263088236124 -0.0011737370224726986 0 0.013627082115360331 0.0010766643755478096 0 0.013875981253536583 0.0011957400524155017 0 0.013667346833262343 0.0012994941373710323 0 0.015256667274369041 0.0013521108319920444 0 0.013615634614063014 0.00029798125658803804 0 0.015256667274369041 0.0013521108319920444 0 0.016763437259999018 0.00073516168358110797 0 0.016450051966407444 0.0025598961412727551 0 0.016450082214161013 0.0024916286728463269 0 0.016413788103192887 0.0025260004963968182 0 0.016896445040061131 -0.0010170382892748099 0 0.016815263088236124 -0.0011737370224726986 0 0.016649174452677631 -0.0011458215786559688 0 0.016450051966407444 0.0025598961412727551 0 0.016495548235623447 0.0025163644545745521 0 0.016450082214161013 0.0024916286728463269 0 0.016815263088236124 -0.0011737370224726986 0 0.016649174452677631 -0.0011458215786559688 0 0.016757828683138402 -0.0013530319217001136 0 0.016895596034324233 -0.0015028936816206761 0 0.016757828683138402 -0.0013530319217001136 0 0.016576404379060914 -0.0014743704010346135 0 0.016649174452677631 -0.0011458215786559688 0 0.016757828683138402 -0.0013530319217001136 0 0.016576404379060914 -0.0014743704010346135 0 0.015005348985444675 -0.0020027981013706684 0 0.017392728524017655 -0.00148130048961332 0 0.016649174452677631 -0.0011458215786559688 0 0.016576404379060914 -0.0014743704010346135 0 0.016317861229037712 -0.0012823002157480909 0 0.016576404379060914 -0.0014743704010346135 0 0.016377786918750834 -0.0015934775021282958 0 0.016352734371709438 -0.0014282673057145615 0 0.016265105062689324 -0.0015174063324049937 0 0.016377786918750834 -0.0015934775021282958 0 0.016225415207888651 -0.0016471766881888008 0 0.016265105062689324 -0.0015174063324049937 0 0.016377786918750834 -0.0015934775021282958 0 0.016352734371709438 -0.0014282673057145615 0 0.016265105062689324 -0.0015174063324049937 0 0.016352734371709438 -0.0014282673057145615 0 0.016246610708071239 -0.0013817723016220434 0 0.016576404379060914 -0.0014743704010346135 0 0.016352734371709438 -0.0014282673057145615 0 0.016317861229037712 -0.0012823002157480909 0 0.016352734371709438 -0.0014282673057145615 0 0.01630878185463782 -0.0013460364955268801 0 0.016317861229037712 -0.0012823002157480909 0 0.016352734371709438 -0.0014282673057145615 0 0.01630878185463782 -0.0013460364955268801 0 0.016246610708071239 -0.0013817723016220434 0 0.01630878185463782 -0.0013460364955268801 0 0.016317861229037712 -0.0012823002157480909 0 0.016246610708071239 -0.0013817723016220434 0 0.016450082214161013 0.0024916286728463269 0 0.016370605115810309 0.0024275933954702976 0 0.016395045496624194 0.0024876821420491278 0 0.016763437259999018 0.00073516168358110797 0 0.016267616338992642 0.00029548591526858337 0 0.016370605115810309 0.0024275933954702976 0 0.016395045496624194 0.0024876821420491278 0 0.016350388781875204 0.002499491296424836 0 0.016395045496624194 0.0024876821420491278 0 0.016374821539038263 0.0025211548383763534 0 0.016413788103192887 0.0025260004963968182 0 0.016395045496624194 0.0024876821420491278 0 0.016374821539038263 0.0025211548383763534 0 0.016350388781875204 0.002499491296424836 0 0.016450082214161013 0.0024916286728463269 0 0.016395045496624194 0.0024876821420491278 0 0.016413788103192887 0.0025260004963968182 0 0.016290697595584783 0.002625979426840671 0 0.016258951193377745 0.0025142315089225465 0 0.016333642819575483 0.0025463229007213935 0 0.016258951193377745 0.0025142315089225465 0 0.016333642819575483 0.0025463229007213935 0 0.016350388781875204 0.002499491296424836 0 0.016374821539038263 0.0025211548383763534 0 0.016333642819575483 0.0025463229007213935 0 0.016350388781875204 0.002499491296424836 0 0.016635895875288523 0.00013072169184259803 0 0.015998818585328332 0.00069379123552445771 0 0.01615909126662414 0.00022916558846473037 0 0.016370605115810309 0.0024275933954702976 0 0.016258951193377745 0.0025142315089225465 0 0.016350388781875204 0.002499491296424836 0 0.016267616338992642 0.00029548591526858337 0 0.016045382678709894 0.0017371176882666325 0 0.015998818585328332 0.00069379123552445771 0 0.01615909126662414 0.00022916558846473037 0 0.015929876808117298 0.00036306282625926461 0 0.015998818585328332 0.00069379123552445771 0 0.015929876808117298 0.00036306282625926461 0 0.015757759366783634 0.00050739085570104543 0 0.016267616338992642 0.00029548591526858337 0 0.015868388253308385 -0.001112238253241132 0 0.01615909126662414 0.00022916558846473037 0 0.015929876808117298 0.00036306282625926461 0 0.015920950235630178 -0.00022273670140970841 0 0.016317861229037712 -0.0012823002157480909 0 0.016246610708071239 -0.0013817723016220434 0 0.015900116171821112 -0.0014607899068892307 0 0.016635895875288523 0.00013072169184259803 0 0.01615909126662414 0.00022916558846473037 0 0.015920950235630178 -0.00022273670140970841 0 0.016246610708071239 -0.0013817723016220434 0 0.016121380361518455 -0.0015408874220371519 0 0.015900116171821112 -0.0014607899068892307 0 0.016265105062689324 -0.0015174063324049937 0 0.016246610708071239 -0.0013817723016220434 0 0.016121380361518455 -0.0015408874220371519 0 0.016265105062689324 -0.0015174063324049937 0 0.016121380361518455 -0.0015408874220371519 0 0.016225415207888651 -0.0016471766881888008 0 0.015868388253308385 -0.001112238253241132 0 0.016034396285480552 -0.0017235129753688174 0 0.016121380361518455 -0.0015408874220371519 0 0.015900116171821112 -0.0014607899068892307 0 0.015989254804687731 -0.0017113037713147466 0 0.015989254804687731 -0.0017113037713147466 0 0.016367545364544711 -0.0019173064912934145 0 0.016253333358555829 -0.002357129697365738 0 0.016041042488141311 -0.0017004627788583548 0 0.015957859211115547 -0.002191986068721979 0 0.015853059464940245 -0.0019157632418252987 0 0.016121380361518455 -0.0015408874220371519 0 0.015989254804687731 -0.0017113037713147466 0 0.016225415207888651 -0.0016471766881888008 0 0.015989254804687731 -0.0017113037713147466 0 0.016225415207888651 -0.0016471766881888008 0 0.016367545364544711 -0.0019173064912934145 0 0.016377786918750834 -0.0015934775021282958 0 0.016225415207888651 -0.0016471766881888008 0 0.016367545364544711 -0.0019173064912934145 0 0.016377786918750834 -0.0015934775021282958 0 0.016555776857641213 -0.0017799401251383567 0 0.016367545364544711 -0.0019173064912934145 0 0.016576404379060914 -0.0014743704010346135 0 0.016377786918750834 -0.0015934775021282958 0 0.016555776857641213 -0.0017799401251383567 0 0.016555776857641213 -0.0017799401251383567 0 0.016367545364544711 -0.0019173064912934145 0 0.01664191744827109 -0.0020255950929278467 0 0.016421017168642173 -0.0026688079778037586 0 0.016899504738057149 -0.002218018408534013 0 0.016521004961425417 -0.0022536425726366995 0 0.016367545364544711 -0.0019173064912934145 0 0.016521004961425417 -0.0022536425726366995 0 0.016253333358555829 -0.002357129697365738 0 0.016367545364544711 -0.0019173064912934145 0 0.01664191744827109 -0.0020255950929278467 0 0.016521004961425417 -0.0022536425726366995 0 0.016041042488141311 -0.0017004627788583548 0 0.016253333358555829 -0.002357129697365738 0 0.015957859211115547 -0.002191986068721979 0 0.016048148414372038 -0.002595694350707244 0 0.016253333358555829 -0.002357129697365738 0 0.015957859211115547 -0.002191986068721979 0 0.016034396285480552 -0.0017235129753688174 0 0.016235711792499479 -0.0023140665012573165 0 0.01556918232453991 -0.0021284108112723274 0 0.015786602789078504 -0.002140404462352381 0 0.015853059464940245 -0.0019157632418252987 0 0.015957859211115547 -0.002191986068721979 0 0.015786602789078504 -0.002140404462352381 0 0.015853059464940245 -0.0019157632418252987 0 0.015777635324413532 -0.0024155823651239626 0 0.015957859211115547 -0.002191986068721979 0 0.015786602789078504 -0.002140404462352381 0 0.015777635324413532 -0.0024155823651239626 0 0.01556918232453991 -0.0021284108112723274 0 0.015786602789078504 -0.002140404462352381 0 0.015777635324413532 -0.0024155823651239626 0 0.01556918232453991 -0.0021284108112723274 0 0.015524154119313299 -0.0023336230672841912 0 0.015669945812221718 -0.0020948830458390991 0 0.015478537521391934 -0.0016699202700421651 0 0.01556918232453991 -0.0021284108112723274 0 0.015524154119313299 -0.0023336230672841912 0 0.015293497047277093 -0.0023417466906746438 0 0.01556918232453991 -0.0021284108112723274 0 0.015293497047277093 -0.0023417466906746438 0 0.015165649186739081 -0.00193729289477285 0 0.015478537521391934 -0.0016699202700421651 0 0.015674638107843118 -0.0019854884499584053 0 0.015110637355348134 -0.0019143520521167667 0 0.015478423254121099 -0.0017169079485475378 0 0.015853059464940245 -0.0019157632418252987 0 0.01556918232453991 -0.0021284108112723274 0 0.015165649186739081 -0.00193729289477285 0 0.015853059464940245 -0.0019157632418252987 0 0.015110637355348134 -0.0019143520521167667 0 0.015478423254121099 -0.0017169079485475378 0 0.015231429938364788 -0.001571470764898109 0 0.015478423254121099 -0.0017169079485475378 0 0.015459211837363001 -0.0014897962243731709 0 0.015231429938364788 -0.001571470764898109 0 0.015478423254121099 -0.0017169079485475378 0 0.015771593485097442 -0.0016652199591445389 0 0.015459211837363001 -0.0014897962243731709 0 0.015478423254121099 -0.0017169079485475378 0 0.015853059464940245 -0.0019157632418252987 0 0.015771593485097442 -0.0016652199591445389 0 0.016041042488141311 -0.0017004627788583548 0 0.015771593485097442 -0.0016652199591445389 0 0.015704906680261147 -0.0014237661551475132 0 0.016041042488141311 -0.0017004627788583548 0 0.015853059464940245 -0.0019157632418252987 0 0.015771593485097442 -0.0016652199591445389 0 0.015929876808117298 0.00036306282625926461 0 0.015920950235630178 -0.00022273670140970841 0 0.015660406947353531 0.00046318334554350281 0 0.015946426656086934 -0.0014319793076560498 0 0.015704906680261147 -0.0014237661551475132 0 0.015788632299979247 -0.0010099638702509601 0 0.015704906680261147 -0.0014237661551475132 0 0.015788632299979247 -0.0010099638702509601 0 0.015364322190334083 -0.0012041995570062863 0 0.015868388253308385 -0.001112238253241132 0 0.015857424974975325 -5.1697890999137992e-05 0 0.015946426656086934 -0.0014319793076560498 0 0.016041042488141311 -0.0017004627788583548 0 0.015704906680261147 -0.0014237661551475132 0 0.015771593485097442 -0.0016652199591445389 0 0.015704906680261147 -0.0014237661551475132 0 0.015459211837363001 -0.0014897962243731709 0 0.015364198304514942 0.0012612658248451222 0 0.015757759366783634 0.00050739085570104543 0 0.015660993569063222 0.00046414531196484145 0 0.016059336161990914 9.1179533798579993e-05 0 0.015701715632443387 0.00027756952349800967 0 0.015603169581060625 -0.00011407996333881972 0 0.015364198304514942 0.0012612658248451222 0 0.015998818585328332 0.00069379123552445771 0 0.015757759366783634 0.00050739085570104543 0 0.015824481934808086 0.0016010619988790118 0 0.015857424974975325 -5.1697890999137992e-05 0 0.015862520338684401 0.00061000551592856804 0 0.016059336161990914 9.1179533798579993e-05 0 0.015701715632443387 0.00027756952349800967 0 0.015857424974975325 -5.1697890999137992e-05 0 0.015417906734683335 -0.00069028277662473378 0 0.015929876808117298 0.00036306282625926461 0 0.015757759366783634 0.00050739085570104543 0 0.015660406947353531 0.00046318334554350281 0 0.015863484554430225 -1.4371012716593295e-05 0 0.015857424974975325 -5.1697890999137992e-05 0 0.015459589673267443 0.00024653444042546684 0 0.015603169581060625 -0.00011407996333881972 0 0.015148441117537534 -0.0003196333187184068 0 0.015459589673267443 0.00024653444042546684 0 0.015701715632443387 0.00027756952349800967 0 0.015603169581060625 -0.00011407996333881972 0 0.015417906734683335 -0.00069028277662473378 0 0.015388873717378173 -0.00081731414744147643 0 0.015364322190334083 -0.0012041995570062863 0 0.015231429938364788 -0.001571470764898109 0 0.014947812388005487 -0.0013910394577572912 0 0.015704906680261147 -0.0014237661551475132 0 0.015364322190334083 -0.0012041995570062863 0 0.015459211837363001 -0.0014897962243731709 0 0.015364322190334083 -0.0012041995570062863 0 0.015459211837363001 -0.0014897962243731709 0 0.015231429938364788 -0.001571470764898109 0 0.015459589673267443 0.00024653444042546684 0 0.015148441117537534 -0.0003196333187184068 0 0.014947683345194182 0.00032407665480008337 0 0.015388873717378173 -0.00081731414744147643 0 0.015305177837863421 0.00024845164812205902 0 0.015740383522097647 -0.00071802016241910962 0 0.015528639727937875 -4.4311895488579918e-05 0 0.014999993657372717 -0.00028330028714556752 0 0.015305177837863421 0.00024845164812205902 0 0.015000239139841758 -0.00028323138194246469 0 0.015740383522097647 -0.00071802016241910962 0 0.014999993657372717 -0.00028330028714556752 0 0.014999996253440288 -0.0010532708774446575 0 0.015388873717378173 -0.00081731414744147643 0 0.015000635784874287 -0.0010530452691603891 0 0.015000089902021032 -0.0013401545864450231 0 0.015502701530732955 -0.001347284354957219 0 0.015000010907435269 -0.0010533703052432669 0 0.01499998038776648 -0.0013400759964190304 0 0.015437560162512701 -0.0013198601892853612 0 0.015692405358946587 -0.0007591305858073473 0 0.015000010907435269 -0.0010533703052432669 0 0.015437560162512701 -0.0013198601892853612 0 0.015478537521391934 -0.0016699202700421651 0 0.015388873717378173 -0.00081731414744147643 0 0.015864093022552383 -0.0013124845381301507 0 0.015692405358946587 -0.0007591305858073473 0 0.015437560162512701 -0.0013198601892853612 0 0.015110637355348134 -0.0019143520521167667 0 0.015231429938364788 -0.001571470764898109 0 0.014947812388005487 -0.0013910394577572912 0 0.015478537521391934 -0.0016699202700421651 0 0.015502701530732955 -0.001347284354957219 0 0.015450168290820568 -0.0013548233704955526 0 0.015734317568268215 -0.0016770320047441241 0 0.015452986829857447 -0.0017853467545381253 0 0.015895268347471823 -0.0013552589697808412 0 0.015450168290820568 -0.0013548233704955526 0 0.015734317568268215 -0.0016770320047441241 0 0.016043452425792065 -0.0018357529918188336 0 0.015895268347471823 -0.0013552589697808412 0 0.015734317568268215 -0.0016770320047441241 0 0.015824345683607452 -0.0020475664813264672 0 0.016043452425792065 -0.0018357529918188336 0 0.015734317568268215 -0.0016770320047441241 0 0.015824345683607452 -0.0020475664813264672 0 0.015734317568268215 -0.0016770320047441241 0 0.015452986829857447 -0.0017853467545381253 0 0.01499997311420906 -0.0021149468954017735 0 0.015452986829857447 -0.0017853467545381253 0 0.015226581624684401 -0.001647802339241804 0 0.014999991913975044 -0.0013401978909365006 0 0.015450168290820568 -0.0013548233704955526 0 0.015226581624684401 -0.001647802339241804 0 0.01499997311420906 -0.0021149468954017735 0 0.014999991913975044 -0.0013401978909365006 0 0.015226581624684401 -0.001647802339241804 0 0.015450168290820568 -0.0013548233704955526 0 0.015452986829857447 -0.0017853467545381253 0 0.015226581624684401 -0.001647802339241804 0 0.010568778120038461 -0.0033645960687663269 0 0.010645463158834556 -0.0038035784832094678 0 0.011007507836465822 -0.0044545319683125702 0 0.010568778120038461 -0.0033645960687663269 0 0.010448807047576386 -0.0029832813907454511 0 0.011007507836465822 -0.0044545319683125702 0 0.01044715615309268 -0.0032149947271375426 0 0.010116305111539053 -0.0032351318373794492 0 0.01027187485434798 -0.0030997619650426247 0 0.01044715615309268 -0.0032149947271375426 0 0.010116305111539053 -0.0032351318373794492 0 0.010081481448143784 -0.0035264946979198381 0 0.01044715615309268 -0.0032149947271375426 0 0.010568778120038461 -0.0033645960687663269 0 0.010645463158834556 -0.0038035784832094678 0 0.010564929074898219 -0.0032579800074526528 0 0.010235868597700324 -0.0038949684615285259 0 0.01044715615309268 -0.0032149947271375426 0 0.010645463158834556 -0.0038035784832094678 0 0.010587297446268537 -0.0042782455237785318 0 0.0098876449273225531 -0.0033893491728903625 0 0.010116305111539053 -0.0032351318373794492 0 0.010081481448143784 -0.0035264946979198381 0 0.0098876449273225531 -0.0033893491728903625 0 0.010116305111539053 -0.0032351318373794492 0 0.010018954345275721 -0.002927140923566426 0 0.013438371441011737 -0.0037767281343382914 0 0.013449238288755012 -0.0036668149529356831 0 0.013390718372047966 -0.0037072185122074071 0 0.010116305111539053 -0.0032351318373794492 0 0.010018954345275721 -0.002927140923566426 0 0.010191432476742136 -0.0030040665034814663 0 0.011707523222399808 -0.0033955529928473695 0 0.011741937265625555 -0.0033718112785519846 0 0.010018954345275721 -0.002927140923566426 0 0.010191432476742136 -0.0030040665034814663 0 0.010134695470668423 -0.0028503264171194252 0 0.01044715615309268 -0.0032149947271375426 0 0.01028190216882641 -0.0029813493396923046 0 0.010102114626386036 -0.0027013692805176082 0 0.010191432476742136 -0.0030040665034814663 0 0.010200369821052517 -0.0028425668448642063 0 0.010134695470668423 -0.0028503264171194252 0 0.010116305111539053 -0.0032351318373794492 0 0.01027187485434798 -0.0030997619650426247 0 0.010191432476742136 -0.0030040665034814663 0 0.01027187485434798 -0.0030997619650426247 0 0.010191432476742136 -0.0030040665034814663 0 0.01028190216882641 -0.0029813493396923046 0 0.01044715615309268 -0.0032149947271375426 0 0.01027187485434798 -0.0030997619650426247 0 0.01028190216882641 -0.0029813493396923046 0 0.010191432476742136 -0.0030040665034814663 0 0.01028190216882641 -0.0029813493396923046 0 0.010200369821052517 -0.0028425668448642063 0 0.010568778120038461 -0.0033645960687663269 0 0.010448807047576386 -0.0029832813907454511 0 0.0099744651362914296 -0.0027415255013634367 0 0.010461756858383098 -0.0032633210938762384 0 0.010066120755565327 -0.0027647935943893669 0 0.01044715615309268 -0.0032149947271375426 0 0.010568778120038461 -0.0033645960687663269 0 0.010102114626386036 -0.0027013692805176082 0 0.01028190216882641 -0.0029813493396923046 0 0.010200369821052517 -0.0028425668448642063 0 0.010102114626386036 -0.0027013692805176082 0 0.010448807047576386 -0.0029832813907454511 0 0.0097182839522562334 -0.0026648574970237733 0 0.0099744651362914296 -0.0027415255013634367 0 0.0093900805715541186 -0.0025853680835362419 0 0.0095669856231507602 -0.0026850208484668118 0 0.0097182839522562334 -0.0026648574970237733 0 0.0093900805715541186 -0.0025853680835362419 0 0.0095669856231507602 -0.0026850208484668118 0 0.0092785829807260911 -0.0026567518340269562 0 0.0095669856231507602 -0.0026850208484668118 0 0.0097182839522562334 -0.0026648574970237733 0 0.0099744651362914296 -0.0027415255013634367 0 0.0093900805715541186 -0.0025853680835362419 0 0.0097182839522562334 -0.0026648574970237733 0 0.0092121146389362741 -0.0023517144402210779 0 0.0096074925340785388 -0.0023378113991890897 0 0.0092121146389362741 -0.0023517144402210779 0 0.0091772308824770808 -0.0019825893422757896 0 0.0097182839522562334 -0.0026648574970237733 0 0.0096074925340785388 -0.0023378113991890897 0 0.0092121146389362741 -0.0023517144402210779 0 0.010448807047576386 -0.0029832813907454511 0 0.0096074925340785388 -0.0023378113991890897 0 0.009776410406225438 -0.0016593713950065494 0 0.010448807047576386 -0.0029832813907454511 0 0.0097182839522562334 -0.0026648574970237733 0 0.0096074925340785388 -0.0023378113991890897 0 0.01052265379679709 -0.0030463283909023986 0 0.010759741712923531 -0.003300686784723162 0 0.010448807047576386 -0.0029832813907454511 0 0.011834296459528298 -0.0048647381876820873 0 0.011007507836465822 -0.0044545319683125702 0 0.0096074925340785388 -0.0023378113991890897 0 0.009776410406225438 -0.0016593713950065494 0 0.0091772308824770808 -0.0019825893422757896 0 0.009776410406225438 -0.0016593713950065494 0 0.009228958061516461 -0.0015759780307088979 0 0.0091772308824770808 -0.0019825893422757896 0 0.0092766819931406723 -0.0012863905955830426 0 0.009776410406225438 -0.0016593713950065494 0 0.009228958061516461 -0.0015759780307088979 0 0.011834296459528298 -0.0048647381876820873 0 0.011390206220660552 -0.0056610422058712999 0 0.011007507836465822 -0.0044545319683125702 0 0.010506123531086778 -0.0036667990791552784 0 0.010759741712923531 -0.003300686784723162 0 0.01178356973691122 -0.006079132640581345 0 0.011834296459528298 -0.0048647381876820873 0 0.011390206220660552 -0.0056610422058712999 0 0.011390206220660552 -0.0056610422058712999 0 0.011007507836465822 -0.0044545319683125702 0 0.010957572942551246 -0.0050721703016097667 0 0.011007507836465822 -0.0044545319683125702 0 0.010587297446268537 -0.0042782455237785318 0 0.010957572942551246 -0.0050721703016097667 0 0.010645463158834556 -0.0038035784832094678 0 0.011007507836465822 -0.0044545319683125702 0 0.010587297446268537 -0.0042782455237785318 0 0.0098876449273225531 -0.0033893491728903625 0 0.010081481448143784 -0.0035264946979198381 0 0.0097964199401105873 -0.0038493820844057729 0 0.010587297446268537 -0.0042782455237785318 0 0.010957572942551246 -0.0050721703016097667 0 0.010648074738233277 -0.0050989612589536397 0 0.010235868597700324 -0.0038949684615285259 0 0.011440286006456775 -0.004790328000395549 0 0.011181340017912197 -0.0057121325672178204 0 0.010957572942551246 -0.0050721703016097667 0 0.010648074738233277 -0.0050989612589536397 0 0.011181340017912197 -0.0057121325672178204 0 0.011390206220660552 -0.0056610422058712999 0 0.010957572942551246 -0.0050721703016097667 0 0.011826610912901636 -0.0067336886079741977 0 0.011872822621385892 -0.006751321058714922 0 0.011823535730584814 -0.006743933102521851 0 0.01335214575220425 -0.0039818865969771904 0 0.01333362115293539 -0.0038846173911676984 0 0.013416452453063539 -0.0038961350497045671 0 0.011053761487087036 -0.0058772358766775151 0 0.011181340017912197 -0.0057121325672178204 0 0.010648074738233277 -0.0050989612589536397 0 0.011421371895927242 -0.006479291644398426 0 0.011440286006456775 -0.004790328000395549 0 0.01272917031425394 -0.0053743931764022677 0 0.011440286006456775 -0.004790328000395549 0 0.01335214575220425 -0.0039818865969771904 0 0.01333362115293539 -0.0038846173911676984 0 0.013260615709136192 -0.0039166053730814382 0 0.01333362115293539 -0.0038846173911676984 0 0.013264126053924434 -0.0038073612763646768 0 0.013349646660509027 -0.0037812803625295256 0 0.01333362115293539 -0.0038846173911676984 0 0.013416452453063539 -0.0038961350497045671 0 0.013349646660509027 -0.0037812803625295256 0 0.011707523222399808 -0.0033955529928473695 0 0.011440286006456775 -0.004790328000395549 0 0.013438371441011737 -0.0037767281343382914 0 0.013416452453063539 -0.0038961350497045671 0 0.013349646660509027 -0.0037812803625295256 0 0.013168501790581783 -0.0039813586794797034 0 0.013260615709136192 -0.0039166053730814382 0 0.013161467795655676 -0.0038513226699879418 0 0.013247759091070864 -0.0040002258917103623 0 0.013168501790581783 -0.0039813586794797034 0 0.013260615709136192 -0.0039166053730814382 0 0.013247759091070864 -0.0040002258917103623 0 0.01335214575220425 -0.0039818865969771904 0 0.013260615709136192 -0.0039166053730814382 0 0.013260615709136192 -0.0039166053730814382 0 0.013161467795655676 -0.0038513226699879418 0 0.013264126053924434 -0.0038073612763646768 0 0.01333362115293539 -0.0038846173911676984 0 0.013260615709136192 -0.0039166053730814382 0 0.013264126053924434 -0.0038073612763646768 0 0.013161467795655676 -0.0038513226699879418 0 0.013194946889606266 -0.003756730249363282 0 0.013264126053924434 -0.0038073612763646768 0 0.013194946889606266 -0.003756730249363282 0 0.013264126053924434 -0.0038073612763646768 0 0.013270285617222511 -0.0037205451643195228 0 0.013270285617222511 -0.0037205451643195228 0 0.013187737582741653 -0.0036684724889016521 0 0.013270196393766406 -0.0036402624482331659 0 0.013270285617222511 -0.0037205451643195228 0 0.013331935052087593 -0.0036852310214424348 0 0.013270196393766406 -0.0036402624482331659 0 0.013194946889606266 -0.003756730249363282 0 0.013270285617222511 -0.0037205451643195228 0 0.013187737582741653 -0.0036684724889016521 0 0.013438371441011737 -0.0037767281343382914 0 0.013349646660509027 -0.0037812803625295256 0 0.013390718372047966 -0.0037072185122074071 0 0.013264126053924434 -0.0038073612763646768 0 0.013270285617222511 -0.0037205451643195228 0 0.013349646660509027 -0.0037812803625295256 0 0.013270285617222511 -0.0037205451643195228 0 0.013349646660509027 -0.0037812803625295256 0 0.013331935052087593 -0.0036852310214424348 0 0.013349646660509027 -0.0037812803625295256 0 0.013331935052087593 -0.0036852310214424348 0 0.013390718372047966 -0.0037072185122074071 0 0.013331935052087593 -0.0036852310214424348 0 0.013382637626408804 -0.0036336755613696438 0 0.013321396041527702 -0.0036199516222079177 0 0.013331935052087593 -0.0036852310214424348 0 0.013321396041527702 -0.0036199516222079177 0 0.013270196393766406 -0.0036402624482331659 0 0.013331935052087593 -0.0036852310214424348 0 0.013390718372047966 -0.0037072185122074071 0 0.013382637626408804 -0.0036336755613696438 0 0.013449238288755012 -0.0036668149529356831 0 0.013390718372047966 -0.0037072185122074071 0 0.013382637626408804 -0.0036336755613696438 0 0.013382637626408804 -0.0036336755613696438 0 0.013344818681612552 -0.0035743927958465597 0 0.013400183454352229 -0.0035669458625917816 0 0.013382637626408804 -0.0036336755613696438 0 0.013400183454352229 -0.0035669458625917816 0 0.013421583051612567 -0.0036102581441013566 0 0.013382637626408804 -0.0036336755613696438 0 0.013321396041527702 -0.0036199516222079177 0 0.013344818681612552 -0.0035743927958465597 0 0.013321396041527702 -0.0036199516222079177 0 0.013344818681612552 -0.0035743927958465597 0 0.013282357110850958 -0.0035697597954592892 0 0.013342961018452837 -0.0035249465781985118 0 0.013283911238745321 -0.0035661541390231769 0 0.012918622041526001 -0.00092866334246149128 0 0.012972457968444729 -0.00098836303204264016 0 0.012848280555621337 -0.00099805062116174693 0 0.01333790664597794 -0.0035386422688223388 0 0.013313985214338343 -0.0035201902233357105 0 0.013384014522443016 -0.0035182550473653444 0 0.01333790664597794 -0.0035386422688223388 0 0.013313985214338343 -0.0035201902233357105 0 0.013282357110850958 -0.0035697597954592892 0 0.01276472008096389 -0.00091286029673539769 0 0.012848280555621337 -0.00099805062116174693 0 0.012677483698152438 -0.00093143245569711789 0 0.012612817477215252 7.590377381243139e-05 0 0.012054148526284158 -0.001387696212463536 0 0.013161733003773976 -0.0021911717109788405 0 0.013173423892061706 -0.0026378927228380982 0 0.012918622041526001 -0.00092866334246149128 0 0.01276472008096389 -0.00091286029673539769 0 0.012848280555621337 -0.00099805062116174693 0 0.013342961018452837 -0.0035249465781985118 0 0.013173423892061706 -0.0026378927228380982 0 0.013097425102218849 -0.0035911653501823648 0 0.013187737582741653 -0.0036684724889016521 0 0.013215216302150579 -0.0035823237223703694 0 0.013187737582741653 -0.0036684724889016521 0 0.013215216302150579 -0.0035823237223703694 0 0.013270196393766406 -0.0036402624482331659 0 0.013215216302150579 -0.0035823237223703694 0 0.013270196393766406 -0.0036402624482331659 0 0.013282357110850958 -0.0035697597954592892 0 0.013321396041527702 -0.0036199516222079177 0 0.013270196393766406 -0.0036402624482331659 0 0.013282357110850958 -0.0035697597954592892 0 0.013215216302150579 -0.0035823237223703694 0 0.013282357110850958 -0.0035697597954592892 0 0.013218320098208034 -0.0034976514518782623 0 0.012918622041526001 -0.00092866334246149128 0 0.013078649301901869 -0.00094829517161192588 0 0.012972457968444729 -0.00098836303204264016 0 0.013161733003773976 -0.0021911717109788405 0 0.012783817466944162 -0.0022085664634124086 0 0.013313985214338343 -0.0035201902233357105 0 0.013282357110850958 -0.0035697597954592892 0 0.013218320098208034 -0.0034976514518782623 0 0.013162324344521574 -0.0035326057968444887 0 0.013126920519304237 -0.0034664517068076963 0 0.013218320098208034 -0.0034976514518782623 0 0.013162324344521574 -0.0035326057968444887 0 0.013215216302150579 -0.0035823237223703694 0 0.013218320098208034 -0.0034976514518782623 0 0.015005348985444675 -0.0020027981013706684 0 0.012783817466944162 -0.0022085664634124086 0 0.013246325099403223 -0.00097614758291954522 0 0.013078649301901869 -0.00094829517161192588 0 0.013142904451777612 -0.0010406864663780845 0 0.013078649301901869 -0.00094829517161192588 0 0.013142904451777612 -0.0010406864663780845 0 0.013022799786964441 -0.0010732912371461262 0 0.013078649301901869 -0.00094829517161192588 0 0.012972457968444729 -0.00098836303204264016 0 0.013022799786964441 -0.0010732912371461262 0 0.011562732354038898 0.0010519745393970758 0 0.01177532494044576 0.0013752292035838177 0 0.012043509997059547 0.0011577427404023417 0 0.011458946968363925 0.0017493993204829375 0 0.011562732354038898 0.0010519745393970758 0 0.01177532494044576 0.0013752292035838177 0 0.013205936276770667 -0.0011503674346234366 0 0.013142904451777612 -0.0010406864663780845 0 0.013022799786964441 -0.0010732912371461262 0 0.010986892608549167 0.0014803310963570793 0 0.010970597940792028 0.0013657731906312775 0 0.011562732354038898 0.0010519745393970758 0 0.013615634614063014 0.00029798125658803804 0 0.011971412102683434 -5.4835152469296116e-06 0 0.012127830059147462 0.0008289837401003053 0 0.012043509997059547 0.0011577427404023417 0 0.01233936170805564 0.0011911455416550633 0 0.012127830059147462 0.0008289837401003053 0 0.01233936170805564 0.0011911455416550633 0 0.012470788642021351 0.0008933799040851734 0 0.012972457968444729 -0.00098836303204264016 0 0.013022799786964441 -0.0010732912371461262 0 0.012848280555621337 -0.00099805062116174693 0 0.011971412102683434 -5.4835152469296116e-06 0 0.012612817477215252 7.590377381243139e-05 0 0.011562732354038898 0.0010519745393970758 0 0.012127830059147462 0.0008289837401003053 0 0.012043509997059547 0.0011577427404023417 0 0.012217187949519953 0.0014198540003525679 0 0.01177532494044576 0.0013752292035838177 0 0.012043509997059547 0.0011577427404023417 0 0.012217187949519953 0.0014198540003525679 0 0.012043509997059547 0.0011577427404023417 0 0.01233936170805564 0.0011911455416550633 0 0.01244572544252691 0.0014005777291837074 0 0.01233936170805564 0.0011911455416550633 0 0.01264344100997402 0.0010770847226354943 0 0.011184792883555355 -0.00098784215662809142 0 0.011268886491950068 -0.00090615383365944512 0 0.0098657480126211044 -0.0031146010805391563 0 0.0097884758183597442 -0.0029723033213959384 0 0.009675731060698892 -0.0030348558413582829 0 0.0098657480126211044 -0.0031146010805391563 0 0.0097884758183597442 -0.0029723033213959384 0 0.0099098679313890901 -0.0028576865802959319 0 0.011268886491950068 -0.00090615383365944512 0 0.011168964373374609 -0.0017009611852442919 0 0.01233936170805564 0.0011911455416550633 0 0.01264344100997402 0.0010770847226354943 0 0.012470788642021351 0.0008933799040851734 0 0.01264344100997402 0.0010770847226354943 0 0.012470788642021351 0.0008933799040851734 0 0.012574257970961046 0.00065620196643632726 0 0.013035446812271204 -0.0024455587127548573 0 0.011569470384455122 -0.00217478113201546 0 0.011901692273580984 -0.0026319363981892885 0 0.013173423892061706 -0.0026378927228380982 0 0.011474937674673755 -0.002964424008756223 0 0.012127830059147462 0.0008289837401003053 0 0.012470788642021351 0.0008933799040851734 0 0.012494207292932952 0.00064408797604387366 0 0.012470788642021351 0.0008933799040851734 0 0.012494207292932952 0.00064408797604387366 0 0.012574257970961046 0.00065620196643632726 0 0.013173423892061706 -0.0026378927228380982 0 0.012054148526284158 -0.001387696212463536 0 0.010499631409336836 -0.0028959679232444259 0 0.010515034943983436 -0.0028319923049628065 0 0.01039945306988011 -0.0028499862268427678 0 0.011502434573971198 -0.0024298485526551982 0 0.011569470384455122 -0.00217478113201546 0 0.011901692273580984 -0.0026319363981892885 0 0.011362717380989087 -0.0022029593424540239 0 0.011474937674673755 -0.002964424008756223 0 0.011362717380989087 -0.0022029593424540239 0 0.012054148526284158 -0.001387696212463536 0 0.012054148526284158 -0.001387696212463536 0 0.011168964373374609 -0.0017009611852442919 0 0.011342431371496091 -0.001439406262490386 0 0.011677491449475368 -0.0016081162662958475 0 0.0112804939967484 -0.0016743938992888911 0 0.011362717380989087 -0.0022029593424540239 0 0.011168964373374609 -0.0017009611852442919 0 0.011168964373374609 -0.0017009611852442919 0 0.0093090296799079094 -0.0033033534252531489 0 0.010492647002998869 -0.0029879556972444289 0 0.01039945306988011 -0.0028499862268427678 0 0.0097249379151073002 -0.0029295528249223212 0 0.0097884758183597442 -0.0029723033213959384 0 0.0099098679313890901 -0.0028576865802959319 0 0.0097249379151073002 -0.0029295528249223212 0 0.011362717380989087 -0.0022029593424540239 0 0.010973633841853941 -0.0022562562703543655 0 0.010515109540651744 -0.0029063736541353317 0 0.010492647002998869 -0.0029879556972444289 0 0.01039945306988011 -0.0028499862268427678 0 0.010128799742546322 -0.0027617535264814657 0 0.010146975464442102 -0.0028042280992012511 0 0.010134695470668423 -0.0028503264171194252 0 0.011474937674673755 -0.002964424008756223 0 0.0097227530645747073 -0.0027032540053342998 0 0.010128799742546322 -0.0027617535264814657 0 0.010146975464442102 -0.0028042280992012511 0 0.010111986618307752 -0.0027787505692151073 0 0.010515034943983436 -0.0028319923049628065 0 0.01039945306988011 -0.0028499862268427678 0 0.010111986618307752 -0.0027787505692151073 0 0.010200369821052517 -0.0028425668448642063 0 0.010146975464442102 -0.0028042280992012511 0 0.010111986618307752 -0.0027787505692151073 0 0.010200369821052517 -0.0028425668448642063 0 0.010146975464442102 -0.0028042280992012511 0 0.010134695470668423 -0.0028503264171194252 0 0.013400183454352229 -0.0035669458625917816 0 0.013453581530386616 -0.0035771133648094004 0 0.013421583051612567 -0.0036102581441013566 0 0.013449238288755012 -0.0036668149529356831 0 0.013382637626408804 -0.0036336755613696438 0 0.013421583051612567 -0.0036102581441013566 0 0.010018954345275721 -0.002927140923566426 0 0.010128799742546322 -0.0027617535264814657 0 0.010134695470668423 -0.0028503264171194252 0 0.011741937265625555 -0.0033718112785519846 0 0.011474937674673755 -0.002964424008756223 0 0.013449238288755012 -0.0036668149529356831 0 0.013453581530386616 -0.0035771133648094004 0 0.013421583051612567 -0.0036102581441013566 0 0.0093153514332890187 -0.002788698233762813 0 0.0099744651362914296 -0.0027415255013634367 0 0.0093009124547463184 -0.0029663056756080823 0 0.010066120755565327 -0.0027647935943893669 0 0.009396032975792834 -0.0029149716537909373 0 0.0095669856231507602 -0.0026850208484668118 0 0.0093153514332890187 -0.002788698233762813 0 0.0099744651362914296 -0.0027415255013634367 0 0.0095669856231507602 -0.0026850208484668118 0 0.0093153514332890187 -0.002788698233762813 0 0.0092785829807260911 -0.0026567518340269562 0 0.010102114626386036 -0.0027013692805176082 0 0.010111986618307752 -0.0027787505692151073 0 0.0097249379151073002 -0.0029295528249223212 0 0.010200369821052517 -0.0028425668448642063 0 0.010102114626386036 -0.0027013692805176082 0 0.010111986618307752 -0.0027787505692151073 0 0.01039945306988011 -0.0028499862268427678 0 0.010111986618307752 -0.0027787505692151073 0 0.0097249379151073002 -0.0029295528249223212 0 0.010102114626386036 -0.0027013692805176082 0 0.0097249379151073002 -0.0029295528249223212 0 0.0094791246593372396 -0.0028575644051569591 0 0.0097249379151073002 -0.0029295528249223212 0 0.0094791246593372396 -0.0028575644051569591 0 0.0094745275188177075 -0.0030366619172209103 0 0.0094791246593372396 -0.0028575644051569591 0 0.0094745275188177075 -0.0030366619172209103 0 0.0089603427713681148 -0.0031430570493553309 0 0.0094745275188177075 -0.0030366619172209103 0 0.009675731060698892 -0.0030348558413582829 0 0.009453316352074392 -0.0032514677449213725 0 0.0097884758183597442 -0.0029723033213959384 0 0.0097249379151073002 -0.0029295528249223212 0 0.009675731060698892 -0.0030348558413582829 0 0.0097249379151073002 -0.0029295528249223212 0 0.0094745275188177075 -0.0030366619172209103 0 0.009675731060698892 -0.0030348558413582829 0 0.0096952762168780494 -0.0035018054202695758 0 0.0098657480126211044 -0.0031146010805391563 0 0.009453316352074392 -0.0032514677449213725 0 0.0098657480126211044 -0.0031146010805391563 0 0.009675731060698892 -0.0030348558413582829 0 0.009453316352074392 -0.0032514677449213725 0 0.0094745275188177075 -0.0030366619172209103 0 0.009453316352074392 -0.0032514677449213725 0 0.0089603427713681148 -0.0031430570493553309 0 0.0089133675330362854 -0.003415206614059836 0 0.0089603427713681148 -0.0031430570493553309 0 0.0085193468107891482 -0.0032404121265618029 0 0.0089133675330362854 -0.003415206614059836 0 0.009453316352074392 -0.0032514677449213725 0 0.0089603427713681148 -0.0031430570493553309 0 0.0089603427713681148 -0.0031430570493553309 0 0.0085193468107891482 -0.0032404121265618029 0 0.0085651924383296288 -0.0029042983960404344 0 0.0089603427713681148 -0.0031430570493553309 0 0.0085651924383296288 -0.0029042983960404344 0 0.0089729159574430169 -0.0028612244809038947 0 0.0093009124547463184 -0.0029663056756080823 0 0.0089603427713681148 -0.0031430570493553309 0 0.0089729159574430169 -0.0028612244809038947 0 0.009396032975792834 -0.0029149716537909373 0 0.0089996734470681738 -0.0031515663905308934 0 0.0074982170776414789 -0.0032404342473905754 0 0.0078329077890239192 -0.0029871102494126085 0 0.0082019505951938781 -0.0034069965132863551 0 0.0080538270917640559 -0.003617978443002465 0 0.0078570010624111619 -0.0030270045243138833 0 0.0068910695056440463 -0.0030095727720032411 0 0.0078570010624111619 -0.0030270045243138833 0 0.0070856308797095282 -0.0029456543799465584 0 0.0082019505951938781 -0.0034069965132863551 0 0.0085193468107891482 -0.0032404121265618029 0 0.0078570010624111619 -0.0030270045243138833 0 0.0085193468107891482 -0.0032404121265618029 0 0.0085651924383296288 -0.0029042983960404344 0 0.0078570010624111619 -0.0030270045243138833 0 0.0085651924383296288 -0.0029042983960404344 0 0.0078570010624111619 -0.0030270045243138833 0 0.0081552343824329021 -0.0026425086038433599 0 0.0078570010624111619 -0.0030270045243138833 0 0.0075911983816337571 -0.0026478591004753236 0 0.0070856308797095282 -0.0029456543799465584 0 0.0075911983816337571 -0.0026478591004753236 0 0.0081552343824329021 -0.0026425086038433599 0 0.0078568525790297539 -0.0023358375815876703 0 0.0078570010624111619 -0.0030270045243138833 0 0.0075911983816337571 -0.0026478591004753236 0 0.0081552343824329021 -0.0026425086038433599 0 0.0081552343824329021 -0.0026425086038433599 0 0.0078568525790297539 -0.0023358375815876703 0 0.0083579312328931604 -0.0023759175439951176 0 0.0081552343824329021 -0.0026425086038433599 0 0.0086731092785878698 -0.0026243657508659163 0 0.0083579312328931604 -0.0023759175439951176 0 0.0093153514332890187 -0.002788698233762813 0 0.0093009124547463184 -0.0029663056756080823 0 0.0089729159574430169 -0.0028612244809038947 0 0.0085651924383296288 -0.0029042983960404344 0 0.0081552343824329021 -0.0026425086038433599 0 0.0086731092785878698 -0.0026243657508659163 0 0.0085651924383296288 -0.0029042983960404344 0 0.0089729159574430169 -0.0028612244809038947 0 0.0086731092785878698 -0.0026243657508659163 0 0.0086731092785878698 -0.0026243657508659163 0 0.0087687972482069082 -0.0023586589072440616 0 0.0083579312328931604 -0.0023759175439951176 0 0.0086731092785878698 -0.0026243657508659163 0 0.0089970952126897426 -0.0026434899229503183 0 0.0087687972482069082 -0.0023586589072440616 0 0.0089729159574430169 -0.0028612244809038947 0 0.0086731092785878698 -0.0026243657508659163 0 0.0089970952126897426 -0.0026434899229503183 0 0.0093153514332890187 -0.002788698233762813 0 0.0089729159574430169 -0.0028612244809038947 0 0.0089970952126897426 -0.0026434899229503183 0 0.0089970952126897426 -0.0026434899229503183 0 0.0092785829807260911 -0.0026567518340269562 0 0.0091144367432487126 -0.0025195178762135819 0 0.0093153514332890187 -0.002788698233762813 0 0.0089970952126897426 -0.0026434899229503183 0 0.0092785829807260911 -0.0026567518340269562 0 0.0091144367432487126 -0.0025195178762135819 0 0.0092121146389362741 -0.0023517144402210779 0 0.0087687972482069082 -0.0023586589072440616 0 0.0093900805715541186 -0.0025853680835362419 0 0.0092785829807260911 -0.0026567518340269562 0 0.0091144367432487126 -0.0025195178762135819 0 0.0089970952126897426 -0.0026434899229503183 0 0.0091144367432487126 -0.0025195178762135819 0 0.0087687972482069082 -0.0023586589072440616 0 0.0093900805715541186 -0.0025853680835362419 0 0.0091144367432487126 -0.0025195178762135819 0 0.0092121146389362741 -0.0023517144402210779 0 0.0092121146389362741 -0.0023517144402210779 0 0.0088258309912449626 -0.0020771481405468472 0 0.0087687972482069082 -0.0023586589072440616 0 0.0092121146389362741 -0.0023517144402210779 0 0.0088258309912449626 -0.0020771481405468472 0 0.0091772308824770808 -0.0019825893422757896 0 0.0088258309912449626 -0.0020771481405468472 0 0.0087687972482069082 -0.0023586589072440616 0 0.0084377860102029228 -0.0021060956682093322 0 0.0085564206557696611 -0.0019062594277230323 0 0.0088258309912449626 -0.0020771481405468472 0 0.0084377860102029228 -0.0021060956682093322 0 0.0087687972482069082 -0.0023586589072440616 0 0.0083579312328931604 -0.0023759175439951176 0 0.0084377860102029228 -0.0021060956682093322 0 0.0083579312328931604 -0.0023759175439951176 0 0.0081286510449145935 -0.0021418135052728316 0 0.0084377860102029228 -0.0021060956682093322 0 0.0078568525790297539 -0.0023358375815876703 0 0.0083579312328931604 -0.0023759175439951176 0 0.0081286510449145935 -0.0021418135052728316 0 0.0078568525790297539 -0.0023358375815876703 0 0.0081286510449145935 -0.0021418135052728316 0 0.0077889934131048465 -0.00194700487858984 0 0.0078568525790297539 -0.0023358375815876703 0 0.0077889934131048465 -0.00194700487858984 0 0.0074507253482753192 -0.0021124793121845122 0 0.0081286510449145935 -0.0021418135052728316 0 0.0077889934131048465 -0.00194700487858984 0 0.0081959874383028489 -0.0019013657234125312 0 0.0077889934131048465 -0.00194700487858984 0 0.0079547280895886727 -0.0016633753026273786 0 0.0076112704151663846 -0.0016276199037881702 0 0.0077889934131048465 -0.00194700487858984 0 0.0081959874383028489 -0.0019013657234125312 0 0.0079547280895886727 -0.0016633753026273786 0 0.0081286510449145935 -0.0021418135052728316 0 0.0084377860102029228 -0.0021060956682093322 0 0.0081959874383028489 -0.0019013657234125312 0 0.0085564206557696611 -0.0019062594277230323 0 0.0084377860102029228 -0.0021060956682093322 0 0.0081959874383028489 -0.0019013657234125312 0 0.0085564206557696611 -0.0019062594277230323 0 0.0081959874383028489 -0.0019013657234125312 0 0.0083935603018728301 -0.0016941545927975971 0 0.0081959874383028489 -0.0019013657234125312 0 0.0083935603018728301 -0.0016941545927975971 0 0.0079547280895886727 -0.0016633753026273786 0 0.0083935603018728301 -0.0016941545927975971 0 0.0079547280895886727 -0.0016633753026273786 0 0.0080608136794340646 -0.001423454190013114 0 0.0079547280895886727 -0.0016633753026273786 0 0.0080608136794340646 -0.001423454190013114 0 0.0076942881549718276 -0.0013766183075101309 0 0.0080608136794340646 -0.001423454190013114 0 0.0076942881549718276 -0.0013766183075101309 0 0.0078228672864868228 -0.0011804597194644477 0 0.0083935603018728301 -0.0016941545927975971 0 0.008445559325313436 -0.0014410138983404067 0 0.0086819410771013551 -0.0015663972600990757 0 0.0083935603018728301 -0.0016941545927975971 0 0.0080608136794340646 -0.001423454190013114 0 0.008445559325313436 -0.0014410138983404067 0 0.0080608136794340646 -0.001423454190013114 0 0.008445559325313436 -0.0014410138983404067 0 0.0081909528705200654 -0.001289980214693328 0 0.0086819410771013551 -0.0015663972600990757 0 0.0090296573286155861 -0.0014430916750610707 0 0.0088570014731135342 -0.0017640364000937726 0 0.008445559325313436 -0.0014410138983404067 0 0.0086819410771013551 -0.0015663972600990757 0 0.0087678237626395809 -0.0013941176471471014 0 0.0086819410771013551 -0.0015663972600990757 0 0.0090296573286155861 -0.0014430916750610707 0 0.0087678237626395809 -0.0013941176471471014 0 0.0092766819931406723 -0.0012863905955830426 0 0.0090296573286155861 -0.0014430916750610707 0 0.009228958061516461 -0.0015759780307088979 0 0.0090296573286155861 -0.0014430916750610707 0 0.009228958061516461 -0.0015759780307088979 0 0.0088570014731135342 -0.0017640364000937726 0 0.009228958061516461 -0.0015759780307088979 0 0.0091772308824770808 -0.0019825893422757896 0 0.0088570014731135342 -0.0017640364000937726 0 0.0088258309912449626 -0.0020771481405468472 0 0.0091772308824770808 -0.0019825893422757896 0 0.0088570014731135342 -0.0017640364000937726 0 0.0085564206557696611 -0.0019062594277230323 0 0.0088258309912449626 -0.0020771481405468472 0 0.0088570014731135342 -0.0017640364000937726 0 0.0083935603018728301 -0.0016941545927975971 0 0.0086819410771013551 -0.0015663972600990757 0 0.0088570014731135342 -0.0017640364000937726 0 0.0085564206557696611 -0.0019062594277230323 0 0.0083935603018728301 -0.0016941545927975971 0 0.0088570014731135342 -0.0017640364000937726 0 0.0071996462340674708 -0.0013062706044148177 0 0.0067997185007534428 -0.001565998181322636 0 0.0068643779395161806 -0.0011235613050722801 0 0.0072421977245361452 -0.0013181244241630009 0 0.0067175676981757271 -0.0014552627250985087 0 0.0064412608129027198 -0.0010313107799038376 0 0.0068643779395161806 -0.0011235613050722801 0 0.0067175676981757271 -0.0014552627250985087 0 0.0064412608129027198 -0.0010313107799038376 0 0.0061401155890756587 -0.0012722447999090408 0 0.0059377459820743493 -0.00085251084895384083 0 0.0064412608129027198 -0.0010313107799038376 0 0.0067175676981757271 -0.0014552627250985087 0 0.0061401155890756587 -0.0012722447999090408 0 0.0064412608129027198 -0.0010313107799038376 0 0.0059377459820743493 -0.00085251084895384083 0 0.0062145449263383799 -0.00054804844625520454 0 0.0064412608129027198 -0.0010313107799038376 0 0.0066693616221793163 -0.00078996034476021769 0 0.0062145449263383799 -0.00054804844625520454 0 0.0064412608129027198 -0.0010313107799038376 0 0.0066693616221793163 -0.00078996034476021769 0 0.0068643779395161806 -0.0011235613050722801 0 0.0066693616221793163 -0.00078996034476021769 0 0.0068643779395161806 -0.0011235613050722801 0 0.0071983754299382342 -0.00095062513361088481 0 0.0074864879321729968 -0.0011182832627351883 0 0.0072421977245361452 -0.0013181244241630009 0 0.0071983754299382342 -0.00095062513361088481 0 0.0068643779395161806 -0.0011235613050722801 0 0.0072421977245361452 -0.0013181244241630009 0 0.0071983754299382342 -0.00095062513361088481 0 0.0074864879321729968 -0.0011182832627351883 0 0.0076942881549718276 -0.0013766183075101309 0 0.0072421977245361452 -0.0013181244241630009 0 0.0074864879321729968 -0.0011182832627351883 0 0.0076942881549718276 -0.0013766183075101309 0 0.0078228672864868228 -0.0011804597194644477 0 0.0076942881549718276 -0.0013766183075101309 0 0.0076112704151663846 -0.0016276199037881702 0 0.0072421977245361452 -0.0013181244241630009 0 0.0079547280895886727 -0.0016633753026273786 0 0.0076942881549718276 -0.0013766183075101309 0 0.0076112704151663846 -0.0016276199037881702 0 0.0076112704151663846 -0.0016276199037881702 0 0.0072421977245361452 -0.0013181244241630009 0 0.0073382476305281046 -0.0018235949831566772 0 0.0072421977245361452 -0.0013181244241630009 0 0.0073382476305281046 -0.0018235949831566772 0 0.0068464448979391754 -0.001691654128446635 0 0.0073382476305281046 -0.0018235949831566772 0 0.0070143595145913951 -0.0020614902597037928 0 0.0068464448979391754 -0.001691654128446635 0 0.0077889934131048465 -0.00194700487858984 0 0.0073382476305281046 -0.0018235949831566772 0 0.0074507253482753192 -0.0021124793121845122 0 0.0077889934131048465 -0.00194700487858984 0 0.0076112704151663846 -0.0016276199037881702 0 0.0073382476305281046 -0.0018235949831566772 0 0.0074507253482753192 -0.0021124793121845122 0 0.0070143595145913951 -0.0020614902597037928 0 0.0072791424159600318 -0.0023864911774189022 0 0.0073382476305281046 -0.0018235949831566772 0 0.0074507253482753192 -0.0021124793121845122 0 0.0070143595145913951 -0.0020614902597037928 0 0.0070143595145913951 -0.0020614902597037928 0 0.0064949032139923609 -0.0019594344608991196 0 0.0066656658309868317 -0.0023268000461055568 0 0.0070143595145913951 -0.0020614902597037928 0 0.0068464448979391754 -0.001691654128446635 0 0.0064949032139923609 -0.0019594344608991196 0 0.0067175676981757271 -0.0014552627250985087 0 0.0062925975492024973 -0.0016838182218873899 0 0.0061401155890756587 -0.0012722447999090408 0 0.0067997185007534428 -0.001565998181322636 0 0.006396191841495107 -0.0018224171617778106 0 0.0064949032139923609 -0.0019594344608991196 0 0.0066656658309868317 -0.0023268000461055568 0 0.0061423556818778462 -0.002160632341925213 0 0.0066656658309868317 -0.0023268000461055568 0 0.0069905630728961977 -0.0026739535373237117 0 0.0065056988774284804 -0.0025793451768123723 0 0.0066656658309868317 -0.0023268000461055568 0 0.0061423556818778462 -0.002160632341925213 0 0.0062491925926494232 -0.0024080655484812661 0 0.0066656658309868317 -0.0023268000461055568 0 0.0065056988774284804 -0.0025793451768123723 0 0.0062491925926494232 -0.0024080655484812661 0 0.0078568525790297539 -0.0023358375815876703 0 0.0074507253482753192 -0.0021124793121845122 0 0.0072791424159600318 -0.0023864911774189022 0 0.0075911983816337571 -0.0026478591004753236 0 0.0078568525790297539 -0.0023358375815876703 0 0.0072791424159600318 -0.0023864911774189022 0 0.0070143595145913951 -0.0020614902597037928 0 0.0066656658309868317 -0.0023268000461055568 0 0.0072791424159600318 -0.0023864911774189022 0 0.0066656658309868317 -0.0023268000461055568 0 0.0072791424159600318 -0.0023864911774189022 0 0.0069905630728961977 -0.0026739535373237117 0 0.0075911983816337571 -0.0026478591004753236 0 0.0072791424159600318 -0.0023864911774189022 0 0.0069905630728961977 -0.0026739535373237117 0 0.0075911983816337571 -0.0026478591004753236 0 0.0069905630728961977 -0.0026739535373237117 0 0.0070856308797095282 -0.0029456543799465584 0 0.0069905630728961977 -0.0026739535373237117 0 0.0068234180454402405 -0.0028916778322960199 0 0.006681378250177822 -0.0027845670637702954 0 0.0069905630728961977 -0.0026739535373237117 0 0.0068234180454402405 -0.0028916778322960199 0 0.0070856308797095282 -0.0029456543799465584 0 0.006831802642075723 -0.002942366668045285 0 0.0068234180454402405 -0.0028916778322960199 0 0.0070856308797095282 -0.0029456543799465584 0 0.0065056988774284804 -0.0025793451768123723 0 0.0064147076489481404 -0.0027932445690701624 0 0.0061431585084862845 -0.002631191940892614 0 0.0065056988774284804 -0.0025793451768123723 0 0.0061431585084862845 -0.002631191940892614 0 0.0062491925926494232 -0.0024080655484812661 0 0.0065056988774284804 -0.0025793451768123723 0 0.006681378250177822 -0.0027845670637702954 0 0.0064147076489481404 -0.0027932445690701624 0 0.0069905630728961977 -0.0026739535373237117 0 0.0065056988774284804 -0.0025793451768123723 0 0.006681378250177822 -0.0027845670637702954 0 0.0066117932920618291 -0.0028886974608946119 0 0.006681378250177822 -0.0027845670637702954 0 0.0064147076489481404 -0.0027932445690701624 0 0.0066117932920618291 -0.0028886974608946119 0 0.0068234180454402405 -0.0028916778322960199 0 0.006681378250177822 -0.0027845670637702954 0 0.0063593531783924023 -0.002938668627763822 0 0.0064147076489481404 -0.0027932445690701624 0 0.0061376625955567882 -0.0028369851571895814 0 0.0064147076489481404 -0.0027932445690701624 0 0.0061376625955567882 -0.0028369851571895814 0 0.0061431585084862845 -0.002631191940892614 0 0.0059698147586210717 -0.0030000222423084305 0 0.0061376625955567882 -0.0028369851571895814 0 0.0058190576543339853 -0.0027920539755246971 0 0.0061376625955567882 -0.0028369851571895814 0 0.0061431585084862845 -0.002631191940892614 0 0.0058190576543339853 -0.0027920539755246971 0 0.0061431585084862845 -0.002631191940892614 0 0.0062491925926494232 -0.0024080655484812661 0 0.0056790065235515852 -0.0023562892633258075 0 0.0058190576543339853 -0.0027920539755246971 0 0.0054400035374710387 -0.0027870815430816312 0 0.0056790065235515852 -0.0023562892633258075 0 0.0061431585084862845 -0.002631191940892614 0 0.0058190576543339853 -0.0027920539755246971 0 0.0056790065235515852 -0.0023562892633258075 0 0.0055679072019266963 -0.0030199475867588228 0 0.0058190576543339853 -0.0027920539755246971 0 0.0054400035374710387 -0.0027870815430816312 0 0.0051100139541545376 -0.0030593943869293605 0 0.0054400035374710387 -0.0027870815430816312 0 0.0050882167242444747 -0.0026440080558845259 0 0.0051100139541545376 -0.0030593943869293605 0 0.0047473111664731726 -0.0028799972586447571 0 0.0050882167242444747 -0.0026440080558845259 0 0.0047473111664731726 -0.0028799972586447571 0 0.004640260069325536 -0.0024738351321316882 0 0.0050882167242444747 -0.0026440080558845259 0 0.004640260069325536 -0.0024738351321316882 0 0.0050882167242444747 -0.0026440080558845259 0 0.0050679044267428475 -0.0022455326445558095 0 0.0054400035374710387 -0.0027870815430816312 0 0.0050882167242444747 -0.0026440080558845259 0 0.0056790065235515852 -0.0023562892633258075 0 0.0050882167242444747 -0.0026440080558845259 0 0.0050679044267428475 -0.0022455326445558095 0 0.0056790065235515852 -0.0023562892633258075 0 0.0050679044267428475 -0.0022455326445558095 0 0.0051944629630139129 -0.0018608372846461816 0 0.0056790065235515852 -0.0023562892633258075 0 0.004640260069325536 -0.0024738351321316882 0 0.0050679044267428475 -0.0022455326445558095 0 0.0045578202020073949 -0.0019764129851602683 0 0.0050679044267428475 -0.0022455326445558095 0 0.0051944629630139129 -0.0018608372846461816 0 0.0045578202020073949 -0.0019764129851602683 0 0.0045578202020073949 -0.0019764129851602683 0 0.0044256614990988491 -0.0016516824009208918 0 0.0048294275519210122 -0.0015621104878397166 0 0.0051944629630139129 -0.0018608372846461816 0 0.0045578202020073949 -0.0019764129851602683 0 0.0048294275519210122 -0.0015621104878397166 0 0.0056162439537002749 -0.0017792032038342548 0 0.0059434415820122429 -0.0019861112635737709 0 0.0056790065235515852 -0.0023562892633258075 0 0.0051944629630139129 -0.0018608372846461816 0 0.0056162439537002749 -0.0017792032038342548 0 0.0056790065235515852 -0.0023562892633258075 0 0.006396191841495107 -0.0018224171617778106 0 0.006031671025156996 -0.0020849586535796475 0 0.0061423556818778462 -0.002160632341925213 0 0.0062491925926494232 -0.0024080655484812661 0 0.0056790065235515852 -0.0023562892633258075 0 0.006031671025156996 -0.0020849586535796475 0 0.0057037059024090233 -0.0023583082315444415 0 0.0020917026254698881 -0.0017606385861020138 0 0.0017559168767454748 -0.0020146914352750268 0 0.0018380740402228768 -0.0022067475205114605 0 0.0014944891024938583 -0.001779106171224181 0 0.0017284935773164858 -0.0013586601656629031 0 0.0020917026254698881 -0.0017606385861020138 0 0.0014944891024938583 -0.001779106171224181 0 0.0020917026254698881 -0.0017606385861020138 0 0.0017559168767454748 -0.0020146914352750268 0 0.0020219140923244225 -0.0024216687039487652 0 0.0020917026254698881 -0.0017606385861020138 0 0.0018380740402228768 -0.0022067475205114605 0 0.0024578090846872113 -0.0030317334047562212 0 0.002076815470102748 -0.0016859953215025481 0 0.0015600138016692814 -0.0022286980420459135 0 0.0017559168767454748 -0.0020146914352750268 0 0.0018380740402228768 -0.0022067475205114605 0 0.0017179260112641086 -0.0024734273449437197 0 0.0015600138016692814 -0.0022286980420459135 0 0.0018380740402228768 -0.0022067475205114605 0 0.0027280514903774656 -0.0032664740560389358 0 0.0020917026254698881 -0.0017606385861020138 0 0.0034073766408925944 -0.0030031142245109735 0 0.00339297491619759 -0.0029707116110757182 0 0.003197047436337802 -0.0021368081070690026 0 0.0020917026254698881 -0.0017606385861020138 0 0.0034073766408925944 -0.0030031142245109735 0 0.0028807358099016559 -0.0017630300470363983 0 0.0020917026254698881 -0.0017606385861020138 0 0.0028807358099016559 -0.0017630300470363983 0 0.002135950750155016 -0.0013365346502417967 0 0.0035245704326778149 -0.0024249352492615259 0 0.0038217304053981523 -0.0026194239226690467 0 0.0041195081655931937 -0.0023180792061235555 0 0.0038217304053981523 -0.0026194239226690467 0 0.0042223064082411409 -0.0028185972070611902 0 0.0041195081655931937 -0.0023180792061235555 0 0.0034073766408925944 -0.0030031142245109735 0 0.0035245704326778149 -0.0024249352492615259 0 0.0038217304053981523 -0.0026194239226690467 0 0.0034073766408925944 -0.0030031142245109735 0 0.0038217304053981523 -0.0026194239226690467 0 0.0042223064082411409 -0.0028185972070611902 0 0.0038540424345836961 -0.0034229570565736667 0 0.0034073766408925944 -0.0030031142245109735 0 0.0042223064082411409 -0.0028185972070611902 0 0.0047473111664731726 -0.0028799972586447571 0 0.004640260069325536 -0.0024738351321316882 0 0.0042223064082411409 -0.0028185972070611902 0 0.004640260069325536 -0.0024738351321316882 0 0.0042223064082411409 -0.0028185972070611902 0 0.0041195081655931937 -0.0023180792061235555 0 0.004640260069325536 -0.0024738351321316882 0 0.0041195081655931937 -0.0023180792061235555 0 0.0045578202020073949 -0.0019764129851602683 0 0.0041195081655931937 -0.0023180792061235555 0 0.0045578202020073949 -0.0019764129851602683 0 0.0039407707581395656 -0.0017696650786014859 0 0.0045578202020073949 -0.0019764129851602683 0 0.0039407707581395656 -0.0017696650786014859 0 0.0044256614990988491 -0.0016516824009208918 0 0.0039407707581395656 -0.0017696650786014859 0 0.0037402250921980545 -0.002111133569624116 0 0.0033804233017170012 -0.001926809350045235 0 0.0041195081655931937 -0.0023180792061235555 0 0.0039407707581395656 -0.0017696650786014859 0 0.0037402250921980545 -0.002111133569624116 0 0.0035245704326778149 -0.0024249352492615259 0 0.0041195081655931937 -0.0023180792061235555 0 0.0037402250921980545 -0.002111133569624116 0 0.003197047436337802 -0.0021368081070690026 0 0.0029242794019284841 -0.0014650621243697034 0 0.0028807358099016559 -0.0017630300470363983 0 0.0024531290928177575 -0.00099335523457401279 0 0.002135950750155016 -0.0013365346502417967 0 0.0035245704326778149 -0.0024249352492615259 0 0.0037402250921980545 -0.002111133569624116 0 0.0033804233017170012 -0.001926809350045235 0 0.0039407707581395656 -0.0017696650786014859 0 0.0033804233017170012 -0.001926809350045235 0 0.0030847272059660964 -0.0013492903130824677 0 0.0017429236860393377 -0.00099518725150721764 0 0.0024531290928177575 -0.00099335523457401279 0 0.0019521587401990117 -0.00068299314641898079 0 0.0017429236860393377 -0.00099518725150721764 0 0.0024531290928177575 -0.00099335523457401279 0 0.002135950750155016 -0.0013365346502417967 0 0.0017284935773164858 -0.0013586601656629031 0 0.0017429236860393377 -0.00099518725150721764 0 0.002135950750155016 -0.0013365346502417967 0 0.0017284935773164858 -0.0013586601656629031 0 0.0020917026254698881 -0.0017606385861020138 0 0.002135950750155016 -0.0013365346502417967 0 0.0023419078005353935 -0.00056351609235061372 0 0.0025691436982453789 -0.00027476377735540772 0 0.0020901067851442153 -0.00019435975052101305 0 0.0018294509453882089 -0.00038881292349799448 0 0.0023419078005353935 -0.00056351609235061372 0 0.0020901067851442153 -0.00019435975052101305 0 0.0018294509453882089 -0.00038881292349799448 0 0.0019521587401990117 -0.00068299314641898079 0 0.0023419078005353935 -0.00056351609235061372 0 0.0024531290928177575 -0.00099335523457401279 0 0.0019521587401990117 -0.00068299314641898079 0 0.0023419078005353935 -0.00056351609235061372 0 0.0029242794019284841 -0.0014650621243697034 0 0.0027150404109921029 -0.00091897494805356114 0 0.0030847272059660964 -0.0013492903130824677 0 0.00313919761723874 -0.00052426166676222588 0 0.0025691436982453789 -0.00027476377735540772 0 0.0030847272059660964 -0.0013492903130824677 0 0.0036293323797972022 -0.00076624412892136763 0 0.0038276901732196768 -0.0012818625640901042 0 0.0030847272059660964 -0.0013492903130824677 0 0.0036293323797972022 -0.00076624412892136763 0 0.00313919761723874 -0.00052426166676222588 0 0.0027150404109921029 -0.00091897494805356114 0 0.002576304568039325 -0.00028641231815638231 0 0.0036293323797972022 -0.00076624412892136763 0 0.0038276901732196768 -0.0012818625640901042 0 0.0042378530520744626 -0.00088867929726573012 0 0.0039407707581395656 -0.0017696650786014859 0 0.0030847272059660964 -0.0013492903130824677 0 0.0038276901732196768 -0.0012818625640901042 0 0.0039407707581395656 -0.0017696650786014859 0 0.0038276901732196768 -0.0012818625640901042 0 0.0043342564748393509 -0.0012817041041807973 0 0.0044256614990988491 -0.0016516824009208918 0 0.0043342564748393509 -0.0012817041041807973 0 0.0048294275519210122 -0.0015621104878397166 0 0.0039407707581395656 -0.0017696650786014859 0 0.0044256614990988491 -0.0016516824009208918 0 0.0043342564748393509 -0.0012817041041807973 0 0.0038276901732196768 -0.0012818625640901042 0 0.0043342564748393509 -0.0012817041041807973 0 0.0042378530520744626 -0.00088867929726573012 0 0.0043342564748393509 -0.0012817041041807973 0 0.0042378530520744626 -0.00088867929726573012 0 0.0047468099566470058 -0.0011831718536636485 0 0.0039689403352793449 -0.0004053509208036528 0 0.0046864298883777826 -0.00078077255327327919 0 0.0047254420893242787 -0.00022263723163817815 0 0.0042378530520744626 -0.00088867929726573012 0 0.0039689403352793449 -0.0004053509208036528 0 0.0046864298883777826 -0.00078077255327327919 0 0.0037529350656123586 0.00011142319023094466 0 0.0044373168405993828 -0.00017973764406125058 0 0.0040273940512588358 0.00025946324640355124 0 0.0039689403352793449 -0.0004053509208036528 0 0.0048995766994142679 0.00036509607384479972 0 0.0041568273836050332 -0.00029648868134599798 0 0.0044373168405993828 -0.00017973764406125058 0 0.0034685119440125214 -8.4684955477310503e-05 0 0.0031326798783421228 0.00013114618229414 0 0.0033033864203211791 0.00012792257488548566 0 0.0040273940512588358 0.00025946324640355124 0 0.0034534659287278118 -0.00024368562009900087 0 0.0039689403352793449 -0.0004053509208036528 0 0.0037529350656123586 0.00011142319023094466 0 0.0031984957930570354 0.00010742656900763615 0 0.0040273940512588358 0.00025946324640355124 0 0.0034534659287278118 -0.00024368562009900087 0 0.0031326798783421228 0.00013114618229414 0 0.0036293323797972022 -0.00076624412892136763 0 0.0042378530520744626 -0.00088867929726573012 0 0.0039689403352793449 -0.0004053509208036528 0 0.0036293323797972022 -0.00076624412892136763 0 0.0034534659287278118 -0.00024368562009900087 0 0.0039689403352793449 -0.0004053509208036528 0 0.0036293323797972022 -0.00076624412892136763 0 0.0034534659287278118 -0.00024368562009900087 0 0.00313919761723874 -0.00052426166676222588 0 0.00313919761723874 -0.00052426166676222588 0 0.0029361600416376466 -8.9909391454576405e-05 0 0.0025691436982453789 -0.00027476377735540772 0 0.0034534659287278118 -0.00024368562009900087 0 0.00313919761723874 -0.00052426166676222588 0 0.0029361600416376466 -8.9909391454576405e-05 0 0.0034534659287278118 -0.00024368562009900087 0 0.0029361600416376466 -8.9909391454576405e-05 0 0.0031326798783421228 0.00013114618229414 0 0.0031326798783421228 0.00013114618229414 0 0.0029482906377265557 0.00014089323285299151 0 0.0031424341309308312 0.00020390685498432567 0 0.0029361600416376466 -8.9909391454576405e-05 0 0.0031326798783421228 0.00013114618229414 0 0.0029482906377265557 0.00014089323285299151 0 0.0029361600416376466 -8.9909391454576405e-05 0 0.0029482906377265557 0.00014089323285299151 0 0.002487674461659874 -4.9108500161330958e-06 0 0.0029482906377265557 0.00014089323285299151 0 0.002487674461659874 -4.9108500161330958e-06 0 0.00302750957591552 0.00024315002242612286 0 0.0025019983923942313 -2.8542984368586899e-05 0 0.0025504206608928941 0.00027960128707754645 0 0.002163553286606243 0.00025664647909117582 0 0.002487674461659874 -4.9108500161330958e-06 0 0.0020775137021521281 0.00043992212785289438 0 0.002163553286606243 0.00025664647909117582 0 0.0021044631894136232 0.00039129515363754518 0 0.0020775137021521281 0.00043992212785289438 0 0.002008369299363474 0.00024983783697119091 0 0.002163553286606243 0.00025664647909117582 0 0.0021044631894136232 0.00039129515363754518 0 0.002081977387262911 8.2383522259081346e-05 0 0.002163553286606243 0.00025664647909117582 0 0.002487674461659874 -4.9108500161330958e-06 0 0.002081977387262911 8.2383522259081346e-05 0 0.002487674461659874 -4.9108500161330958e-06 0 0.0020901067851442153 -0.00019435975052101305 0 0.0029361600416376466 -8.9909391454576405e-05 0 0.002487674461659874 -4.9108500161330958e-06 0 0.0025691436982453789 -0.00027476377735540772 0 0.002487674461659874 -4.9108500161330958e-06 0 0.0025691436982453789 -0.00027476377735540772 0 0.0020901067851442153 -0.00019435975052101305 0 0.0057809295273802659 -0.0014868542666635052 0 0.0051847343923174223 -0.0012775015109190613 0 0.0056254941524068831 -0.0010315552611894728 0 0.0062925975492024973 -0.0016838182218873899 0 0.0061401155890756587 -0.0012722447999090408 0 0.0057809295273802659 -0.0014868542666635052 0 0.0061401155890756587 -0.0012722447999090408 0 0.0057809295273802659 -0.0014868542666635052 0 0.0056254941524068831 -0.0010315552611894728 0 0.0056162439537002749 -0.0017792032038342548 0 0.0059434415820122429 -0.0019861112635737709 0 0.0057809295273802659 -0.0014868542666635052 0 0.0062925975492024973 -0.0016838182218873899 0 0.0059434415820122429 -0.0019861112635737709 0 0.0057809295273802659 -0.0014868542666635052 0 0.0056162439537002749 -0.0017792032038342548 0 0.0057809295273802659 -0.0014868542666635052 0 0.0051847343923174223 -0.0012775015109190613 0 0.0051944629630139129 -0.0018608372846461816 0 0.0056162439537002749 -0.0017792032038342548 0 0.0051847343923174223 -0.0012775015109190613 0 0.0051944629630139129 -0.0018608372846461816 0 0.0048294275519210122 -0.0015621104878397166 0 0.0051847343923174223 -0.0012775015109190613 0 0.0043342564748393509 -0.0012817041041807973 0 0.0048294275519210122 -0.0015621104878397166 0 0.0047468099566470058 -0.0011831718536636485 0 0.0048294275519210122 -0.0015621104878397166 0 0.0047468099566470058 -0.0011831718536636485 0 0.0051847343923174223 -0.0012775015109190613 0 0.0047468099566470058 -0.0011831718536636485 0 0.0051847343923174223 -0.0012775015109190613 0 0.0046864298883777826 -0.00078077255327327919 0 0.0042378530520744626 -0.00088867929726573012 0 0.0047468099566470058 -0.0011831718536636485 0 0.0046864298883777826 -0.00078077255327327919 0 0.0051847343923174223 -0.0012775015109190613 0 0.005180723279906747 -0.00070250867521021501 0 0.0056254941524068831 -0.0010315552611894728 0 0.0051847343923174223 -0.0012775015109190613 0 0.005180723279906747 -0.00070250867521021501 0 0.0046864298883777826 -0.00078077255327327919 0 0.005180723279906747 -0.00070250867521021501 0 0.0046864298883777826 -0.00078077255327327919 0 0.0047254420893242787 -0.00022263723163817815 0 0.005180723279906747 -0.00070250867521021501 0 0.0055483892084809278 -0.00066592570455358186 0 0.0052755153570480428 -0.00032813114593494583 0 0.005180723279906747 -0.00070250867521021501 0 0.0047254420893242787 -0.00022263723163817815 0 0.0052755153570480428 -0.00032813114593494583 0 0.0044373168405993828 -0.00017973764406125058 0 0.0051244391148432839 -0.00044797612348928737 0 0.0055483892084809278 -0.00066592570455358186 0 0.0057219986635205899 -0.00044292623493788887 0 0.0052755153570480428 -0.00032813114593494583 0 0.005180723279906747 -0.00070250867521021501 0 0.0055483892084809278 -0.00066592570455358186 0 0.0056254941524068831 -0.0010315552611894728 0 0.0055483892084809278 -0.00066592570455358186 0 0.0056254941524068831 -0.0010315552611894728 0 0.0059377459820743493 -0.00085251084895384083 0 0.0061401155890756587 -0.0012722447999090408 0 0.0056254941524068831 -0.0010315552611894728 0 0.0059377459820743493 -0.00085251084895384083 0 0.0059377459820743493 -0.00085251084895384083 0 0.0057219986635205899 -0.00044292623493788887 0 0.0062145449263383799 -0.00054804844625520454 0 0.0055483892084809278 -0.00066592570455358186 0 0.0059377459820743493 -0.00085251084895384083 0 0.0057219986635205899 -0.00044292623493788887 0 0.0057219986635205899 -0.00044292623493788887 0 0.0059079868751151822 -3.3629375601630967e-05 0 0.0062145449263383799 -0.00054804844625520454 0 0.0057219986635205899 -0.00044292623493788887 0 0.0059079868751151822 -3.3629375601630967e-05 0 0.0053936487460668585 -0.00013952804353680004 0 0.0059079868751151822 -3.3629375601630967e-05 0 0.0054651225326709145 0.00040851174330647439 0 0.0060510904803675498 0.0005760418474347244 0 0.0059079868751151822 -3.3629375601630967e-05 0 0.0054651225326709145 0.00040851174330647439 0 0.0053936487460668585 -0.00013952804353680004 0 0.0054651225326709145 0.00040851174330647439 0 0.0053936487460668585 -0.00013952804353680004 0 0.004906682105296413 -0.0001175132864111607 0 0.0054559037401248874 0.00041690123692905516 0 0.0046739563947456294 -0.00011090301547431666 0 0.0054651225326709145 0.00040851174330647439 0 0.0045480660976613269 -3.6769496848062055e-05 0 0.004602579755059932 0.00063897544559274821 0 0.0057219986635205899 -0.00044292623493788887 0 0.0053936487460668585 -0.00013952804353680004 0 0.0049597666605268693 -0.00053124825894720928 0 0.0053936487460668585 -0.00013952804353680004 0 0.0049597666605268693 -0.00053124825894720928 0 0.004906682105296413 -0.0001175132864111607 0 0.0056618257728848842 -0.0004267713243931412 0 0.0051244391148432839 -0.00044797612348928737 0 0.0044373168405993828 -0.00017973764406125058 0 0.0046739563947456294 -0.00011090301547431666 0 0.0042759231345819038 -0.00060939731934535313 0 0.0049597666605268693 -0.00053124825894720928 0 0.004906682105296413 -0.0001175132864111607 0 0.0039144068013736545 -0.00021966481632101965 0 0.003975359555892519 0.00020847418454759736 0 0.003523552912394627 0.00017411322516572346 0 0.0039144068013736545 -0.00021966481632101965 0 0.0045480660976613269 -3.6769496848062055e-05 0 0.003975359555892519 0.00020847418454759736 0 0.003975359555892519 0.00020847418454759736 0 0.0040857788710636804 0.00056937441078127411 0 0.003578127460983582 0.00048111126235965375 0 0.003975359555892519 0.00020847418454759736 0 0.0042950079281540363 0.00034356105804436054 0 0.0040857788710636804 0.00056937441078127411 0 0.0045480660976613269 -3.6769496848062055e-05 0 0.0042950079281540363 0.00034356105804436054 0 0.004602579755059932 0.00063897544559274821 0 0.0045480660976613269 -3.6769496848062055e-05 0 0.003975359555892519 0.00020847418454759736 0 0.0042950079281540363 0.00034356105804436054 0 0.004602579755059932 0.00063897544559274821 0 0.0040857788710636804 0.00056937441078127411 0 0.0040979035800510627 0.0011996082121717023 0 0.004602579755059932 0.00063897544559274821 0 0.0040979035800510627 0.0011996082121717023 0 0.004710880159723021 0.0012364873065645343 0 0.0042950079281540363 0.00034356105804436054 0 0.004602579755059932 0.00063897544559274821 0 0.0040857788710636804 0.00056937441078127411 0 0.0037376525260331321 0.00089573681237761576 0 0.0035912896597856256 0.00049124177332377189 0 0.0040857788710636804 0.00056937441078127411 0 0.0040979035800510627 0.0011996082121717023 0 0.003578127460983582 0.00048111126235965375 0 0.0034708901544055998 0.0004017152714106744 0 0.003578127460983582 0.00048111126235965375 0 0.0035060200181893705 0.00038957717834229812 0 0.0034708901544055998 0.0004017152714106744 0 0.0034422878162951522 0.0003479518277518427 0 0.0034858384420004868 0.00035116793467468145 0 0.0034708901544055998 0.0004017152714106744 0 0.0035060200181893705 0.00038957717834229812 0 0.0034858384420004868 0.00035116793467468145 0 0.0037376525260331321 0.00089573681237761576 0 0.0048219721444505764 0.00015874489547817536 0 0.0040979035800510627 0.0011996082121717023 0 0.004710880159723021 0.0012364873065645343 0 0.0047073214592239137 0.0018569950882493602 0 0.0059206051908945673 0.00038038143817542997 0 0.0048219721444505764 0.00015874489547817536 0 0.004710880159723021 0.0012364873065645343 0 0.0053748733521601765 0.0012335992774512778 0 0.0047073214592239137 0.0018569950882493602 0 0.006358782804107373 -0.00059353203871653488 0 0.0066363706983502474 -0.00048083029837022167 0 0.0067245843667775237 -0.0008357078573598334 0 0.006358782804107373 -0.00059353203871653488 0 0.0066363706983502474 -0.00048083029837022167 0 0.0064095444311654641 -0.00033456978120903328 0 0.0054651225326709145 0.00040851174330647439 0 0.0053748733521601765 0.0012335992774512778 0 0.0060510904803675498 0.0005760418474347244 0 0.0059206051908945673 0.00038038143817542997 0 0.0063767547229639926 -0.00012851096818185137 0 0.004602579755059932 0.00063897544559274821 0 0.004710880159723021 0.0012364873065645343 0 0.0053748733521601765 0.0012335992774512778 0 0.0054651225326709145 0.00040851174330647439 0 0.004602579755059932 0.00063897544559274821 0 0.0053748733521601765 0.0012335992774512778 0 0.0026158589421849156 -0.00019739513401330423 0 0.0025504206608928941 0.00027960128707754645 0 0.0019984996576485514 -0.00067101577531609416 0 0.0021628090210375635 1.4462785126621424e-05 0 0.0020775137021521281 0.00043992212785289438 0 0.0032274052246577074 0.00033435317783491163 0 0.00302750957591552 0.00024315002242612286 0 0.0031905503683171983 0.00028172205217331676 0 0.0027510040616364789 -0.0012574217762086554 0 0.0019984996576485514 -0.00067101577531609416 0 0.0024809294800845635 -0.00041847103161934219 0 0.0027980134461615814 -4.3272934213091748e-05 0 0.0024809294800845635 -0.00041847103161934219 0 0.0021628090210375635 1.4462785126621424e-05 0 0.0019984996576485514 -0.00067101577531609416 0 0.0024809294800845635 -0.00041847103161934219 0 0.0021628090210375635 1.4462785126621424e-05 0 0.0026975478132187877 0.00048790861072791643 0 0.0021388530682867391 8.3083212642762506e-05 0 0.0020786364630569305 0.00036061948599245809 0 0.0021628090210375635 1.4462785126621424e-05 0 0.0021044631894136232 0.00039129515363754518 0 0.0021628090210375635 1.4462785126621424e-05 0 0.0021044631894136232 0.00039129515363754518 0 0.0020775137021521281 0.00043992212785289438 0 0.00302750957591552 0.00024315002242612286 0 0.0031424341309308312 0.00020390685498432567 0 0.0031905503683171983 0.00028172205217331676 0 0.0029482906377265557 0.00014089323285299151 0 0.00302750957591552 0.00024315002242612286 0 0.0031424341309308312 0.00020390685498432567 0 0.0031326798783421228 0.00013114618229414 0 0.0031424341309308312 0.00020390685498432567 0 0.0033033864203211791 0.00012792257488548566 0 0.0031424341309308312 0.00020390685498432567 0 0.0032919905524959078 0.00025873243111372389 0 0.0033033864203211791 0.00012792257488548566 0 0.0031424341309308312 0.00020390685498432567 0 0.0031905503683171983 0.00028172205217331676 0 0.0032919905524959078 0.00025873243111372389 0 0.0031905503683171983 0.00028172205217331676 0 0.0032919905524959078 0.00025873243111372389 0 0.0032998770096013441 0.00035391230407865078 0 0.0032274052246577074 0.00033435317783491163 0 0.0031905503683171983 0.00028172205217331676 0 0.0032998770096013441 0.00035391230407865078 0 0.0032919905524959078 0.00025873243111372389 0 0.0034081047953155386 0.00037876616539708643 0 0.0032998770096013441 0.00035391230407865078 0 0.0032919905524959078 0.00025873243111372389 0 0.003523552912394627 0.00017411322516572346 0 0.0034081047953155386 0.00037876616539708643 0 0.0032919905524959078 0.00025873243111372389 0 0.0033033864203211791 0.00012792257488548566 0 0.003523552912394627 0.00017411322516572346 0 0.0034685119440125214 -8.4684955477310503e-05 0 0.0033033864203211791 0.00012792257488548566 0 0.003523552912394627 0.00017411322516572346 0 0.0034685119440125214 -8.4684955477310503e-05 0 0.0039144068013736545 -0.00021966481632101965 0 0.003523552912394627 0.00017411322516572346 0 0.003523552912394627 0.00017411322516572346 0 0.003578127460983582 0.00048111126235965375 0 0.0034081047953155386 0.00037876616539708643 0 0.003975359555892519 0.00020847418454759736 0 0.003523552912394627 0.00017411322516572346 0 0.003578127460983582 0.00048111126235965375 0 0.003578127460983582 0.00048111126235965375 0 0.003478230850548819 0.00041903356332021136 0 0.0034081047953155386 0.00037876616539708643 0 0.003578127460983582 0.00048111126235965375 0 0.0035060200181893705 0.00038957717834229812 0 0.003478230850548819 0.00041903356332021136 0 0.0035060200181893705 0.00038957717834229812 0 0.0034584853074324929 0.00036950058660290604 0 0.003478230850548819 0.00041903356332021136 0 0.0034584853074324929 0.00036950058660290604 0 0.003478230850548819 0.00041903356332021136 0 0.0033927639103399723 0.0003865136815457047 0 0.003478230850548819 0.00041903356332021136 0 0.0034081047953155386 0.00037876616539708643 0 0.0033927639103399723 0.0003865136815457047 0 0.0034081047953155386 0.00037876616539708643 0 0.0033927639103399723 0.0003865136815457047 0 0.0032998770096013441 0.00035391230407865078 0 0.0033927639103399723 0.0003865136815457047 0 0.0032998770096013441 0.00035391230407865078 0 0.0033640406654150837 0.0003685034974913135 0 0.0034584853074324929 0.00036950058660290604 0 0.0033927639103399723 0.0003865136815457047 0 0.0034151602194346388 0.00035953766417375028 0 0.0033927639103399723 0.0003865136815457047 0 0.0033640406654150837 0.0003685034974913135 0 0.0034151602194346388 0.00035953766417375028 0 0.003272089005254164 -0.0030060341076724299 0 0.0020164088648482814 -0.0024306945275132555 0 0.0026668452816594767 -0.0035696604220119429 0 0.0027510040616364789 -0.0012574217762086554 0 0.0019984996576485514 -0.00067101577531609416 0 0.0020164088648482814 -0.0024306945275132555 0 0.0026158589421849156 -0.00019739513401330423 0 0.0026797622557749646 -0.00095452970302637526 0 0.0032274052246577074 0.00033435317783491163 0 0.0032998770096013441 0.00035391230407865078 0 0.0033640406654150837 0.0003685034974913135 0 0.0026812266200539432 -0.004962317305886324 0 0.0023254709335261514 -0.0045098006617314296 0 0.0022317348119503862 -0.0050817639553130869 0 0.0027533134871085925 -0.0039223107408026753 0 0.002969229279109246 -0.0022208556398500851 0 0.0026812266200539432 -0.004962317305886324 0 0.0023254709335261514 -0.0045098006617314296 0 0.0026927904525700609 -0.0043455538771823904 0 0.0023254709335261514 -0.0045098006617314296 0 0.0026927904525700609 -0.0043455538771823904 0 0.0021908122920454858 -0.0040803657549896878 0 0.0033640406654150837 0.0003685034974913135 0 0.0034286960914116493 0.00033437051476626045 0 0.0034151602194346388 0.00035953766417375028 0 0.0020164088648482814 -0.0024306945275132555 0 0.0026668452816594767 -0.0035696604220119429 0 0.0021908122920454858 -0.0040803657549896878 0 0.0026797622557749646 -0.00095452970302637526 0 0.002969229279109246 -0.0022208556398500851 0 0.0026927904525700609 -0.0043455538771823904 0 0.0026668452816594767 -0.0035696604220119429 0 0.0021908122920454858 -0.0040803657549896878 0 0.0034286960914116493 0.00033437051476626045 0 0.0034151602194346388 0.00035953766417375028 0 0.0034499568278228746 0.00033775697261280468 0 0.0034584853074324929 0.00036950058660290604 0 0.0034151602194346388 0.00035953766417375028 0 0.0034499568278228746 0.00033775697261280468 0 0.0034286960914116493 0.00033437051476626045 0 0.0034499568278228746 0.00033775697261280468 0 0.003464347919760173 0.00030100072252777963 0 0.0023254709335261514 -0.0045098006617314296 0 0.0017070672020140874 -0.0049290530802389414 0 0.0022317348119503862 -0.0050817639553130869 0 0.002969229279109246 -0.0022208556398500851 0 0.0025834365294653372 -0.002273408917260101 0 0.0023254709335261514 -0.0045098006617314296 0 0.0023200130196179176 -0.004273225999278177 0 0.0017070672020140874 -0.0049290530802389414 0 0.0034499568278228746 0.00033775697261280468 0 0.003464347919760173 0.00030100072252777963 0 0.0035164705951007051 0.00032083317597612248 0 0.003464347919760173 0.00030100072252777963 0 0.0035104663673445947 0.00028142806358308396 0 0.0035164705951007051 0.00032083317597612248 0 0.0034584853074324929 0.00036950058660290604 0 0.0034499568278228746 0.00033775697261280468 0 0.0035164705951007051 0.00032083317597612248 0 0.0035060200181893705 0.00038957717834229812 0 0.0034584853074324929 0.00036950058660290604 0 0.0035164705951007051 0.00032083317597612248 0 0.0035060200181893705 0.00038957717834229812 0 0.0035164705951007051 0.00032083317597612248 0 0.0034858384420004868 0.00035116793467468145 0 0.0035164705951007051 0.00032083317597612248 0 0.0035551043970424383 0.00027470331031046504 0 0.0034857771189110483 0.00030068529364077204 0 0.0035104663673445947 0.00028142806358308396 0 0.0035164705951007051 0.00032083317597612248 0 0.0035551043970424383 0.00027470331031046504 0 0.0036472069991891217 0.00021955985887292181 0 0.0034967708496030682 0.00032476677775920907 0 0.004295033103275633 0.00079324445802174057 0 0.0035104663673445947 0.00028142806358308396 0 0.0035551043970424383 0.00027470331031046504 0 0.0036472069991891217 0.00021955985887292181 0 0.0035104663673445947 0.00028142806358308396 0 0.0036472069991891217 0.00021955985887292181 0 0.0034967708496030682 0.00032476677775920907 0 0.00084123706854804842 -0.0063481804941131099 0 0.0010094495107039097 -0.005970317886743454 0 0.00027586624909837468 -0.0061266871417374512 0 0.0022733763586578366 -0.002600151480788408 0 0.0023238811262444041 -0.0026859753008105346 0 0.0010429081068908214 -0.0055280523267155152 0 0.0010094495107039097 -0.005970317886743454 0 0.00027586624909837468 -0.0061266871417374512 0 0.0010094495107039097 -0.005970317886743454 0 0.0013863573884958407 -0.0058427944859468324 0 0.0012287697355296812 -0.0062945710516718982 0 0.00084123706854804842 -0.0063481804941131099 0 0.0010094495107039097 -0.005970317886743454 0 0.0012287697355296812 -0.0062945710516718982 0 0.0010429081068908214 -0.0055280523267155152 0 0.0010094495107039097 -0.005970317886743454 0 0.0013863573884958407 -0.0058427944859468324 0 0.0013863573884958407 -0.0058427944859468324 0 0.0012287697355296812 -0.0062945710516718982 0 0.0015510183727365874 -0.006172712333556719 0 0.0018649306619367323 -0.0063515281036807345 0 0.0015510183727365874 -0.006172712333556719 0 0.0017689402290252502 -0.0058866964218709386 0 0.0013863573884958407 -0.0058427944859468324 0 0.0015510183727365874 -0.006172712333556719 0 0.0017689402290252502 -0.0058866964218709386 0 0.0013863573884958407 -0.0058427944859468324 0 0.001581482417072596 -0.0055274653965992531 0 0.0017689402290252502 -0.0058866964218709386 0 0.003464347919760173 0.00030100072252777963 0 0.0035104663673445947 0.00028142806358308396 0 0.0034967708496030682 0.00032476677775920907 0 0.0025834365294653372 -0.002273408917260101 0 0.0022733763586578366 -0.002600151480788408 0 0.0017070672020140874 -0.0049290530802389414 0 0.0010429081068908214 -0.0055280523267155152 0 0.001581482417072596 -0.0055274653965992531 0 0.0010429081068908214 -0.0055280523267155152 0 0.0013863573884958407 -0.0058427944859468324 0 0.001581482417072596 -0.0055274653965992531 0 0.0017070672020140874 -0.0049290530802389414 0 0.0020023005593663747 -0.0054545832944308641 0 0.0022317348119503862 -0.0050817639553130869 0 0.0017070672020140874 -0.0049290530802389414 0 0.001581482417072596 -0.0055274653965992531 0 0.0020023005593663747 -0.0054545832944308641 0 0.001581482417072596 -0.0055274653965992531 0 0.0020023005593663747 -0.0054545832944308641 0 0.0017689402290252502 -0.0058866964218709386 0 0.0018649306619367323 -0.0063515281036807345 0 0.0026695760640935706 -0.0063943591998278189 0 0.0021667114330184332 -0.0059367265649145949 0 0.0020023005593663747 -0.0054545832944308641 0 0.0017689402290252502 -0.0058866964218709386 0 0.0021667114330184332 -0.0059367265649145949 0 0.0018649306619367323 -0.0063515281036807345 0 0.0017689402290252502 -0.0058866964218709386 0 0.0021667114330184332 -0.0059367265649145949 0 0.0020023005593663747 -0.0054545832944308641 0 0.0021667114330184332 -0.0059367265649145949 0 0.0025132261258023767 -0.0055775187902528415 0 0.0026695760640935706 -0.0063943591998278189 0 0.0021667114330184332 -0.0059367265649145949 0 0.0025132261258023767 -0.0055775187902528415 0 0.0030729783304062177 -0.0054895536921604126 0 0.0026695760640935706 -0.0063943591998278189 0 0.0025132261258023767 -0.0055775187902528415 0 0.0030729783304062177 -0.0054895536921604126 0 0.0026812266200539432 -0.004962317305886324 0 0.0025132261258023767 -0.0055775187902528415 0 0.0026812266200539432 -0.004962317305886324 0 0.0025132261258023767 -0.0055775187902528415 0 0.0022317348119503862 -0.0050817639553130869 0 0.0020023005593663747 -0.0054545832944308641 0 0.0025132261258023767 -0.0055775187902528415 0 0.0022317348119503862 -0.0050817639553130869 0 0.0055767758907445735 -0.00071453631173617744 0 0.0062606268154397774 -6.0665769287439641e-05 0 0.0052646318697697047 0.00027619190913389215 0 0.0055767758907445735 -0.00071453631173617744 0 0.0049612352261716487 -0.00032621547054968513 0 0.0052646318697697047 0.00027619190913389215 0 0.0058819441496492557 -0.00044278489619760424 0 0.00622995681949796 -9.6752025085636406e-05 0 0.006233409670993958 -0.00017638970527051668 0 0.0062606268154397774 -6.0665769287439641e-05 0 0.0064995281239225398 -0.00017288196153952845 0 0.0062606268154397774 -6.0665769287439641e-05 0 0.0064995281239225398 -0.00017288196153952845 0 0.0067239537136507951 0.0002031293656171275 0 0.0066363706983502474 -0.00048083029837022167 0 0.0064095444311654641 -0.00033456978120903328 0 0.0067078738587935975 -0.00030589077028555779 0 0.0064995281239225398 -0.00017288196153952845 0 0.0064095444311654641 -0.00033456978120903328 0 0.0067078738587935975 -0.00030589077028555779 0 0.006233409670993958 -0.00017638970527051668 0 0.0064995281239225398 -0.00017288196153952845 0 0.0064095444311654641 -0.00033456978120903328 0 0.006358782804107373 -0.00059353203871653488 0 0.0064095444311654641 -0.00033456978120903328 0 0.0060691544721076058 -0.00034019380906532225 0 0.006233409670993958 -0.00017638970527051668 0 0.0064095444311654641 -0.00033456978120903328 0 0.0060691544721076058 -0.00034019380906532225 0 0.0058819441496492557 -0.00044278489619760424 0 0.0048219721444505764 0.00015874489547817536 0 0.0048219721444505764 0.00015874489547817536 0 0.0038596135145472395 -0.00015091433484939242 0 0.0035164705951007051 0.00032083317597612248 0 0.0034858384420004868 0.00035116793467468145 0 0.0034857771189110483 0.00030068529364077204 0 0.0034422878162951522 0.0003479518277518427 0 0.0034858384420004868 0.00035116793467468145 0 0.0034857771189110483 0.00030068529364077204 0 0.0036657788447800694 0.00020238593659540995 0 0.0038596135145472395 -0.00015091433484939242 0 0.0035551043970424383 0.00027470331031046504 0 0.0036472069991891217 0.00021955985887292181 0 0.0034857771189110483 0.00030068529364077204 0 0.0043262570144137523 -0.00050927768694954221 0 0.0049612352261716487 -0.00032621547054968513 0 0.0045573778124952868 0.00023985704266073733 0 0.0055767758907445735 -0.00071453631173617744 0 0.0050298109648182106 -0.001243085570925071 0 0.0049612352261716487 -0.00032621547054968513 0 0.0050298109648182106 -0.001243085570925071 0 0.0043262570144137523 -0.00050927768694954221 0 0.0049612352261716487 -0.00032621547054968513 0 0.0045573778124952868 0.00023985704266073733 0 0.0050384786781045385 0.00066722941163004253 0 0.0052646318697697047 0.00027619190913389215 0 0.0049612352261716487 -0.00032621547054968513 0 0.0045573778124952868 0.00023985704266073733 0 0.0052646318697697047 0.00027619190913389215 0 0.0036472069991891217 0.00021955985887292181 0 0.0043262570144137523 -0.00050927768694954221 0 0.0045573778124952868 0.00023985704266073733 0 0.0036472069991891217 0.00021955985887292181 0 0.0045573778124952868 0.00023985704266073733 0 0.004295033103275633 0.00079324445802174057 0 0.0045573778124952868 0.00023985704266073733 0 0.004295033103275633 0.00079324445802174057 0 0.0050384786781045385 0.00066722941163004253 0 0.0050028322097328028 0.0010008444809063409 0 0.004295033103275633 0.00079324445802174057 0 0.0050384786781045385 0.00066722941163004253 0 0.0050384786781045385 0.00066722941163004253 0 0.0052646318697697047 0.00027619190913389215 0 0.0053763709360807113 0.00058163634912815321 0 0.0053000872904073893 0.00089816356534445582 0 0.0050384786781045385 0.00066722941163004253 0 0.0053763709360807113 0.00058163634912815321 0 0.0062606268154397774 -6.0665769287439641e-05 0 0.0052646318697697047 0.00027619190913389215 0 0.0060534102501211204 0.00071751652385381522 0 0.0052883215284432574 0.00028951041976369064 0 0.0057135154843278961 0.00065765698785127339 0 0.0062606268154397774 -6.0665769287439641e-05 0 0.0064868329108647513 0.0004096177610911881 0 0.0060534102501211204 0.00071751652385381522 0 0.0062606268154397774 -6.0665769287439641e-05 0 0.0064868329108647513 0.0004096177610911881 0 0.0067239537136507951 0.0002031293656171275 0 0.0065523720884244812 0.0010019055945265916 0 0.0060534102501211204 0.00071751652385381522 0 0.0066834379202189136 0.00069312882979780045 0 0.0053000872904073893 0.00089816356534445582 0 0.0055513284317290539 0.00079071482980867065 0 0.0053763709360807113 0.00058163634912815321 0 0.0064868329108647513 0.0004096177610911881 0 0.0060534102501211204 0.00071751652385381522 0 0.0066834379202189136 0.00069312882979780045 0 0.0063511934112428989 0.00019727550255555044 0 0.0057135154843278961 0.00065765698785127339 0 0.0063511934112428989 0.00019727550255555044 0 0.0064391556200144896 0.00068846309180264778 0 0.0066441091739092451 0.00079850260476282042 0 0.0066834379202189136 0.00069312882979780045 0 0.0069409063590534555 0.00072301461606636037 0 0.0066834379202189136 0.00069312882979780045 0 0.0069409063590534555 0.00072301461606636037 0 0.0069078434339812731 0.00047528380645257021 0 0.0064868329108647513 0.0004096177610911881 0 0.0066834379202189136 0.00069312882979780045 0 0.0067017402002751414 0.0004639746028953128 0 0.0066834379202189136 0.00069312882979780045 0 0.0069078434339812731 0.00047528380645257021 0 0.0067017402002751414 0.0004639746028953128 0 0.0072694199612630492 0.00077072831059043384 0 0.0069409063590534555 0.00072301461606636037 0 0.0071448316734886667 0.00050925754307070542 0 0.0072694199612630492 0.00077072831059043384 0 0.0071448316734886667 0.00050925754307070542 0 0.0074231510313278199 0.00045070482554967182 0 0.0069409063590534555 0.00072301461606636037 0 0.0069078434339812731 0.00047528380645257021 0 0.0071448316734886667 0.00050925754307070542 0 0.0071448316734886667 0.00050925754307070542 0 0.0072396355623245961 0.00027109609780738277 0 0.0074231510313278199 0.00045070482554967182 0 0.0069078434339812731 0.00047528380645257021 0 0.0071448316734886667 0.00050925754307070542 0 0.0069882549767358616 0.00024528182268831106 0 0.0071448316734886667 0.00050925754307070542 0 0.0069882549767358616 0.00024528182268831106 0 0.0072396355623245961 0.00027109609780738277 0 0.0069882549767358616 0.00024528182268831106 0 0.0072396355623245961 0.00027109609780738277 0 0.007095228622690096 6.2893193902386574e-05 0 0.0072396355623245961 0.00027109609780738277 0 0.007095228622690096 6.2893193902386574e-05 0 0.0073002632799105179 0.00010042783361645627 0 0.0064868329108647513 0.0004096177610911881 0 0.0067017402002751414 0.0004639746028953128 0 0.0067239537136507951 0.0002031293656171275 0 0.0069078434339812731 0.00047528380645257021 0 0.0067017402002751414 0.0004639746028953128 0 0.0067239537136507951 0.0002031293656171275 0 0.0069078434339812731 0.00047528380645257021 0 0.0069882549767358616 0.00024528182268831106 0 0.0067239537136507951 0.0002031293656171275 0 0.0069882549767358616 0.00024528182268831106 0 0.0067239537136507951 0.0002031293656171275 0 0.0068339583622908069 -4.106974860596555e-05 0 0.0064995281239225398 -0.00017288196153952845 0 0.0067239537136507951 0.0002031293656171275 0 0.0068339583622908069 -4.106974860596555e-05 0 0.0064995281239225398 -0.00017288196153952845 0 0.0068339583622908069 -4.106974860596555e-05 0 0.0067078738587935975 -0.00030589077028555779 0 0.0069882549767358616 0.00024528182268831106 0 0.0068339583622908069 -4.106974860596555e-05 0 0.007095228622690096 6.2893193902386574e-05 0 0.007095228622690096 6.2893193902386574e-05 0 0.0072187851030716017 -6.37076680632437e-05 0 0.0073002632799105179 0.00010042783361645627 0 0.0068339583622908069 -4.106974860596555e-05 0 0.007095228622690096 6.2893193902386574e-05 0 0.0070393253472178091 -0.00019060034958502079 0 0.007095228622690096 6.2893193902386574e-05 0 0.0072187851030716017 -6.37076680632437e-05 0 0.0070393253472178091 -0.00019060034958502079 0 0.0070393253472178091 -0.00019060034958502079 0 0.0071699550137686429 -0.00034065307935394698 0 0.0073214559423372049 -0.00019817967428965218 0 0.0072187851030716017 -6.37076680632437e-05 0 0.0070393253472178091 -0.00019060034958502079 0 0.0073214559423372049 -0.00019817967428965218 0 0.0070393253472178091 -0.00019060034958502079 0 0.0071699550137686429 -0.00034065307935394698 0 0.0069272506051611289 -0.00041190728952150951 0 0.0070393253472178091 -0.00019060034958502079 0 0.0069272506051611289 -0.00041190728952150951 0 0.0067078738587935975 -0.00030589077028555779 0 0.0068339583622908069 -4.106974860596555e-05 0 0.0070393253472178091 -0.00019060034958502079 0 0.0067078738587935975 -0.00030589077028555779 0 0.0066363706983502474 -0.00048083029837022167 0 0.0069272506051611289 -0.00041190728952150951 0 0.0067078738587935975 -0.00030589077028555779 0 0.0077686839131334189 -0.00029735123194839892 0 0.0075392238037559744 -0.00021314530636474619 0 0.0074578938177994386 -0.00041212166220662525 0 0.0077686839131334189 -0.00029735123194839892 0 0.0075392238037559744 -0.00021314530636474619 0 0.0077134939190602473 -9.8246145972878121e-05 0 0.0077134939190602473 -9.8246145972878121e-05 0 0.0079421871273281201 -2.047343578783793e-05 0 0.0079599988005440887 -0.00020490239098181609 0 0.0077686839131334189 -0.00029735123194839892 0 0.0077134939190602473 -9.8246145972878121e-05 0 0.0079599988005440887 -0.00020490239098181609 0 0.0073214559423372049 -0.00019817967428965218 0 0.0075392238037559744 -0.00021314530636474619 0 0.0074578938177994386 -0.00041212166220662525 0 0.0071699550137686429 -0.00034065307935394698 0 0.0073214559423372049 -0.00019817967428965218 0 0.0074578938177994386 -0.00041212166220662525 0 0.0073214559423372049 -0.00019817967428965218 0 0.0075392238037559744 -0.00021314530636474619 0 0.0074671633648135255 -9.6997012610462885e-06 0 0.0075392238037559744 -0.00021314530636474619 0 0.0074671633648135255 -9.6997012610462885e-06 0 0.0077134939190602473 -9.8246145972878121e-05 0 0.0072187851030716017 -6.37076680632437e-05 0 0.0073214559423372049 -0.00019817967428965218 0 0.0074671633648135255 -9.6997012610462885e-06 0 0.0074671633648135255 -9.6997012610462885e-06 0 0.0073002632799105179 0.00010042783361645627 0 0.0074721060883508536 0.00024504866328413496 0 0.0072187851030716017 -6.37076680632437e-05 0 0.0074671633648135255 -9.6997012610462885e-06 0 0.0073002632799105179 0.00010042783361645627 0 0.0074671633648135255 -9.6997012610462885e-06 0 0.0076362092163189043 0.00014634881721789481 0 0.0074721060883508536 0.00024504866328413496 0 0.0076362092163189043 0.00014634881721789481 0 0.0077134939190602473 -9.8246145972878121e-05 0 0.0078341003875704671 0.00014624976878322305 0 0.0074671633648135255 -9.6997012610462885e-06 0 0.0076362092163189043 0.00014634881721789481 0 0.0077134939190602473 -9.8246145972878121e-05 0 0.0077134939190602473 -9.8246145972878121e-05 0 0.0078341003875704671 0.00014624976878322305 0 0.0079421871273281201 -2.047343578783793e-05 0 0.0078341003875704671 0.00014624976878322305 0 0.0077226102003188869 0.00034945349220920932 0 0.0079555260086276516 0.00027240220657620545 0 0.0076362092163189043 0.00014634881721789481 0 0.0077226102003188869 0.00034945349220920932 0 0.0074721060883508536 0.00024504866328413496 0 0.0076362092163189043 0.00014634881721789481 0 0.0078341003875704671 0.00014624976878322305 0 0.0077226102003188869 0.00034945349220920932 0 0.0077226102003188869 0.00034945349220920932 0 0.0074721060883508536 0.00024504866328413496 0 0.0074231510313278199 0.00045070482554967182 0 0.0072396355623245961 0.00027109609780738277 0 0.0073002632799105179 0.00010042783361645627 0 0.0074721060883508536 0.00024504866328413496 0 0.0072396355623245961 0.00027109609780738277 0 0.0074721060883508536 0.00024504866328413496 0 0.0074231510313278199 0.00045070482554967182 0 0.0077226102003188869 0.00034945349220920932 0 0.0074231510313278199 0.00045070482554967182 0 0.0076385273149653732 0.00059635430744541115 0 0.0072694199612630492 0.00077072831059043384 0 0.0074231510313278199 0.00045070482554967182 0 0.0076385273149653732 0.00059635430744541115 0 0.0077226102003188869 0.00034945349220920932 0 0.0078056647763797811 0.00051287574636282732 0 0.0079456992646792703 0.00041143819342788946 0 0.0077226102003188869 0.00034945349220920932 0 0.0078056647763797811 0.00051287574636282732 0 0.0076385273149653732 0.00059635430744541115 0 0.0077646716103879718 0.00065412055077362767 0 0.0078056647763797811 0.00051287574636282732 0 0.0076385273149653732 0.00059635430744541115 0 0.0078801094254484852 0.00059940394931451587 0 0.0077646716103879718 0.00065412055077362767 0 0.0078056647763797811 0.00051287574636282732 0 0.0078801094254484852 0.00059940394931451587 0 0.0078056647763797811 0.00051287574636282732 0 0.007992158427663985 0.00052572469513768351 0 0.00797300667030614 0.00060703376074679595 0 0.0078801094254484852 0.00059940394931451587 0 0.007992158427663985 0.00052572469513768351 0 0.0078056647763797811 0.00051287574636282732 0 0.0079456992646792703 0.00041143819342788946 0 0.007992158427663985 0.00052572469513768351 0 0.0079456992646792703 0.00041143819342788946 0 0.0080463724486229873 0.00043752471194101342 0 0.007992158427663985 0.00052572469513768351 0 0.0080463724486229873 0.00043752471194101342 0 0.0081037642415947297 0.00048492740185368879 0 0.0081262420283703882 0.00040519090445136188 0 0.0080463724486229873 0.00043752471194101342 0 0.0081262420283703882 0.00040519090445136188 0 0.0080617865907800651 0.00035337614597753933 0 0.0079456992646792703 0.00041143819342788946 0 0.0080463724486229873 0.00043752471194101342 0 0.0080617865907800651 0.00035337614597753933 0 0.0080463724486229873 0.00043752471194101342 0 0.007992158427663985 0.00052572469513768351 0 0.0081037642415947297 0.00048492740185368879 0 0.007992158427663985 0.00052572469513768351 0 0.0080386568961522027 0.00056467262754090607 0 0.0081037642415947297 0.00048492740185368879 0 0.00797300667030614 0.00060703376074679595 0 0.007992158427663985 0.00052572469513768351 0 0.0080386568961522027 0.00056467262754090607 0 0.010371243412424038 -0.0038845573158420477 0 0.010493360292874109 -0.0040525096681023045 0 0.010358242996029072 -0.003868958809285325 0 0.010323783084065993 -0.003879024901233223 0 0.01058917908279905 -0.0041199267579335062 0 0.009195477558158591 -0.0010997155435502144 0 0.0094670470125922789 -0.0020023944880364457 0 0.010358242996029072 -0.003868958809285325 0 0.01058917908279905 -0.0041199267579335062 0 0.010616364768608206 -0.0041184301544091445 0 0.010358242996029072 -0.003868958809285325 0 0.010351603260331662 -0.0039784559960628178 0 0.010365888330598136 -0.0039478235915644247 0 0.010358242996029072 -0.003868958809285325 0 0.01037846896197126 -0.0039117581120843856 0 0.010365888330598136 -0.0039478235915644247 0 0.0080811010491409693 0.00060911597674729472 0 0.0081037642415947297 0.00048492740185368879 0 0.0083089727025129692 0.00031160398269134245 0 0.0080811010491409693 0.00060911597674729472 0 0.0080386568961522027 0.00056467262754090607 0 0.0081037642415947297 0.00048492740185368879 0 0.010358242996029072 -0.003868958809285325 0 0.010380027475705909 -0.0038930282280707283 0 0.01037846896197126 -0.0039117581120843856 0 0.0081037642415947297 0.00048492740185368879 0 0.0081262420283703882 0.00040519090445136188 0 0.0083089727025129692 0.00031160398269134245 0 0.0081262420283703882 0.00040519090445136188 0 0.0081711477458834628 0.00030639271846572583 0 0.0083089727025129692 0.00031160398269134245 0 0.01058917908279905 -0.0041199267579335062 0 0.010616364768608206 -0.0041184301544091445 0 0.010707014792376193 -0.003739961535764804 0 0.0081711477458834628 0.00030639271846572583 0 0.0083089727025129692 0.00031160398269134245 0 0.0082181296235014131 0.00023058096276312723 0 0.0083089727025129692 0.00031160398269134245 0 0.0082181296235014131 0.00023058096276312723 0 0.0083137065905097285 0.00011733505501945075 0 0.0081711477458834628 0.00030639271846572583 0 0.0082181296235014131 0.00023058096276312723 0 0.0081035527548982914 0.00024483781133587031 0 0.0082181296235014131 0.00023058096276312723 0 0.0081035527548982914 0.00024483781133587031 0 0.0081636654645393276 0.00013720887997974434 0 0.0081035527548982914 0.00024483781133587031 0 0.0079555260086276516 0.00027240220657620545 0 0.0080057340541778398 0.00014190502204496869 0 0.0081035527548982914 0.00024483781133587031 0 0.0080057340541778398 0.00014190502204496869 0 0.0081636654645393276 0.00013720887997974434 0 0.0078341003875704671 0.00014624976878322305 0 0.0079555260086276516 0.00027240220657620545 0 0.0080057340541778398 0.00014190502204496869 0 0.0079456992646792703 0.00041143819342788946 0 0.0079555260086276516 0.00027240220657620545 0 0.0080617865907800651 0.00035337614597753933 0 0.0077226102003188869 0.00034945349220920932 0 0.0079456992646792703 0.00041143819342788946 0 0.0079555260086276516 0.00027240220657620545 0 0.0081035527548982914 0.00024483781133587031 0 0.0079555260086276516 0.00027240220657620545 0 0.0080617865907800651 0.00035337614597753933 0 0.0081262420283703882 0.00040519090445136188 0 0.0081711477458834628 0.00030639271846572583 0 0.0080617865907800651 0.00035337614597753933 0 0.0081711477458834628 0.00030639271846572583 0 0.0081035527548982914 0.00024483781133587031 0 0.0080617865907800651 0.00035337614597753933 0 0.010508466528376368 -0.0038366118476427513 0 0.01048495097727836 -0.0038957563628743983 0 0.010459669824355061 -0.0038961944442365373 0 0.010566092000206067 -0.0039309989213182663 0 0.01048495097727836 -0.0038957563628743983 0 0.010479571699848545 -0.0039024180336979081 0 0.010566092000206067 -0.0039309989213182663 0 0.010508466528376368 -0.0038366118476427513 0 0.01048495097727836 -0.0038957563628743983 0 0.01048495097727836 -0.0038957563628743983 0 0.010479571699848545 -0.0039024180336979081 0 0.010433307700971122 -0.0039160960463471119 0 0.01048495097727836 -0.0038957563628743983 0 0.010433307700971122 -0.0039160960463471119 0 0.010421949241560095 -0.0039427139321100528 0 0.010433307700971122 -0.0039160960463471119 0 0.010403211323232705 -0.003908831338686216 0 0.010397055068569734 -0.0039365856188733565 0 0.010433307700971122 -0.0039160960463471119 0 0.010397055068569734 -0.0039365856188733565 0 0.010421949241560095 -0.0039427139321100528 0 0.010479571699848545 -0.0039024180336979081 0 0.010433307700971122 -0.0039160960463471119 0 0.01042839638181693 -0.003900908406900602 0 0.010435142721983003 -0.0038802253928296999 0 0.010479571699848545 -0.0039024180336979081 0 0.01042839638181693 -0.003900908406900602 0 0.010435142721983003 -0.0038802253928296999 0 0.010404772095644161 -0.0038857205144340419 0 0.01042839638181693 -0.003900908406900602 0 0.010433307700971122 -0.0039160960463471119 0 0.01042839638181693 -0.003900908406900602 0 0.010403211323232705 -0.003908831338686216 0 0.010404772095644161 -0.0038857205144340419 0 0.01042839638181693 -0.003900908406900602 0 0.010403211323232705 -0.003908831338686216 0 0.010404772095644161 -0.0038857205144340419 0 0.010380027475705909 -0.0038930282280707283 0 0.010403211323232705 -0.003908831338686216 0 0.010380027475705909 -0.0038930282280707283 0 0.010403211323232705 -0.003908831338686216 0 0.01037846896197126 -0.0039117581120843856 0 0.010403211323232705 -0.003908831338686216 0 0.01037846896197126 -0.0039117581120843856 0 0.010397055068569734 -0.0039365856188733565 0 0.01037846896197126 -0.0039117581120843856 0 0.010397055068569734 -0.0039365856188733565 0 0.010365888330598136 -0.0039478235915644247 0 0.010397055068569734 -0.0039365856188733565 0 0.010365888330598136 -0.0039478235915644247 0 0.010385614747421362 -0.0039603987631533569 0 0.010351603260331662 -0.0039784559960628178 0 0.010365888330598136 -0.0039478235915644247 0 0.010385614747421362 -0.0039603987631533569 0 0.010351603260331662 -0.0039784559960628178 0 0.010385614747421362 -0.0039603987631533569 0 0.010402989037469695 -0.0039814558670046045 0 0.010351603260331662 -0.0039784559960628178 0 0.010402989037469695 -0.0039814558670046045 0 0.010417695356649158 -0.0040398997613599261 0 0.010402989037469695 -0.0039814558670046045 0 0.010421949241560095 -0.0039427139321100528 0 0.010396635648223504 -0.0039801633871599969 0 0.010402989037469695 -0.0039814558670046045 0 0.010396635648223504 -0.0039801633871599969 0 0.010417695356649158 -0.0040398997613599261 0 0.010397055068569734 -0.0039365856188733565 0 0.010385614747421362 -0.0039603987631533569 0 0.010421949241560095 -0.0039427139321100528 0 0.010385614747421362 -0.0039603987631533569 0 0.010402989037469695 -0.0039814558670046045 0 0.010421949241560095 -0.0039427139321100528 0 0.01048495097727836 -0.0038957563628743983 0 0.010421949241560095 -0.0039427139321100528 0 0.010459669824355061 -0.0038961944442365373 0 0.010421949241560095 -0.0039427139321100528 0 0.010396635648223504 -0.0039801633871599969 0 0.010459669824355061 -0.0038961944442365373 0 0.010396635648223504 -0.0039801633871599969 0 0.010459669824355061 -0.0038961944442365373 0 0.010413134927075001 -0.0039363039593233607 0 0.010488845410599487 -0.0039614001284269179 0 0.010413134927075001 -0.0039363039593233607 0 0.010251841512042181 -0.0040510598349597212 0 0.010396635648223504 -0.0039801633871599969 0 0.010413134927075001 -0.0039363039593233607 0 0.010251841512042181 -0.0040510598349597212 0 0.010396635648223504 -0.0039801633871599969 0 0.010251841512042181 -0.0040510598349597212 0 0.010417695356649158 -0.0040398997613599261 0 0.010351603260331662 -0.0039784559960628178 0 0.010417695356649158 -0.0040398997613599261 0 0.01054058283567025 -0.0041008873507003994 0 0.010616364768608206 -0.0041184301544091445 0 0.010707014792376193 -0.003739961535764804 0 0.010603453654776917 -0.0035768707448424011 0 0.010493360292874109 -0.0040525096681023045 0 0.010535897668029834 -0.0037918995370004246 0 0.010251841512042181 -0.0040510598349597212 0 0.010417695356649158 -0.0040398997613599261 0 0.01054058283567025 -0.0041008873507003994 0 0.008557517670359796 -3.8606939465388868e-05 0 0.0085961978204295072 -0.0002796291187355883 0 0.0089445186433968916 -0.00043455477065008533 0 0.0096223343743339837 -0.0018605090052821716 0 0.0096528269801760703 -0.0016518969943488872 0 0.010707014792376193 -0.003739961535764804 0 0.010603453654776917 -0.0035768707448424011 0 0.010399447432164576 -0.0028019159089521131 0 0.008557517670359796 -3.8606939465388868e-05 0 0.0085961978204295072 -0.0002796291187355883 0 0.0084485616884406138 -0.00014246783821377399 0 0.010488845410599487 -0.0039614001284269179 0 0.010251841512042181 -0.0040510598349597212 0 0.0099156244916490856 -0.0041343830276593715 0 0.01054058283567025 -0.0041008873507003994 0 0.010140197080743634 -0.0039678490753547214 0 0.009984538919439229 -0.0032343537969417918 0 0.010251841512042181 -0.0040510598349597212 0 0.01054058283567025 -0.0041008873507003994 0 0.010140197080743634 -0.0039678490753547214 0 0.010140197080743634 -0.0039678490753547214 0 0.0099156244916490856 -0.0041343830276593715 0 0.009984538919439229 -0.0032343537969417918 0 0.010251841512042181 -0.0040510598349597212 0 0.010140197080743634 -0.0039678490753547214 0 0.0099156244916490856 -0.0041343830276593715 0 0.0080966098053299965 3.6134921260416644e-05 0 0.0079421871273281201 -2.047343578783793e-05 0 0.0081244030564463793 -9.1052407274116133e-05 0 0.0080966098053299965 3.6134921260416644e-05 0 0.0082314648753299829 1.1254686256213037e-05 0 0.0081244030564463793 -9.1052407274116133e-05 0 0.0080966098053299965 3.6134921260416644e-05 0 0.0079421871273281201 -2.047343578783793e-05 0 0.0080057340541778398 0.00014190502204496869 0 0.0078341003875704671 0.00014624976878322305 0 0.0079421871273281201 -2.047343578783793e-05 0 0.0080057340541778398 0.00014190502204496869 0 0.0080966098053299965 3.6134921260416644e-05 0 0.0080057340541778398 0.00014190502204496869 0 0.0081636654645393276 0.00013720887997974434 0 0.0080966098053299965 3.6134921260416644e-05 0 0.0081636654645393276 0.00013720887997974434 0 0.0082314648753299829 1.1254686256213037e-05 0 0.0081636654645393276 0.00013720887997974434 0 0.0083137065905097285 0.00011733505501945075 0 0.0082314648753299829 1.1254686256213037e-05 0 0.0083089727025129692 0.00031160398269134245 0 0.008557517670359796 -3.8606939465388868e-05 0 0.0083137065905097285 0.00011733505501945075 0 0.0082181296235014131 0.00023058096276312723 0 0.0081636654645393276 0.00013720887997974434 0 0.0083137065905097285 0.00011733505501945075 0 0.0094670470125922789 -0.0020023944880364457 0 0.0096223343743339837 -0.0018605090052821716 0 0.008557517670359796 -3.8606939465388868e-05 0 0.0083137065905097285 0.00011733505501945075 0 0.0083821015295447322 -2.6931895114748297e-05 0 0.0082314648753299829 1.1254686256213037e-05 0 0.0083050189588687474 -0.00011848710890267006 0 0.0081244030564463793 -9.1052407274116133e-05 0 0.0083821015295447322 -2.6931895114748297e-05 0 0.0082314648753299829 1.1254686256213037e-05 0 0.0083050189588687474 -0.00011848710890267006 0 0.0083137065905097285 0.00011733505501945075 0 0.0083821015295447322 -2.6931895114748297e-05 0 0.0082314648753299829 1.1254686256213037e-05 0 0.0083050189588687474 -0.00011848710890267006 0 0.0081784264329344165 -0.00024754077677059482 0 0.0081244030564463793 -9.1052407274116133e-05 0 0.0083050189588687474 -0.00011848710890267006 0 0.0084485616884406138 -0.00014246783821377399 0 0.0083863002403431041 -0.00026121290056499414 0 0.008557517670359796 -3.8606939465388868e-05 0 0.0083821015295447322 -2.6931895114748297e-05 0 0.0084485616884406138 -0.00014246783821377399 0 0.0083821015295447322 -2.6931895114748297e-05 0 0.0083050189588687474 -0.00011848710890267006 0 0.0084485616884406138 -0.00014246783821377399 0 0.0085961978204295072 -0.0002796291187355883 0 0.0083863002403431041 -0.00026121290056499414 0 0.0084645715408541763 -0.00042552955263782494 0 0.0085961978204295072 -0.0002796291187355883 0 0.0084485616884406138 -0.00014246783821377399 0 0.0083863002403431041 -0.00026121290056499414 0 0.0083863002403431041 -0.00026121290056499414 0 0.0081784264329344165 -0.00024754077677059482 0 0.0082704385116175831 -0.00038470009342809612 0 0.0083050189588687474 -0.00011848710890267006 0 0.0083863002403431041 -0.00026121290056499414 0 0.0081784264329344165 -0.00024754077677059482 0 0.0081784264329344165 -0.00024754077677059482 0 0.0079599988005440887 -0.00020490239098181609 0 0.0080323968981369127 -0.00044148231190983968 0 0.0081784264329344165 -0.00024754077677059482 0 0.0081244030564463793 -9.1052407274116133e-05 0 0.0079599988005440887 -0.00020490239098181609 0 0.0079421871273281201 -2.047343578783793e-05 0 0.0081244030564463793 -9.1052407274116133e-05 0 0.0079599988005440887 -0.00020490239098181609 0 0.0077686839131334189 -0.00029735123194839892 0 0.0079599988005440887 -0.00020490239098181609 0 0.0080323968981369127 -0.00044148231190983968 0 0.0080323968981369127 -0.00044148231190983968 0 0.0079096345003402142 -0.000646301785308403 0 0.0081339509347324156 -0.00071926637594973877 0 0.0080323968981369127 -0.00044148231190983968 0 0.0079096345003402142 -0.000646301785308403 0 0.0077741780014671021 -0.00049452604298938117 0 0.0080323968981369127 -0.00044148231190983968 0 0.0083158450879854181 -0.00057785346120555153 0 0.0081339509347324156 -0.00071926637594973877 0 0.0081784264329344165 -0.00024754077677059482 0 0.0080323968981369127 -0.00044148231190983968 0 0.0082704385116175831 -0.00038470009342809612 0 0.0080323968981369127 -0.00044148231190983968 0 0.0082704385116175831 -0.00038470009342809612 0 0.0083158450879854181 -0.00057785346120555153 0 0.0083863002403431041 -0.00026121290056499414 0 0.0082704385116175831 -0.00038470009342809612 0 0.0084645715408541763 -0.00042552955263782494 0 0.0082704385116175831 -0.00038470009342809612 0 0.0084645715408541763 -0.00042552955263782494 0 0.0083158450879854181 -0.00057785346120555153 0 0.0085961978204295072 -0.0002796291187355883 0 0.0084645715408541763 -0.00042552955263782494 0 0.0086800983419217694 -0.00046808399560599613 0 0.0084645715408541763 -0.00042552955263782494 0 0.00856067641287497 -0.00062146210046947208 0 0.0083158450879854181 -0.00057785346120555153 0 0.0084645715408541763 -0.00042552955263782494 0 0.00856067641287497 -0.00062146210046947208 0 0.0086800983419217694 -0.00046808399560599613 0 0.0083158450879854181 -0.00057785346120555153 0 0.0084797056469039962 -0.00085670801354600619 0 0.0081339509347324156 -0.00071926637594973877 0 0.00856067641287497 -0.00062146210046947208 0 0.0084797056469039962 -0.00085670801354600619 0 0.008791916838919632 -0.00081686258527168736 0 0.00856067641287497 -0.00062146210046947208 0 0.0083158450879854181 -0.00057785346120555153 0 0.0084797056469039962 -0.00085670801354600619 0 0.0084797056469039962 -0.00085670801354600619 0 0.0082329780487656601 -0.00093660055742886478 0 0.0081339509347324156 -0.00071926637594973877 0 0.0084797056469039962 -0.00085670801354600619 0 0.0082329780487656601 -0.00093660055742886478 0 0.00849911255337963 -0.001133009774108761 0 0.0082329780487656601 -0.00093660055742886478 0 0.0079232752212268151 -0.0008561076124085832 0 0.0081339509347324156 -0.00071926637594973877 0 0.0079232752212268151 -0.0008561076124085832 0 0.0079096345003402142 -0.000646301785308403 0 0.0081339509347324156 -0.00071926637594973877 0 0.0089961006278004001 -0.0017773754743642381 0 0.0099156244916490856 -0.0041343830276593715 0 0.009984538919439229 -0.0032343537969417918 0 0.01054058283567025 -0.0041008873507003994 0 0.009984538919439229 -0.0032343537969417918 0 0.01000970383920303 -0.0023127802435379294 0 0.010535897668029834 -0.0037918995370004246 0 0.010050192020387226 -0.002383007572790512 0 0.010603453654776917 -0.0035768707448424011 0 0.010399447432164576 -0.0028019159089521131 0 0.01000970383920303 -0.0023127802435379294 0 0.0085961978204295072 -0.0002796291187355883 0 0.0089445186433968916 -0.00043455477065008533 0 0.0086800983419217694 -0.00046808399560599613 0 0.0089445186433968916 -0.00043455477065008533 0 0.0086800983419217694 -0.00046808399560599613 0 0.008791916838919632 -0.00081686258527168736 0 0.00856067641287497 -0.00062146210046947208 0 0.0086800983419217694 -0.00046808399560599613 0 0.008791916838919632 -0.00081686258527168736 0 0.0089445186433968916 -0.00043455477065008533 0 0.008791916838919632 -0.00081686258527168736 0 0.0094562558690146261 -0.0014413669378154437 0 0.0084797056469039962 -0.00085670801354600619 0 0.008791916838919632 -0.00081686258527168736 0 0.0088635800690782304 -0.0012022341526148849 0 0.008791916838919632 -0.00081686258527168736 0 0.0094562558690146261 -0.0014413669378154437 0 0.0088635800690782304 -0.0012022341526148849 0 0.010399447432164576 -0.0028019159089521131 0 0.01000970383920303 -0.0023127802435379294 0 0.0094562558690146261 -0.0014413669378154437 0 0.0089961006278004001 -0.0017773754743642381 0 0.009984538919439229 -0.0032343537969417918 0 0.01000970383920303 -0.0023127802435379294 0 0.0089961006278004001 -0.0017773754743642381 0 0.01000970383920303 -0.0023127802435379294 0 0.0094562558690146261 -0.0014413669378154437 0 0.0096528269801760703 -0.0016518969943488872 0 0.0095023299250769355 -0.0014713125651446691 0 0.0092766819931406723 -0.0012863905955830426 0 0.0094562558690146261 -0.0014413669378154437 0 0.0091471522846219653 -0.0013752828512095673 0 0.0094562558690146261 -0.0014413669378154437 0 0.0088635800690782304 -0.0012022341526148849 0 0.0091471522846219653 -0.0013752828512095673 0 0.0088635800690782304 -0.0012022341526148849 0 0.0087868046877921987 -0.0012840370609940286 0 0.0091471522846219653 -0.0013752828512095673 0 0.0088635800690782304 -0.0012022341526148849 0 0.0087868046877921987 -0.0012840370609940286 0 0.00849911255337963 -0.001133009774108761 0 0.0090296573286155861 -0.0014430916750610707 0 0.0087678237626395809 -0.0013941176471471014 0 0.0091471522846219653 -0.0013752828512095673 0 0.0087868046877921987 -0.0012840370609940286 0 0.0087678237626395809 -0.0013941176471471014 0 0.0084752902969202678 -0.0012774044505064522 0 0.0087868046877921987 -0.0012840370609940286 0 0.0087678237626395809 -0.0013941176471471014 0 0.0091471522846219653 -0.0013752828512095673 0 0.0092766819931406723 -0.0012863905955830426 0 0.0090296573286155861 -0.0014430916750610707 0 0.0091471522846219653 -0.0013752828512095673 0 0.0079232752212268151 -0.0008561076124085832 0 0.0081336080743991679 -0.0011101268775563324 0 0.0077845218650464962 -0.0010015878923138703 0 0.0082329780487656601 -0.00093660055742886478 0 0.0079232752212268151 -0.0008561076124085832 0 0.0081336080743991679 -0.0011101268775563324 0 0.0082329780487656601 -0.00093660055742886478 0 0.0081336080743991679 -0.0011101268775563324 0 0.00849911255337963 -0.001133009774108761 0 0.0084797056469039962 -0.00085670801354600619 0 0.0088635800690782304 -0.0012022341526148849 0 0.00849911255337963 -0.001133009774108761 0 0.0087868046877921987 -0.0012840370609940286 0 0.00849911255337963 -0.001133009774108761 0 0.0084752902969202678 -0.0012774044505064522 0 0.0081336080743991679 -0.0011101268775563324 0 0.00849911255337963 -0.001133009774108761 0 0.0084752902969202678 -0.0012774044505064522 0 0.0081336080743991679 -0.0011101268775563324 0 0.0084752902969202678 -0.0012774044505064522 0 0.0081909528705200654 -0.001289980214693328 0 0.008445559325313436 -0.0014410138983404067 0 0.0087678237626395809 -0.0013941176471471014 0 0.0084752902969202678 -0.0012774044505064522 0 0.008445559325313436 -0.0014410138983404067 0 0.0084752902969202678 -0.0012774044505064522 0 0.0081909528705200654 -0.001289980214693328 0 0.0081336080743991679 -0.0011101268775563324 0 0.0081909528705200654 -0.001289980214693328 0 0.0078228672864868228 -0.0011804597194644477 0 0.0081336080743991679 -0.0011101268775563324 0 0.0078228672864868228 -0.0011804597194644477 0 0.0077845218650464962 -0.0010015878923138703 0 0.0080608136794340646 -0.001423454190013114 0 0.0081909528705200654 -0.001289980214693328 0 0.0078228672864868228 -0.0011804597194644477 0 0.0074864879321729968 -0.0011182832627351883 0 0.0078228672864868228 -0.0011804597194644477 0 0.0074558838257697841 -0.00097938384019164988 0 0.0078228672864868228 -0.0011804597194644477 0 0.0077845218650464962 -0.0010015878923138703 0 0.0074558838257697841 -0.00097938384019164988 0 0.0077845218650464962 -0.0010015878923138703 0 0.0076421532542131129 -0.00086803653045608713 0 0.0074558838257697841 -0.00097938384019164988 0 0.0079232752212268151 -0.0008561076124085832 0 0.0077845218650464962 -0.0010015878923138703 0 0.0076421532542131129 -0.00086803653045608713 0 0.0076421532542131129 -0.00086803653045608713 0 0.0074558838257697841 -0.00097938384019164988 0 0.0074323540580397696 -0.00078608835804872511 0 0.0074558838257697841 -0.00097938384019164988 0 0.0072575089780488652 -0.00093882834849192093 0 0.0074323540580397696 -0.00078608835804872511 0 0.0074558838257697841 -0.00097938384019164988 0 0.0071983754299382342 -0.00095062513361088481 0 0.0072575089780488652 -0.00093882834849192093 0 0.0074864879321729968 -0.0011182832627351883 0 0.0074558838257697841 -0.00097938384019164988 0 0.0071983754299382342 -0.00095062513361088481 0 0.0071694989100527058 -0.00090330357916920711 0 0.0068428847106589401 -0.00053410221818654062 0 0.0066693616221793163 -0.00078996034476021769 0 0.0071983754299382342 -0.00095062513361088481 0 0.0066314157768495594 -6.8955889712074962e-05 0 0.0071983754299382342 -0.00095062513361088481 0 0.0070821359562196137 -0.00099578788120079889 0 0.0072575089780488652 -0.00093882834849192093 0 0.0066693616221793163 -0.00078996034476021769 0 0.0062145449263383799 -0.00054804844625520454 0 0.0066314157768495594 -6.8955889712074962e-05 0 0.0059079868751151822 -3.3629375601630967e-05 0 0.0062145449263383799 -0.00054804844625520454 0 0.0066314157768495594 -6.8955889712074962e-05 0 0.0059079868751151822 -3.3629375601630967e-05 0 0.0060510904803675498 0.0005760418474347244 0 0.0066314157768495594 -6.8955889712074962e-05 0 0.0067245843667775237 -0.0008357078573598334 0 0.0070821359562196137 -0.00099578788120079889 0 0.0071228986852475149 -0.0007702914946796798 0 0.0063767547229639926 -0.00012851096818185137 0 0.0068428847106589401 -0.00053410221818654062 0 0.0070821359562196137 -0.00099578788120079889 0 0.0072575089780488652 -0.00093882834849192093 0 0.0071228986852475149 -0.0007702914946796798 0 0.0071228986852475149 -0.0007702914946796798 0 0.007145787147409155 -0.00052768057404785817 0 0.0073424745471165134 -0.00061935387366179363 0 0.0067245843667775237 -0.0008357078573598334 0 0.0071228986852475149 -0.0007702914946796798 0 0.0069092258586230075 -0.00060892425572668771 0 0.0066363706983502474 -0.00048083029837022167 0 0.0069272506051611289 -0.00041190728952150951 0 0.0069092258586230075 -0.00060892425572668771 0 0.0066363706983502474 -0.00048083029837022167 0 0.0067245843667775237 -0.0008357078573598334 0 0.0069092258586230075 -0.00060892425572668771 0 0.0071699550137686429 -0.00034065307935394698 0 0.007145787147409155 -0.00052768057404785817 0 0.0074578938177994386 -0.00041212166220662525 0 0.0071228986852475149 -0.0007702914946796798 0 0.0069092258586230075 -0.00060892425572668771 0 0.007145787147409155 -0.00052768057404785817 0 0.0069272506051611289 -0.00041190728952150951 0 0.0069092258586230075 -0.00060892425572668771 0 0.007145787147409155 -0.00052768057404785817 0 0.0071699550137686429 -0.00034065307935394698 0 0.0069272506051611289 -0.00041190728952150951 0 0.007145787147409155 -0.00052768057404785817 0 0.007145787147409155 -0.00052768057404785817 0 0.0073424745471165134 -0.00061935387366179363 0 0.0074578938177994386 -0.00041212166220662525 0 0.0073424745471165134 -0.00061935387366179363 0 0.0075384409268752341 -0.00060757916627079966 0 0.0074578938177994386 -0.00041212166220662525 0 0.0075384409268752341 -0.00060757916627079966 0 0.0074578938177994386 -0.00041212166220662525 0 0.0077741780014671021 -0.00049452604298938117 0 0.0077686839131334189 -0.00029735123194839892 0 0.0074578938177994386 -0.00041212166220662525 0 0.0077741780014671021 -0.00049452604298938117 0 0.0077686839131334189 -0.00029735123194839892 0 0.0080323968981369127 -0.00044148231190983968 0 0.0077741780014671021 -0.00049452604298938117 0 0.0079096345003402142 -0.000646301785308403 0 0.0077741780014671021 -0.00049452604298938117 0 0.00769620606878568 -0.00070790623433773358 0 0.0075384409268752341 -0.00060757916627079966 0 0.0077741780014671021 -0.00049452604298938117 0 0.00769620606878568 -0.00070790623433773358 0 0.0075384409268752341 -0.00060757916627079966 0 0.00769620606878568 -0.00070790623433773358 0 0.0074323540580397696 -0.00078608835804872511 0 0.0079232752212268151 -0.0008561076124085832 0 0.0079096345003402142 -0.000646301785308403 0 0.00769620606878568 -0.00070790623433773358 0 0.0079232752212268151 -0.0008561076124085832 0 0.0076421532542131129 -0.00086803653045608713 0 0.00769620606878568 -0.00070790623433773358 0 0.0076421532542131129 -0.00086803653045608713 0 0.00769620606878568 -0.00070790623433773358 0 0.0074323540580397696 -0.00078608835804872511 0 0.0072575089780488652 -0.00093882834849192093 0 0.0071228986852475149 -0.0007702914946796798 0 0.0074323540580397696 -0.00078608835804872511 0 0.0071228986852475149 -0.0007702914946796798 0 0.0073424745471165134 -0.00061935387366179363 0 0.0074323540580397696 -0.00078608835804872511 0 0.0073424745471165134 -0.00061935387366179363 0 0.0075384409268752341 -0.00060757916627079966 0 0.0074323540580397696 -0.00078608835804872511 0 
</DataArray>
</PointData>
<CellData Scalars="region_id,cross_section_updated," Vectors="" Tensors="stress,">
<DataArray type="Float64" Name="region_id" format="ascii">
6 5 5 5 5 5 5 5 5 5 5 5 5 6 5 6 5 5 5 6 5 6 5 5 5 5 5 5 5 5 5 5 5 6 5 5 6 6 5 5 5 5 5 5 5 5 5 5 5 5 6 5 5 5 5 5 5 5 5 5 5 5 5 6 6 5 6 5 6 6 5 5 5 5 5 6 5 5 5 5 5 5 6 5 6 5 5 5 5 5 5 6 6 5 5 6 5 6 5 5 5 6 5 6 5 5 5 5 5 5 6 5 5 6 5 5 5 5 5 5 5 5 5 5 5 5 5 5 5 6 5 5 5 5 5 5 5 5 5 5 5 5 5 5 6 5 5 5 5 5 5 6 5 5 5 5 5 5 5 6 5 5 6 5 5 5 5 5 5 5 5 5 6 5 5 6 5 5 6 5 5 5 5 5 5 5 5 6 6 5 6 5 5 6 5 5 5 5 5 5 5 5 6 5 5 5 6 5 5 5 5 5 5 5 6 5 6 6 5 6 6 5 5 6 5 5 5 5 5 5 5 5 5 5 6 5 5 5 5 5 5 5 5 6 6 5 5 5 5 5 5 6 5 5 6 5 5 5 6 5 5 5 5 5 5 5 5 5 5 5 5 5 5 5 5 5 5 5 5 5 6 5 5 5 5 5 5 5 5 5 5 5 5 5 5 5 5 5 5 6 5 5 5 5 6 5 5 5 5 5 5 5 5 5 5 5 5 5 5 6 5 5 5 5 5 5 5 5 5 5 5 5 5 5 5 5 5 5 5 5 5 5 5 5 5 5 5 5 5 5 5 5 5 5 6 5 5 5 5 5 5 6 5 5 5 5 5 5 5 5 5 5 5 5 5 5 5 6 5 5 5 5 6 5 5 6 5 6 5 5 5 5 5 6 5 5 5 5 5 5 5 6 5 5 6 5 5 5 6 5 5 5 5 6 5 5 5 5 5 5 5 5 5 5 5 5 5 5 5 5 5 5 5 5 5 5 5 5 5 5 5 5 5 5 5 5 5 5 5 5 5 5 5 5 5 5 5 5 5 5 5 5 5 5 5 6 5 5 5 5 6 5 5 5 5 5 5 5 5 5 5 5 5 5 5 5 5 5 5 5 5 5 5 5 5 5 6 5 5 5 5 6 5 5 5 6 5 5 5 5 5 5 5 5 5 5 5 5 6 5 5 5 5 5 5 5 5 5 6 5 5 5 5 5 5 5 5 5 5 5 6 5 5 6 5 5 5 5 5 5 5 5 5 5 5 5 6 5 5 6 5 5 5 6 5 5 5 5 6 5 5 5 6 5 5 5 5 5 5 5 5 5 5 5 5 5 5 5 5 5 5 6 5 5 5 5 5 5 5 5 5 5 5 5 5 5 5 5 5 5 5 5 5 5 5 5 5 5 5 5 6 5 5 6 5 5 5 6 5 5 5 5 5 5 5 5 5 5 5 5 5 5 5 5 5 5 6 5 5 5 5 5 5 5 5 5 5 5 5 5 5 5 5 5 6 5 5 5 5 5 5 6 5 5 5 5 5 5 5 5 5 5 5 5 5 5 5 5 5 5 5 5 5 5 5 5 5 5 5 5 5 5 5 5 5 5 5 5 5 5 5 5 5 5 5 5 5 5 5 5 5 5 5 5 5 5 5 5 5 5 5 5 5 5 5 5 5 5 5 5 5 5 5 5 5 5 6 5 5 5 5 5 6 5 5 6 5 5 5 5 5 5 5 5 5 5 5 5 6 5 5 5 5 5 5 6 5 5 5 6 5 5 6 5 5 5 5 6 5 5 6 5 5 5 5 5 5 5 5 6 5 6 5 5 5 6 6 5 5 5 5 5 5 5 5 5 5 5 6 5 5 5 6 5 5 6 5 5 5 5 5 5 5 5 5 6 5 5 5 5 5 5 5 5 5 5 5 5 6 5 6 5 5 5 5 5 5 5 5 5 5 5 5 5 5 5 5 5 5 5 6 5 5 6 5 5 5 5 5 5 6 5 5 5 6 5 6 6 5 5 5 5 5 5 6 6 6 6 5 6 5 5 5 5 5 6 5 5 6 5 5 6 5 5 5 5 5 5 5 5 5 5 5 5 5 5 5 5 5 6 5 5 5 5 5 5 5 6 5 5 5 5 5 5 5 5 5 5 5 5 5 5 5 5 5 5 5 5 6 5 5 5 6 5 6 5 5 6 5 5 5 5 5 5 5 5 5 5 5 6 5 5 5 5 5 5 5 5 5 5 6 5 5 5 5 5 5 5 5 5 5 6 5 5 6 5 5 5 5 5 5 5 5 5 5 5 5 5 5 5 5 5 5 5 6 6 5 6 5 5 6 6 6 5 6 5 5 5 5 5 6 5 5 5 5 5 5 5 5 5 5 5 5 5 5 5 5 5 5 5 5 5 5 6 5 5 6 5 5 5 5 5 5 5 5 6 5 5 5 6 5 5 5 5 5 6 5 5 5 6 5 5 5 6 5 6 6 5 5 5 5 6 5 5 6 5 5 5 5 6 6 5 5 6 6 5 5 5 5 6 5 5 5 5 5 5 5 5 5 5 5 5 5 5 5 5 5 5 5 6 5 6 5 5 5 5 5 5 5 5 6 6 5 5 5 6 6 5 6 5 6 5 5 5 5 6 5 5 5 5 5 5 5 5 5 5 5 6 5 5 5 5 5 5 5 5 6 5 5 5 5 5 5 5 5 5 5 5 5 6 5 5 5 5 5 5 5 5 5 5 5 5 5 5 6 5 5 5 5 5 5 5 5 5 5 5 5 5 5 5 6 5 5 5 5 5 5 5 5 5 5 5 5 5 5 5 5 6 6 5 5 5 6 5 5 6 5 5 5 5 6 6 6 5 5 5 5 5 5 5 5 5 6 5 5 5 5 6 5 5 5 5 5 6 5 5 5 5 5 5 5 5 5 5 5 5 5 5 5 5 5 5 6 5 5 5 5 5 5 6 6 5 5 5 5 5 5 5 5 6 6 6 5 5 5 5 5 5 5 5 5 5 5 5 5 5 5 5 5 5 5 5 6 5 5 5 5 5 5 6 5 5 5 5 5 6 5 5 5 5 5 5 5 5 5 5 5 5 5 5 5 5 6 5 5 5 6 5 5 5 5 5 5 5 5 6 5 5 5 6 5 5 5 5 5 5 5 5 5 5 5 6 5 5 5 6 5 5 5 5 5 5 5 5 5 5 5 5 5 5 5 6 5 6 5 5 5 5 5 5 6 5 5 5 5 5 5 5 5 6 5 6 5 5 5 5 5 5 5 5 5 5 5 6 5 5 5 5 5 5 5 5 5 6 5 5 5 5 6 5 5 6 5 5 5 5 5 5 5 5 6 6 5 5 6 5 5 5 5 5 5 5 5 5 5 5 5 5 5 5 5 5 5 5 5 5 5 5 5 5 5 5 5 6 5 5 5 5 6 5 5 5 5 5 5 5 5 6 5 5 5 5 5 5 5 5 5 5 5 5 5 5 5 5 5 5 5 6 5 5 5 6 5 5 5 5 5 5 5 5 5 5 5 5 5 5 5 5 5 5 5 5 6 5 5 5 5 6 5 5 5 5 5 5 5 6 5 5 5 6 5 5 5 6 5 5 5 5 5 5 5 5 6 5 5 5 5 5 5 5 5 5 6 5 5 6 6 6 5 6 5 5 5 5 5 6 5 6 6 5 6 5 5 5 5 5 5 5 5 6 5 5 5 5 6 5 5 5 6 6 5 5 6 6 5 5 5 5 5 6 5 6 5 5 5 5 5 5 6 6 5 6 5 5 5 5 5 5 5 5 6 5 5 5 5 6 5 6 5 6 5 5 5 5 5 5 5 5 5 5 5 5 5 5 5 5 5 5 5 5 5 6 5 6 5 5 5 5 5 5 6 5 5 5 5 5 5 5 5 5 5 5 6 5 5 5 5 5 5 5 5 5 5 5 5 5 5 5 5 5 5 5 5 6 5 5 5 5 5 5 5 6 6 5 5 5 5 5 5 5 5 5 5 5 5 5 6 5 5 5 6 5 5 5 5 5 5 5 5 5 5 5 5 5 5 5 6 5 5 5 5 5 5 5 5 5 6 5 6 5 5 5 5 6 5 6 6 5 6 5 5 5 6 5 5 5 5 5 5 5 5 5 5 5 5 5 6 5 5 5 5 6 5 5 5 5 5 5 5 6 5 5 5 6 5 6 5 5 6 5 5 5 5 5 5 5 5 5 6 5 5 5 5 5 5 5 5 5 5 5 5 5 5 5 6 5 5 5 6 6 5 6 5 6 5 6 5 5 5 5 5 5 5 6 5 5 5 5 5 5 5 5 5 5 5 5 5 5 5 5 5 5 5 5 5 5 5 5 5 5 5 5 5 5 5 5 5 5 5 5 5 5 5 5 5 5 5 5 5 5 5 5 5 5 5 5 5 5 5 5 6 5 5 5 5 5 5 5 6 5 5 5 5 5 5 5 5 5 5 5 5 6 5 5 5 5 5 5 5 6 5 5 5 5 5 5 5 5 5 6 5 5 5 6 5 5 5 5 5 5 5 5 5 5 5 5 5 5 5 5 5 5 5 5 5 5 5 5 5 5 5 6 5 5 5 5 5 6 5 5 5 6 5 5 6 5 5 6 5 5 5 5 5 6 5 5 6 5 5 5 5 5 5 5 6 5 6 5 5 6 5 5 5 5 5 5 6 5 5 5 5 5 5 6 5 5 5 5 5 5 5 5 5 5 5 5 6 5 5 5 6 5 5 5 5 5 5 5 5 5 5 5 5 5 6 5 5 5 5 6 5 5 5 5 5 5 5 5 6 5 5 5 5 5 5 5 5 5 5 5 5 5 5 5 5 5 5 5 5 5 5 5 5 5 5 5 5 6 5 5 6 6 5 5 5 6 6 5 5 5 5 5 5 5 5 5 5 5 6 5 5 5 5 5 5 5 5 5 5 5 5 5 5 5 5 5 5 5 6 5 5 6 5 5 5 5 5 5 5 5 5 5 5 6 5 5 6 5 5 5 6 5 5 5 5 5 5 5 5 5 5 5 5 5 5 5 5 5 5 5 5 5 5 5 5 5 5 5 5 5 5 5 5 5 5 5 5 5 5 5 5 5 5 5 5 6 5 5 5 6 5 5 5 5 6 5 5 6 5 5 6 5 5 5 5 6 6 5 5 5 5 5 5 5 5 5 5 6 5 6 5 5 5 5 5 5 6 5 5 6 5 5 5 6 5 5 6 5 5 5 6 5 5 5 5 5 5 5 5 5 5 5 5 5 5 5 5 5 5 5 5 5 5 5 5 5 5 5 5 5 5 5 6 5 5 5 5 5 6 5 5 5 5 5 5 5 6 5 5 5 6 5 5 5 5 5 5 5 5 5 5 6 5 5 6 5 5 5 5 5 6 5 5 6 5 6 5 5 5 5 5 5 5 5 5 5 5 5 5 5 5 5 5 5 5 5 5 5 5 5 5 5 5 6 5 6 5 5 5 5 5 5 5 5 5 5 6 5 5 5 5 5 5 5 5 5 5 5 5 5 5 6 5 5 5 5 5 5 6 5 5 5 5 5 5 5 5 5 5 5 5 5 5 5 6 5 5 5 5 5 5 6 5 5 5 5 5 5 5 5 5 5 6 5 5 5 6 5 5 5 5 6 5 5 5 5 6 5 5 5 5 5 5 5 5 5 5 6 5 5 5 5 5 6 5 5 5 5 5 5 5 5 5 5 5 5 6 5 5 6 5 5 5 5 5 5 5 5 5 5 5 5 5 5 5 5 5 5 5 5 5 5 5 5 5 5 5 5 5 5 5 5 5 5 5 5 5 5 5 5 5 5 5 5 5 5 5 5 5 5 6 6 5 5 5 5 5 5 5 5 5 5 5 5 5 5 6 5 5 5 5 5 5 6 5 5 5 5 5 5 6 5 5 5 5 5 5 5 5 5 5 5 6 5 5 5 5 6 5 5 5 6 6 5 5 6 5 5 6 5 5 5 5 6 5 5 5 5 5 6 5 6 5 5 6 5 5 6 5 5 5 5 5 5 5 5 5 5 6 5 5 5 5 5 6 5 5 6 5 6 6 5 5 5 5 6 5 5 5 5 5 6 6 5 5 5 5 5 5 6 5 5 6 5 6 5 5 6 5 5 5 5 6 6 5 5 5 5 5 5 5 5 5 5 5 5 5 5 5 5 5 5 5 5 5 5 5 5 5 5 5 5 5 5 5 5 6 6 5 6 5 5 5 5 5 5 6 5 5 5 5 5 6 5 5 5 5 5 5 5 5 6 5 5 5 6 5 5 5 5 5 5 5 5 5 5 6 5 5 6 5 5 5 5 5 5 5 5 5 6 5 5 5 5 6 5 5 5 5 5 5 6 5 5 5 5 5 5 5 6 5 5 5 5 5 5 5 5 5 5 5 5 5 5 5 5 5 5 5 5 5 5 5 5 5 6 5 5 5 5 6 5 6 5 5 5 5 5 5 6 5 5 6 5 5 5 5 5 5 5 5 5 5 6 5 5 5 5 5 5 5 5 6 5 5 5 5 6 5 5 5 5 5 5 5 5 5 6 5 5 6 5 5 5 5 5 6 6 5 5 5 5 5 5 5 5 5 5 5 5 5 6 5 6 6 5 5 5 5 5 5 5 5 5 5 5 5 5 6 5 5 5 6 6 5 5 5 5 5 5 5 5 5 6 5 5 5 5 5 5 5 5 6 5 6 5 6 6 5 5 6 6 5 5 5 5 5 5 5 5 5 5 6 5 6 5 5 5 6 5 6 6 6 5 5 6 5 5 5 5 5 5 5 5 5 6 5 5 5 5 5 5 5 5 5 5 5 5 5 5 5 6 5 5 5 5 6 6 6 5 5 5 5 6 5 5 5 5 5 5 6 5 5 5 5 5 5 5 5 5 5 5 5 5 5 5 5 5 5 5 5 5 5 5 5 5 5 5 5 5 6 5 5 5 5 5 5 5 5 5 5 5 5 6 5 5 5 5 5 5 6 5 5 5 5 5 5 6 5 5 5 5 5 5 5 5 5 5 6 5 5 5 6 5 6 5 5 5 5 5 5 5 5 5 5 5 5 5 5 5 5 5 5 5 5 5 5 5 6 6 5 5 5 5 5 5 6 5 5 5 5 5 5 5 5 5 5 5 5 5 5 5 5 5 5 5 5 5 5 5 5 5 5 5 5 5 5 5 5 5 6 5 5 6 6 5 5 6 5 5 5 5 5 5 5 5 6 5 5 5 5 5 5 5 5 5 5 5 5 5 5 5 6 5 5 5 5 5 5 5 5 5 5 5 5 5 5 6 5 5 5 5 6 5 6 6 5 5 6 5 5 6 5 5 5 5 6 5 5 5 5 5 6 5 5 6 5 5 5 5 5 5 5 5 5 6 5 5 5 6 5 5 5 5 5 5 5 5 5 5 5 5 5 5 5 5 5 5 5 5 5 5 5 5 5 5 5 5 5 5 5 5 5 5 6 5 5 6 5 5 5 5 5 5 5 5 6 5 5 5 5 5 5 5 5 5 6 5 5 5 5 6 5 5 5 5 5 5 5 5 5 5 5 5 5 5 5 5 5 5 5 5 6 5 6 5 5 5 5 5 6 5 5 5 5 5 5 5 5 5 6 5 5 5 5 5 5 5 5 5 5 5 5 5 5 6 5 5 5 5 6 5 5 5 6 5 5 5 5 5 5 5 6 5 5 5 6 5 5 5 6 5 6 5 5 5 5 5 5 5 5 6 5 5 6 5 5 5 6 5 6 5 5 5 6 5 5 5 6 5 5 6 5 6 5 5 6 5 5 6 5 5 5 5 5 5 5 5 5 5 5 5 5 5 5 5 5 5 6 5 5 5 5 5 6 5 5 6 5 5 5 5 5 6 5 5 5 5 5 6 5 5 5 5 5 5 5 5 6 5 5 6 5 6 5 5 5 6 5 5 5 5 5 5 6 5 5 6 5 5 5 5 6 5 5 5 6 6 5 5 5 5 5 5 6 6 5 5 5 5 6 5 5 5 6 5 5 5 5 5 5 5 5 5 5 5 5 5 5 5 5 5 5 5 5 5 5 5 5 5 5 5 5 5 5 5 5 5 5 5 5 5 5 5 5 5 5 5 5 5 5 5 5 5 5 5 5 5 5 5 5 5 5 5 5 5 5 5 5 5 6 5 5 5 6 5 5 5 5 5 5 5 5 5 5 5 6 5 6 5 5 5 5 5 5 5 6 5 5 5 5 5 5 5 5 5 5 5 5 5 5 5 5 6 5 5 6 5 5 5 6 5 5 5 5 5 6 5 5 5 5 5 5 5 5 5 5 6 5 6 5 5 5 5 5 5 5 5 5 5 5 5 5 5 5 5 5 6 5 5 5 5 5 5 5 5 5 5 5 5 6 5 5 5 5 6 5 5 6 5 6 5 5 5 6 5 5 5 5 5 5 6 5 5 5 5 5 5 5 5 5 5 5 5 6 5 5 5 5 5 5 5 5 5 5 5 5 5 5 5 5 6 5 5 5 5 5 6 6 5 5 6 5 5 5 5 5 5 5 5 5 5 5 5 5 5 5 5 5 5 5 6 5 5 5 5 5 5 5 5 5 5 6 5 5 5 5 5 5 6 5 5 6 5 5 5 5 5 5 5 5 5 5 5 5 5 5 5 5 5 5 5 5 6 5 5 5 5 5 5 6 5 5 5 5 5 6 5 5 6 5 6 5 6 5 6 5 5 5 5 6 5 5 5 5 5 6 5 5 5 5 6 5 5 5 5 5 6 5 5 6 5 5 5 5 6 5 5 5 5 6 5 5 5 5 5 5 5 5 5 5 5 5 5 5 5 5 5 5 5 5 5 6 5 5 5 5 5 5 5 5 6 5 5 5 6 5 5 5 5 5 6 5 5 5 5 5 6 5 5 5 5 5 5 6 5 5 5 5 5 5 5 5 5 5 5 5 5 5 5 5 5 5 5 5 5 5 5 6 6 5 5 5 5 5 5 6 5 5 5 5 6 5 5 5 6 5 5 5 5 5 6 6 5 5 5 6 5 5 6 5 5 5 5 5 5 5 5 5 5 6 6 5 5 5 5 5 5 5 5 5 5 5 5 5 5 5 5 5 5 5 5 5 5 6 5 6 5 5 5 5 6 5 5 5 5 5 5 5 5 5 6 5 5 6 5 5 5 5 5 5 5 5 5 5 5 5 5 5 5 5 5 5 5 5 5 5 5 5 5 5 5 5 5 5 5 6 5 5 5 6 5 5 5 5 6 5 5 5 5 6 5 5 5 5 5 5 5 5 5 5 5 5 5 5 5 6 5 5 5 5 5 5 5 5 5 5 5 5 5 5 5 5 5 5 5 5 5 6 5 5 6 5 5 5 6 5 6 5 5 5 5 5 6 5 5 5 5 5 5 5 5 5 5 5 5 5 5 5 5 5 5 5 6 5 6 5 6 5 5 5 5 5 5 5 5 5 6 5 5 6 5 5 5 5 5 5 5 5 5 5 5 5 5 5 5 5 5 5 5 5 5 5 5 5 5 5 5 5 5 5 5 5 5 5 5 5 5 5 5 6 5 5 5 5 5 5 5 5 5 6 6 5 5 5 5 5 5 5 5 5 5 5 5 5 5 5 5 5 5 6 5 5 5 5 5 5 5 5 5 5 5 5 5 5 5 5 5 5 5 5 5 5 5 5 5 5 5 5 5 5 5 5 5 5 5 5 5 5 5 5 5 5 5 5 5 5 5 6 5 6 5 6 5 5 5 6 5 5 6 5 6 5 5 5 5 5 6 5 5 5 6 5 6 5 5 5 6 5 6 5 5 5 5 6 5 5 5 5 5 5 5 6 5 5 5 5 5 6 5 5 6 5 5 5 5 5 5 5 5 5 5 5 5 5 5 5 5 5 5 5 5 5 5 5 5 5 5 5 5 5 5 5 6 5 5 5 5 5 5 5 5 5 5 5 5 5 5 5 5 5 5 5 5 5 5 5 5 5 5 5 5 6 5 5 5 6 5 5 5 5 5 5 5 5 5 5 5 5 5 5 5 5 5 5 5 5 5 5 5 6 5 5 5 5 5 5 5 5 5 5 5 6 5 5 5 5 5 6 5 5 5 5 5 5 5 6 5 5 5 5 5 5 6 5 5 5 5 6 6 5 6 5 5 5 5 5 6 5 5 5 5 5 5 5 6 5 5 5 5 6 5 5 5 5 5 5 5 5 6 5 5 5 5 5 5 6 5 5 5 5 5 5 5 6 5 5 5 5 5 6 5 5 5 5 5 5 5 5 5 5 5 5 6 5 5 5 5 5 5 5 5 6 5 5 5 5 5 5 5 6 5 5 5 5 6 5 5 5 5 5 5 5 6 5 5 6 5 5 5 5 5 6 5 5 5 6 6 5 5 5 5 5 6 5 5 5 5 5 5 5 5 6 5 5 6 5 5 5 5 5 5 5 5 5 5 5 6 5 6 5 5 5 5 6 5 5 5 5 5 5 5 5 5 6 5 5 5 5 6 5 5 5 5 6 5 5 5 5 6 5 5 5 5 5 5 5 5 5 5 5 5 5 5 5 5 5 5 5 5 5 5 6 5 5 5 5 5 6 5 5 5 6 5 5 6 5 5 5 5 5 5 5 5 5 5 5 5 5 6 5 5 6 5 5 5 6 5 5 6 5 6 5 5 5 6 5 5 5 5 6 5 5 5 5 5 5 6 5 5 5 5 5 5 5 5 5 5 6 5 5 6 5 6 6 5 6 6 5 5 5 6 5 5 5 5 5 5 5 5 5 5 5 5 5 5 5 5 5 5 5 6 5 5 5 5 5 5 5 5 5 5 5 5 6 5 5 5 6 5 5 5 5 5 5 5 5 5 5 5 5 5 5 5 5 5 5 5 5 5 5 5 5 5 5 5 5 5 5 5 5 5 5 5 5 5 5 5 5 5 5 5 5 5 6 5 5 6 5 5 5 6 5 6 5 5 5 5 5 5 5 5 5 5 5 5 5 5 5 5 6 5 6 5 5 5 5 5 5 5 5 5 5 5 6 5 6 5 6 5 6 5 6 6 5 5 5 5 6 5 5 5 5 6 5 6 6 5 6 5 6 5 5 5 5 5 5 5 5 5 5 5 5 5 5 5 6 5 5 6 5 5 6 5 5 5 6 5 5 5 6 5 5 5 5 5 5 5 5 5 5 5 5 5 5 5 5 5 5 5 6 5 5 5 5 5 5 5 5 5 5 5 5 5 5 5 5 6 5 5 5 5 6 6 5 5 5 5 5 5 5 6 6 5 5 5 5 5 5 5 5 5 5 5 5 5 5 5 5 5 5 5 6 5 5 5 6 5 5 5 5 6 5 5 6 5 5 6 5 5 5 5 5 5 5 5 6 5 5 5 5 5 5 5 5 5 6 5 5 5 6 5 5 5 5 5 5 5 5 5 5 5 5 5 5 5 5 5 5 5 5 5 5 5 5 5 5 5 5 6 6 5 5 5 5 5 5 6 5 5 5 5 5 6 5 5 5 5 6 5 5 5 6 5 5 5 5 5 6 5 5 5 6 5 5 5 5 5 5 5 5 5 5 5 5 5 5 5 5 5 6 5 5 5 6 5 5 5 5 5 5 5 5 5 6 5 5 5 6 5 5 5 5 5 5 6 5 5 5 5 5 5 5 5 5 6 5 5 5 5 6 5 5 5 5 5 6 5 5 6 5 5 5 5 5 5 5 5 5 5 5 5 5 5 5 5 5 5 5 5 6 5 5 5 5 5 5 5 5 5 6 5 5 6 5 5 5 6 5 5 5 5 5 5 5 5 6 5 5 5 5 5 6 5 5 5 5 5 6 5 6 5 5 5 5 6 5 5 6 5 6 5 6 5 5 5 5 5 6 5 6 6 5 5 6 5 5 5 6 5 5 5 5 5 5 5 6 6 5 5 5 5 5 5 5 6 5 5 5 6 5 5 5 5 5 5 5 5 6 5 5 6 5 5 5 5 5 5 6 5 5 5 5 5 5 5 5 6 5 6 5 6 5 5 6 6 5 5 6 5 6 6 5 5 5 6 5 6 5 5 5 6 6 6 5 5 6 6 5 6 5 6 5 5 5 6 5 5 5 5 5 6 5 5 5 6 5 5 6 6 5 5 5 5 5 5 6 5 5 5 5 6 5 5 5 5 5 5 5 5 5 5 6 5 6 6 5 5 6 5 6 6 5 5 6 5 6 6 5 5 5 5 5 5 5 6 5 5 5 6 5 5 5 5 5 5 5 5 5 5 5 6 5 5 6 5 5 5 5 5 6 5 5 5 6 5 5 6 5 5 5 6 5 5 5 5 5 6 5 5 5 5 6 6 5 6 5 6 5 6 6 5 5 5 5 5 6 6 5 6 6 5 6 5 5 5 6 6 5 6 5 5 6 5 5 5 5 6 5 6 5 5 5 6 5 5 6 5 5 5 5 6 5 5 5 5 6 5 5 5 5 5 5 5 5 5 5 5 5 6 5 5 5 5 5 5 5 5 5 6 5 5 5 6 5 5 5 5 5 5 5 5 5 5 5 5 5 5 5 5 5 5 5 5 5 5 5 5 5 5 5 5 5 5 5 5 5 5 5 5 5 5 5 5 5 5 5 5 5 5 5 5 5 5 5 5 5 5 5 5 5 5 5 6 5 5 5 5 5 5 5 5 6 5 5 5 5 5 5 6 5 5 5 6 5 5 5 5 5 5 5 6 5 5 5 5 5 6 6 5 5 5 6 5 6 5 6 5 5 5 5 5 5 6 6 5 5 5 5 5 5 6 5 5 5 5 5 5 5 5 6 6 5 5 5 6 6 5 5 5 5 5 6 5 5 5 5 5 5 5 5 5 6 5 5 5 6 5 5 5 5 5 6 5 5 5 5 5 5 5 5 5 5 5 5 5 5 5 6 5 5 5 6 5 6 5 5 5 5 5 5 5 5 5 5 5 5 5 5 5 5 5 5 5 5 5 5 5 5 6 5 6 5 5 5 5 5 5 5 6 5 5 5 5 5 5 5 6 5 6 5 5 5 5 5 5 5 5 5 5 5 5 5 6 5 5 6 6 5 5 5 5 5 5 5 5 5 5 5 5 5 5 6 5 5 5 5 5 6 5 6 5 5 5 5 5 5 5 5 5 5 5 5 5 5 5 5 5 5 5 5 6 6 5 5 5 5 5 5 5 5 5 5 5 5 5 6 5 5 5 5 5 5 5 5 5 5 5 5 5 5 5 5 5 5 5 5 5 5 5 5 5 5 5 5 5 5 5 5 5 5 5 5 5 5 5 6 5 5 6 5 5 5 5 5 5 5 5 5 5 5 6 5 5 5 5 5 5 5 5 5 6 5 5 6 5 5 5 5 5 5 6 5 5 5 5 5 5 5 5 5 5 5 5 5 5 5 5 5 5 5 5 5 5 5 5 5 5 5 5 5 5 5 5 5 5 5 6 6 5 5 5 5 5 6 5 5 5 5 5 5 5 5 5 5 5 5 5 6 5 5 5 5 5 5 5 5 6 5 5 5 5 5 5 5 5 5 5 5 5 5 5 5 5 5 5 5 5 5 5 5 5 5 5 5 5 5 5 5 5 5 5 5 5 5 5 5 5 5 5 5 5 5 5 5 5 5 5 5 5 5 5 5 5 5 5 5 5 5 5 5 5 5 5 5 5 6 6 5 5 5 5 5 5 5 5 5 5 5 5 5 5 5 5 6 5 5 6 5 6 5 6 5 5 6 5 5 5 5 5 5 5 6 5 5 5 5 5 5 5 5 5 5 5 5 6 5 5 5 5 5 5 5 5 5 5 5 5 5 5 6 5 5 5 5 5 5 5 5 5 5 5 5 5 5 5 5 5 5 5 5 5 5 5 5 5 5 5 5 5 5 5 5 5 5 5 5 5 5 5 5 5 5 5 5 5 5 5 5 5 5 5 5 5 5 5 5 5 5 5 5 5 5 5 5 5 5 5 5 5 5 5 5 5 5 5 5 5 5 5 5 5 5 5 5 5 5 5 5 5 5 6 5 6 5 5 5 5 5 5 5 5 5 5 5 5 5 5 5 5 6 6 5 5 5 5 5 5 5 5 5 5 5 5 5 5 5 5 5 5 5 5 5 5 5 5 5 5 5 5 5 5 5 5 5 5 5 5 5 5 5 6 5 5 5 5 6 5 5 5 5 5 5 5 5 5 6 5 6 5 5 5 5 5 5 5 6 5 5 5 5 5 5 5 5 5 5 5 5 5 5 6 5 5 5 5 6 5 5 5 5 5 5 5 5 5 5 5 5 5 6 5 5 5 6 5 5 5 5 5 5 5 5 5 5 5 5 5 5 5 5 5 5 5 5 5 5 5 6 5 5 5 5 6 5 5 5 5 5 5 6 5 5 5 5 6 5 5 5 5 5 5 6 5 5 5 5 5 6 5 5 6 6 5 5 5 5 6 5 5 5 5 5 5 5 5 5 6 5 5 6 5 5 5 5 5 5 5 5 5 5 5 5 5 5 6 5 5 5 5 5 6 5 5 5 5 6 5 5 5 5 5 5 5 5 5 5 5 5 5 5 6 5 5 5 5 5 6 5 5 5 5 5 5 6 5 5 5 5 5 5 5 5 5 5 5 5 5 6 5 5 5 5 5 5 6 5 5 6 5 5 5 5 5 5 5 5 5 5 5 6 5 5 5 5 5 5 5 5 5 5 5 6 5 6 5 5 5 5 5 6 6 5 5 6 6 5 5 6 5 5 5 5 6 5 5 5 5 5 5 6 5 5 6 5 5 5 5 5 5 5 6 5 5 5 5 5 5 6 5 5 5 5 5 5 5 5 5 5 5 5 5 5 5 5 5 6 5 5 5 6 5 5 5 5 5 5 5 5 5 5 5 5 5 5 5 5 5 5 5 5 5 6 5 5 5 5 6 5 6 5 5 6 5 5 6 5 5 5 5 5 6 5 5 5 6 5 5 6 5 5 5 5 6 5 5 5 5 6 5 5 5 5 5 5 5 5 5 5 5 5 5 5 5 5 5 5 5 6 5 5 5 5 5 5 6 5 5 5 5 5 6 5 5 5 6 5 5 6 5 5 5 5 5 5 5 5 5 5 5 5 5 6 5 6 5 5 5 5 5 5 5 5 5 5 5 5 5 5 5 5 6 5 5 5 6 5 5 5 5 5 5 5 5 5 5 5 5 5 5 5 5 5 5 5 5 5 5 5 5 5 5 5 5 5 5 6 5 5 6 5 5 5 5 5 5 5 5 5 5 5 5 5 5 6 5 5 5 5 5 6 5 5 5 5 5 5 5 5 5 6 5 5 5 5 5 5 5 5 5 5 5 5 5 5 5 5 5 5 5 5 5 6 5 6 5 6 5 5 5 5 5 5 5 5 5 6 5 5 5 5 5 5 5 5 5 5 5 5 5 5 5 5 6 6 5 5 5 5 5 5 5 6 5 5 5 5 5 5 5 5 5 5 5 5 5 5 5 5 5 6 6 5 5 5 5 5 5 5 5 5 5 5 5 5 5 5 5 5 5 5 5 5 5 5 5 5 5 5 5 5 5 5 5 5 5 5 5 5 5 5 5 5 5 6 5 5 5 5 5 5 5 5 5 5 5 5 5 5 5 5 5 5 5 6 5 5 5 5 5 5 5 5 6 5 5 5 5 5 5 6 6 5 6 5 5 6 5 5 5 6 5 6 5 5 6 5 5 6 5 5 5 5 5 5 5 5 5 5 5 6 5 5 5 5 6 5 5 5 5 5 5 5 5 5 5 6 5 5 6 5 5 5 5 5 5 5 5 5 5 5 5 5 5 5 5 5 5 5 5 5 6 5 5 6 5 5 5 5 5 5 5 5 6 6 5 5 5 5 5 6 5 5 5 6 5 5 5 5 6 5 5 5 5 5 5 5 5 5 5 5 5 5 5 5 5 5 5 5 5 5 5 5 5 5 5 5 5 5 5 5 5 5 5 6 6 5 5 5 5 5 6 5 5 5 5 6 5 5 5 5 5 5 5 5 6 5 5 5 5 5 6 5 5 5 6 5 5 5 5 5 5 5 5 5 5 5 5 6 6 5 5 5 5 6 6 5 6 6 5 6 5 6 5 5 6 6 5 5 5 5 6 6 5 5 6 6 5 5 6 5 5 6 5 5 5 5 5 5 5 5 5 5 5 5 5 5 5 5 5 5 5 5 5 6 5 5 5 6 5 5 6 5 5 5 6 5 6 6 5 6 5 5 5 5 5 6 6 5 5 6 5 5 5 6 5 5 5 5 5 5 5 5 6 5 5 6 5 5 5 5 6 6 5 6 5 5 5 5 6 5 5 5 5 5 5 5 6 5 5 5 5 5 5 6 5 5 5 5 5 5 5 5 5 5 5 5 5 6 6 6 6 5 5 6 6 5 5 5 5 5 6 6 5 6 5 6 5 6 5 5 6 5 5 6 5 6 6 5 5 5 5 5 5 5 5 5 5 6 5 5 6 5 5 5 5 5 5 5 5 5 5 5 5 5 5 6 5 5 5 6 5 5 6 5 5 5 5 6 5 5 5 5 6 5 5 5 6 5 5 5 5 5 6 5 5 5 5 5 5 6 5 6 5 5 5 5 5 5 5 5 5 5 5 5 5 5 6 5 5 6 5 6 6 5 5 5 5 5 5 6 5 5 6 5 5 5 6 6 5 6 5 5 5 5 5 6 5 5 5 6 5 5 5 5 5 5 5 6 5 5 5 5 5 5 6 5 5 5 5 5 5 6 5 5 5 5 5 5 5 5 5 5 6 5 5 5 5 5 5 5 5 5 5 5 5 5 5 5 6 6 5 5 5 5 5 5 5 5 5 6 5 5 5 5 5 5 5 5 6 5 5 6 5 6 5 5 5 6 5 6 5 5 5 6 5 6 5 5 5 6 6 5 6 5 5 5 5 5 5 5 5 5 5 5 6 6 5 6 5 5 5 6 6 5 6 5 5 5 5 6 6 5 6 5 5 5 5 5 5 6 5 6 5 5 5 5 6 6 5 5 6 5 5 6 5 5 6 5 5 6 6 5 5 6 5 6 6 5 5 6 5 5 5 5 5 5 6 6 6 5 5 5 6 5 6 5 5 5 5 6 6 5 6 6 6 5 5 5 5 5 5 5 5 5 5 5 5 5 5 5 5 5 5 5 5 5 5 5 5 5 5 6 5 5 5 6 5 5 5 5 5 5 5 5 5 5 5 6 5 5 5 5 5 6 5 6 5 5 6 5 5 5 5 5 6 6 5 5 5 5 5 6 5 5 6 5 5 5 5 5 5 5 5 5 5 5 5 5 5 5 5 5 5 5 5 6 5 5 5 5 5 5 5 5 5 5 5 6 6 5 5 5 5 5 5 5 5 5 6 5 5 5 5 5 5 5 6 5 5 5 5 5 5 5 5 5 5 5 5 6 5 6 5 5 5 5 5 5 5 5 5 6 5 6 5 5 5 5 5 5 5 5 5 6 6 5 5 5 5 5 5 5 5 5 5 5 5 5 5 5 5 5 5 5 5 5 5 5 5 5 5 5 5 5 5 5 5 5 6 5 5 5 5 5 5 5 5 5 5 5 5 5 6 5 5 5 5 5 5 5 5 5 5 5 5 5 5 5 5 5 5 5 5 5 5 5 6 6 5 5 5 5 5 5 5 5 5 5 5 5 5 5 5 6 5 5 5 5 5 5 5 5 5 5 5 5 5 5 5 5 5 6 5 5 5 5 6 5 5 5 5 5 5 5 5 5 5 5 6 6 5 5 5 5 5 5 5 5 5 5 5 5 5 5 5 5 5 5 5 6 5 5 5 6 5 5 5 6 6 5 5 6 6 5 6 5 5 5 6 5 5 6 6 5 5 6 5 5 6 6 5 5 5 5 6 5 5 5 6 6 5 5 5 5 5 5 5 5 6 5 5 6 5 5 5 5 6 5 5 5 5 5 6 5 5 6 5 5 5 5 5 6 5 5 5 5 6 5 5 6 5 6 5 5 5 5 5 5 5 6 5 5 5 6 5 5 6 5 5 5 5 5 5 5 5 5 5 5 5 5 5 5 5 6 5 6 5 5 5 5 5 5 5 5 5 6 5 5 5 6 6 6 5 5 5 6 6 5 6 5 6 6 5 5 5 6 5 6 5 5 5 5 5 5 5 5 5 5 6 5 5 5 6 5 5 5 6 5 5 5 5 5 5 5 5 5 5 5 5 5 5 5 5 5 5 5 6 5 5 5 5 6 5 6 5 5 5 5 5 5 5 5 5 5 5 6 5 6 5 5 6 5 6 6 6 5 5 5 6 5 5 5 6 6 5 5 5 5 5 5 6 5 5 5 5 5 5 5 5 5 6 5 5 6 5 5 5 6 5 5 5 5 5 5 5 5 5 5 5 5 5 5 5 5 5 6 5 5 5 5 5 5 6 6 5 5 5 6 5 5 5 5 5 5 5 6 5 5 5 5 5 5 5 5 5 5 5 5 5 6 5 5 5 5 5 5 5 5 5 5 5 5 5 5 5 5 5 5 6 5 5 5 5 5 6 5 5 5 5 5 5 5 5 6 5 5 5 5 5 5 5 5 5 5 5 5 5 5 5 5 5 5 5 5 5 6 6 5 5 6 5 6 5 5 5 5 5 5 5 5 6 5 5 5 5 6 5 5 5 5 6 5 5 5 6 5 6 5 5 5 6 6 5 6 5 6 6 5 5 5 5 5 6 5 5 5 6 5 5 5 5 6 5 5 5 5 5 5 5 5 5 5 5 5 5 5 5 5 5 5 6 5 5 5 5 5 6 5 5 5 5 6 5 5 5 5 5 5 6 5 5 5 5 5 5 5 5 5 5 5 5 5 5 5 5 5 5 5 5 5 5 5 5 6 5 5 5 6 5 5 6 5 5 6 5 5 5 6 5 5 6 5 6 5 5 6 5 5 5 5 5 5 5 5 5 5 5 5 5 5 5 6 5 5 6 5 6 5 5 5 5 5 5 5 6 5 5 6 5 6 5 5 5 6 5 5 5 5 6 5 5 6 5 5 6 5 5 6 5 5 5 5 5 5 5 5 5 6 5 5 6 5 6 6 6 5 5 5 5 5 5 5 6 5 6 5 6 6 5 5 5 5 5 5 5 5 5 5 5 6 5 5 5 5 5 5 5 5 5 5 5 5 5 5 5 5 5 5 5 5 5 5 5 5 5 5 5 5 6 5 5 5 5 5 5 6 5 5 5 5 5 5 5 5 5 5 5 5 5 5 5 5 6 5 5 5 5 5 5 5 5 5 5 5 5 5 5 5 5 5 5 5 5 5 5 5 6 6 5 5 5 5 5 5 5 6 5 5 5 6 6 5 5 6 5 5 5 5 5 5 5 5 5 5 5 5 5 6 5 5 5 5 5 5 5 5 5 5 5 5 5 5 5 5 5 5 5 5 5 5 6 5 5 5 6 5 5 5 5 5 5 5 5 5 5 5 5 5 5 5 5 5 5 5 5 5 5 6 5 5 5 5 5 5 5 5 5 5 5 5 5 5 5 5 5 5 5 5 5 5 5 6 5 5 5 5 5 5 5 5 5 5 5 5 5 5 5 5 5 5 5 6 5 5 5 5 5 5 5 5 5 5 5 5 5 5 5 5 5 5 5 5 5 5 5 5 5 5 5 5 5 5 5 5 5 5 5 5 5 5 5 5 6 5 5 5 5 5 5 5 6 5 5 6 5 5 6 5 5 5 5 5 5 5 5 5 5 5 5 5 5 5 5 5 5 5 5 5 5 5 5 5 5 5 5 5 5 6 5 5 5 5 6 5 5 5 5 5 5 5 5 6 5 5 5 5 5 5 5 5 5 5 5 5 5 5 5 5 5 5 6 6 5 6 5 6 5 5 5 6 5 5 5 5 5 5 6 5 5 5 6 5 5 5 5 6 5 5 5 6 5 5 5 5 5 6 5 5 6 5 5 5 5 5 5 5 5 5 5 5 5 5 5 5 5 5 5 6 5 5 5 5 5 5 5 5 5 5 5 5 5 6 5 6 5 5 5 6 5 6 5 5 5 5 5 5 5 5 5 5 5 5 5 5 5 6 5 5 6 5 5 5 5 5 5 5 5 5 5 5 5 5 5 5 5 5 5 5 5 5 5 5 5 5 5 5 5 5 5 5 5 5 6 5 5 5 5 5 5 5 5 5 5 5 5 5 5 5 5 5 5 5 5 5 5 5 5 5 5 5 5 5 5 5 5 5 5 5 5 5 5 5 5 5 5 5 5 5 5 5 5 5 6 5 5 5 5 5 6 5 6 5 5 5 5 5 5 5 5 5 5 5 5 5 5 5 5 6 5 5 5 5 5 5 5 5 5 5 5 5 5 5 5 5 5 5 5 6 5 5 5 5 5 6 5 5 5 5 6 5 5 5 5 5 5 5 5 5 5 5 5 5 5 5 5 5 5 5 5 5 5 5 5 5 5 5 5 5 5 5 5 5 5 5 5 5 5 5 6 5 5 5 5 5 5 5 5 5 5 5 5 5 5 5 5 5 5 5 5 5 5 5 5 5 5 5 5 6 5 6 5 6 5 5 5 5 5 6 6 5 6 5 5 6 5 5 6 5 5 6 5 5 5 5 5 5 5 5 5 5 5 5 5 5 5 5 5 6 5 5 5 5 5 6 5 5 5 5 5 5 5 5 5 5 5 6 5 5 6 5 5 5 5 5 5 5 6 5 5 5 5 5 5 5 5 6 5 5 5 6 5 6 5 5 5 5 5 5 5 5 5 5 5 5 5 5 5 5 5 5 5 5 5 5 5 5 5 6 5 5 5 6 5 5 5 5 5 5 5 5 5 6 5 5 5 5 5 5 5 6 5 5 5 5 5 5 5 5 5 5 5 5 5 5 5 5 5 5 5 5 5 5 5 5 5 5 5 5 5 5 5 5 5 5 5 6 5 5 5 5 5 5 5 5 5 5 5 5 5 5 5 5 5 5 5 5 5 5 5 5 5 5 5 5 5 5 5 5 5 5 5 5 5 5 5 5 5 5 5 5 5 5 5 5 5 5 6 5 5 5 5 5 6 5 5 5 5 5 5 5 6 5 5 5 5 5 5 5 5 6 5 6 5 5 5 5 6 5 5 6 5 5 5 6 6 5 5 5 6 6 5 6 5 5 5 5 5 5 5 5 5 5 5 5 5 5 5 5 5 5 5 5 5 5 5 6 6 5 6 5 5 5 5 5 6 5 5 5 5 6 5 5 5 6 5 6 5 5 5 5 5 5 5 5 5 5 5 5 5 5 5 5 5 5 5 5 5 5 5 5 5 6 5 5 5 5 5 5 5 5 5 5 6 5 5 5 5 5 5 5 5 6 6 5 5 5 5 5 5 5 5 5 5 5 5 5 5 5 5 5 6 5 5 6 6 5 5 5 5 5 6 5 5 5 5 5 5 5 5 5 6 5 5 5 6 5 5 5 5 5 6 5 6 5 6 6 5 5 6 5 5 5 5 5 6 5 5 5 5 5 6 6 5 5 5 5 6 5 5 5 5 5 5 6 5 5 5 5 5 5 5 5 5 5 5 5 5 5 5 5 5 5 5 5 5 5 5 5 5 5 5 5 5 5 5 5 5 5 5 5 5 5 5 5 5 5 5 5 5 5 5 5 5 5 5 5 5 6 5 5 6 5 5 6 5 6 5 5 5 5 5 5 5 5 5 6 5 5 6 5 5 5 5 5 5 5 5 5 5 6 5 5 5 5 6 5 5 5 6 5 5 5 5 6 5 5 5 5 5 5 5 5 5 6 5 5 5 5 6 5 5 5 5 5 5 5 5 5 5 5 5 5 5 5 5 5 5 5 5 5 5 5 6 5 5 5 5 5 5 5 5 5 6 5 5 5 5 5 5 6 5 5 5 5 5 5 5 5 5 5 5 5 5 5 5 5 5 5 5 5 5 5 5 5 5 5 5 5 5 5 5 5 6 5 5 5 6 5 5 6 6 5 5 5 5 5 5 5 5 5 6 5 5 5 6 6 5 5 6 5 5 5 6 6 6 5 5 5 5 5 5 5 5 5 5 5 5 5 5 5 5 5 5 5 5 5 5 5 5 5 5 6 5 5 6 5 5 6 5 5 5 5 5 5 5 6 5 5 5 5 5 5 5 5 5 5 5 5 5 6 5 5 6 5 5 5 5 5 5 5 5 6 5 5 5 5 5 5 5 5 5 5 5 5 5 5 5 5 5 5 5 5 5 5 5 5 5 5 5 5 5 5 5 5 5 5 5 5 5 5 5 5 5 5 5 5 5 5 5 5 6 5 5 5 5 5 5 5 5 5 5 5 5 5 5 5 6 5 5 5 5 5 6 5 5 5 5 5 5 5 6 5 5 5 5 6 5 5 5 5 5 5 5 5 5 5 6 5 5 6 5 5 5 5 5 5 5 5 6 6 5 5 5 6 5 5 5 5 5 5 5 5 5 5 6 5 5 5 6 5 5 5 6 5 5 5 5 5 5 5 5 5 5 6 5 5 5 5 5 5 6 5 5 6 5 5 5 5 5 5 5 5 5 5 5 5 5 6 5 5 6 5 5 5 6 6 5 5 5 5 5 5 6 5 5 5 5 5 5 5 5 5 5 6 5 5 5 5 5 5 5 5 5 6 5 5 6 5 5 5 5 5 5 6 5 5 5 5 5 5 5 5 5 5 5 5 5 5 6 5 5 5 5 5 6 5 5 6 5 5 5 5 5 5 5 5 5 5 5 6 5 5 5 5 5 6 5 6 5 6 5 5 6 5 5 5 5 6 5 6 5 6 6 5 5 6 5 5 6 5 5 5 5 5 5 5 5 5 5 5 5 5 5 6 5 5 5 5 5 6 5 5 5 5 5 5 5 5 6 5 5 5 5 5 5 5 5 5 5 5 6 5 5 5 5 5 6 5 5 5 5 5 5 6 5 5 5 5 5 6 6 5 5 5 6 5 5 5 5 5 5 5 5 5 5 5 5 5 5 5 5 5 5 5 5 5 5 5 6 5 5 5 5 6 6 5 6 5 5 5 5 5 5 6 5 5 5 6 5 5 5 5 5 5 5 6 5 5 5 6 5 5 5 5 6 5 5 6 5 5 5 6 5 5 6 5 5 6 6 6 5 6 6 5 5 6 5 5 6 5 5 5 5 5 5 5 6 5 5 6 5 5 5 5 5 5 5 5 5 5 5 5 5 5 5 5 5 5 5 6 6 5 5 5 5 5 5 5 5 5 5 5 5 5 5 5 5 5 5 5 5 5 5 5 5 5 5 5 5 5 5 5 5 5 5 5 5 5 5 5 5 5 5 5 5 5 5 5 5 5 5 5 5 5 5 5 6 5 5 5 5 5 5 5 5 5 5 5 5 5 5 5 5 5 5 5 5 5 5 5 5 6 5 5 5 5 5 5 5 5 5 5 5 5 5 5 5 5 5 5 5 5 5 5 5 5 5 5 5 5 5 5 5 5 5 5 5 5 5 5 5 5 6 5 6 5 5 5 5 6 5 5 5 6 5 5 5 5 5 5 5 5 5 5 5 5 5 5 5 6 5 5 5 5 5 5 5 5 5 5 5 6 5 5 5 6 5 5 5 5 5 5 5 5 5 6 5 6 5 5 6 5 5 5 5 5 5 5 5 5 5 5 6 5 5 5 5 5 5 5 5 5 5 5 5 5 5 5 5 5 5 5 5 5 5 5 5 6 5 5 5 5 5 5 5 5 5 5 5 6 5 5 5 6 6 5 5 5 5 5 5 5 5 5 5 6 5 5 5 5 6 5 6 5 5 5 5 6 5 5 6 5 5 5 5 5 6 5 5 5 5 5 5 5 5 5 5 5 5 5 5 5 5 5 5 5 5 5 5 5 5 5 5 5 6 5 5 6 5 5 5 5 6 5 5 5 5 5 6 5 5 5 5 5 5 5 5 5 5 5 5 6 5 5 5 5 5 5 5 5 5 6 5 5 5 5 5 5 5 5 5 5 5 5 5 5 5 5 6 5 5 5 5 5 5 5 6 6 5 5 6 5 5 5 5 5 5 5 5 5 5 5 5 5 6 5 5 5 5 5 6 6 5 5 5 5 5 5 5 5 5 5 5 5 5 5 5 5 5 5 5 5 5 5 5 5 5 5 5 5 5 5 5 5 5 5 5 5 5 5 5 5 5 5 5 5 5 5 5 5 5 5 5 5 5 5 5 5 5 5 5 5 5 5 5 5 5 6 5 6 5 5 5 5 5 5 5 5 5 5 5 5 5 5 5 5 5 5 5 5 5 5 5 5 5 5 5 5 5 5 5 5 5 5 5 5 5 5 5 5 5 5 5 5 5 5 5 5 5 5 5 5 5 6 5 5 6 5 5 5 5 5 5 5 5 5 5 5 5 5 5 5 5 6 5 5 5 5 5 5 5 5 5 5 5 5 5 5 5 5 5 5 5 5 5 5 5 5 5 5 5 5 5 5 5 5 5 5 5 6 5 5 5 5 5 5 5 5 5 5 6 5 5 5 5 5 5 5 5 5 5 5 5 5 5 5 5 5 5 5 5 5 5 5 5 5 5 5 5 6 5 5 5 5 5 5 6 5 5 5 5 5 5 5 5 5 5 5 5 5 5 5 5 5 5 5 5 5 5 5 
</DataArray>
<DataArray type="Float64" Name="stress" NumberOfComponents="9" format="ascii">
4.8354893654577609 -4.0770181635741629 0 -4.0770181635741629 3.2245104002897023 0 0 0 0 1.5735121317802303 -1461.342756861093 0 -1461.342756861093 2.9992998976413219 0 0 0 0 -56.716841001849389 -157.53937438323192 0 -157.53937438323192 192.37575859509343 0 0 0 0 -8.3368583835544996 -27.405427415935264 0 -27.405427415935264 -17.741507299029763 0 0 0 0 -0.023946384884766303 -32.702901248319904 0 -32.702901248319904 -25.134689645925391 0 0 0 0 -0.014668929870822467 -37.330372926055134 0 -37.330372926055134 -8.7840547039850208 0 0 0 0 -7.2215394671916329 -38.25059672759744 0 -38.25059672759744 -9.6509202842789819 0 0 0 0 -6.7022619410781772 -36.792760192200149 0 -36.792760192200149 -5.4877034241144429 0 0 0 0 -2.7591769706341438 -42.79216335125966 0 -42.79216335125966 16.523069321641742 0 0 0 0 -0.33768364581601418 -29.371892539892997 0 -29.371892539892997 17.302653098013252 0 0 0 0 -5.1639205012761522 -41.395018007046019 0 -41.395018007046019 5.2951393613620894 0 0 0 0 0.25220239374175435 -31.356427495185926 0 -31.356427495185926 -5.6589650062705914 0 0 0 0 60.999500951261325 27.895294879418088 0 27.895294879418088 -41.03343039455649 0 0 0 0 1.6806080823068896 -2.6949839388198242 0 -2.6949839388198242 1.6411217365989614 0 0 0 0 13.105410232528811 -30.980413081066217 0 -30.980413081066217 -6.0047167184275168 0 0 0 0 18.72317296204838 -17.72225890514374 0 -17.72225890514374 14.495522901017907 0 0 0 0 -222.75209176618228 -225.99525628510673 0 -225.99525628510673 -103.18218360508035 0 0 0 0 -36.250220058776904 -103.30167587388132 0 -103.30167587388132 -233.18813839503855 0 0 0 0 7.0812965740115033 -98.669299390214292 0 -98.669299390214292 -36.665965995125589 0 0 0 0 14.641287788742488 -10.808368511638204 0 -10.808368511638204 7.9057439275760402 0 0 0 0 167.91421779495067 82.445601776912554 0 82.445601776912554 -62.384270788144931 0 0 0 0 0.012154847335892782 -0.56640049901716338 0 -0.56640049901716338 1.2179497908319519 0 0 0 0 -208.81127244851086 -181.65548126880458 0 -181.65548126880458 -0.44559488137383596 0 0 0 0 -154.51456226842492 -145.32413349922535 0 -145.32413349922535 -56.682320488267578 0 0 0 0 -92.947788250581652 -213.0907625454256 0 -213.0907625454256 0.6568592578296375 0 0 0 0 205.84191524179187 -191.82603221221143 0 -191.82603221221143 -128.19601663963476 0 0 0 0 357.02344050893589 68.849977990888874 0 68.849977990888874 -148.43187379288429 0 0 0 0 82.021823640025104 -87.934326681308448 0 -87.934326681308448 -127.11025643852918 0 0 0 0 -118.56423753655145 -55.012075048790393 0 -55.012075048790393 -165.21173011203791 0 0 0 0 -52.036549534008373 -233.38731099941651 0 -233.38731099941651 -265.05721819951941 0 0 0 0 1.9000556582177524 -6.9998405409096449 0 -6.9998405409096449 -6.6310385333817976 0 0 0 0 188.46193477279303 188.95012450258582 0 188.95012450258582 127.41398496924739 0 0 0 0 1.1375042530053179 -6.0806795091702952 0 -6.0806795091702952 -0.0053769089163672457 0 0 0 0 1.7080602448236419 -1.2974104126538606 0 -1.2974104126538606 1.1780778834634162 0 0 0 0 73.710270532523282 50.13251556267096 0 50.13251556267096 -40.287221723796392 0 0 0 0 113.62160607719306 -9.9702403761721143 0 -9.9702403761721143 -17.877879942301661 0 0 0 0 0.64403670388070111 -0.14036153246074434 0 -0.14036153246074434 0.06912670851740188 0 0 0 0 5.7061064260880698 -3.2347635775915933 0 -3.2347635775915933 2.0693748823427995 0 0 0 0 52.921240189021773 28.731120336189633 0 28.731120336189633 -25.709468934277538 0 0 0 0 119.30172917024174 -24.335861966630546 0 -24.335861966630546 -71.540684013678401 0 0 0 0 96.937707809476706 -11.737575108014425 0 -11.737575108014425 -1.0468404309140169 0 0 0 0 147.48415573231978 -33.644349118349055 0 -33.644349118349055 -121.11681284681254 0 0 0 0 53.843089397567383 -93.457301374139206 0 -93.457301374139206 -93.673711993564211 0 0 0 0 75.845617356088042 -64.914122037587731 0 -64.914122037587731 -57.066328249798971 0 0 0 0 32.915472072694683 -73.284059796846122 0 -73.284059796846122 -46.794952852884308 0 0 0 0 31.269163161698089 -15.484428376337746 0 -15.484428376337746 -72.131978163251461 0 0 0 0 52.920768591302476 12.876950850543835 0 12.876950850543835 -90.01553402763966 0 0 0 0 -55.2133299940906 -125.31576185661834 0 -125.31576185661834 -100.6078101555504 0 0 0 0 -114.04610043243156 -110.11872095520084 0 -110.11872095520084 -103.63491018885543 0 0 0 0 -402.72879499642386 -242.71211917993287 0 -242.71211917993287 -117.45967061158444 0 0 0 0 0.95515622972834358 0.25418582930372935 0 0.25418582930372935 -1.2990211826203222 0 0 0 0 104.39092067215461 -83.632325979204325 0 -83.632325979204325 -212.31961767890607 0 0 0 0 -41.606153309232468 -178.55575644292003 0 -178.55575644292003 -142.16195032832911 0 0 0 0 33.341937370569212 -144.14467051796964 0 -144.14467051796964 -126.5402125029068 0 0 0 0 -60.491187346451625 -149.86196168978131 0 -149.86196168978131 -40.674206253810553 0 0 0 0 29.746436148467183 -74.718198442435096 0 -74.718198442435096 -4.7844044919911539 0 0 0 0 -56.664693069309578 -122.15148568536824 0 -122.15148568536824 -57.941684648569208 0 0 0 0 53.686282861319341 -97.157954304639134 0 -97.157954304639134 -76.420773098972859 0 0 0 0 5.5702131700381869 -126.03153212527104 0 -126.03153212527104 -61.431529902070906 0 0 0 0 -3.0077300288412516 -89.498791299218283 0 -89.498791299218283 21.411020656014443 0 0 0 0 4.6769811045523966 -83.32030257221777 0 -83.32030257221777 19.894978635660664 0 0 0 0 -62.283684685855405 -141.63167725783569 0 -141.63167725783569 -78.448025987076107 0 0 0 0 5.20801063287945 -98.726729923757375 0 -98.726729923757375 74.380057280344772 0 0 0 0 -6.6924682405474414 -2.504629610809566 0 -2.504629610809566 4.4240099969915434 0 0 0 0 -1.7358477519199198 -0.78298468005787925 0 -0.78298468005787925 0.41512766396112966 0 0 0 0 -14.137373282916087 -3.4823896366724512 0 -3.4823896366724512 -6.6718626973306527 0 0 0 0 9.7695945703352169 -6.3285845821336935 0 -6.3285845821336935 -2.1013101254681033 0 0 0 0 -4.3288501293900481 -48.189312811213313 0 -48.189312811213313 83.085310972957814 0 0 0 0 4.51822512599907 -25.251374153238771 0 -25.251374153238771 27.684127147390512 0 0 0 0 13.782021054931292 -30.923784162668056 0 -30.923784162668056 -28.48969531257265 0 0 0 0 0.12406336210551672 -56.809525522163312 0 -56.809525522163312 51.565659024450724 0 0 0 0 17.092574709909968 -46.704166836681907 0 -46.704166836681907 34.601576322624169 0 0 0 0 40.884790858232009 -14.707001333510561 0 -14.707001333510561 -116.54552642733142 0 0 0 0 18.226899736666383 -52.203928208638899 0 -52.203928208638899 -40.026005348125182 0 0 0 0 45.832728974201018 -49.760446602288539 0 -49.760446602288539 -90.828137857748516 0 0 0 0 5.1786145538397914 -21.313571065974685 0 -21.313571065974685 -31.988934989443052 0 0 0 0 1.6022368429912603 -5.6196156803907797 0 -5.6196156803907797 -63.570145864852748 0 0 0 0 38.658642781963863 -24.599405058713273 0 -24.599405058713273 -90.005568690990913 0 0 0 0 33.672759438471985 -36.56846958396909 0 -36.56846958396909 -26.631084318010835 0 0 0 0 -10.079405856578887 -95.677170840936014 0 -95.677170840936014 -143.591662236915 0 0 0 0 -114.17768862601224 -13.76127742169956 0 -13.76127742169956 9.7957202622014847 0 0 0 0 -38.372030972517678 -99.207579260539205 0 -99.207579260539205 18.776837179995709 0 0 0 0 13.818249368613621 -26.452758207814099 0 -26.452758207814099 -27.095782345530822 0 0 0 0 -6.5580451306886971 33.557772487443799 0 33.557772487443799 -78.911873734648907 0 0 0 0 6.7129380526037039 -1.5312798556712437 0 -1.5312798556712437 -0.50947776788441601 0 0 0 0 37.365709339592286 1.0340001184558787 0 1.0340001184558787 -248.32282190677142 0 0 0 0 124.09794728106135 -61.824008945029163 0 -61.824008945029163 -1.6530656417853606 0 0 0 0 25.749996612384166 22.105972118438103 0 22.105972118438103 -71.7361392745388 0 0 0 0 51.483976096769766 -75.183501793357209 0 -75.183501793357209 117.58401672258697 0 0 0 0 37.957745772291673 -177.28492697047295 0 -177.28492697047295 440.4308713613259 0 0 0 0 204.45268206278979 -209.71741826992229 0 -209.71741826992229 166.71315678335304 0 0 0 0 2.4142025319785034 -0.45365294145575774 0 -0.45365294145575774 1.0396651660604741 0 0 0 0 5.5977237118665162 -9.8235165390556318 0 -9.8235165390556318 -33.580734653214463 0 0 0 0 7.0976595088432077 -20.632294858351088 0 -20.632294858351088 -49.486571310832005 0 0 0 0 6.8118980257058865 0.41889286088007793 0 0.41889286088007793 -38.230472779967386 0 0 0 0 4.0803869687806014 -9.0603519916259501 0 -9.0603519916259501 -9.8761130533654935 0 0 0 0 3.1678225516807288 -25.334541910957341 0 -25.334541910957341 -10.219633421163962 0 0 0 0 8.2305390113872932 -3.6539154353663719 0 -3.6539154353663719 -5.8515477672570064 0 0 0 0 20.748508046814095 -36.367641579546785 0 -36.367641579546785 -43.677051805221708 0 0 0 0 26.356083096863586 -13.655485719218632 0 -13.655485719218632 -69.851803141580604 0 0 0 0 8.6106882781605236 -118.90465902147298 0 -118.90465902147298 103.85115461527676 0 0 0 0 7.4930614980634402 -2.7490867647402979 0 -2.7490867647402979 -6.3088117587037562 0 0 0 0 -127.79708465005388 -138.30607322728611 0 -138.30607322728611 -166.0800543893065 0 0 0 0 -7.1846596970593168 -5.6515615419157328 0 -5.6515615419157328 -7.1910191676629873 0 0 0 0 -13.674003194006218 -38.724039096850902 0 -38.724039096850902 -7.0392236366105863 0 0 0 0 16.033509937671624 -39.767677123811154 0 -39.767677123811154 -19.336205636362138 0 0 0 0 -12.805918354490132 -76.782799997958136 0 -76.782799997958136 -80.29181956465618 0 0 0 0 -1.1674814836151199 -51.349360299922409 0 -51.349360299922409 -26.019421700082603 0 0 0 0 -45.668051092863607 -47.640364252714789 0 -47.640364252714789 5.2609535274550581 0 0 0 0 3.2889553802160663 -13.455581642608195 0 -13.455581642608195 9.7242582493054215 0 0 0 0 -5.2375337453308077 -2.6694179235708191 0 -2.6694179235708191 -0.4546090116984125 0 0 0 0 -12.129573173209792 -34.156248117646101 0 -34.156248117646101 63.994212207784585 0 0 0 0 46.176324600070075 -7.5535143352390151 0 -7.5535143352390151 24.684173379835556 0 0 0 0 -1.8505213742191131 -0.73948073529675895 0 -0.73948073529675895 -0.80727330952928078 0 0 0 0 -51.347801098629134 -82.631669269343547 0 -82.631669269343547 193.08821873157376 0 0 0 0 60.791631402520579 -271.92854551265555 0 -271.92854551265555 -1247.9241172878897 0 0 0 0 -126.7425762633502 -276.95835662281388 0 -276.95835662281388 -121.54626734670455 0 0 0 0 -0.15663508611396537 -26.360352786345175 0 -26.360352786345175 -0.13602861237723118 0 0 0 0 13.469634077930095 -36.70908368727396 0 -36.70908368727396 -5.2582718206504069 0 0 0 0 8.5858841192602995 -41.472436080290208 0 -41.472436080290208 11.624587947870168 0 0 0 0 12.497759017060162 -33.71223930951237 0 -33.71223930951237 -5.0733497857472685 0 0 0 0 12.880474778879943 -43.191396044555404 0 -43.191396044555404 -19.003820643192739 0 0 0 0 7.9351358065614477 -34.855882405019656 0 -34.855882405019656 -5.8766626255655865 0 0 0 0 0.045817024912121439 -39.009303057245447 0 -39.009303057245447 -8.0629624520006473 0 0 0 0 2.3553492135833949 -42.345791107229161 0 -42.345791107229161 -3.379167393737589 0 0 0 0 -4.7076502880736371 -50.815712206120224 0 -50.815712206120224 -13.529253524771775 0 0 0 0 -7.1039281124685658 -51.49722316489715 0 -51.49722316489715 10.10956311244081 0 0 0 0 -2.3309528456520638 -42.144902056454157 0 -42.144902056454157 3.4221722858128487 0 0 0 0 15.29819972083078 -35.373046587953468 0 -35.373046587953468 10.292370438837679 0 0 0 0 4.3811543456610593 -5.7990782605622826 0 -5.7990782605622826 0.42833109994348462 0 0 0 0 -18.073323397802596 -41.967812076494738 0 -41.967812076494738 32.529287021432538 0 0 0 0 34.430392918526195 -35.03892064311367 0 -35.03892064311367 -110.1071258796801 0 0 0 0 -20.652768576582275 -68.890919986667996 0 -68.890919986667996 -7.9642936874370207 0 0 0 0 13.831486081675394 -42.419049976440874 0 -42.419049976440874 -58.599390184721415 0 0 0 0 -32.522950294820475 -81.903421334507584 0 -81.903421334507584 38.926001143889152 0 0 0 0 -56.567106396374584 -87.546741938014748 0 -87.546741938014748 -5.1575717487849033 0 0 0 0 -28.686048325462252 -88.626506543853793 0 -88.626506543853793 -22.55927003044053 0 0 0 0 -21.164566561258653 -61.986530952272915 0 -61.986530952272915 -10.366499514297175 0 0 0 0 4.0440199694712646 -51.777807521517389 0 -51.777807521517389 11.560136550655443 0 0 0 0 -24.611902636439481 -57.209477419586619 0 -57.209477419586619 16.705931441349094 0 0 0 0 42.942810804168403 -23.431652069397387 0 -23.431652069397387 3.9690283873678709 0 0 0 0 36.142687831561489 -137.64435638369469 0 -137.64435638369469 71.555715390502883 0 0 0 0 -0.48649799487884593 -56.348641412237157 0 -56.348641412237157 95.286683561484097 0 0 0 0 23.77688043929993 -181.71070811697427 0 -181.71070811697427 1.6251916160690598 0 0 0 0 0.64016429235873318 0.37856940861260568 0 0.37856940861260568 -0.30278747426143759 0 0 0 0 60.557149869469868 -206.70602722074545 0 -206.70602722074545 -159.21452484315523 0 0 0 0 -30.880743799123593 -52.896646366287314 0 -52.896646366287314 320.42682132613118 0 0 0 0 -14.46183944659424 -220.93407518252207 0 -220.93407518252207 -128.49708715299494 0 0 0 0 -64.892665299070359 -199.38424186206248 0 -199.38424186206248 -90.034203521616291 0 0 0 0 33.310213238481083 -198.74199457638315 0 -198.74199457638315 -122.72624032307795 0 0 0 0 -10.502350070069951 -172.67249069585523 0 -172.67249069585523 -80.177816207367869 0 0 0 0 -0.55008831129241287 -1.6437261752730024 0 -1.6437261752730024 -0.57706049010551652 0 0 0 0 53.195564647729043 -110.0692348260236 0 -110.0692348260236 -298.60312013826479 0 0 0 0 -87.69158062004135 -290.93979712164946 0 -290.93979712164946 -108.8126470023999 0 0 0 0 32.268403985163786 -95.789708374889415 0 -95.789708374889415 -14.497162719868356 0 0 0 0 -26.854119926189014 -95.639591596132959 0 -95.639591596132959 6.1165670065020095 0 0 0 0 -46.394896207166312 -152.85958731503342 0 -152.85958731503342 -95.030877077588229 0 0 0 0 -53.812317008014361 -89.096415488114872 0 -89.096415488114872 -19.947669615525228 0 0 0 0 2.0287614006701915 -117.0205380700645 0 -117.0205380700645 400.55598405670025 0 0 0 0 -3.5268666565453373 -2.21128478698256 0 -2.21128478698256 -0.60795736089475128 0 0 0 0 42.658043687060854 -67.414616140296857 0 -67.414616140296857 292.92617353247442 0 0 0 0 29.874812577570992 -137.25613589678687 0 -137.25613589678687 344.66519798279478 0 0 0 0 -2.3830090099389878 -1.1504761265434382 0 -1.1504761265434382 -1.0421719809342491 0 0 0 0 -437.8526489843498 96.525830017053522 0 96.525830017053522 -0.09989036798287998 0 0 0 0 -380.86330538500988 -137.9173919967634 0 -137.9173919967634 351.19917561412876 0 0 0 0 -1.2702278029100853 -18.734791586597566 0 -18.734791586597566 13.884019112134411 0 0 0 0 2.4675542945055895 -4.3621374111357909 0 -4.3621374111357909 0.088361840375000611 0 0 0 0 112.84447144008664 111.92906030565427 0 111.92906030565427 -177.98157593912401 0 0 0 0 -117.63264897304907 85.549525443984749 0 85.549525443984749 161.08789885716396 0 0 0 0 20.615153108436061 -221.54148192030698 0 -221.54148192030698 -6.0975640460601426 0 0 0 0 -122.42505871574394 72.576808325491584 0 72.576808325491584 126.48612940471503 0 0 0 0 -143.58761267273803 38.053851572483836 0 38.053851572483836 160.95183033309786 0 0 0 0 -1.9984874845528822 -1.1472619503087316 0 -1.1472619503087316 -0.336320448357462 0 0 0 0 58.505383275382883 -207.59658241296984 0 -207.59658241296984 -62.518535898416303 0 0 0 0 -155.83528380852658 18.471947584239388 0 18.471947584239388 134.08181752031396 0 0 0 0 -6.9229664015752661 -5.6051206952489281 0 -5.6051206952489281 -0.31055478434297612 0 0 0 0 -134.24719251082206 53.056672940951103 0 53.056672940951103 97.446849295600259 0 0 0 0 -163.18481711435743 2.4040003698173678 0 2.4040003698173678 99.051529242173956 0 0 0 0 0.50333507915252085 -0.67937984401885387 0 -0.67937984401885387 0.37049874105352387 0 0 0 0 -13.600530770174373 -8.5313584662999347 0 -8.5313584662999347 16.619591717706498 0 0 0 0 19.294337097097014 -15.31011580014092 0 -15.31011580014092 0.66033674540085485 0 0 0 0 20.222127840326721 -16.060690977540617 0 -16.060690977540617 0.59487726721272338 0 0 0 0 19.96226576637855 -15.394041992411076 0 -15.394041992411076 0.037034604054423319 0 0 0 0 19.506574243801879 -15.800634121878829 0 -15.800634121878829 0.90469588954147184 0 0 0 0 9.1058446901079151 -23.096219515919074 0 -23.096219515919074 21.839360913872952 0 0 0 0 119.07240986854413 -159.2084651985042 0 -159.2084651985042 -77.642048651439836 0 0 0 0 20.440494116450282 -17.487081895178562 0 -17.487081895178562 2.5398629446644918 0 0 0 0 -0.29750414571554273 -15.208046024558698 0 -15.208046024558698 15.666660398942867 0 0 0 0 10.829236336255946 -10.184047335220797 0 -10.184047335220797 -7.3466894743186018 0 0 0 0 -53.726987498328526 -9.7999103743659361 0 -9.7999103743659361 86.739001670757716 0 0 0 0 -15.855767593178221 -21.109362790433451 0 -21.109362790433451 60.048137524268981 0 0 0 0 84.046945704874815 -44.492507192742778 0 -44.492507192742778 -73.387705178138276 0 0 0 0 -16.481916428834666 -44.81700844662555 0 -44.81700844662555 142.18726768726265 0 0 0 0 0.8963312883363983 -8.9273695475546688 0 -8.9273695475546688 11.728182256191793 0 0 0 0 -233.10953019921726 50.068199456982256 0 50.068199456982256 129.48743749705318 0 0 0 0 15.90977878360718 -54.523586125425936 0 -54.523586125425936 93.48854368202592 0 0 0 0 -1.0705264130701835 -75.075724972284661 0 -75.075724972284661 53.535747506577536 0 0 0 0 20.040388237808656 -18.434354786782933 0 -18.434354786782933 105.91565004855511 0 0 0 0 -29.6297549774863 -34.303540950553725 0 -34.303540950553725 108.3318287272491 0 0 0 0 -30.108340277263778 -67.3149754214719 0 -67.3149754214719 100.16753248445275 0 0 0 0 -10.799886825534486 -26.664386685604768 0 -26.664386685604768 80.54261935417162 0 0 0 0 5.8145145299931755 -48.086283316967638 0 -48.086283316967638 -105.92413675219723 0 0 0 0 0.67610809174966846 -38.529256110413613 0 -38.529256110413613 36.787634732779793 0 0 0 0 68.294986494126533 -191.07565384104964 0 -191.07565384104964 88.323435149490251 0 0 0 0 77.595313775862451 -55.341962162892742 0 -55.341962162892742 -21.251930740496391 0 0 0 0 -16.507501873769797 -75.930599047555006 0 -75.930599047555006 200.35462308912611 0 0 0 0 -10.559426513804254 -10.066091742091718 0 -10.066091742091718 10.953054006660444 0 0 0 0 4.3954605256403738 -194.03414155144856 0 -194.03414155144856 196.71667301966954 0 0 0 0 -0.90506457934679929 -137.90380150043347 0 -137.90380150043347 115.18383671391894 0 0 0 0 -23.10188200880657 -74.293540638544073 0 -74.293540638544073 78.518579266488814 0 0 0 0 -9.2414203390944749 -154.50022343496676 0 -154.50022343496676 82.144275523714896 0 0 0 0 11.046030035933654 -7.2225892552087316 0 -7.2225892552087316 -45.134353167595691 0 0 0 0 -13.907625728847052 -56.355898977768447 0 -56.355898977768447 -156.11697833389189 0 0 0 0 -55.912419036525534 -58.325605008292769 0 -58.325605008292769 82.314723698705649 0 0 0 0 17.353774321887869 -8.8630973481228779 0 -8.8630973481228779 -8.4957569781505597 0 0 0 0 -75.270909625629429 -154.95631313199556 0 -154.95631313199556 -166.3539630213927 0 0 0 0 7.591220724691695 4.1251277934721919 0 4.1251277934721919 -13.505609696449881 0 0 0 0 8.6089623918297633 7.4007591605336742 0 7.4007591605336742 -24.895933285947493 0 0 0 0 34.610406569670886 -4.2378776926489081 0 -4.2378776926489081 -104.77787633155094 0 0 0 0 20.509471052834385 -24.081249492152381 0 -24.081249492152381 -15.205359421009206 0 0 0 0 15.285249201920138 -13.668674776873729 0 -13.668674776873729 -0.16344090725718274 0 0 0 0 18.381201796662936 -21.587391205626773 0 -21.587391205626773 10.234835048662717 0 0 0 0 102.95919464046892 -106.07474941347027 0 -106.07474941347027 -32.131547754169333 0 0 0 0 28.712415164974118 -30.538270622616906 0 -30.538270622616906 3.4369679967711644 0 0 0 0 157.21929456510406 -182.09218556862288 0 -182.09218556862288 41.864838207795401 0 0 0 0 -17.63625333627715 -35.088301620886341 0 -35.088301620886341 129.37278126858928 0 0 0 0 26.257368579077593 -23.869056118561275 0 -23.869056118561275 4.6590432452067034 0 0 0 0 20.444244333407369 -17.640777436297867 0 -17.640777436297867 -1.2960059406614164 0 0 0 0 22.754038867053168 -15.968051905048924 0 -15.968051905048924 -0.42771749632993306 0 0 0 0 21.079170233957484 -15.678688645966758 0 -15.678688645966758 0.00056463208966306411 0 0 0 0 21.35258569173493 -11.629064292534622 0 -11.629064292534622 -3.8482391286670463 0 0 0 0 28.492161737687184 -12.424681770681218 0 -12.424681770681218 -8.0204534018484992 0 0 0 0 15.54593700751866 -13.908941613291972 0 -13.908941613291972 -2.7412718382074672 0 0 0 0 15.772317714050587 -12.618101390220545 0 -12.618101390220545 -8.7582115421319031 0 0 0 0 9.1304568523825935 -5.1710842376098327 0 -5.1710842376098327 0.59066849987291903 0 0 0 0 7.1455653798348067 -7.1615402626848663 0 -7.1615402626848663 -4.19854936586853 0 0 0 0 14.026394214168249 -13.013870635830244 0 -13.013870635830244 -0.0040709533968765754 0 0 0 0 3.0092569219523284 -10.195296716301527 0 -10.195296716301527 -0.0041418129056918886 0 0 0 0 -34.213447321315471 10.513384336423769 0 10.513384336423769 40.165942766005173 0 0 0 0 4.1703040841639449 -33.28833359942837 0 -33.28833359942837 -17.02628108200588 0 0 0 0 -8.4303066901265993 5.5985273443220649 0 5.5985273443220649 -51.243771207788086 0 0 0 0 3.3691730724312947 -12.903503983408882 0 -12.903503983408882 -60.666518421865476 0 0 0 0 88.035768230605754 67.443303067444504 0 67.443303067444504 -163.57320916296158 0 0 0 0 20.698178568055454 -25.44201637059804 0 -25.44201637059804 -24.692066865834242 0 0 0 0 1.6352988415422942 -3.0828213056612697 0 -3.0828213056612697 -1.1159609571981779 0 0 0 0 3.578426862055494 11.268669939847314 0 11.268669939847314 -73.142329505440102 0 0 0 0 -10.441361831653921 1.7923338415348553 0 1.7923338415348553 -45.740786137714167 0 0 0 0 21.156543626275379 -7.4338804862636607 0 -7.4338804862636607 -72.882551560777301 0 0 0 0 459.54998223688744 -137.12667007026357 0 -137.12667007026357 -206.72734488092101 0 0 0 0 -178.99810546213848 109.02758400905986 0 109.02758400905986 367.60258747819171 0 0 0 0 -98.30668037594296 92.370344096561894 0 92.370344096561894 -20.957381311902282 0 0 0 0 18.332346794955214 -24.847210696237283 0 -24.847210696237283 -26.931449131408343 0 0 0 0 -80.7026595969146 31.381543683198288 0 31.381543683198288 -183.85145986152202 0 0 0 0 136.99408379809029 -284.90375635699274 0 -284.90375635699274 261.30919754986826 0 0 0 0 2.7345927505075593 -3.251686696732385 0 -3.251686696732385 4.7872968147052291 0 0 0 0 -38.741530299826991 -24.633307123393024 0 -24.633307123393024 144.01417076055077 0 0 0 0 227.24171740096062 -3.4600888145505451 0 -3.4600888145505451 28.035510636895197 0 0 0 0 464.08024158241096 -182.17149195115508 0 -182.17149195115508 -372.02156972778539 0 0 0 0 3.0674414157615786 -0.60656106725596004 0 -0.60656106725596004 -0.51549289509305041 0 0 0 0 311.72217285328225 36.254971266915163 0 36.254971266915163 -554.6138606312652 0 0 0 0 127.57560054782152 -391.34127035742404 0 -391.34127035742404 353.33591752574284 0 0 0 0 490.77597351353688 -356.5530956401999 0 -356.5530956401999 -136.55940959980944 0 0 0 0 197.95607116166502 -233.23897820216644 0 -233.23897820216644 93.137414333483321 0 0 0 0 18.187976144341519 -109.28960192140585 0 -109.28960192140585 71.224517090405243 0 0 0 0 64.812065107718809 -209.56749951049642 0 -209.56749951049642 300.43241988625414 0 0 0 0 83.904468607579474 -146.01422711389569 0 -146.01422711389569 203.90708073705173 0 0 0 0 98.250647899852083 -153.9615222092641 0 -153.9615222092641 187.6391602229196 0 0 0 0 173.9022219498147 -31.677653801378256 0 -31.677653801378256 98.977255128593242 0 0 0 0 64.781555222085444 -67.26784582368964 0 -67.26784582368964 214.29610740844964 0 0 0 0 -3.9978860962946783 -41.203362415632 0 -41.203362415632 96.406974094854377 0 0 0 0 63.431780663977179 -35.393458689185422 0 -35.393458689185422 67.814462463902601 0 0 0 0 16.547412577805517 -67.492662950432532 0 -67.492662950432532 19.802379524873686 0 0 0 0 -20.583278111880645 -105.48235912992095 0 -105.48235912992095 76.905498498646921 0 0 0 0 117.18201133412367 -133.61391076946529 0 -133.61391076946529 72.757131066824513 0 0 0 0 28.12849270310835 -108.3562149850768 0 -108.3562149850768 112.30379471957349 0 0 0 0 27.368430430607987 -137.32737341592656 0 -137.32737341592656 110.2658645937845 0 0 0 0 139.8412196311474 -198.07649910210239 0 -198.07649910210239 89.465875385001709 0 0 0 0 29.64365859713871 -140.62085969210784 0 -140.62085969210784 50.484039508271962 0 0 0 0 -154.60609788987495 -175.55800133465891 0 -175.55800133465891 58.784244117330672 0 0 0 0 -7.9409282605556655 -160.27257501343865 0 -160.27257501343865 84.145048297701578 0 0 0 0 -1.0198623088510885 -7.1592943204183896 0 -7.1592943204183896 14.454284381405017 0 0 0 0 -23.61397071115789 -109.86309229690232 0 -109.86309229690232 62.322846847415349 0 0 0 0 -68.889969150404795 -135.860917206046 0 -135.860917206046 -86.477799256070284 0 0 0 0 -73.190897329448489 -55.679545684703044 0 -55.679545684703044 -120.2721116472967 0 0 0 0 -73.190897329361178 -55.679545684717596 0 -55.679545684717596 -120.27211164726759 0 0 0 0 -73.190897329477593 -55.679545684746699 0 -55.679545684746699 -120.27211164726759 0 0 0 0 -79.303546502400422 -155.12491006503114 0 -155.12491006503114 -4.2925873190688435 0 0 0 0 -20.717829806846566 -108.75943363606348 0 -108.75943363606348 1.4508875599494786 0 0 0 0 -81.432780692004599 -134.2664436187697 0 -134.2664436187697 62.785547991545172 0 0 0 0 -46.018308182625333 -93.527346765571565 0 -93.527346765571565 -65.492483989000903 0 0 0 0 -46.226550991734257 -91.444527115512756 0 -91.444527115512756 23.754608266004652 0 0 0 0 -188.07947011539727 -42.263374865559854 0 -42.263374865559854 30.751800734855351 0 0 0 0 1.8604992166438024 -87.993846040903009 0 -87.993846040903009 -4.748555695914547 0 0 0 0 -62.447550969212898 -54.648668722809816 0 -54.648668722809816 40.282026367167418 0 0 0 0 -97.426976664653921 -60.202349534380119 0 -60.202349534380119 22.816039078999893 0 0 0 0 -84.361503873136826 -13.801885835273424 0 -13.801885835273424 -35.688982661489717 0 0 0 0 -74.825606828992022 -58.412736004516773 0 -58.412736004516773 -17.324756595247891 0 0 0 0 -82.027687688649166 -13.782503705682757 0 -13.782503705682757 -70.330979476515495 0 0 0 0 -19.33873502149072 -1.3984248684064369 0 -1.3984248684064369 12.55337900338327 0 0 0 0 17.429563113756537 -29.125317767170017 0 -29.125317767170017 20.906529486528228 0 0 0 0 -718.52520680510133 -225.24482922169955 0 -225.24482922169955 308.58243104418216 0 0 0 0 -82.484788353820477 25.000975900395133 0 25.000975900395133 -321.80994574578654 0 0 0 0 -24.104872996933409 147.55011273220225 0 147.55011273220225 -53.473885653391335 0 0 0 0 -156.43874829267224 179.79655429820923 0 179.79655429820923 30.645643559686505 0 0 0 0 -7.974791623177353 -18.648593733256227 0 -18.648593733256227 -1.2617522108151888 0 0 0 0 -132.41615426010594 99.717201958483656 0 99.717201958483656 44.555969895678572 0 0 0 0 -18.415828183147823 -19.84932905840833 0 -19.84932905840833 -25.435496598962345 0 0 0 0 -3.2089826464944053 -3.0873226812400389 0 -3.0873226812400389 -10.588555908732815 0 0 0 0 -17.382663106939162 -30.684741828150436 0 -30.684741828150436 -31.330125118438445 0 0 0 0 -197.27656685419788 -32.27237615357808 0 -32.27237615357808 95.575522219041886 0 0 0 0 91.614070923977124 109.69380864895265 0 109.69380864895265 -190.44501286321611 0 0 0 0 622.10079009221954 -31.318722309628356 0 -31.318722309628356 -407.44476861692965 0 0 0 0 -1.2934749036867288 -19.835771567246411 0 -19.835771567246411 -37.115569657336891 0 0 0 0 -32.564603863153025 -54.079942254051275 0 -54.079942254051275 123.19877034919773 0 0 0 0 -42.94596148441633 -104.79479444884419 0 -104.79479444884419 236.11759717574387 0 0 0 0 -27.49002502138319 6.8135204161044385 0 6.8135204161044385 30.278410170776624 0 0 0 0 -28.703121878992533 -75.287676678488424 0 -75.287676678488424 100.81774872959068 0 0 0 0 -30.319874813401839 -57.401523634176556 0 -57.401523634176556 96.451625270521617 0 0 0 0 2.0755969911369903 -43.73515813929771 0 -43.73515813929771 25.042059769344633 0 0 0 0 -10.375649640802802 -24.274404016038794 0 -24.274404016038794 -7.5646856819129908 0 0 0 0 -6.3373425593490538 -28.417399408599522 0 -28.417399408599522 43.462386745284675 0 0 0 0 19.443864303510054 15.691634570361202 0 15.691634570361202 -100.33163081426392 0 0 0 0 -43.120149870293972 4.2165916276135249 0 4.2165916276135249 -84.8710270106385 0 0 0 0 63.448724422611122 -54.476757199689018 0 -54.476757199689018 -112.58316108696999 0 0 0 0 12.699100175240801 -64.156861742957631 0 -64.156861742957631 -65.291584707447328 0 0 0 0 94.03578353408011 -135.60856046891786 0 -135.60856046891786 -2.5466088888024387 0 0 0 0 152.75517493599182 -9.1059733343736298 0 -9.1059733343736298 -100.40667707491448 0 0 0 0 24.290622508627166 25.250891826159204 0 25.250891826159204 34.098982631941908 0 0 0 0 523.10562944899721 437.35937139413909 0 437.35937139413909 218.34524836897253 0 0 0 0 58.701615247649897 -432.93997054792999 0 -432.93997054792999 1153.0310364734723 0 0 0 0 811.72216757936712 -401.96784839290012 0 -401.96784839290012 36.355991263983015 0 0 0 0 -100.46669428168389 -535.85452535725017 0 -535.85452535725017 371.47129799752292 0 0 0 0 122.90988866467046 -276.47064889319756 0 -276.47064889319756 138.2984345927398 0 0 0 0 116.79050976517465 -149.46888509970267 0 -149.46888509970267 -21.661398252945219 0 0 0 0 -115.57527108314753 -264.56151649737876 0 -264.56151649737876 308.85777115304154 0 0 0 0 -65.316023560677422 -186.66715933233718 0 -186.66715933233718 221.45417406160118 0 0 0 0 -179.66803250841986 -166.17617153966057 0 -166.17617153966057 219.94395733920828 0 0 0 0 -240.37508770520799 -170.7639918705645 0 -170.7639918705645 261.30386306957189 0 0 0 0 -189.46083303467094 -114.45641095325482 0 -114.45641095325482 162.6838875435933 0 0 0 0 -206.71507297342532 -198.51842989347097 0 -198.51842989347097 181.07452024594386 0 0 0 0 -155.81622402978974 -133.13734003019999 0 -133.13734003019999 254.35324212625255 0 0 0 0 -158.71491478285679 -169.70383157875403 0 -169.70383157875403 242.71889346005628 0 0 0 0 -116.06209781606412 -142.21728937190164 0 -142.21728937190164 173.42221131676342 0 0 0 0 -132.41407661060032 -124.83705356210089 0 -124.83705356210089 310.28270670939673 0 0 0 0 -131.73549276264748 -134.46797879504811 0 -134.46797879504811 231.62082182602899 0 0 0 0 -109.50369182093345 -105.98027003866082 0 -105.98027003866082 235.95783310524121 0 0 0 0 -103.66073230136499 -107.43823653451727 0 -107.43823653451727 189.00482296808332 0 0 0 0 -63.528806011332563 -96.515606259896231 0 -96.515606259896231 40.570803347458423 0 0 0 0 -82.870818313844211 -78.792282839611289 0 -78.792282839611289 96.426981206119308 0 0 0 0 -97.237336367541502 -126.63406806502462 0 -126.63406806502462 109.31828603807662 0 0 0 0 6.1652658325879202 -151.63874600384133 0 -151.63874600384133 -3.4340467299116426 0 0 0 0 -22.550539387317258 -137.25032925919004 0 -137.25032925919004 6.6784986436396139 0 0 0 0 10.054264261550998 -119.79137784055274 0 -119.79137784055274 -116.9560859281446 0 0 0 0 21.10432670289083 -53.601978487371525 0 -53.601978487371525 -9.668385279344875 0 0 0 0 -1.864110288570231 -31.60091199009652 0 -31.60091199009652 31.045012742551584 0 0 0 0 -9.7632249271355249 -55.947478475205571 0 -55.947478475205571 -16.112050337702385 0 0 0 0 7.8266283844313875 -35.451846132455103 0 -35.451846132455103 1.1908008763821272 0 0 0 0 24.570177647596211 -149.96171252601926 0 -149.96171252601926 -98.512078802137694 0 0 0 0 -231.00073599593497 -94.166226457217817 0 -94.166226457217817 7.0088826054743549 0 0 0 0 -452.50676821946763 -824.22718323566551 0 -824.22718323566551 525.4770828900655 0 0 0 0 -332.61361735457103 -274.7616004573465 0 -274.7616004573465 -4.8259488809235336 0 0 0 0 17.203498295838273 -32.467723801066235 0 -32.467723801066235 52.580495251021347 0 0 0 0 -309.54065846103549 -140.80987377239217 0 -140.80987377239217 -115.66995434392811 0 0 0 0 -205.76379891671058 -256.88067122370467 0 -256.88067122370467 -74.683609638879716 0 0 0 0 -124.92485515161025 -106.78951262067767 0 -106.78951262067767 -41.043086644385767 0 0 0 0 -87.490385843195327 -216.47215004179998 0 -216.47215004179998 10.500906745386601 0 0 0 0 68.410540565160773 -198.00484358269387 0 -198.00484358269387 -110.0718046914435 0 0 0 0 -2.0169927777860721 -160.00559986940243 0 -160.00559986940243 -95.158257189352298 0 0 0 0 -102.12525552911575 -134.7055375771688 0 -134.7055375771688 18.741982403560542 0 0 0 0 -182.04183994184132 -172.20262444093896 0 -172.20262444093896 132.6536726039285 0 0 0 0 -40.998518193091513 -228.72365897490454 0 -228.72365897490454 159.44287958135101 0 0 0 0 -332.32247193811054 -138.94564195320709 0 -138.94564195320709 166.99007583485218 0 0 0 0 -197.27809010738565 -117.10430049155912 0 -117.10430049155912 -25.82814416175097 0 0 0 0 -466.18305807835713 -353.45828359956613 0 -353.45828359956613 -69.005776849007816 0 0 0 0 -249.54203396264893 -243.38319121407312 0 -243.38319121407312 -248.40091206433863 0 0 0 0 -157.69633800222437 -125.55773495032736 0 -125.55773495032736 -92.240955438217497 0 0 0 0 -280.79988017210417 -219.27252195851906 0 -219.27252195851906 -14.252493371970559 0 0 0 0 14.247965005659388 -23.408172627467312 0 -23.408172627467312 32.580048249555034 0 0 0 0 558.7679240667967 -267.69234690973281 0 -267.69234690973281 17.568241663735535 0 0 0 0 628.42923745428561 -117.29690999101149 0 -117.29690999101149 225.36151042264646 0 0 0 0 1781.2012005569595 766.6982953981933 0 766.6982953981933 -418.04363110279519 0 0 0 0 -588.48256193036286 -302.60609247012326 0 -302.60609247012326 263.55608436273906 0 0 0 0 5.5608768884938797 -7.4163682329258105 0 -7.4163682329258105 10.680228743365547 0 0 0 0 -346.35417781556316 -70.315678589769959 0 -70.315678589769959 -53.588830000102462 0 0 0 0 1564.2436513545435 -798.57820310577154 0 -798.57820310577154 -309.11974015295709 0 0 0 0 0.042760523697609187 -11.697071725176485 0 -11.697071725176485 7.7005888951428538 0 0 0 0 326.41142386655338 212.97378602265235 0 212.97378602265235 -678.70771885760769 0 0 0 0 9.7771794115602475 -21.07884676014541 0 -21.07884676014541 22.061717462343438 0 0 0 0 -75.186366076337436 -159.75578366627633 0 -159.75578366627633 -201.30271329241805 0 0 0 0 735.06510518653522 -99.019124148089759 0 -99.019124148089759 40.869757523814769 0 0 0 0 605.26521536940709 -49.103126953705214 0 -49.103126953705214 35.55207846416215 0 0 0 0 1709.3487615340964 430.63127289087606 0 430.63127289087606 -439.20520332923161 0 0 0 0 689.19964344237815 -206.86212121904828 0 -206.86212121904828 -162.33729918024983 0 0 0 0 6.093456259302485 -6.2412365937429684 0 -6.2412365937429684 7.1863977954753722 0 0 0 0 -305.02987492370085 -439.36810227746719 0 -439.36810227746719 163.10074949913178 0 0 0 0 -88.132516217669036 -253.29962207020435 0 -253.29962207020435 -181.86821520218473 0 0 0 0 -51.074991496097937 -301.51118228709674 0 -301.51118228709674 -119.90664459012442 0 0 0 0 23.202555750795 -323.50629654588101 0 -323.50629654588101 -240.81592416464991 0 0 0 0 -11.380361334813642 -225.385317166807 0 -225.385317166807 -364.43293928627645 0 0 0 0 -13.23638986525475 -225.75068432200896 0 -225.75068432200896 -173.23349148920352 0 0 0 0 -37.304536534269573 -126.1928855260212 0 -126.1928855260212 -182.12231208634512 0 0 0 0 -17.990253919634029 -15.246727985457028 0 -15.246727985457028 5.408275218971708 0 0 0 0 -195.70042209488747 -885.45115768197866 0 -885.45115768197866 234.10621859582534 0 0 0 0 -69.202428752787455 -37.324434625898903 0 -37.324434625898903 49.280577668512706 0 0 0 0 22.072004295534796 -30.89953375002683 0 -30.89953375002683 19.972527403924843 0 0 0 0 -17.234009591047652 -8.9978746475699154 0 -8.9978746475699154 36.730320122333978 0 0 0 0 0.20245804516162025 -109.09108439579177 0 -109.09108439579177 -276.21447946607805 0 0 0 0 7.0549628758817562 -129.38458476858568 0 -129.38458476858568 -530.05360899739935 0 0 0 0 -12.089910343224204 -7.4286597933473999 0 -7.4286597933473999 -2.4259966269339035 0 0 0 0 -1.5723529981769389 27.396246151518426 0 27.396246151518426 68.598994758614026 0 0 0 0 -28.971953867128832 0.84680588879382412 0 0.84680588879382412 43.580419276535395 0 0 0 0 20.941064576926692 -57.882334074807886 0 -57.882334074807886 108.85379578886568 0 0 0 0 87.346166916599032 -26.89054852080335 0 -26.89054852080335 18.8807066530062 0 0 0 0 -5.3980374028726033 -6.4423384872091631 0 -6.4423384872091631 -1.9393629590760479 0 0 0 0 14.918758163195889 -148.40953795868609 0 -148.40953795868609 -848.03626661810085 0 0 0 0 -7.6440862184754224 -180.75289189713931 0 -180.75289189713931 -407.41437417979978 0 0 0 0 -25.199349827918923 -469.99576765051461 0 -469.99576765051461 -251.66853925244141 0 0 0 0 13.447866009606514 -268.44340786093744 0 -268.44340786093744 -487.89176040394887 0 0 0 0 -48.863896473058048 -451.88422333675044 0 -451.88422333675044 -216.03572337028163 0 0 0 0 -11.188244757674511 -398.17780049433804 0 -398.17780049433804 -588.5312155336469 0 0 0 0 -13.914036006375682 -430.37072733605237 0 -430.37072733605237 -237.81065133095444 0 0 0 0 -31.688886451283906 -409.29685461133158 0 -409.29685461133158 -158.8894131362722 0 0 0 0 -88.244346178006253 -398.57465336874463 0 -398.57465336874463 249.60120669098978 0 0 0 0 -105.59250122645608 -551.78921607018583 0 -551.78921607018583 -5.132110356062185 0 0 0 0 -103.96812279915684 -351.02949675318177 0 -351.02949675318177 441.19602943414429 0 0 0 0 -84.867013448996659 -318.51072637406082 0 -318.51072637406082 125.03861601664539 0 0 0 0 -80.563733246694028 -296.77339526786636 0 -296.77339526786636 216.33858771156883 0 0 0 0 -118.38651519222185 -406.28603327157725 0 -406.28603327157725 247.66815958373991 0 0 0 0 -122.74355927134638 -429.73418581329634 0 -429.73418581329634 142.47500397158001 0 0 0 0 -50.496569736602396 -258.74313848649035 0 -258.74313848649035 205.6870195587253 0 0 0 0 -42.722715704596339 -292.23492142556643 0 -292.23492142556643 5.5549421035721025 0 0 0 0 3.1426947848667623 -216.36212113677539 0 -216.36212113677539 88.79152918671025 0 0 0 0 28.624150660645682 -340.72443221108733 0 -340.72443221108733 37.674805434713562 0 0 0 0 -22.275059478703042 -419.13126826524604 0 -419.13126826524604 -28.86361650222716 0 0 0 0 45.591369682559161 -452.97080819757775 0 -452.97080819757775 -69.23235428443877 0 0 0 0 -23.99860365447239 -425.76890494933195 0 -425.76890494933195 -48.081973897536955 0 0 0 0 -57.331820814430102 -422.58654953750192 0 -422.58654953750192 -45.627761686846497 0 0 0 0 -16.017483545185314 -461.62422986646425 0 -461.62422986646425 -92.690507245330082 0 0 0 0 8.1924426057084929 -439.46676912492876 0 -439.46676912492876 -72.548509885022213 0 0 0 0 395.27279809441825 -685.46638472526683 0 -685.46638472526683 -4.7930444519342927 0 0 0 0 32.215250601140724 -499.02570842579917 0 -499.02570842579917 -100.35645084183489 0 0 0 0 -117.8344983692823 -14.758412705124101 0 -14.758412705124101 -86.625282043276457 0 0 0 0 780.78668246687448 150.01540142381464 0 150.01540142381464 -89.426102107157931 0 0 0 0 490.30819164761124 -403.02326447438827 0 -403.02326447438827 -182.97003113563551 0 0 0 0 127.90516266721534 -401.87711247499101 0 -401.87711247499101 -94.885687014611904 0 0 0 0 71.545626008904947 -313.20851237604438 0 -313.20851237604438 -199.85747500129037 0 0 0 0 26.353205048595555 -321.59965043836291 0 -321.59965043836291 -122.28679678638218 0 0 0 0 25.383154047020071 -217.03777608250675 0 -217.03777608250675 -89.824116915018749 0 0 0 0 31.245787455653044 -300.59392722219854 0 -300.59392722219854 -81.073015056659642 0 0 0 0 1.3670694309039391 -207.47926818800624 0 -207.47926818800624 -167.61207429006845 0 0 0 0 13.509506658974715 -235.31143696927029 0 -235.31143696927029 -110.13874666597985 0 0 0 0 -31.767684868849756 -280.07096911648114 0 -280.07096911648114 -144.95097064980655 0 0 0 0 18.292832894399908 -265.9388085982755 0 -265.9388085982755 -165.02188047056188 0 0 0 0 -5.5706815581288538 -307.17578339756437 0 -307.17578339756437 -147.97314650371118 0 0 0 0 -186.15752138533571 -224.64045655560039 0 -224.64045655560039 -158.54725811708477 0 0 0 0 -9.4966311067138349 -239.44214526357769 0 -239.44214526357769 -161.34035345459415 0 0 0 0 -36.709976231650217 -245.67789076651411 0 -245.67789076651411 -212.36064839992468 0 0 0 0 -310.44013448707483 -323.09838263192614 0 -323.09838263192614 -158.17269046723595 0 0 0 0 -176.55306603606368 -279.24603746144112 0 -279.24603746144112 -215.57026381007745 0 0 0 0 -182.74545497576037 -276.31239102535801 0 -276.31239102535801 -166.95341331979944 0 0 0 0 -57.134275670461648 -226.11723107270154 0 -226.11723107270154 -217.86950264180996 0 0 0 0 -373.75046381533866 -269.06571269160395 0 -269.06571269160395 -126.27640640379104 0 0 0 0 -346.24139791765083 -331.2031715561252 0 -331.2031715561252 -209.99173244925623 0 0 0 0 -345.35996463792253 -333.37384051399567 0 -333.37384051399567 -205.04716433756766 0 0 0 0 -669.30291140225017 -344.57163756265436 0 -344.57163756265436 -127.68661000100474 0 0 0 0 18.497261270647279 -35.674937185239948 0 -35.674937185239948 64.316561412184143 0 0 0 0 -490.96010497572934 -329.35898971229926 0 -329.35898971229926 -69.265014982262073 0 0 0 0 -291.25672460629357 -166.690383979525 0 -166.690383979525 -46.167725381728815 0 0 0 0 -423.78717753541423 -223.0064449278816 0 -223.0064449278816 -46.943051272535243 0 0 0 0 -232.81604488849462 -225.81259203772515 0 -225.81259203772515 17.794737002368493 0 0 0 0 17.900840270140076 -35.026444047100966 0 -35.026444047100966 61.820159746284432 0 0 0 0 83.725922464145697 -167.13849555728484 0 -167.13849555728484 -827.40386244269257 0 0 0 0 -49.271333358901757 -203.29048403257002 0 -203.29048403257002 -556.33856124430167 0 0 0 0 11.820100377248309 20.836419257120724 0 20.836419257120724 -513.02062921043716 0 0 0 0 30.286142747423582 -184.4361271991902 0 -184.4361271991902 -472.232837666259 0 0 0 0 -53.903797284228858 -30.356333583244123 0 -30.356333583244123 -284.669680712439 0 0 0 0 126.02082072565099 -146.71794611869336 0 -146.71794611869336 -484.50956460765246 0 0 0 0 -76.960441861607251 -196.62134459759909 0 -196.62134459759909 -22.284469459416869 0 0 0 0 0.33647964034389588 -297.48553934513711 0 -297.48553934513711 -320.82504890335076 0 0 0 0 -0.10661630494359997 -313.14562087437116 0 -313.14562087437116 -622.51643166267968 0 0 0 0 28.253572604297005 -162.68548324360427 0 -162.68548324360427 -418.39034335042015 0 0 0 0 90.715959926266805 -257.2204052487632 0 -257.2204052487632 -690.88869174471984 0 0 0 0 -11.536741316420375 -333.63359782877524 0 -333.63359782877524 -661.98968235274879 0 0 0 0 61.181545035031377 -281.78071168578754 0 -281.78071168578754 -761.56055869814008 0 0 0 0 -100.8196595388581 -227.37218700190351 0 -227.37218700190351 -764.69487628212619 0 0 0 0 -0.069158138019702164 -153.12034721847158 0 -153.12034721847158 -937.85255510699062 0 0 0 0 -62.662075318718053 -330.53559239105925 0 -330.53559239105925 -961.73028950021398 0 0 0 0 22.993969312449735 -180.99526359363517 0 -180.99526359363517 -1037.3943906661952 0 0 0 0 -46.201903527249669 -242.84803870799988 0 -242.84803870799988 -605.18498174653678 0 0 0 0 10.002380818973052 -226.67162809883553 0 -226.67162809883553 -704.43868444843974 0 0 0 0 52.931704246297159 -374.11313711144521 0 -374.11313711144521 -713.97511196718187 0 0 0 0 -12.951908374911 -489.6104118829262 0 -489.6104118829262 -914.58213187791625 0 0 0 0 -190.42708977420443 -381.33490598890421 0 -381.33490598890421 -477.25246449384213 0 0 0 0 -40.592578666592544 -100.08740486487881 0 -100.08740486487881 -293.70290158184071 0 0 0 0 -46.229836322985648 -143.08220331231496 0 -143.08220331231496 -388.30160430520482 0 0 0 0 137.39604334498244 -84.18697918802286 0 -84.18697918802286 -8.5146613261094899 0 0 0 0 0.6360947150582561 -2.47356343668379 0 -2.47356343668379 -20.214682085650708 0 0 0 0 -134.55250093506038 -183.84573086261844 0 -183.84573086261844 -260.37487325121401 0 0 0 0 61.206825814540935 -299.84378906729944 0 -299.84378906729944 -188.99875341917596 0 0 0 0 332.79104023458058 228.91860837144122 0 228.91860837144122 -740.80645638435271 0 0 0 0 -580.22253992153128 -891.51718625279136 0 -891.51718625279136 -1144.7296412118776 0 0 0 0 -0.10126799589759372 -0.5514979923013783 0 -0.5514979923013783 -7.7836230042038608 0 0 0 0 17.879952225630404 -109.52027770318455 0 -109.52027770318455 151.27585985228461 0 0 0 0 -31.223726260308467 -266.77644720864919 0 -266.77644720864919 129.48041200836246 0 0 0 0 99.925211576024594 -181.36686129977716 0 -181.36686129977716 -1494.1533757147135 0 0 0 0 -1.2457346771747098 -2.765478290611469 0 -2.765478290611469 -1.3731024753998078 0 0 0 0 54.905876434175298 -160.41872155376768 0 -160.41872155376768 221.23997364312163 0 0 0 0 -50.336609050285915 -142.69787564510716 0 -142.69787564510716 -735.24639895484142 0 0 0 0 136.33496142301374 -424.59277901178302 0 -424.59277901178302 -917.26046297912944 0 0 0 0 -93.142084909391997 -349.50678275263272 0 -349.50678275263272 -757.94223014235831 0 0 0 0 298.0945235903273 -594.67064969890635 0 -594.67064969890635 -616.5503628546885 0 0 0 0 -62.088890330487629 -429.16262436790748 0 -429.16262436790748 -607.021308996058 0 0 0 0 -426.49921053139042 -371.02809702219201 0 -371.02809702219201 -661.78916440626926 0 0 0 0 -126.16334715472476 19.967368891182559 0 19.967368891182559 -1070.0583831944682 0 0 0 0 155.31587388610933 -405.10015023155574 0 -405.10015023155574 -1178.9874319446635 0 0 0 0 56.285724196291994 -229.9771612319164 0 -229.9771612319164 -657.77314444987928 0 0 0 0 -4.7633301154201035 -298.92932389962516 0 -298.92932389962516 -440.13504999374709 0 0 0 0 43.709022956812987 -150.61074383177038 0 -150.61074383177038 -509.60163994047616 0 0 0 0 -0.9825853297832623 -0.81694493897357745 0 -0.81694493897357745 0.084503584714136437 0 0 0 0 -46.562388782080234 -135.63127684938445 0 -135.63127684938445 -282.00758368405332 0 0 0 0 -151.29030748979858 -250.14653437608467 0 -250.14653437608467 -389.94339403930098 0 0 0 0 210.2912505991917 -213.70710940773643 0 -213.70710940773643 -494.44308012529837 0 0 0 0 203.33836832532393 -385.31995496913788 0 -385.31995496913788 -407.05040154974995 0 0 0 0 261.38500215704698 -252.00469050490938 0 -252.00469050490938 239.85743037556676 0 0 0 0 139.11012199494508 -461.16513462596595 0 -461.16513462596595 550.03129745024944 0 0 0 0 170.75357966631418 -213.88977976032402 0 -213.88977976032402 332.41956947592735 0 0 0 0 -150.58964910231953 -650.35230758989019 0 -650.35230758989019 -148.08367319938043 0 0 0 0 540.82497318071546 -465.94158895395049 0 -465.94158895395049 -556.22782790226847 0 0 0 0 -0.61908740827317388 -2.0491298153974213 0 -2.0491298153974213 -2.2465365048041122 0 0 0 0 539.22914506235247 -40.702262934424652 0 -40.702262934424652 -54.35427243840968 0 0 0 0 360.65801692107925 -261.16713733076176 0 -261.16713733076176 164.03357100732683 0 0 0 0 -182.95635224491707 -325.98875077569937 0 -325.98875077569937 226.94817163479456 0 0 0 0 29.922349975830002 -474.81353497382042 0 -474.81353497382042 291.51410578641116 0 0 0 0 282.57489631433418 -215.80864628857125 0 -215.80864628857125 231.95219398318295 0 0 0 0 377.96215789484813 -312.19147809350534 0 -312.19147809350534 256.65282838200073 0 0 0 0 321.92606626599081 -271.54154059232133 0 -271.54154059232133 306.81951663661675 0 0 0 0 242.34938741865335 -217.5600463338742 0 -217.5600463338742 1098.6868836688955 0 0 0 0 -42.248419789437321 -285.22779854216969 0 -285.22779854216969 413.9211133659428 0 0 0 0 216.06720129822497 -453.55221269861249 0 -453.55221269861249 515.65194741878804 0 0 0 0 160.85677596428286 -167.28072712243738 0 -167.28072712243738 272.47064408197548 0 0 0 0 -1.6955102652458152 -3.0943639322313743 0 -3.0943639322313743 -1.5776615261690665 0 0 0 0 547.73085897922283 -534.94711022788943 0 -534.94711022788943 351.20628881885727 0 0 0 0 377.25873176694404 -254.64316100874976 0 -254.64316100874976 773.7009793047655 0 0 0 0 -0.65628973315716621 -1.168340354812841 0 -1.168340354812841 0.60343543740241046 0 0 0 0 142.99073946352291 -195.10135419481412 0 -195.10135419481412 271.53264083244744 0 0 0 0 132.27354453862063 -173.98272242157691 0 -173.98272242157691 326.96726648279946 0 0 0 0 182.42341775768 -370.57763075675598 0 -370.57763075675598 553.65829622636375 0 0 0 0 128.02631990283408 -183.6401723232816 0 -183.6401723232816 341.23081933779031 0 0 0 0 165.03733820122579 -230.72028735121785 0 -230.72028735121785 217.02470972599986 0 0 0 0 116.68210980874835 -42.487024141541212 0 -42.487024141541212 6.7104148333783087 0 0 0 0 167.82709560457806 -198.93445169009374 0 -198.93445169009374 170.13078778499766 0 0 0 0 123.7187832316049 -233.79175700876476 0 -233.79175700876476 265.31573093884981 0 0 0 0 -90.953893575773691 -25.871668401576244 0 -25.871668401576244 205.19474574343394 0 0 0 0 103.8596823048465 -30.822923248431835 0 -30.822923248431835 -26.264251691653044 0 0 0 0 -57.23791484641697 6.5570194520087171 0 6.5570194520087171 69.542992582801162 0 0 0 0 -93.71694057968125 -121.18056943010015 0 -121.18056943010015 -75.501077680059097 0 0 0 0 -2.3795693577385464 -1.6223523312272619 0 -1.6223523312272619 0.15277653752305387 0 0 0 0 6.881084581669711 -155.86423217170523 0 -155.86423217170523 -195.89378766753543 0 0 0 0 -75.038829253675431 -72.533845787141445 0 -72.533845787141445 -127.57530350052912 0 0 0 0 2.0130585344731173 0.36709311367486208 0 0.36709311367486208 -0.59517396283688129 0 0 0 0 0.096676071494584903 -11.40463324556913 0 -11.40463324556913 -13.575413127668071 0 0 0 0 -17.941696069043246 39.505305801209033 0 39.505305801209033 133.56456812144825 0 0 0 0 -3.6135571071208687 -9.8651603803173202 0 -9.8651603803173202 -9.6930359765829053 0 0 0 0 -2.0874710708701514 -3.9548633160836602 0 -3.9548633160836602 0.2308699576721267 0 0 0 0 -0.046035723469685763 -13.821304773691736 0 -13.821304773691736 -9.9082432085251639 0 0 0 0 -37.320785781543236 -18.8385262256852 0 -18.8385262256852 -2.1878420426386356 0 0 0 0 -3.4149310921638971 -11.49323710983299 0 -11.49323710983299 -2.493891768695903 0 0 0 0 27.970125281230139 -35.8052680356368 0 -35.8052680356368 140.48754301761073 0 0 0 0 -2.0643786736973695 -3.2378830145861173 0 -3.2378830145861173 3.1004052270929918 0 0 0 0 -63.542416089068865 -21.444326502505646 0 -21.444326502505646 14.358229702611425 0 0 0 0 0.058999779528676299 -33.469969779901476 0 -33.469969779901476 -9.1791644339700724 0 0 0 0 -41.523998394332011 -59.205776118535141 0 -59.205776118535141 9.9892336990778858 0 0 0 0 -1.059855509426292 -2.195606316560216 0 -2.195606316560216 2.3878830281155814 0 0 0 0 -269.08954031029498 3.5119385232310378 0 3.5119385232310378 32.195522296736499 0 0 0 0 495.05912588716819 -543.58079096983329 0 -543.58079096983329 504.16306045192687 0 0 0 0 379.74906491166621 -350.33686106204368 0 -350.33686106204368 198.65716755202811 0 0 0 0 192.71247501529797 -354.249667257478 0 -354.249667257478 586.11584634046085 0 0 0 0 213.32091873199624 -400.7446791244106 0 -400.7446791244106 620.92174762886134 0 0 0 0 200.40015141353615 -466.55203380945341 0 -466.55203380945341 712.54377116693286 0 0 0 0 -0.57931358409041422 -462.63934154558501 0 -462.63934154558501 512.1376727363895 0 0 0 0 363.1456849449969 -408.62629994774306 0 -408.62629994774306 504.36107672836079 0 0 0 0 230.15051520980342 -404.02485252296174 0 -404.02485252296174 492.6302648732044 0 0 0 0 325.91927265788399 -481.5301766964767 0 -481.5301766964767 675.52711836609183 0 0 0 0 209.29717898550734 -361.96508388867096 0 -361.96508388867096 658.36071232873473 0 0 0 0 404.28216028311726 -446.82532542169338 0 -446.82532542169338 596.65033106710507 0 0 0 0 225.12464985276165 -375.48599119501341 0 -375.48599119501341 635.03530293325821 0 0 0 0 375.0284910972623 -360.41429710196826 0 -360.41429710196826 475.93262356532978 0 0 0 0 222.6871907687455 -378.57975379622258 0 -378.57975379622258 567.17725458937457 0 0 0 0 334.58991143804087 -447.76896483900691 0 -447.76896483900691 603.98174588059919 0 0 0 0 479.49397071566455 -545.44791356409405 0 -545.44791356409405 628.65403835034704 0 0 0 0 439.22052465845991 -398.64595369953258 0 -398.64595369953258 488.99416672595908 0 0 0 0 -3.155548654093991 10.506692735488855 0 10.506692735488855 31.663590247319632 0 0 0 0 85.440384405614168 -400.89382804388333 0 -400.89382804388333 679.32966141926045 0 0 0 0 0.23992699049267685 -396.06251900504594 0 -396.06251900504594 648.43257731803897 0 0 0 0 88.1628524644766 -392.04980321640323 0 -392.04980321640323 564.50507506846407 0 0 0 0 211.22776094375877 -394.10214335186902 0 -394.10214335186902 627.40380725024352 0 0 0 0 196.39667376038778 -372.31646067427846 0 -372.31646067427846 600.66713822717611 0 0 0 0 109.83503722564637 -388.1681769538809 0 -388.1681769538809 616.2810324035263 0 0 0 0 222.13973320073273 -374.74166888518903 0 -374.74166888518903 549.53662071091821 0 0 0 0 100.36288232331572 -379.46263499354245 0 -379.46263499354245 576.83592392496575 0 0 0 0 92.38239375545345 -358.17194702278675 0 -358.17194702278675 580.14268231464666 0 0 0 0 0.016197952633764123 -289.68958018397774 0 -289.68958018397774 496.63278714003718 0 0 0 0 86.820160796436539 -313.16308844481409 0 -313.16308844481409 325.2044554644097 0 0 0 0 149.04669223348174 -333.75241315449784 0 -333.75241315449784 326.43997891014703 0 0 0 0 175.5225424458622 -354.21006456268879 0 -354.21006456268879 340.74732427273557 0 0 0 0 267.43390024986002 -331.77582207293017 0 -331.77582207293017 275.31789809178736 0 0 0 0 251.08472782325043 -270.5466466780822 0 -270.5466466780822 390.38325950333819 0 0 0 0 330.67927288248029 -462.87692215073002 0 -462.87692215073002 372.82950922123564 0 0 0 0 310.16906834789552 -336.61862817664041 0 -336.61862817664041 -60.578362214480876 0 0 0 0 167.32733291693148 -265.58592436389154 0 -265.58592436389154 242.30514511299043 0 0 0 0 129.56783394769445 -239.32759613011422 0 -239.32759613011422 98.869519094016141 0 0 0 0 147.57540529787002 -321.73581930472756 0 -321.73581930472756 317.61095070821466 0 0 0 0 131.36659114395297 -300.85754498575261 0 -300.85754498575261 429.00811631667784 0 0 0 0 346.25760199181968 -256.84451180483393 0 -256.84451180483393 329.0827923861907 0 0 0 0 266.28015857338323 -338.44164625081248 0 -338.44164625081248 342.44196798069243 0 0 0 0 290.68669193879032 -354.08636609167661 0 -354.08636609167661 442.92159522606562 0 0 0 0 110.00895366233635 -318.46499975424717 0 -318.46499975424717 523.51006774718917 0 0 0 0 291.31718322031656 -364.30780685737886 0 -364.30780685737886 478.61877010602984 0 0 0 0 -45.193867041283511 13.741772744877494 0 13.741772744877494 46.132635555604793 0 0 0 0 -32.982354928268563 -25.15393572459854 0 -25.15393572459854 83.561072534619598 0 0 0 0 -1.7648342136644715 16.011841917049793 0 16.011841917049793 42.16361759352138 0 0 0 0 -43.497394469839492 -3.3344342996246041 0 -3.3344342996246041 64.567624335570144 0 0 0 0 431.71159939556674 -402.8482853844871 0 -402.8482853844871 399.19806792927193 0 0 0 0 -7.8449941904487588 -7.086125307573127 0 -7.086125307573127 17.027717357265253 0 0 0 0 -2.5620751470369214 -190.92466021936048 0 -190.92466021936048 -89.253814429202976 0 0 0 0 -41.124610146107443 -53.869409424436526 0 -53.869409424436526 -174.16517835219383 0 0 0 0 42.636503654888656 -180.67117567335845 0 -180.67117567335845 -4.6438637012724939 0 0 0 0 3.7240022884541304 -25.323159158399154 0 -25.323159158399154 43.124953167950594 0 0 0 0 -33.127967214946693 -0.020975866980734281 0 -0.020975866980734281 65.215655530913409 0 0 0 0 -87.993782367360836 -204.91036074736212 0 -204.91036074736212 -29.378748001283384 0 0 0 0 -1.6594605301361298 -91.972625891907228 0 -91.972625891907228 57.233046474088951 0 0 0 0 -7.0336050359037472 -44.218735076515259 0 -44.218735076515259 -92.384892909617989 0 0 0 0 35.362196488902555 -115.4157022808904 0 -115.4157022808904 77.322077341205386 0 0 0 0 115.09329664360848 -185.9506548898953 0 -185.9506548898953 99.730982160559051 0 0 0 0 0.14986572743600823 -187.30902200324994 0 -187.30902200324994 164.9993385975049 0 0 0 0 156.86844161446788 -247.94117834658937 0 -247.94117834658937 70.459774139420915 0 0 0 0 78.963656476706092 -131.56479166924328 0 -131.56479166924328 21.311969003247214 0 0 0 0 83.666719609624124 -125.68823166404763 0 -125.68823166404763 -31.862259766602392 0 0 0 0 87.560243084881222 -109.5722990534432 0 -109.5722990534432 -58.265657703614124 0 0 0 0 -26.400511113992252 -97.398649543885767 0 -97.398649543885767 91.312679050712177 0 0 0 0 2.1590875420697557 -132.38151118303176 0 -132.38151118303176 118.94605764278822 0 0 0 0 113.95202875888208 -149.99274790269556 0 -149.99274790269556 66.284541242126579 0 0 0 0 15.133075932750216 -101.2514522102083 0 -101.2514522102083 46.862489738983641 0 0 0 0 -16.320889949936827 -135.97069671527788 0 -135.97069671527788 48.430664715044259 0 0 0 0 -63.939881411453825 -79.126796879572794 0 -79.126796879572794 35.231315845821882 0 0 0 0 -66.499914898635325 -76.082979675193201 0 -76.082979675193201 68.371661413551919 0 0 0 0 8.3205116051552608 -31.323407010536254 0 -31.323407010536254 47.989447942411488 0 0 0 0 -94.050477049633628 -60.457887844790093 0 -60.457887844790093 70.267672087672508 0 0 0 0 -86.678509867691901 -83.842608821569684 0 -83.842608821569684 140.54840313139357 0 0 0 0 -45.407754644656961 -120.38584819228163 0 -120.38584819228163 89.616301850857781 0 0 0 0 -118.9605583802113 -52.607161564952548 0 -52.607161564952548 129.93447274033315 0 0 0 0 -131.14271482725599 -9.2348535404089489 0 -9.2348535404089489 84.491346502003466 0 0 0 0 -124.03730652476588 -51.584386125550964 0 -51.584386125550964 134.8352139818162 0 0 0 0 -66.308656056004111 -139.38717225074288 0 -139.38717225074288 208.70564679832751 0 0 0 0 127.20838327499223 -151.33929020033611 0 -151.33929020033611 120.61549468459998 0 0 0 0 -52.846656766501837 -77.274970816344648 0 -77.274970816344648 165.96283571939966 0 0 0 0 -172.53175002097851 -86.818094895401373 0 -86.818094895401373 200.39165584067632 0 0 0 0 -272.24267936185061 -8.7559659466987796 0 -8.7559659466987796 108.6757632687877 0 0 0 0 -127.1993983353409 51.651199488612292 0 51.651199488612292 105.57977310038405 0 0 0 0 -98.740164029278731 -76.706861525626664 0 -76.706861525626664 211.65869049089088 0 0 0 0 -176.35715835589508 70.086960785905831 0 70.086960785905831 48.613838161612762 0 0 0 0 -203.11485704807274 32.919475659118689 0 32.919475659118689 117.43541065895943 0 0 0 0 -161.11970621765067 12.714173196773118 0 12.714173196773118 45.17917759708871 0 0 0 0 -349.22807641578765 217.07367725126642 0 217.07367725126642 -6.134099444644562 0 0 0 0 -3.2932546656872148 5.5615458831276072 0 5.5615458831276072 20.560888276659171 0 0 0 0 668.45524344678779 -772.79407415987725 0 -772.79407415987725 793.03000726816936 0 0 0 0 308.38596949237399 -494.56540082925676 0 -494.56540082925676 789.90072466581194 0 0 0 0 724.50887061058529 -652.91172633845031 0 -652.91172633845031 711.7057432349975 0 0 0 0 -129.98563771953923 95.087347559860973 0 95.087347559860973 149.15411254413266 0 0 0 0 -423.96301032216434 404.0257808359529 0 404.0257808359529 -109.64541073503005 0 0 0 0 787.73890917327253 -1180.7265508422597 0 -1180.7265508422597 1326.1485659272075 0 0 0 0 -0.56563909376495758 1.4340221469761616 0 1.4340221469761616 7.0059366017968472 0 0 0 0 -290.48492504572641 47.664848599039942 0 47.664848599039942 526.83723340288998 0 0 0 0 -143.79714782612427 -255.84881499328731 0 -255.84881499328731 799.86720872435944 0 0 0 0 -167.83895873853908 -105.48881801227981 0 -105.48881801227981 357.27285484529239 0 0 0 0 -75.115524856671982 -47.878652979941762 0 -47.878652979941762 392.98062473819664 0 0 0 0 -79.795637355060535 -87.488516971068748 0 -87.488516971068748 196.68973246747555 0 0 0 0 19.758822208481433 -52.531766981413966 0 -52.531766981413966 204.57388727903026 0 0 0 0 -43.021806511354953 -126.99048176634915 0 -126.99048176634915 174.52808792944052 0 0 0 0 -30.272269437049545 -127.10152599166122 0 -127.10152599166122 140.93691876875528 0 0 0 0 4.3024995023315569 -139.05470109155794 0 -139.05470109155794 62.12477365885934 0 0 0 0 2.136659114039503 -143.73896397684075 0 -143.73896397684075 51.9946065640097 0 0 0 0 48.165712467347475 -71.082608463259021 0 -71.082608463259021 51.300652733683819 0 0 0 0 -20.429954724462732 -61.141553836561798 0 -61.141553836561798 159.33704697269513 0 0 0 0 62.878253363258409 -0.26887046967203787 0 -0.26887046967203787 174.19278570066126 0 0 0 0 -14.953022320623859 -60.488166962942159 0 -60.488166962942159 136.61740796947561 0 0 0 0 248.34332448385248 10.713590926468896 0 10.713590926468896 124.37461399017411 0 0 0 0 -77.7902487908068 33.449506860630208 0 33.449506860630208 185.76984631539744 0 0 0 0 -52.880538546596654 -34.943770248003602 0 -34.943770248003602 241.20128600909811 0 0 0 0 -45.925318931083893 -29.944827731933401 0 -29.944827731933401 242.01182898300249 0 0 0 0 38.849450664456526 -224.36332014765867 0 -224.36332014765867 519.67464136134367 0 0 0 0 68.297083556783036 -41.441969651452382 0 -41.441969651452382 201.15625104321953 0 0 0 0 14.777600945693848 -1.6479043552626536 0 -1.6479043552626536 90.538568660855162 0 0 0 0 -30.124520798022786 -73.136463443775028 0 -73.136463443775028 232.32288035627789 0 0 0 0 -111.2778835112772 -84.623408891671033 0 -84.623408891671033 -165.15506499045659 0 0 0 0 -47.507126345200959 -112.53054061544753 0 -112.53054061544753 -153.25706966859434 0 0 0 0 -150.70362019626782 -345.5099018794233 0 -345.5099018794233 -480.24499006201222 0 0 0 0 -119.0307240750335 -272.05894606892616 0 -272.05894606892616 -300.88904206055304 0 0 0 0 -268.4330262451731 -339.76774968756035 0 -339.76774968756035 -339.65728699255851 0 0 0 0 -555.01917380362283 -415.82211105529495 0 -415.82211105529495 -224.61077077522714 0 0 0 0 -153.34532857212616 -280.13021089322137 0 -280.13021089322137 -266.6770368404068 0 0 0 0 -295.5901880320871 -296.24327754208844 0 -296.24327754208844 -233.85623280856089 0 0 0 0 -68.338699786745565 -164.50160096258151 0 -164.50160096258151 -91.183194656208798 0 0 0 0 -39.466997721705411 -150.66707743639927 0 -150.66707743639927 -223.89270796015535 0 0 0 0 -173.73617488084346 -263.36077471748649 0 -263.36077471748649 -188.29305847118667 0 0 0 0 22.053028459245979 -87.664584187044966 0 -87.664584187044966 -135.86917360708321 0 0 0 0 -58.849919078060339 -23.237004912360135 0 -23.237004912360135 66.572111915953428 0 0 0 0 -16.814175862076809 -113.91891217559714 0 -113.91891217559714 47.345953708433171 0 0 0 0 4.7545904712969786 -70.00786823512135 0 -70.00786823512135 21.236790251328785 0 0 0 0 12.842804162719403 -180.74365532101729 0 -180.74365532101729 -177.14833597351753 0 0 0 0 -62.841682103575295 -228.18671530949632 0 -228.18671530949632 -131.54511134648783 0 0 0 0 9.8895187945809084 -141.77857443878258 0 -141.77857443878258 -78.844514913100284 0 0 0 0 21.44474420484039 -158.45018670878017 0 -158.45018670878017 -58.584732809806155 0 0 0 0 25.953659125087142 -123.00764059004359 0 -123.00764059004359 -5.4832854549458716 0 0 0 0 0.49023071814644936 -234.32681778011147 0 -234.32681778011147 -24.5640144089557 0 0 0 0 28.313966994879593 -100.36585393693895 0 -100.36585393693895 56.873857075988781 0 0 0 0 20.700406746222143 -59.934574883940513 0 -59.934574883940513 114.38532982673496 0 0 0 0 54.419638464856689 -87.570964513127819 0 -87.570964513127819 136.20247735636804 0 0 0 0 41.301181723545596 -63.845903316760086 0 -63.845903316760086 195.36774710439568 0 0 0 0 255.55505525797344 -184.72436483859565 0 -184.72436483859565 254.35727757436325 0 0 0 0 -52.267792301758163 -155.12120775718358 0 -155.12120775718358 381.2614270175618 0 0 0 0 72.793928476534347 -118.53593853901748 0 -118.53593853901748 173.22038487371901 0 0 0 0 -13.322061723662046 -80.645955523737939 0 -80.645955523737939 162.53157715353154 0 0 0 0 -2.1282523084373679 -64.108551220302616 0 -64.108551220302616 56.71569558345027 0 0 0 0 -59.58356916017874 -103.17557394003052 0 -103.17557394003052 213.49804073759879 0 0 0 0 -147.1650256719422 -135.35029053045764 0 -135.35029053045764 535.08139797802869 0 0 0 0 -81.282048460969236 -83.931463498276571 0 -83.931463498276571 224.51158518741795 0 0 0 0 -65.293236489560513 -267.46462369027722 0 -267.46462369027722 446.92016119351501 0 0 0 0 -101.41825233618511 107.33675416580445 0 107.33675416580445 244.90908068274439 0 0 0 0 -127.12359136356463 -44.703318602683794 0 -44.703318602683794 277.25487675785553 0 0 0 0 -60.710934472052031 -79.948391858817558 0 -79.948391858817558 180.47128212487587 0 0 0 0 9.8597540095652221 -169.76882880916128 0 -169.76882880916128 179.55051627033026 0 0 0 0 -60.978331941789293 -272.80305764339482 0 -272.80305764339482 353.15656771272916 0 0 0 0 107.22664400133363 -292.13488627952211 0 -292.13488627952211 331.37307939584025 0 0 0 0 -63.958603944149218 -199.56090207141096 0 -199.56090207141096 416.97809275535838 0 0 0 0 -72.66184206305843 -227.92544844750046 0 -227.92544844750046 440.25506281178241 0 0 0 0 -67.747121784763294 -235.89469014228962 0 -235.89469014228962 400.36909111068962 0 0 0 0 -71.840692993102493 -193.81321135471353 0 -193.81321135471353 452.07625632463896 0 0 0 0 -70.399774510871794 -55.472874839433644 0 -55.472874839433644 285.49227930918642 0 0 0 0 19.567534059980972 -118.7480556344708 0 -118.7480556344708 171.06240334711038 0 0 0 0 -57.203767241069727 -122.25230753152209 0 -122.25230753152209 622.9807629674433 0 0 0 0 -1.9568789488548646 -195.9548489287663 0 -195.9548489287663 382.03308395404213 0 0 0 0 6.3074138311239949 -220.72763611673327 0 -220.72763611673327 442.46297009329282 0 0 0 0 192.37059823572054 -263.40209191103349 0 -263.40209191103349 452.20181867507381 0 0 0 0 132.55956129230435 -233.58520990362831 0 -233.58520990362831 1016.1598428642465 0 0 0 0 82.718933801956155 120.9738836084889 0 120.9738836084889 289.02333387982071 0 0 0 0 -1.2982888587949191 -7.2078585478267314 0 -7.2078585478267314 9.0499945715119878 0 0 0 0 129.17014260949509 -320.54235049041745 0 -320.54235049041745 1023.5724719944701 0 0 0 0 -13.545238749313285 4.0181265710070875 0 4.0181265710070875 -120.69249197769568 0 0 0 0 104.17339643555897 -4.8052727220729139 0 -4.8052727220729139 -124.14612463215872 0 0 0 0 48.726944511112379 -54.558866987693364 0 -54.558866987693364 -108.2921254840785 0 0 0 0 85.193770465073612 -85.153116345823946 0 -85.153116345823946 -98.977903380889984 0 0 0 0 4.046815506319291 -36.221483727301802 0 -36.221483727301802 4.2612332285392061 0 0 0 0 -7.3461759085585072 -57.729492800872322 0 -57.729492800872322 -99.255921270396357 0 0 0 0 46.644859436135448 -39.485354064479907 0 -39.485354064479907 -124.52814889401452 0 0 0 0 8.7515482515958922 -37.42447479992029 0 -37.42447479992029 10.81907939769669 0 0 0 0 48.208752360627841 -108.30852457231867 0 -108.30852457231867 -67.220018168123715 0 0 0 0 83.009677898851805 -85.566332794092887 0 -85.566332794092887 -97.208644278169231 0 0 0 0 95.531734571275592 -125.30012397503015 0 -125.30012397503015 -194.00211834061702 0 0 0 0 -541.80482972131722 196.78988979461428 0 196.78988979461428 -77.075287655170541 0 0 0 0 142.33134938323929 -223.28339409869477 0 -223.28339409869477 -44.518017013277131 0 0 0 0 184.92256667385664 -259.99568944577913 0 -259.99568944577913 -383.65362525195269 0 0 0 0 -24.25268924413831 -127.29112090888157 0 -127.29112090888157 -53.589324938136087 0 0 0 0 128.02314048648259 -155.35909758476555 0 -155.35909758476555 140.28033451866941 0 0 0 0 25.981803028638751 -223.8033016272766 0 -223.8033016272766 357.88543564663632 0 0 0 0 295.75771902530687 -159.056055947196 0 -159.056055947196 136.83587245654053 0 0 0 0 663.13147433526592 -471.8205607430973 0 -471.8205607430973 288.0183813895128 0 0 0 0 -1639.3623333164123 664.18682420647792 0 664.18682420647792 449.55006496622809 0 0 0 0 -1.5738880568203513 -2.1333914789912853 0 -2.1333914789912853 1.4149596861817741 0 0 0 0 -480.35112076524092 -98.469606321086758 0 -98.469606321086758 245.65745786251114 0 0 0 0 -169.66863431693491 304.92642478420748 0 304.92642478420748 153.07131161353755 0 0 0 0 154.78972943445842 -71.681204526043075 0 -71.681204526043075 284.80258665822475 0 0 0 0 387.56410010124091 -355.54899433979881 0 -355.54899433979881 263.87000275822948 0 0 0 0 99.340436888349359 -423.04345862879563 0 -423.04345862879563 1305.6228494360985 0 0 0 0 437.5413613036726 -590.26029055822073 0 -590.26029055822073 989.66348349877808 0 0 0 0 9.6469990916135657 -4.9446628973736395 0 -4.9446628973736395 -6.954696979296136 0 0 0 0 -299.5854608393347 -745.03565613583487 0 -745.03565613583487 643.17481423255231 0 0 0 0 -25.667249954745785 614.67962897262441 0 614.67962897262441 -172.02802815327595 0 0 0 0 799.50461244214239 -209.14923109554729 0 -209.14923109554729 -74.345362874389139 0 0 0 0 -3.2688808806959884 -22.702179980130808 0 -22.702179980130808 -38.519568073411648 0 0 0 0 340.29901074649024 100.99675561383629 0 100.99675561383629 8.9401913887986666 0 0 0 0 546.28284417017676 -88.237251230157199 0 -88.237251230157199 -223.04621888706606 0 0 0 0 -4.5499114118326958 -10.388814645354842 0 -10.388814645354842 -26.296681506907262 0 0 0 0 -113.87434580069566 166.79864707214529 0 166.79864707214529 -206.86400144808431 0 0 0 0 252.91750856552244 -322.32347729735375 0 -322.32347729735375 -63.698302646623233 0 0 0 0 94.282396762220742 -92.517964230653888 0 -92.517964230653888 -8.9469530527640018 0 0 0 0 -699.35883824048142 -82.430869809979413 0 -82.430869809979413 176.83461029149476 0 0 0 0 -5.7109669982167581 -14.974243275469192 0 -14.974243275469192 -19.452061701229312 0 0 0 0 -236.61267697063886 -464.69820134101974 0 -464.69820134101974 128.6896208151181 0 0 0 0 319.16237267471479 -153.50109211356994 0 -153.50109211356994 58.306822785481927 0 0 0 0 -4.1441107121450216 -9.8323246196021472 0 -9.8323246196021472 -2.9062713033104899 0 0 0 0 -1189.8917112501113 156.55065359799846 0 156.55065359799846 128.45441589642724 0 0 0 0 133.13893136634579 -85.021138318095836 0 -85.021138318095836 39.670930368660265 0 0 0 0 182.08533884985081 -78.063380993287865 0 -78.063380993287865 36.245373222227499 0 0 0 0 244.56296475476847 -44.48896521376264 0 -44.48896521376264 10.696393349811842 0 0 0 0 25.184380607417552 -77.438879552730214 0 -77.438879552730214 79.889459598711255 0 0 0 0 143.12755292125803 12.816324720582998 0 12.816324720582998 96.282735284839873 0 0 0 0 -114.37214890278119 -227.0233438901414 0 -227.0233438901414 120.19792402257008 0 0 0 0 75.893110427445208 -183.28351349301374 0 -183.28351349301374 -245.06035867249739 0 0 0 0 -1.5320924685631461 -27.054537433725777 0 -27.054537433725777 -35.005375762411845 0 0 0 0 19.595735593320569 2.3155871273556841 0 2.3155871273556841 -172.79066784880706 0 0 0 0 12.811414611789559 -46.349951130470387 0 -46.349951130470387 -10.395996831484917 0 0 0 0 52.450998160498671 -16.964378893160472 0 -16.964378893160472 100.44674370630673 0 0 0 0 59.176883555220229 -176.44177161647781 0 -176.44177161647781 -348.22320784638578 0 0 0 0 61.782015715187299 -56.032538599880354 0 -56.032538599880354 -238.94427852767103 0 0 0 0 1.1347276182577701 -9.0500316906381926 0 -9.0500316906381926 13.12843786715726 0 0 0 0 2.3419378100884813 -14.706664818639382 0 -14.706664818639382 -0.81385799874836273 0 0 0 0 -15.310129990590212 -210.69213004661106 0 -210.69213004661106 -153.41255490655021 0 0 0 0 -13.583548303007774 -232.63776943801895 0 -232.63776943801895 -688.02356573427824 0 0 0 0 -15.578564626157458 -254.99119194285959 0 -254.99119194285959 -158.74118194499306 0 0 0 0 204.72840434240061 -44.612630569023167 0 -44.612630569023167 -32.305762738046496 0 0 0 0 -195.38540659053251 -198.98420335326682 0 -198.98420335326682 25.246826546434022 0 0 0 0 -208.60203081173131 -205.8106846973451 0 -205.8106846973451 141.32759704065029 0 0 0 0 324.42253677252302 33.453315952963749 0 33.453315952963749 -276.35817131518434 0 0 0 0 1225.758029093442 -378.87552799176865 0 -378.87552799176865 -498.17087040081242 0 0 0 0 -40.901404725100292 -125.87389096840297 0 -125.87389096840297 258.42307483289551 0 0 0 0 -291.70273082463245 -433.41415283135029 0 -433.41415283135029 -52.767688684061795 0 0 0 0 -291.10753322752134 562.03354333482048 0 562.03354333482048 -597.91146523581483 0 0 0 0 -3.0030764026670482 -4.4644403396588217 0 -4.4644403396588217 -7.5213405645189795 0 0 0 0 -936.18940324569121 14.284385192260743 0 14.284385192260743 152.22022243804531 0 0 0 0 -58.016409809886682 -209.84933616703256 0 -209.84933616703256 196.38200659218455 0 0 0 0 42.007088778045727 -546.41333714647408 0 -546.41333714647408 -320.06025549125297 0 0 0 0 0.63061357987630018 0.11792002275277014 0 0.11792002275277014 3.2760790005313822 0 0 0 0 324.840608220391 -88.046735824870666 0 -88.046735824870666 172.27579154203704 0 0 0 0 465.66296398803388 -459.76400198168267 0 -459.76400198168267 118.57398502101933 0 0 0 0 -2.6149153371425484 -6.8529610376280914 0 -6.8529610376280914 14.93942481064699 0 0 0 0 51.111217442434281 -141.36470773709516 0 -141.36470773709516 224.13462616434481 0 0 0 0 50.032983893830533 -284.79064575091797 0 -284.79064575091797 316.99522992641778 0 0 0 0 140.09563041046204 -116.32104562316454 0 -116.32104562316454 149.07353229750879 0 0 0 0 -290.92634703143995 -2.1792802289201063 0 -2.1792802289201063 176.93900821634088 0 0 0 0 -156.74638417554524 -94.364275227368125 0 -94.364275227368125 225.65341505893957 0 0 0 0 -45.672603594721295 110.66354928562214 0 110.66354928562214 24.402848994644728 0 0 0 0 -16.997619907793705 20.258097328613076 0 20.258097328613076 90.491244747630844 0 0 0 0 -67.255189929550397 97.130171870172489 0 97.130171870172489 17.243405671440996 0 0 0 0 -100.79806173461475 58.753853364893075 0 58.753853364893075 -0.94094701890571741 0 0 0 0 -10.12583368985014 -25.06172996731128 0 -25.06172996731128 32.937263325124746 0 0 0 0 -47.164750094616466 -22.391820799123707 0 -22.391820799123707 69.77030369957356 0 0 0 0 50.353209990731557 -76.459398514127315 0 -76.459398514127315 -10.816171682183267 0 0 0 0 -32.426412891065411 -68.430528241497996 0 -68.430528241497996 159.92996834770383 0 0 0 0 59.998647262320446 -135.7561998738438 0 -135.7561998738438 -7.4482499675145846 0 0 0 0 24.91914483482833 265.67008114161945 0 265.67008114161945 -131.77618930535664 0 0 0 0 194.9619796530169 152.8379786377518 0 152.8379786377518 -147.30621006016008 0 0 0 0 -145.95135743240826 208.6567866585774 0 208.6567866585774 -53.904545757010055 0 0 0 0 -153.85380283908307 289.43823863618127 0 289.43823863618127 -463.09161678032979 0 0 0 0 -234.48535036194517 153.23080100641937 0 153.23080100641937 16.955025736635434 0 0 0 0 -23.686356402315141 192.10179540120043 0 192.10179540120043 -77.939743943356007 0 0 0 0 -52.558664771422627 117.73693287900278 0 117.73693287900278 -77.826046815505833 0 0 0 0 153.39335467119963 -45.711828172916285 0 -45.711828172916285 -8.6629494260159845 0 0 0 0 -1.2937271572945903 -3.6305833916308643 0 -3.6305833916308643 -13.454939079626833 0 0 0 0 -208.66550589516009 79.813140595555524 0 79.813140595555524 10.298538125058258 0 0 0 0 -0.97641827348331489 -1.8825886829594225 0 -1.8825886829594225 -3.9898254732190566 0 0 0 0 -605.89457992609096 -10.925111663241296 0 -10.925111663241296 53.230977292212629 0 0 0 0 158.71905429901744 -22.991594695149615 0 -22.991594695149615 -102.0663167102357 0 0 0 0 158.1247453232354 0.023290284763788804 0 0.023290284763788804 -273.44841426384664 0 0 0 0 81.333356240986177 -40.9132759284239 0 -40.9132759284239 14.736909311446652 0 0 0 0 71.450856126990402 -78.462713707021976 0 -78.462713707021976 -97.389595266899278 0 0 0 0 53.810439106498961 -75.71208774689876 0 -75.71208774689876 13.749238411974432 0 0 0 0 38.947735218316666 -66.680254993765629 0 -66.680254993765629 38.4499617100264 0 0 0 0 -66.001440711872419 -100.38353264728903 0 -100.38353264728903 28.256942868656552 0 0 0 0 9.9333224293222884 -104.06345699781559 0 -104.06345699781559 8.903707269093502 0 0 0 0 55.489300778503093 -133.20351277237569 0 -133.20351277237569 16.461545676644164 0 0 0 0 102.99696915536333 -110.8198979212475 0 -110.8198979212475 -128.13152872667342 0 0 0 0 70.799788301057561 -110.70947497312955 0 -110.70947497312955 4.1364282046706649 0 0 0 0 174.45324545356925 -206.44865404930624 0 -206.44865404930624 -0.46476452504793997 0 0 0 0 55.615996318920224 -127.27344603172969 0 -127.27344603172969 60.351052710758267 0 0 0 0 -266.84648871959416 -5.0431547117891569 0 -5.0431547117891569 137.9331298182442 0 0 0 0 48.181035806068394 -89.405847224566969 0 -89.405847224566969 -11.85208861008141 0 0 0 0 2.1728886608761968 -47.887368165473163 0 -47.887368165473163 0.36778380943678712 0 0 0 0 -68.53838235006242 -70.744073630564344 0 -70.744073630564344 32.47338968467011 0 0 0 0 0.55326784207863966 -30.944469209366162 0 -30.944469209366162 6.5526087033649674 0 0 0 0 -1.7510642903117457 -23.783286715881907 0 -23.783286715881907 -23.92581620398002 0 0 0 0 9.1790741697041085 -34.671243147799032 0 -34.671243147799032 7.1011732745974996 0 0 0 0 7.4017529697011923 -40.092785414787613 0 -40.092785414787613 7.7962543683516969 0 0 0 0 1.8689432297816069 -23.045193728087384 0 -23.045193728087384 -14.991725779598479 0 0 0 0 12.018043554518954 -34.41775006370608 0 -34.41775006370608 -1.941159547510324 0 0 0 0 9.1760771219487651 -35.044939657121517 0 -35.044939657121517 -1.3507567060041765 0 0 0 0 8.4707904944098118 -44.400913455461364 0 -44.400913455461364 -5.1339006354573939 0 0 0 0 7.6288900196304894 -41.218849951960692 0 -41.218849951960692 3.1828545251360083 0 0 0 0 66.155358805558535 -12.960163645612056 0 -12.960163645612056 -24.806871407279687 0 0 0 0 -2.6504907699199975 -81.051460953476635 0 -81.051460953476635 60.679592379161477 0 0 0 0 1.3407478052163952 -1.6685185120568651 0 -1.6685185120568651 -4.6095908902549638 0 0 0 0 -2.2482572625463035 -62.538374818425382 0 -62.538374818425382 -125.99180285323382 0 0 0 0 60.570053021343483 -110.77992878372515 0 -110.77992878372515 -79.169380263330822 0 0 0 0 -38.478257449551165 -35.396154596417546 0 -35.396154596417546 22.727566661831588 0 0 0 0 -3.9572859130329867 -17.096338568764651 0 -17.096338568764651 -17.087220164179442 0 0 0 0 2.0661083256127313 7.5541761517624764 0 7.5541761517624764 19.302269154446549 0 0 0 0 0.81086132417502199 -2.8372347271396023 0 -2.8372347271396023 5.1713106362121053 0 0 0 0 4.6118320439913134 -31.135233146262955 0 -31.135233146262955 11.966778218201553 0 0 0 0 12.231630392539955 -45.676051892789019 0 -45.676051892789019 -9.5114121795504616 0 0 0 0 -42.350365028996748 -7.5015200441730485 0 -7.5015200441730485 18.825425149163493 0 0 0 0 16.876943248469615 -37.871187779679531 0 -37.871187779679531 -4.3371824036973976 0 0 0 0 13.683277589985664 -42.081136519763731 0 -42.081136519763731 -7.1443791462570516 0 0 0 0 12.052292171865702 -40.323457285801851 0 -40.323457285801851 -8.7685177003004355 0 0 0 0 14.684199997253018 -31.521824926167028 0 -31.521824926167028 -0.48203828881014488 0 0 0 0 -4.7503493692441658 -31.853639384297765 0 -31.853639384297765 -0.71957729043501217 0 0 0 0 8.1927485017773307 -36.415456082218483 0 -36.415456082218483 -33.055658161901377 0 0 0 0 -24.875848743163417 -63.206219800224673 0 -63.206219800224673 -50.069262457948696 0 0 0 0 28.443624824544187 -30.284819023853704 0 -30.284819023853704 3.2524750065725998 0 0 0 0 26.223051926666813 -85.105855413302265 0 -85.105855413302265 -52.612581095820588 0 0 0 0 -32.355175415658593 -44.421502854182435 0 -44.421502854182435 -36.582538075300029 0 0 0 0 -80.16036617008649 -131.97143704728387 0 -131.97143704728387 99.019909814920538 0 0 0 0 34.099534124491356 -50.726080593611897 0 -50.726080593611897 -37.977444625874341 0 0 0 0 38.032663765226971 -102.46325016701979 0 -102.46325016701979 -10.03062072695684 0 0 0 0 -11.438327409356134 -42.211748427191196 0 -42.211748427191196 -46.076743306659409 0 0 0 0 27.225907722969168 -97.927310131094146 0 -97.927310131094146 -92.434786708572574 0 0 0 0 -7.7487929228386712 -25.087556693471214 0 -25.087556693471214 -52.519068872098558 0 0 0 0 141.79633327962438 -26.176338154496761 0 -26.176338154496761 -110.15408362253766 0 0 0 0 32.960784133409106 -72.640734106040782 0 -72.640734106040782 -64.905736806242203 0 0 0 0 5.8970436759145741 -2.7245152763995009 0 -2.7245152763995009 -10.300968543567622 0 0 0 0 19.958225350521388 -37.541211440677216 0 -37.541211440677216 -6.1658932274839344 0 0 0 0 -35.015825756687263 184.32519365038024 0 184.32519365038024 -74.124233628677075 0 0 0 0 -2.5276590559657848 -1.1936718656097511 0 -1.1936718656097511 0.39081677537248893 0 0 0 0 11.375850347416417 -25.194990308167462 0 -25.194990308167462 7.1316357956648062 0 0 0 0 -69.400522655647364 -44.422834514353099 0 -44.422834514353099 19.146161097483855 0 0 0 0 21.832694348006044 -30.210402418188096 0 -30.210402418188096 -2.4628485383622092 0 0 0 0 40.058779233077075 -52.163433515673205 0 -52.163433515673205 -6.5713030890392474 0 0 0 0 7.1296625094255432 -55.571316170512546 0 -55.571316170512546 -5.9800220959368744 0 0 0 0 -20.616580864916614 -97.356249824806355 0 -97.356249824806355 -68.624085968665895 0 0 0 0 51.208142179763854 -4.6544980430634837 0 -4.6544980430634837 -21.306991268645106 0 0 0 0 48.571425388021453 -25.67907437587246 0 -25.67907437587246 -168.42193800979521 0 0 0 0 18.749480342466995 39.435862122798426 0 39.435862122798426 -55.94297951061526 0 0 0 0 -2.8150284493312938 71.241452209150793 0 71.241452209150793 -102.73249237959317 0 0 0 0 17.140878111364145 49.911440236364797 0 49.911440236364797 -52.532122252498993 0 0 0 0 32.863209976494545 62.443096470813089 0 62.443096470813089 -119.35309996240358 0 0 0 0 103.9799690380205 -78.478420523971181 0 -78.478420523971181 -40.282839836222081 0 0 0 0 -12.821963786618653 14.653995299622807 0 14.653995299622807 -11.625382489179174 0 0 0 0 -48.625169307171745 41.385736229326881 0 41.385736229326881 -30.588236890146618 0 0 0 0 124.3511765484036 -146.82800780531193 0 -146.82800780531193 -153.15838562250332 0 0 0 0 108.9697179305258 -71.594117268528862 0 -71.594117268528862 -32.751422121082214 0 0 0 0 -7.0686410064733032 -20.364581734087956 0 -20.364581734087956 -50.910270635556607 0 0 0 0 97.666703423458785 -57.079443325534385 0 -57.079443325534385 -45.582978757043747 0 0 0 0 168.94295457677799 -63.328680324657398 0 -63.328680324657398 -50.656940735376111 0 0 0 0 53.201525312477315 -145.94222484850025 0 -145.94222484850025 -22.144562332758142 0 0 0 0 168.16274615093062 -168.22151189027682 0 -168.22151189027682 -28.548503613430967 0 0 0 0 69.377189830946008 -121.85291955671482 0 -121.85291955671482 -6.337179229778485 0 0 0 0 34.176542902358051 -102.86909519391156 0 -102.86909519391156 -9.9992649689374957 0 0 0 0 6.1391632751656289 -35.539436800730527 0 -35.539436800730527 -226.09162883893805 0 0 0 0 -3.865481049515239 -0.32999576029130395 0 -0.32999576029130395 0.95695817050767218 0 0 0 0 49.726525794052577 -31.330228895948494 0 -31.330228895948494 -304.68499315077457 0 0 0 0 24.730417618440697 -19.39735835232932 0 -19.39735835232932 -261.46576053084982 0 0 0 0 23.089380282755883 -51.005122336821842 0 -51.005122336821842 -185.24949422644931 0 0 0 0 28.299290598952211 -52.034450220584404 0 -52.034450220584404 -218.74480467794547 0 0 0 0 47.835683358134702 -62.024255839054604 0 -62.024255839054604 -245.31859366225035 0 0 0 0 30.447666772059165 -44.557735941054489 0 -44.557735941054489 -219.46123479985181 0 0 0 0 43.208048165339278 -53.292997363128961 0 -53.292997363128961 -208.37021690790243 0 0 0 0 38.748150230007013 -66.284788993420079 0 -66.284788993420079 -215.31234366707213 0 0 0 0 10.654502406658139 -95.20069008635619 0 -95.20069008635619 -191.04585449692604 0 0 0 0 22.007869137974922 -106.44332941428729 0 -106.44332941428729 -301.23867225023241 0 0 0 0 43.107000209423859 -59.157750765483797 0 -59.157750765483797 -246.58441094234877 0 0 0 0 -13.878849789849482 -82.311329769003351 0 -82.311329769003351 -204.36777202920348 0 0 0 0 27.309174193884246 -63.548019721616583 0 -63.548019721616583 -200.97294727581402 0 0 0 0 45.498681193537777 -88.996943276895763 0 -88.996943276895763 -292.83538790413877 0 0 0 0 68.311804068580386 55.390708301101768 0 55.390708301101768 -201.33770947944322 0 0 0 0 -444.16171734110685 270.74525869588251 0 270.74525869588251 -84.631436556177505 0 0 0 0 -71.083941595978104 -136.82214609614675 0 -136.82214609614675 -254.49992428034238 0 0 0 0 38.076358899488696 -207.11042115880628 0 -207.11042115880628 72.834975251776086 0 0 0 0 -48.953253312653032 -162.05498665053074 0 -162.05498665053074 296.04607759301143 0 0 0 0 -97.214709185369429 -8.4648756847864206 0 -8.4648756847864206 36.716281882003386 0 0 0 0 -8.8177294282698071 -23.204127317472995 0 -23.204127317472995 14.274978199776786 0 0 0 0 -21.491132449213183 -134.92217009167143 0 -134.92217009167143 43.950416826176365 0 0 0 0 -84.422723331503221 -204.95708365562359 0 -204.95708365562359 399.1900199609172 0 0 0 0 -44.5631490651067 -44.797169622110232 0 -44.797169622110232 391.62717599891221 0 0 0 0 -4.0490313699220621 -3.7220520547876035 0 -3.7220520547876035 -1.9959364901530421 0 0 0 0 60.960421065476112 -70.465526777107698 0 -70.465526777107698 -22.299797733536252 0 0 0 0 -1.9960362891616299 -10.584369104477574 0 -10.584369104477574 -18.741888183530016 0 0 0 0 9.6899895408496377 3.2910282001148516 0 3.2910282001148516 7.2645323798496975 0 0 0 0 37.344400082969514 -78.690317300223569 0 -78.690317300223569 -20.177383296251719 0 0 0 0 -1.0952018177819696 -4.3302832674081486 0 -4.3302832674081486 -13.419462776384229 0 0 0 0 127.28287577131414 -36.414955482655614 0 -36.414955482655614 -54.95407135665755 0 0 0 0 -67.402325240567734 -139.14088242747584 0 -139.14088242747584 -153.81307819267749 0 0 0 0 94.287132444202143 20.219467796851859 0 20.219467796851859 -312.82019922706968 0 0 0 0 110.49484058871894 -6.7743988034662834 0 -6.7743988034662834 -67.931066222375193 0 0 0 0 -90.727282519022992 -23.261087471963947 0 -23.261087471963947 33.024843451642028 0 0 0 0 4.1374341868213378 -24.075077732954924 0 -24.075077732954924 -179.43736674814318 0 0 0 0 -12.247913042068831 -90.637985684354135 0 -90.637985684354135 -201.9196095659745 0 0 0 0 38.34989711518574 44.481037348971768 0 44.481037348971768 -442.98587348327646 0 0 0 0 19.917013240283268 -62.194658520377743 0 -62.194658520377743 -342.52827233979406 0 0 0 0 -17.754862549627433 69.6559314390488 0 69.6559314390488 -245.20574225733981 0 0 0 0 3.5096128288641921 -137.81190592746179 0 -137.81190592746179 -417.13889064376235 0 0 0 0 -2.0792876738874213 0.37669197944106969 0 0.37669197944106969 0.8936980402858552 0 0 0 0 -157.77496801501547 -254.953826952089 0 -254.953826952089 251.32101275347668 0 0 0 0 -155.35023137257303 -280.35434951934349 0 -280.35434951934349 181.95514377404106 0 0 0 0 -306.8570479222908 -22.485969277418917 0 -22.485969277418917 134.00506783257879 0 0 0 0 -420.27210301088053 -186.28940316136095 0 -186.28940316136095 376.03100937841373 0 0 0 0 -275.43336699683277 -163.31855826944502 0 -163.31855826944502 282.4974000984912 0 0 0 0 311.5751471605472 -291.62953734032271 0 -291.62953734032271 252.83164769550422 0 0 0 0 50.282392976630945 -16.142922973278019 0 -16.142922973278019 25.259098857332901 0 0 0 0 17.276178873609751 41.460249371179998 0 41.460249371179998 -37.766350256142232 0 0 0 0 -86.214257704130432 -123.1753270905092 0 -123.1753270905092 -17.43455734156305 0 0 0 0 1.7639128786977381 60.221738041154822 0 60.221738041154822 -19.357307961648985 0 0 0 0 -1.1530191981626814 -2.8249134469773054 0 -2.8249134469773054 -4.2649923267917593 0 0 0 0 28.016904051106394 -84.851632565233103 0 -84.851632565233103 -314.51099387196609 0 0 0 0 24.855222904312541 58.024386065126009 0 58.024386065126009 -111.28623748441623 0 0 0 0 11.581489555101143 -48.592219307235382 0 -48.592219307235382 -94.439355112556939 0 0 0 0 -594.20945395631134 -118.82003302931116 0 -118.82003302931116 332.1693324540347 0 0 0 0 217.50887614817475 -39.31996723160637 0 -39.31996723160637 -410.60946118852621 0 0 0 0 163.06407491878781 41.13972103710239 0 41.13972103710239 173.25455789517673 0 0 0 0 -286.42398910617339 -260.31172037562374 0 -260.31172037562374 548.16197106480104 0 0 0 0 -510.33444388781936 -308.73566096051945 0 -308.73566096051945 247.33973814460205 0 0 0 0 -134.99615823508793 -325.81113350669648 0 -325.81113350669648 -262.53046655160961 0 0 0 0 77.024526253488148 -85.007157995777561 0 -85.007157995777561 75.186354816216863 0 0 0 0 2.524120100885014 2.3564743810972963 0 2.3564743810972963 0.30120307058896856 0 0 0 0 216.80842850488125 -332.99858557398954 0 -332.99858557398954 246.49076952404084 0 0 0 0 3.8883310141827678 -57.368666889879023 0 -57.368666889879023 -39.707247644428207 0 0 0 0 -4.1114031369250625 -0.83811109257500505 0 -0.83811109257500505 1.4395738044606894 0 0 0 0 -27.74660591565771 28.779121406994818 0 28.779121406994818 -56.33885875505166 0 0 0 0 132.88143060074799 24.47814696486148 0 24.47814696486148 3.2462685936579874 0 0 0 0 -17.699589215591914 65.119125589276692 0 65.119125589276692 -132.9035706732393 0 0 0 0 50.916764683286601 -35.967493297330748 0 -35.967493297330748 -105.89751934185188 0 0 0 0 35.588552619235998 -35.206199639401348 0 -35.206199639401348 -164.60486877523726 0 0 0 0 18.760987013723934 -34.54379110901391 0 -34.54379110901391 -99.597401044557046 0 0 0 0 28.040307301678695 -66.391677019058989 0 -66.391677019058989 -171.49775126102395 0 0 0 0 36.629708642121841 -65.683077196096747 0 -65.683077196096747 -192.26947995540831 0 0 0 0 33.394500281945511 -48.264172915372455 0 -48.264172915372455 -190.43930238664689 0 0 0 0 20.200360828963312 -56.044573025796694 0 -56.044573025796694 -216.05674289829767 0 0 0 0 22.822225002440973 -23.247027943320063 0 -23.247027943320063 -255.96026384671859 0 0 0 0 22.268082418042468 -26.536213072016835 0 -26.536213072016835 -113.33563240106014 0 0 0 0 102.13521465167469 -39.084062553913327 0 -39.084062553913327 -107.68334823362056 0 0 0 0 15.803165452456597 -55.478892633846044 0 -55.478892633846044 56.39352127903112 0 0 0 0 20.047458009634283 -83.869361377743644 0 -83.869361377743644 -142.90877509979327 0 0 0 0 -3.8462829233685625 -71.120513972136905 0 -71.120513972136905 -70.440096544061817 0 0 0 0 29.072074511641404 -49.725767128387815 0 -49.725767128387815 -156.65277952204724 0 0 0 0 25.732969675285858 5.7338523380403785 0 5.7338523380403785 -49.625372839134798 0 0 0 0 3.8056462287495378 -16.813513233699268 0 -16.813513233699268 9.0066570681547091 0 0 0 0 -5.2394276210193027 -8.298542174984064 0 -8.298542174984064 -0.013698797561162657 0 0 0 0 15.766544606457344 -6.7595078816433833 0 -6.7595078816433833 -4.0650493952007061 0 0 0 0 75.051524461370718 -57.5717433705247 0 -57.5717433705247 14.356638060392811 0 0 0 0 -1.4783176587893898 -11.578932513399103 0 -11.578932513399103 1.723150370340889 0 0 0 0 8.0317545911530033 -18.816377026254486 0 -18.816377026254486 -10.891119448755489 0 0 0 0 8.0730948349664686 -19.365146761598226 0 -19.365146761598226 -12.809244815304055 0 0 0 0 -4.8564025595576368 -13.445392487992521 0 -13.445392487992521 -1.9847989231867289 0 0 0 0 2.9463533076119823 -24.660186344534296 0 -24.660186344534296 6.1841672919760331 0 0 0 0 10.275413621118361 -23.269313391072984 0 -23.269313391072984 -5.6637984715599154 0 0 0 0 -6.8580707165674539 -11.004776194645274 0 -11.004776194645274 -27.494188559041504 0 0 0 0 9.2732274488303119 -5.8619973616741916 0 -5.8619973616741916 -7.2163886977844927 0 0 0 0 -4.4300637221094803 -6.1477088438869032 0 -6.1477088438869032 -17.928021133328002 0 0 0 0 -7.9624706253525801 -9.4422410608140126 0 -9.4422410608140126 -14.019507998196787 0 0 0 0 -4.5651880943878496 -0.23391378596261347 0 -0.23391378596261347 9.5908924974792171 0 0 0 0 13.760738403630967 -12.498277893182603 0 -12.498277893182603 -15.734399780691092 0 0 0 0 -32.674028946552426 -17.485583989060615 0 -17.485583989060615 -15.548830329262273 0 0 0 0 -7.6584859348620071 -26.971534728070495 0 -26.971534728070495 -3.0300101977764804 0 0 0 0 -47.470070561103057 -10.695121877999554 0 -10.695121877999554 -2.0636991350202152 0 0 0 0 -53.737971967206249 4.5504176059894235 0 4.5504176059894235 -1.1262256895752216 0 0 0 0 -31.075088408586453 4.9497187409242542 0 4.9497187409242542 1.8207438934969105 0 0 0 0 -30.985199771123007 -10.990443063583371 0 -10.990443063583371 -30.876729927005726 0 0 0 0 -48.492216127619031 -35.42827920192758 0 -35.42827920192758 16.965627562284226 0 0 0 0 -49.864439719560323 -42.105789856045703 0 -42.105789856045703 -8.9848646300215478 0 0 0 0 -28.334016277534829 -1.7471244894863958 0 -1.7471244894863958 0.15379182137985481 0 0 0 0 -15.300391048884194 -16.860532461416369 0 -16.860532461416369 4.337396562408685 0 0 0 0 10.617884889819834 -29.020341768933577 0 -29.020341768933577 11.201660252657177 0 0 0 0 7.924952363326156 -23.558898995361687 0 -23.558898995361687 48.582986970721322 0 0 0 0 -6.0796061642831773 -7.1863534264280133 0 -7.1863534264280133 9.4362861302815872 0 0 0 0 66.625361314545444 -63.07250388241664 0 -63.07250388241664 48.415022615311727 0 0 0 0 -0.82547048128617462 -47.375104665431536 0 -47.375104665431536 39.037651942205684 0 0 0 0 3.396245573014312 -37.181255147513639 0 -37.181255147513639 60.588324790017396 0 0 0 0 47.984586324389966 -47.705374524661238 0 -47.705374524661238 36.426634659206684 0 0 0 0 -43.507103368174285 -29.922203917364641 0 -29.922203917364641 48.213946027267411 0 0 0 0 -47.721174190024612 19.820045521004431 0 19.820045521004431 10.221844634439549 0 0 0 0 -11.752788793201034 -18.007157234710803 0 -18.007157234710803 16.195472005063493 0 0 0 0 67.916721033303475 -118.97425780225922 0 -118.97425780225922 104.00044232899876 0 0 0 0 28.886386162790586 -63.221171530428364 0 -63.221171530428364 109.17027739030971 0 0 0 0 37.032504568793229 -34.652377979254197 0 -34.652377979254197 71.77829927313087 0 0 0 0 38.37907392107445 -46.642696799313399 0 -46.642696799313399 41.176358138618525 0 0 0 0 -1.5075432623878271 -1.2101057987104014 0 -1.2101057987104014 -0.53108004263197728 0 0 0 0 69.257458292373485 -124.58394530531132 0 -124.58394530531132 94.523260221165401 0 0 0 0 90.086274858836987 -91.768295185074294 0 -91.768295185074294 78.229682127555861 0 0 0 0 2.5600118013093436 -1.4399536627323286 0 -1.4399536627323286 0.99057363961325784 0 0 0 0 -4.9317539920011768 -15.589002022779823 0 -15.589002022779823 -33.783155911545691 0 0 0 0 13.933340927687823 -18.354515745213575 0 -18.354515745213575 -33.378905340331585 0 0 0 0 16.675153712774772 -78.735565908886656 0 -78.735565908886656 162.79924443645905 0 0 0 0 -19.171333792262885 -21.259138462170995 0 -21.259138462170995 75.002736896764844 0 0 0 0 -11.064317903423216 -16.198126562698235 0 -16.198126562698235 -33.641836536026858 0 0 0 0 22.048534090856265 2.7226436917949286 0 2.7226436917949286 -23.78972070078089 0 0 0 0 16.063244666249375 -24.628962336903896 0 -24.628962336903896 -35.732893165103633 0 0 0 0 5.7571697508828947 -9.0384348866627988 0 -9.0384348866627988 34.301935988289642 0 0 0 0 7.5808234246142661 -4.1364805760029952 0 -4.1364805760029952 0.75682656637560264 0 0 0 0 9.0944329292688053 -18.458017965083855 0 -18.458017965083855 -8.0670893077976871 0 0 0 0 -22.765816308488866 -14.596008804375742 0 -14.596008804375742 -35.287190016511886 0 0 0 0 -13.247068557739112 4.5644948860540353 0 4.5644948860540353 -84.84859630351275 0 0 0 0 -1.5981180846442271 -1.5550775907560954 0 -1.5550775907560954 0.12722191570478225 0 0 0 0 10.178410475840792 -23.63333038746805 0 -23.63333038746805 -84.165520332810047 0 0 0 0 -14.232485761865973 -63.909239566276483 0 -63.909239566276483 -59.003810335729213 0 0 0 0 -33.313755522030988 -45.596248801857655 0 -45.596248801857655 2.5363956891842463 0 0 0 0 -34.538402568607125 -30.513415831302154 0 -30.513415831302154 48.273473670109524 0 0 0 0 -11.830238676287991 -6.6606910777727535 0 -6.6606910777727535 18.009192255736707 0 0 0 0 -0.70398860570179522 0.39081502877248653 0 0.39081502877248653 0.037718467583982118 0 0 0 0 19.816393174100085 -47.828254335930978 0 -47.828254335930978 -204.43590073601217 0 0 0 0 13.023410916226567 -0.77290184247431171 0 -0.77290184247431171 -110.70912869742824 0 0 0 0 -2.7761890454858076 6.0283502733145724 0 6.0283502733145724 -23.064522039586791 0 0 0 0 -2.8670651251802468 -3.8892768495693133 0 -3.8892768495693133 11.214091852791157 0 0 0 0 -30.555517369422887 -64.902197852783502 0 -64.902197852783502 -11.693871162129653 0 0 0 0 -10.612893127414281 -59.351355938720189 0 -59.351355938720189 -61.557644398195407 0 0 0 0 -2.5942299499583896 -5.8545703093150223 0 -5.8545703093150223 -11.467943625559201 0 0 0 0 1.1689427065028895 -3.0545242631581857 0 -3.0545242631581857 -2.662721806441894 0 0 0 0 -59.909397000752506 -107.17466938049802 0 -107.17466938049802 -160.16757389765553 0 0 0 0 -1.3493420525817328 0.63605092405724406 0 0.63605092405724406 3.0226123365688178 0 0 0 0 -4.7043797413467132 -6.1456800544007422 0 -6.1456800544007422 10.137481162770166 0 0 0 0 -53.156158049037913 -99.504959155129654 0 -99.504959155129654 -175.75840707008319 0 0 0 0 -44.976972877047956 -104.83620145932582 0 -104.83620145932582 -66.795702587232881 0 0 0 0 -34.082909556396771 -38.519837039933918 0 -38.519837039933918 -86.099006081370135 0 0 0 0 -1.5579431310034124 -3.635164890996748 0 -3.635164890996748 -1.1356160412251484 0 0 0 0 -3.6981625364313402 -6.716388972195972 0 -6.716388972195972 5.0433245850117494 0 0 0 0 -1.4950312493019737 -9.9877612774826048 0 -9.9877612774826048 10.82686654632198 0 0 0 0 10.219188861199655 -6.223868107306771 0 -6.223868107306771 17.52966995413226 0 0 0 0 0.38009938315286718 -5.1415463950765243 0 -5.1415463950765243 4.3397220258462958 0 0 0 0 -0.58506999786550296 -9.3872654917745706 0 -9.3872654917745706 6.5908110120550418 0 0 0 0 -0.6563720731282956 -3.35515587263518 0 -3.35515587263518 9.5158349073092268 0 0 0 0 -0.39787897812493611 -7.3847439361428542 0 -7.3847439361428542 9.3109677661618093 0 0 0 0 -0.14191926084458828 -9.2195671273171911 0 -9.2195671273171911 5.6613465448826901 0 0 0 0 -2.7769420490249956 -4.9583678884698514 0 -4.9583678884698514 8.0751122773119377 0 0 0 0 -2.0568673977621543 -5.0059242205544052 0 -5.0059242205544052 3.7775154848870578 0 0 0 0 -1.6741915632446762 -2.4142618260411837 0 -2.4142618260411837 0.69777856489781698 0 0 0 0 -3.8590387494186871 -17.094127840771762 0 -17.094127840771762 -89.386370611806342 0 0 0 0 -1.2509330820814881 -3.0220271820034483 0 -3.0220271820034483 6.1932161282218505 0 0 0 0 -1.5025101905864702 -2.5489110685190752 0 -2.5489110685190752 7.5501729134632676 0 0 0 0 -41.97771224466851 -88.824941942932128 0 -88.824941942932128 -101.13269013493164 0 0 0 0 -110.66266664241994 -80.885961076553031 0 -80.885961076553031 58.64153712481675 0 0 0 0 -98.019722896002349 -65.985180237960776 0 -65.985180237960776 -20.288586661194131 0 0 0 0 -4.1700203453656286 -3.641752432508838 0 -3.641752432508838 4.9652050764307205 0 0 0 0 -0.65279328159709848 -1.5695152733880207 0 -1.5695152733880207 6.616375160268877 0 0 0 0 -106.03969846780819 -49.183779028717254 0 -49.183779028717254 131.10749961615761 0 0 0 0 116.62063328817021 -123.81759887625049 0 -123.81759887625049 31.891653831517033 0 0 0 0 -102.82751690132136 -107.81212355227944 0 -107.81212355227944 359.20703894135295 0 0 0 0 -12.86578638345236 -29.704914159297914 0 -29.704914159297914 -30.016360161785997 0 0 0 0 -52.474031224992359 -147.24782654924638 0 -147.24782654924638 120.75980860365689 0 0 0 0 -8.5190947086957749 -49.933417699750862 0 -49.933417699750862 -36.819353604663775 0 0 0 0 33.350759248569375 -24.45838878801078 0 -24.45838878801078 -61.413651674640278 0 0 0 0 1.3244891747599468 -40.488792985719556 0 -40.488792985719556 -48.267924754736669 0 0 0 0 2.3135165458324991 -59.530861719451536 0 -59.530861719451536 -93.475087240156427 0 0 0 0 -46.861859683704097 -109.30127226584955 0 -109.30127226584955 -167.20137255487862 0 0 0 0 -31.999408572679386 -34.07939934091155 0 -34.07939934091155 -47.519203014322557 0 0 0 0 -78.120243675934034 -82.282610639311315 0 -82.282610639311315 -74.790491569663573 0 0 0 0 -20.863076043373439 -46.673135652908968 0 -46.673135652908968 -99.635593791505016 0 0 0 0 -36.108256491483189 -47.216987880286979 0 -47.216987880286979 -108.00216130398439 0 0 0 0 -54.771932243180345 -116.25623150385036 0 -116.25623150385036 -151.52665741814417 0 0 0 0 33.27713335405133 -71.789389738683894 0 -71.789389738683894 -44.899633052795252 0 0 0 0 -52.85449295071885 -66.797835245713941 0 -66.797835245713941 -45.056408152686345 0 0 0 0 -1.593632078373048 -3.0424674744098006 0 -3.0424674744098006 5.521962609989302 0 0 0 0 -0.0029134500291547738 -4.71763138807205 0 -4.71763138807205 7.1487772523863669 0 0 0 0 0.53764294813755953 -2.7890588743356659 0 -2.7890588743356659 5.1618332649813983 0 0 0 0 -1.5318573070362618 -3.4473570173016697 0 -3.4473570173016697 9.8739606645151525 0 0 0 0 -2.1623498202230849 -2.5716957595183274 0 -2.5716957595183274 1.7646920550373659 0 0 0 0 -1.557421004450589 -4.2218675940848698 0 -4.2218675940848698 6.4370606781745323 0 0 0 0 -0.57567486089101294 0.24716958090448315 0 0.24716958090448315 8.1610114934687772 0 0 0 0 -1.6018506239306589 -4.6976939280691568 0 -4.6976939280691568 5.0605738058957286 0 0 0 0 0.00045046884042676538 -2.7953928817109954 0 -2.7953928817109954 1.9479207648619195 0 0 0 0 -0.49107814145099837 -0.27392562115619512 0 -0.27392562115619512 2.4865640529330904 0 0 0 0 -1.7934103515799507 -0.59522655348109765 0 -0.59522655348109765 3.0951588034117776 0 0 0 0 -0.41725990808481583 -2.4938275617791987 0 -2.4938275617791987 1.730789547594668 0 0 0 0 -0.0030472497381512837 -0.57644291141910697 0 -0.57644291141910697 -1.0758238537891884 0 0 0 0 0.54105079934674905 1.2950429781886328 0 1.2950429781886328 -0.45969460946604279 0 0 0 0 0.584353761826371 -0.99782959800964477 0 -0.99782959800964477 1.2931403108165398 0 0 0 0 -0.36267791438876884 5.4839942854973742 0 5.4839942854973742 9.9477659098301956 0 0 0 0 -1.3332062466506613 -0.50156234951919032 0 -0.50156234951919032 7.5763967902539662 0 0 0 0 -3.725320907033165 -1.3584662161595134 0 -1.3584662161595134 7.9126650044709095 0 0 0 0 -0.96301640458405302 0.71131387466830631 0 0.71131387466830631 9.7754267766187581 0 0 0 0 -1.8479970582143466 0.47611482405518757 0 0.47611482405518757 8.3757704682577199 0 0 0 0 -5.0361769400260528 12.589953744094828 0 12.589953744094828 17.056916504980109 0 0 0 0 -1.0273973994069223 -1.5685152289212994 0 -1.5685152289212994 4.9637398007707887 0 0 0 0 -19.970629291339719 -4.0225090692383674 0 -4.0225090692383674 10.766799166119881 0 0 0 0 1.18744247924311 -0.35958633603729595 0 -0.35958633603729595 2.9148014665528947 0 0 0 0 -10.018953221533593 13.592038580930193 0 13.592038580930193 31.098874709659867 0 0 0 0 16.094608887251525 -2.1163040461801756 0 -2.1163040461801756 11.596253496961253 0 0 0 0 39.305830982964835 -35.616996316258337 0 -35.616996316258337 38.394758815947625 0 0 0 0 -5.5914970926824026 15.15288372390296 0 15.15288372390296 60.096141476631146 0 0 0 0 1.7280618820892002 -1.3805546159706381 0 -1.3805546159706381 -0.98696793057928822 0 0 0 0 -107.84334406390553 -6.4432719207061382 0 -6.4432719207061382 8.5118544933611702 0 0 0 0 15.904086980590364 -189.89850073848902 0 -189.89850073848902 101.53058526031782 0 0 0 0 -8.0764083873723393 226.97094940469253 0 226.97094940469253 134.39728612871113 0 0 0 0 -62.216548424272332 -7.0712182027618837 0 -7.0712182027618837 -38.127626681995935 0 0 0 0 -77.448115974628308 11.823675781490238 0 11.823675781490238 3.7909541598073702 0 0 0 0 -75.704898515501554 16.293879737401767 0 16.293879737401767 13.417654268196202 0 0 0 0 -101.04206901434736 -61.594357460706306 0 -61.594357460706306 25.041098205065282 0 0 0 0 -65.867981333416537 26.839295376289556 0 26.839295376289556 20.886169371334631 0 0 0 0 -86.793280685407808 12.009368213555263 0 12.009368213555263 21.042344457639047 0 0 0 0 -71.670596868876601 26.285002552831429 0 26.285002552831429 9.6924035416141123 0 0 0 0 -69.697618236641574 7.0263117219537889 0 7.0263117219537889 11.714433785686992 0 0 0 0 -0.063741618659136634 2.6499457258928771 0 2.6499457258928771 10.108313591291701 0 0 0 0 -98.028642956793192 12.795776679216033 0 12.795776679216033 25.31579553528718 0 0 0 0 -98.78331532687298 14.559000908137932 0 14.559000908137932 21.395529450570734 0 0 0 0 -88.500756408328016 23.307063044218012 0 23.307063044218012 27.080282084346322 0 0 0 0 -107.3114871009675 15.467932371952884 0 15.467932371952884 26.35880627637016 0 0 0 0 -112.20239156346361 53.0583364241038 0 53.0583364241038 -7.0301090612392727 0 0 0 0 -139.31876131701574 29.069314636992203 0 29.069314636992203 35.352661355941109 0 0 0 0 2.1032703939708881 -51.226789829412155 0 -51.226789829412155 96.143762600002447 0 0 0 0 1.0928286175094399 -11.275620057318974 0 -11.275620057318974 91.167303487942263 0 0 0 0 -0.60447952612325651 1.4039269488551156 0 1.4039269488551156 6.0155282324066128 0 0 0 0 -8.0256236562918275 -57.380215007309062 0 -57.380215007309062 156.14797647581145 0 0 0 0 25.873579661347321 -104.29985014892372 0 -104.29985014892372 141.27739547283682 0 0 0 0 121.92951178182557 -104.76643428702755 0 -104.76643428702755 81.193428017807946 0 0 0 0 -98.76475725328055 70.202100197472646 0 70.202100197472646 8.2708282965068065 0 0 0 0 -314.89898640837055 208.7151427382687 0 208.7151427382687 68.400499517279059 0 0 0 0 -235.81082320379301 -45.296254789931709 0 -45.296254789931709 21.344667806120924 0 0 0 0 0.072508880224631866 -43.844172723349857 0 -43.844172723349857 95.509880158568194 0 0 0 0 36.376905473704937 10.17866464747604 0 10.17866464747604 -2.8220689028203196 0 0 0 0 82.649602865159977 -80.724452595000002 0 -80.724452595000002 28.211444812137415 0 0 0 0 12.081418675188615 -106.79355997299854 0 -106.79355997299854 260.22173570898303 0 0 0 0 46.28187644778518 32.407246961350211 0 32.407246961350211 -1.3569576666709509 0 0 0 0 -0.84212412546912674 13.29952914476462 0 13.29952914476462 -6.8651341687409513 0 0 0 0 1.1848361228013147 -1.4150060208830979 0 -1.4150060208830979 0.052459791434355196 0 0 0 0 15.392301256968494 43.896324824986095 0 43.896324824986095 158.84363468461743 0 0 0 0 47.681837973665097 -134.22677659547207 0 -134.22677659547207 212.5653825755362 0 0 0 0 -20.794914987622178 -52.11258891018997 0 -52.11258891018997 268.2964662890663 0 0 0 0 81.015416286481923 -65.383269508673038 0 -65.383269508673038 187.01155841564287 0 0 0 0 32.703116068878444 -38.693224148873924 0 -38.693224148873924 251.82536235704549 0 0 0 0 38.690587441662501 -97.427498986816772 0 -97.427498986816772 163.63585321002938 0 0 0 0 -0.011452416645624908 -74.315535601329884 0 -74.315535601329884 214.13415680186972 0 0 0 0 1.7124229303080938 -91.804625796346045 0 -91.804625796346045 187.58320597199304 0 0 0 0 14.44569241051795 -103.24156221361545 0 -103.24156221361545 189.53488503812878 0 0 0 0 43.424043258306483 -94.474237310397257 0 -94.474237310397257 120.60690306347533 0 0 0 0 35.007562447923192 -102.87475315917186 0 -102.87475315917186 126.87535945377931 0 0 0 0 0.087123435481771594 -114.76267446653856 0 -114.76267446653856 127.41236338665476 0 0 0 0 25.364561486419916 -84.395412561183093 0 -84.395412561183093 153.95310281001002 0 0 0 0 187.64354301786807 -244.21022200273637 0 -244.21022200273637 203.1688721352366 0 0 0 0 -1.0127804806968754 -0.1431881041979608 0 -0.1431881041979608 2.6571306550154077 0 0 0 0 -272.82761295117962 11.925281655473555 0 11.925281655473555 -92.892124056265857 0 0 0 0 33.474429372989107 -212.64226989383769 0 -212.64226989383769 307.69462017357205 0 0 0 0 11.687269014320918 -111.52424066489493 0 -111.52424066489493 208.21980640970014 0 0 0 0 35.734627212317719 -128.29522106529748 0 -128.29522106529748 198.4840852113266 0 0 0 0 43.993772393109793 -106.27202110826278 0 -106.27202110826278 195.08040291705402 0 0 0 0 46.505091675020594 -85.762792908043593 0 -85.762792908043593 44.117052151723328 0 0 0 0 -26.480363823517109 -19.459321533489856 0 -19.459321533489856 150.50411175361114 0 0 0 0 -35.528985124081373 -115.16593010080214 0 -115.16593010080214 289.2690970227336 0 0 0 0 4.6510472387417394 -37.498596931309294 0 -37.498596931309294 15.761857613111715 0 0 0 0 -119.62770058320893 -95.615089682821235 0 -95.615089682821235 194.58799999535404 0 0 0 0 -87.585541840468068 88.958096160902642 0 88.958096160902642 82.597220784287856 0 0 0 0 -250.45620676492035 93.078299776658696 0 93.078299776658696 170.74069062103081 0 0 0 0 8.7371835667145206 -24.489577465469665 0 -24.489577465469665 59.471673228824784 0 0 0 0 -92.17681961010021 -146.24529367363357 0 -146.24529367363357 1.0029410463394015 0 0 0 0 -47.857170145161945 -136.76601817535811 0 -136.76601817535811 -6.2223173073762155 0 0 0 0 12.449708469471801 -35.190966967547638 0 -35.190966967547638 53.235900301667947 0 0 0 0 -42.241571949211902 -100.69823172879978 0 -100.69823172879978 1.8886245955000049 0 0 0 0 13.325179248407949 -107.6808146135736 0 -107.6808146135736 -34.726444591393374 0 0 0 0 5.4114998389413813 -94.671083621255093 0 -94.671083621255093 -49.358093493661727 0 0 0 0 21.113393201660074 -145.56945295548576 0 -145.56945295548576 -0.94722117165656528 0 0 0 0 50.358916831894021 -122.44171243148139 0 -122.44171243148139 -15.377317906801181 0 0 0 0 31.341034190219943 -158.79008803604665 0 -158.79008803604665 -35.237837849781499 0 0 0 0 49.849461965430237 -82.32025718134355 0 -82.32025718134355 -106.49056769802701 0 0 0 0 40.118955442027072 -101.27881551163591 0 -101.27881551163591 -130.70996461447066 0 0 0 0 2.5854913989896886 -84.948641740320454 0 -84.948641740320454 -61.651180722627032 0 0 0 0 38.769509952760018 -106.81103748056057 0 -106.81103748056057 -49.933427810392459 0 0 0 0 11.195269757277856 -56.839092345833706 0 -56.839092345833706 29.659349657551502 0 0 0 0 -28.173782308091177 -27.929951978956524 0 -27.929951978956524 104.47962931348593 0 0 0 0 21.820399540127255 -47.428430727573868 0 -47.428430727573868 -107.17781674686103 0 0 0 0 -11.101911642384948 -9.6785096149251331 0 -9.6785096149251331 -5.1364640090178 0 0 0 0 -40.034090271641617 -59.52655816881952 0 -59.52655816881952 116.82859656832625 0 0 0 0 10.882101941198925 -101.8519407227177 0 -101.8519407227177 -47.929162085801181 0 0 0 0 15.884487245167591 -41.45766024891411 0 -41.45766024891411 48.99276556799272 0 0 0 0 -4.2018363128884459 -6.5929659750650558 0 -6.5929659750650558 2.0418343680268691 0 0 0 0 17.962520660970767 -21.32834567010832 0 -21.32834567010832 29.625518855568316 0 0 0 0 21.636533864002558 -85.816674634456831 0 -85.816674634456831 99.853621600064798 0 0 0 0 19.445702632503526 -17.578894466861129 0 -17.578894466861129 26.703510251073567 0 0 0 0 -5.4661181082742587 -3.0466116907304119 0 -3.0466116907304119 10.155715759455255 0 0 0 0 -3.9036916040058713 -21.237844466264505 0 -21.237844466264505 30.984667610657198 0 0 0 0 52.707785534876166 -30.369545189003475 0 -30.369545189003475 -30.010445603922108 0 0 0 0 2.9830177389201822 -2.7418469739673981 0 -2.7418469739673981 -8.8194401572982457 0 0 0 0 42.012741340411594 -58.723068074374169 0 -58.723068074374169 -24.319943746679201 0 0 0 0 64.368624102251488 -73.408768800305552 0 -73.408768800305552 -27.85593708197348 0 0 0 0 -33.348736072424799 -3.7893554344536824 0 -3.7893554344536824 -36.035996425205667 0 0 0 0 -2.7253376245207619 -15.229267631788389 0 -15.229267631788389 32.297896171687171 0 0 0 0 7.9132896293234296 -29.253392794472283 0 -29.253392794472283 25.69701634086492 0 0 0 0 3.7267257676425771 -36.88296022254687 0 -36.88296022254687 26.225569170005379 0 0 0 0 3.4846911582753677 -28.066040139027258 0 -28.066040139027258 -0.57675755571010967 0 0 0 0 29.798210031091003 -67.441257347579267 0 -67.441257347579267 140.31088474267381 0 0 0 0 20.955978945257812 -47.391160448075652 0 -47.391160448075652 194.27015856121579 0 0 0 0 12.896049754199339 -96.662511490648285 0 -96.662511490648285 146.83275663776476 0 0 0 0 16.382150450946938 -58.651362224319655 0 -58.651362224319655 43.800809547818062 0 0 0 0 29.520037722541019 -81.681203241617368 0 -81.681203241617368 19.79143406060939 0 0 0 0 28.067089052434312 -111.01012815472814 0 -111.01012815472814 91.705385235454742 0 0 0 0 23.238935677974951 -62.534395202411361 0 -62.534395202411361 19.273493995641729 0 0 0 0 9.0206893795693759 -8.4885301396534487 0 -8.4885301396534487 -27.32297904567713 0 0 0 0 17.968122424856119 -73.865000431699627 0 -73.865000431699627 106.23315066155192 0 0 0 0 -4.089916058541391 -2.6272861676536223 0 -2.6272861676536223 -2.2681634165211371 0 0 0 0 -16.189358164105215 -46.290915930012943 0 -46.290915930012943 22.732493418749073 0 0 0 0 -23.849167049462267 6.887147519755672 0 6.887147519755672 1.5142372963464368 0 0 0 0 -101.8166896285129 -28.663205499774222 0 -28.663205499774222 22.314069956535604 0 0 0 0 -58.471413556668267 -48.694367318644254 0 -48.694367318644254 -32.377013557181272 0 0 0 0 -2.3865937207770003 0.80295019588579208 0 0.80295019588579208 -1.4277600781781037 0 0 0 0 21.645347437843157 -17.810209665708271 0 -17.810209665708271 26.665728273206696 0 0 0 0 16.043043544224929 -1.0325663132198315 0 -1.0325663132198315 -14.495788144326525 0 0 0 0 210.05191991738502 414.04768394480925 0 414.04768394480925 568.34151924593061 0 0 0 0 -530.66011457730383 -331.65330535935448 0 -331.65330535935448 1620.2436123659486 0 0 0 0 48.505399576316904 -954.74978249237665 0 -954.74978249237665 781.57780652691099 0 0 0 0 -1.2054283184120447 -4.1464433287339517 0 -4.1464433287339517 15.714768385540449 0 0 0 0 619.40070804497736 -471.94295966501414 0 -471.94295966501414 341.97443788861847 0 0 0 0 137.2328466999752 233.95711521729481 0 233.95711521729481 599.80783741159121 0 0 0 0 -325.72080366367118 27.375413735661368 0 27.375413735661368 1492.6222173216938 0 0 0 0 -106.9452518799244 -112.9142656121212 0 -112.9142656121212 1360.2342762739756 0 0 0 0 14.81381357293867 -360.43756444684368 0 -360.43756444684368 672.1122745693151 0 0 0 0 239.9640350358859 -701.79226764081307 0 -701.79226764081307 1025.9980579538874 0 0 0 0 121.20525558302324 -365.49190561467594 0 -365.49190561467594 727.44073380932491 0 0 0 0 5.9162421005639771 -405.90039043402885 0 -405.90039043402885 714.43180733881786 0 0 0 0 114.1430084230733 -254.01729379225088 0 -254.01729379225088 566.88421855402885 0 0 0 0 23.740685907447187 -184.17689329811503 0 -184.17689329811503 515.66952737911151 0 0 0 0 102.7716872800338 -26.952390114529408 0 -26.952390114529408 555.16773784632289 0 0 0 0 166.14814639995529 -61.734748758676233 0 -61.734748758676233 69.651457001951712 0 0 0 0 227.18507610527558 -132.273463754771 0 -132.273463754771 98.749044662367396 0 0 0 0 177.26059314055237 -121.13046015986833 0 -121.13046015986833 -3.2273535507611086 0 0 0 0 123.32883791107088 -220.08949462780492 0 -220.08949462780492 -85.879068194396154 0 0 0 0 309.30863319557557 -127.85614798343249 0 -127.85614798343249 -67.664829515570091 0 0 0 0 64.463823238716941 -354.3972215301153 0 -354.3972215301153 -249.54576760513237 0 0 0 0 346.82225644075515 67.691452055649734 0 67.691452055649734 -214.14765092269727 0 0 0 0 -6.0170405254470936 -4.0565461936887894 0 -4.0565461936887894 -2.524796047071491 0 0 0 0 15.934277163372826 -540.65823508540984 0 -540.65823508540984 -403.68765700683639 0 0 0 0 -184.53012712753298 -77.383962565084971 0 -77.383962565084971 199.38668710496677 0 0 0 0 -321.3147227765694 -305.83580880326917 0 -305.83580880326917 60.934596461695946 0 0 0 0 -32.311814344950108 -186.42855724874789 0 -186.42855724874789 70.82342069383941 0 0 0 0 33.943371701952856 -64.119215388274824 0 -64.119215388274824 77.161529433863961 0 0 0 0 25.909082403579305 -91.643750420120796 0 -91.643750420120796 95.953808142115122 0 0 0 0 -15.991358657087886 -14.024037905553449 0 -14.024037905553449 -0.68757126501040844 0 0 0 0 2.1600167946621553 -1.0400325587286021 0 -1.0400325587286021 0.81811416392717007 0 0 0 0 59.645591023124098 -131.83302356514031 0 -131.83302356514031 -82.153358982020109 0 0 0 0 -191.80074176544349 -42.180155278154643 0 -42.180155278154643 29.100390327271498 0 0 0 0 -56.083557107680463 -228.56163507596693 0 -228.56163507596693 -209.56132027814419 0 0 0 0 118.86555477970614 -206.28586625299158 0 -206.28586625299158 -694.96271509104054 0 0 0 0 230.10376036020307 -403.25453008743187 0 -403.25453008743187 568.1191078492302 0 0 0 0 110.63859648954895 -335.56178129269779 0 -335.56178129269779 534.02715032453318 0 0 0 0 34.361673554659774 -50.200148485735554 0 -50.200148485735554 41.778813230368769 0 0 0 0 -19.60471565294938 9.0686306788734328 0 9.0686306788734328 98.058456544367573 0 0 0 0 1.950849118436214 2.2183884286349458 0 2.2183884286349458 18.760628453592012 0 0 0 0 12.094677942748872 -21.738370137812691 0 -21.738370137812691 -6.6575145875917041 0 0 0 0 -24.004125781526703 -14.544694859668704 0 -14.544694859668704 25.828970321848086 0 0 0 0 318.87045820879837 -420.93786577876773 0 -420.93786577876773 545.95537983527959 0 0 0 0 437.08604276560197 -382.8478313125475 0 -382.8478313125475 550.60118742561451 0 0 0 0 315.91343907333902 -465.02542401579228 0 -465.02542401579228 538.99031829503861 0 0 0 0 200.64074103292023 -412.61610989808821 0 -412.61610989808821 560.95073077726181 0 0 0 0 347.29057304248283 -491.72451227357351 0 -491.72451227357351 593.36049381130397 0 0 0 0 206.45803610316364 -401.03123419609744 0 -401.03123419609744 473.81092660233645 0 0 0 0 194.45858001108036 -309.17026554202999 0 -309.17026554202999 442.27518864093349 0 0 0 0 -84.976519730520522 -113.34453418711973 0 -113.34453418711973 588.74864603430251 0 0 0 0 165.53255438580373 -319.83611914478297 0 -319.83611914478297 703.75869196969825 0 0 0 0 269.05380383581974 -481.29159357158619 0 -481.29159357158619 734.81251206411389 0 0 0 0 196.64858420608402 -277.31595361640848 0 -277.31595361640848 625.57218057431464 0 0 0 0 904.18893124609212 -694.27911499263246 0 -694.27911499263246 656.11584190408416 0 0 0 0 216.98872306838439 -455.71853675229147 0 -455.71853675229147 901.46298804241178 0 0 0 0 213.58176225689135 -377.48678661794804 0 -377.48678661794804 591.32302602841355 0 0 0 0 109.74518571574896 -132.1604418036498 0 -132.1604418036498 623.56963982831803 0 0 0 0 -97.394466485915927 65.017663222029569 0 65.017663222029569 389.81274147276832 0 0 0 0 -17.891649835020871 -167.62831136597106 0 -167.62831136597106 588.30117991313307 0 0 0 0 -151.51400105534367 -277.14763905245582 0 -277.14763905245582 498.82066896722336 0 0 0 0 169.24158354030803 -99.890836118578818 0 -99.890836118578818 326.53743274523822 0 0 0 0 210.3276749908357 -201.68080019354556 0 -201.68080019354556 371.16138675739808 0 0 0 0 11.459172996201048 1.2113963653126918 0 1.2113963653126918 -4.269384198454139 0 0 0 0 194.38060690940529 33.621541194079327 0 33.621541194079327 52.986016261570057 0 0 0 0 -92.743369904817882 -47.125040112493934 0 -47.125040112493934 70.941499850493528 0 0 0 0 138.83000190357404 -408.44291088480611 0 -408.44291088480611 143.98380787580754 0 0 0 0 103.33010219518883 -390.48754184683276 0 -390.48754184683276 547.91057070521038 0 0 0 0 255.46362893744572 -223.22463439565786 0 -223.22463439565786 -3.2136234963086281 0 0 0 0 88.306069374578669 -41.145840901298854 0 -41.145840901298854 -78.772529362993737 0 0 0 0 1.714677855466836 -1.5923195202107729 0 -1.5923195202107729 -2.1659428264446099 0 0 0 0 -535.35394348366572 -269.55902146120945 0 -269.55902146120945 1038.1297420807166 0 0 0 0 -444.38926749426173 -480.45320039768927 0 -480.45320039768927 1167.9646608318535 0 0 0 0 -0.22715155791019015 -718.58383197564831 0 -718.58383197564831 238.68022518701491 0 0 0 0 -644.63412330602023 96.134689835285485 0 96.134689835285485 302.74838313434486 0 0 0 0 772.20581260468214 -1217.2833214347677 0 -1217.2833214347677 1133.0459080158469 0 0 0 0 2.3939876637494653 2.1563962338233069 0 2.1563962338233069 3.1274591563327281 0 0 0 0 105.4654253422068 -788.60798709690312 0 -788.60798709690312 1635.1098041077105 0 0 0 0 506.57349967531445 -640.13218814024822 0 -640.13218814024822 825.79375905095594 0 0 0 0 69.311147282493039 -198.18451050863462 0 -198.18451050863462 846.09422043388167 0 0 0 0 6.0448665840549438 -260.23252803980063 0 -260.23252803980063 1388.3626350569862 0 0 0 0 136.87386695020177 -271.76515934055851 0 -271.76515934055851 1002.8017966358038 0 0 0 0 214.49072660880574 -462.7289820918254 0 -462.7289820918254 771.87609988465374 0 0 0 0 72.500891193673851 -326.72699489981824 0 -326.72699489981824 274.80076668955098 0 0 0 0 233.15775427389963 -282.41963653204152 0 -282.41963653204152 458.07587957226315 0 0 0 0 274.1258689190272 -193.76670633894923 0 -193.76670633894923 354.90175229433407 0 0 0 0 149.82717273035178 -328.03331940557166 0 -328.03331940557166 677.04372276087724 0 0 0 0 181.82398658345664 -178.24273525474291 0 -178.24273525474291 594.10620160196731 0 0 0 0 -139.13687778259191 -238.01674968129828 0 -238.01674968129828 573.74522240281567 0 0 0 0 11.617552294897905 -149.33116952045748 0 -149.33116952045748 588.2042176036116 0 0 0 0 -119.9846688194948 -399.36613011846163 0 -399.36613011846163 1178.1265304566173 0 0 0 0 -333.4181006523886 -63.968170873964937 0 -63.968170873964937 759.02359735785785 0 0 0 0 86.17536115321127 -320.38768479589453 0 -320.38768479589453 -209.49573391020203 0 0 0 0 13.071892921962853 -37.016778424560762 0 -37.016778424560762 4.2308847385137982 0 0 0 0 82.227782106523591 -98.427893392980423 0 -98.427893392980423 -475.89861629697589 0 0 0 0 -346.0943773363033 -4.0469722514426394 0 -4.0469722514426394 401.24924213620579 0 0 0 0 -182.74616872114348 -101.08469654188366 0 -101.08469654188366 -150.29023528884773 0 0 0 0 -1.5087255545147045 -5.9095033088081692 0 -5.9095033088081692 11.513082972922643 0 0 0 0 240.85940335450505 -342.70734468468345 0 -342.70734468468345 -14.863254866409989 0 0 0 0 276.28485009219366 -372.29321495519252 0 -372.29321495519252 -730.90479597200829 0 0 0 0 252.5160125409634 -446.92966544298929 0 -446.92966544298929 -316.34892669313558 0 0 0 0 -61.047029647042109 -19.534291299668439 0 -19.534291299668439 356.59907842159555 0 0 0 0 16.328341684096813 65.71835294549328 0 65.71835294549328 -95.089826530062055 0 0 0 0 124.13205914029822 -147.12606931405844 0 -147.12606931405844 239.81838380187037 0 0 0 0 9.5266137391990924 163.26966865346549 0 163.26966865346549 -450.91161402525404 0 0 0 0 -61.456473080965225 119.42100347325686 0 119.42100347325686 -331.29149673561733 0 0 0 0 4.874241121773002 -1.5108745221243769 0 -1.5108745221243769 -1.8530128632457243 0 0 0 0 64.745102730760664 44.712469739070002 0 44.712469739070002 -445.75878592253321 0 0 0 0 226.06297974666086 -155.39763892501742 0 -155.39763892501742 256.93790990987691 0 0 0 0 69.565804937912617 -33.406000325417153 0 -33.406000325417153 -406.8824231718263 0 0 0 0 18.402468583750789 -35.527028805681809 0 -35.527028805681809 3.4712153566808013 0 0 0 0 238.92049328843495 -230.24121944099988 0 -230.24121944099988 164.65018874360794 0 0 0 0 214.29088734608376 -145.99084821588076 0 -145.99084821588076 360.0110294993201 0 0 0 0 141.12122712369955 -95.490351241282269 0 -95.490351241282269 216.48364414648313 0 0 0 0 248.34409829143488 -191.80990333404725 0 -191.80990333404725 178.41700697988927 0 0 0 0 9.6197620294697117 -56.196819192979092 0 -56.196819192979092 44.99458051865804 0 0 0 0 21.027459566139441 -66.547837860352956 0 -66.547837860352956 -21.35498864120018 0 0 0 0 -25.295846132452425 -62.433043671719133 0 -62.433043671719133 65.702184207584651 0 0 0 0 -94.151551235923762 -61.973633570209131 0 -61.973633570209131 81.321623800376983 0 0 0 0 -73.879059891854922 -132.37441139082148 0 -132.37441139082148 -3.2003475552119198 0 0 0 0 77.413348552974639 -57.012642919151403 0 -57.012642919151403 -21.520668031324988 0 0 0 0 30.46579456148811 -126.59289251978589 0 -126.59289251978589 -111.47496774107276 0 0 0 0 2.3236443092706498 -3.2916547367473861 0 -3.2916547367473861 -7.2149508335652683 0 0 0 0 65.50653449831043 -34.620474165023552 0 -34.620474165023552 -12.31681283603757 0 0 0 0 112.46915649573339 -27.576449565676739 0 -27.576449565676739 -43.221795320479941 0 0 0 0 0.022370795554707001 -75.010712321450228 0 -75.010712321450228 -247.32620537263483 0 0 0 0 -1.2055349201057926 -5.5569935409873707 0 -5.5569935409873707 8.5415942492118635 0 0 0 0 -17.799463266027033 -59.200392031595129 0 -59.200392031595129 -159.20139719244253 0 0 0 0 4.4115992782008107 2.4989726067274205 0 2.4989726067274205 -200.28941929356915 0 0 0 0 -28.283745216218449 3.9222517641237573 0 3.9222517641237573 -95.537073479175888 0 0 0 0 9.2482337903693406 -70.902627166725324 0 -70.902627166725324 -252.71605646853823 0 0 0 0 -40.305042484571459 -158.57503138542052 0 -158.57503138542052 -331.96999669649972 0 0 0 0 40.638510982264052 10.8047661341393 0 10.8047661341393 -714.84436468096465 0 0 0 0 -26.734307641778287 -198.84239257134413 0 -198.84239257134413 -525.12326702400424 0 0 0 0 41.472236274450552 68.86139226317573 0 68.86139226317573 -336.94829046297082 0 0 0 0 -237.3699898182449 159.31563103265216 0 159.31563103265216 116.64610123925104 0 0 0 0 7.0468254837492168 2.5297026970911247 0 2.5297026970911247 -218.05559165236991 0 0 0 0 -285.42709580732298 550.27449400101068 0 550.27449400101068 -295.45817255602196 0 0 0 0 205.66636493683109 -96.679905340721234 0 -96.679905340721234 -630.08149543738909 0 0 0 0 257.294595631839 -14.516941534623584 0 -14.516941534623584 -780.64689962768534 0 0 0 0 -10.916290590195786 126.81607614484528 0 126.81607614484528 -494.17720784448738 0 0 0 0 -190.41438229654523 330.85039684320236 0 330.85039684320236 -723.48950068659065 0 0 0 0 6.7942337869305947 -9.9131746536353624 0 -9.9131746536353624 -5.4703880206920701 0 0 0 0 5.0005925147008838 -44.933742815890128 0 -44.933742815890128 92.568743268257094 0 0 0 0 3.5923876887998101 -24.691915142304396 0 -24.691915142304396 54.017762594679908 0 0 0 0 46.002737440087003 -29.40260049335393 0 -29.40260049335393 33.110875343936641 0 0 0 0 17.319051866343216 -63.872399363364821 0 -63.872399363364821 43.017209482746694 0 0 0 0 -48.175025108979753 -24.525536194787492 0 -24.525536194787492 75.069243469677531 0 0 0 0 -32.014056377614907 -74.683578288721037 0 -74.683578288721037 46.382363257223915 0 0 0 0 4.7908101880948379 -13.259221854159932 0 -13.259221854159932 58.473978345824435 0 0 0 0 8.4636486732442791 -43.110494511386605 0 -43.110494511386605 91.534640223771021 0 0 0 0 10.403536916202741 -23.13840293367311 0 -23.13840293367311 -5.7969242912152064 0 0 0 0 27.421765316293204 -11.534105993898265 0 -11.534105993898265 -5.0811670097691604 0 0 0 0 8.4146323377844965 -44.826592332136897 0 -44.826592332136897 91.217301706178603 0 0 0 0 12.88725656819679 -33.177278945031958 0 -33.177278945031958 7.2543635585134325 0 0 0 0 14.237811553590291 -42.378043801556032 0 -42.378043801556032 90.929053517302236 0 0 0 0 41.023723483051981 -21.679089873441171 0 -21.679089873441171 10.360367113404209 0 0 0 0 35.013857802325219 -31.893222352384555 0 -31.893222352384555 9.4740781812397472 0 0 0 0 43.976491701330815 -18.207391307983016 0 -18.207391307983016 -2.3929671828564096 0 0 0 0 -224.40615027591639 -211.6680493304184 0 -211.6680493304184 1.6607934730864145 0 0 0 0 2.6646699587215794 -5.3572036799804437 0 -5.3572036799804437 10.048044894597531 0 0 0 0 -72.962374001879652 -104.25125582802957 0 -104.25125582802957 -172.23200670551159 0 0 0 0 2.8624168306450599 -6.5022749179677337 0 -6.5022749179677337 6.879248685330996 0 0 0 0 92.847702754137572 -244.54386278313541 0 -244.54386278313541 -133.78540025036364 0 0 0 0 45.460782112658762 -14.95469324843998 0 -14.95469324843998 19.970074493059656 0 0 0 0 156.12388170638951 7.7294922351766218 0 7.7294922351766218 24.61017181144075 0 0 0 0 70.169478012326181 -33.764589180889743 0 -33.764589180889743 9.5414523670951894 0 0 0 0 98.14498187544541 -56.007609254223098 0 -56.007609254223098 -59.181819630681275 0 0 0 0 77.45890718442206 -42.343733720912496 0 -42.343733720912496 -13.816726171715345 0 0 0 0 99.070817077124957 -46.280506397355566 0 -46.280506397355566 -124.55599529977076 0 0 0 0 -82.725516619521386 -82.274485481276315 0 -82.274485481276315 -38.327540469043015 0 0 0 0 81.694419012112121 -16.763393680508671 0 -16.763393680508671 47.676066137668386 0 0 0 0 151.18553097490803 -107.74622354171333 0 -107.74622354171333 -67.859980932729741 0 0 0 0 334.55670898862809 14.767530333053401 0 14.767530333053401 -17.511170581405167 0 0 0 0 -0.8014518528273058 1.2787691033823201 0 1.2787691033823201 -1.0077563387995703 0 0 0 0 -372.07185292484883 -326.57609184725288 0 -326.57609184725288 -56.69650594902032 0 0 0 0 151.39836152205135 61.262962447593964 0 61.262962447593964 3.2677949475328205 0 0 0 0 -268.47781689262229 -171.7343919129089 0 -171.7343919129089 -84.443711518782948 0 0 0 0 -41.251454777131585 -238.37409647662298 0 -238.37409647662298 -140.49250990241489 0 0 0 0 -57.413868644351169 -233.51872634941901 0 -233.51872634941901 -140.83351052020259 0 0 0 0 -75.687650259629663 -198.80738734781789 0 -198.80738734781789 -185.95351931709956 0 0 0 0 -14.626383876318869 -168.36549939285032 0 -168.36549939285032 -187.81870248445557 0 0 0 0 -82.013116073345373 -132.81382379682736 0 -132.81382379682736 -109.08912133741887 0 0 0 0 -64.961077997189932 -114.48356395249812 0 -114.48356395249812 -134.60603315762273 0 0 0 0 4.9234894529068711 -13.318877876198941 0 -13.318877876198941 -2.7695771960905278 0 0 0 0 -48.566545193913043 -78.145273850419471 0 -78.145273850419471 -68.670365841713647 0 0 0 0 27.636808987517725 -64.671671284936565 0 -64.671671284936565 -196.02393570456132 0 0 0 0 -150.20445485277378 -306.05751934029718 0 -306.05751934029718 698.42057492625963 0 0 0 0 441.74810427671036 -167.96754324392157 0 -167.96754324392157 27.038544235751488 0 0 0 0 -3.2132519268150119 -7.2090257497188608 0 -7.2090257497188608 5.9998206317158926 0 0 0 0 1.5281731702270918 -14.556233399720441 0 -14.556233399720441 16.039361333277157 0 0 0 0 -50.51969414519408 46.900411125394385 0 46.900411125394385 -27.488736786497611 0 0 0 0 2.2678694032308382 -38.11952180370286 0 -38.11952180370286 20.207768993450305 0 0 0 0 123.38751734864218 -243.44893305863332 0 -243.44893305863332 905.09505092704603 0 0 0 0 89.157784188999358 -407.06179240982806 0 -407.06179240982806 889.08866690967488 0 0 0 0 102.26312076973318 -398.89663099755717 0 -398.89663099755717 695.82388602560968 0 0 0 0 -7.6164028547191265 -428.85166691489644 0 -428.85166691489644 624.65672091912984 0 0 0 0 48.703812104889948 -322.82818562977263 0 -322.82818562977263 773.97106383323899 0 0 0 0 25.836538641660809 -97.356457760425656 0 -97.356457760425656 -347.99875956552933 0 0 0 0 92.559849214725546 -278.48096664078548 0 -278.48096664078548 761.2283207825401 0 0 0 0 97.461028479738161 -317.29509684301092 0 -317.29509684301092 735.57987512095042 0 0 0 0 2.4322570070111666 -14.072149785481404 0 -14.072149785481404 -2.6631413423485446 0 0 0 0 0.11918218459612717 0.069760283380090105 0 0.069760283380090105 -5.8237115551541665 0 0 0 0 28.285226778453875 -87.276838432778391 0 -87.276838432778391 -327.81956741979593 0 0 0 0 -9.8734773854048399 -107.34918402709263 0 -107.34918402709263 -322.22381834914904 0 0 0 0 2.2970565000515535 -10.649562160390698 0 -10.649562160390698 -3.3728524153010504 0 0 0 0 -8.672160019277726 -99.878437849531565 0 -99.878437849531565 -371.81962218384797 0 0 0 0 54.249921568165519 -94.947336915730602 0 -94.947336915730602 -807.73500623705331 0 0 0 0 86.996915217987407 -473.19958753232277 0 -473.19958753232277 1264.9667756305714 0 0 0 0 2.3503871767024975 -296.65302977302144 0 -296.65302977302144 -370.62627219650881 0 0 0 0 22.878186386347807 -129.39663245330848 0 -129.39663245330848 -418.57796006516674 0 0 0 0 -17.538120675482787 -236.83446905452547 0 -236.83446905452547 -239.3049884105676 0 0 0 0 20.777265032556897 -160.7211898600508 0 -160.7211898600508 -247.15758308623117 0 0 0 0 2.3388386455426371 -185.2946662055615 0 -185.2946662055615 -273.90610559407833 0 0 0 0 21.932012278335606 -147.04536729978099 0 -147.04536729978099 -373.14177824328726 0 0 0 0 -20.319234898164723 -247.57739093931855 0 -247.57739093931855 -168.72777779932039 0 0 0 0 -19.225497121668013 -275.61560980125842 0 -275.61560980125842 -160.43790824792086 0 0 0 0 8.4601391369506018 -261.78454081281507 0 -261.78454081281507 -185.9440587197941 0 0 0 0 -57.888281622020259 -266.61248367958137 0 -266.61248367958137 -185.47185859904221 0 0 0 0 4.7568663462116092 -141.50332982086638 0 -141.50332982086638 35.048820925918335 0 0 0 0 -153.5097428168956 -204.14978568530478 0 -204.14978568530478 -182.82267707156643 0 0 0 0 -46.726682336524391 -191.6231229964651 0 -191.6231229964651 -537.79828922014201 0 0 0 0 14.936753430469253 -338.64209521830981 0 -338.64209521830981 -545.54790599739681 0 0 0 0 272.07465606130609 -577.9226839398475 0 -577.9226839398475 -952.15026159095532 0 0 0 0 197.66185204557405 -601.21485981204114 0 -601.21485981204114 88.02567354626899 0 0 0 0 102.91978912046397 -317.01849216176743 0 -317.01849216176743 -133.15724922586151 0 0 0 0 120.51735148785701 -159.77024452303812 0 -159.77024452303812 43.696840918737507 0 0 0 0 407.94735815407694 -220.54691995968187 0 -220.54691995968187 31.013082788900647 0 0 0 0 407.56782736983223 -197.41261932406542 0 -197.41261932406542 153.8302964705656 0 0 0 0 707.37898906863143 -453.05932063198918 0 -453.05932063198918 385.21575544379084 0 0 0 0 745.54741551699772 -215.44868915129246 0 -215.44868915129246 217.85854968170497 0 0 0 0 713.53239955570825 -429.86949366223143 0 -429.86949366223143 37.925234273358456 0 0 0 0 1004.5093844903722 -652.27638153942098 0 -652.27638153942098 124.08586014683351 0 0 0 0 897.17554298442883 -430.60101817661734 0 -430.60101817661734 -23.11398652153639 0 0 0 0 -5.9301825791019347 -8.3842180641076851 0 -8.3842180641076851 4.8545262461642196 0 0 0 0 497.4366125358647 -432.96293710043119 0 -432.96293710043119 190.1115033551705 0 0 0 0 496.62155976036956 -410.31338211166258 0 -410.31338211166258 -281.75196974036089 0 0 0 0 483.79974025574387 -486.05285829439003 0 -486.05285829439003 239.92072450183423 0 0 0 0 483.81001199740001 -566.79824404485066 0 -566.79824404485066 12.643183559690442 0 0 0 0 -9.803985056269056 -13.745593076967747 0 -13.745593076967747 -0.28903007222474031 0 0 0 0 -0.52725471713529259 -181.65045227720441 0 -181.65045227720441 -43.326934537998568 0 0 0 0 221.36421575324857 -395.67890256709393 0 -395.67890256709393 373.56336494673201 0 0 0 0 264.8726699159979 -499.22364389135237 0 -499.22364389135237 589.80614728616661 0 0 0 0 526.38589724948179 -358.31071899948927 0 -358.31071899948927 272.33554434535426 0 0 0 0 349.66048269925886 -377.69795137209348 0 -377.69795137209348 938.05811860381732 0 0 0 0 137.54841692791888 -484.03604389983593 0 -484.03604389983593 932.98388886227087 0 0 0 0 312.01688615929015 -419.4318939887562 0 -419.4318939887562 599.44958253126651 0 0 0 0 519.22656722369356 -793.55855180795379 0 -793.55855180795379 437.28486063996843 0 0 0 0 1.0138939537349785 -4.0676819095033663 0 -4.0676819095033663 -1.0714677539565773 0 0 0 0 166.96142954095831 50.472425842160646 0 50.472425842160646 -1670.9905136041198 0 0 0 0 232.8809542177878 -917.85430293401441 0 -917.85430293401441 1911.5197539950304 0 0 0 0 72.804926758235524 -180.15227897207615 0 -180.15227897207615 27.51531593092659 0 0 0 0 -1.3008616106817499 -139.38805220969971 0 -139.38805220969971 26.8639614822509 0 0 0 0 10.0499205680062 -239.9043238245622 0 -239.9043238245622 5.0938860586620649 0 0 0 0 30.193200386762328 -220.41847806615715 0 -220.41847806615715 11.161013973707895 0 0 0 0 -50.581856632465133 -232.19553732053464 0 -232.19553732053464 167.88160160087136 0 0 0 0 -228.33795462786657 64.324439568918933 0 64.324439568918933 828.07257806016059 0 0 0 0 -5.9097089526912896 -120.53957703737706 0 -120.53957703737706 120.11655416831172 0 0 0 0 -91.214829011033885 -50.177261137749952 0 -50.177261137749952 -395.74900164531391 0 0 0 0 -112.65780561746578 -344.89868840357485 0 -344.89868840357485 23.382652177971977 0 0 0 0 29.01446168502298 -232.37280385349823 0 -232.37280385349823 -109.63712321242292 0 0 0 0 -178.40958815062186 275.50864270115835 0 275.50864270115835 1163.3547742016599 0 0 0 0 -240.4837766038836 -852.71759542750533 0 -852.71759542750533 237.00791385301727 0 0 0 0 98.228549605018088 69.730425443995045 0 69.730425443995045 -89.570516464798857 0 0 0 0 135.26095002615511 43.91548631755677 0 43.91548631755677 -261.69267934113122 0 0 0 0 81.062840867074556 -115.14934902645518 0 -115.14934902645518 -253.48457032566199 0 0 0 0 7.6740470447202824 -79.030786758949944 0 -79.030786758949944 -53.687636769352139 0 0 0 0 69.508808518655997 -69.763198117147965 0 -69.763198117147965 -95.559520042076656 0 0 0 0 6.9435276688051175 -4.4829470072934043 0 -4.4829470072934043 2.9563678096529777 0 0 0 0 -21.253400528301427 -109.22459997475198 0 -109.22459997475198 51.092555073308176 0 0 0 0 -0.068902795122994576 -147.5323334826453 0 -147.5323334826453 44.358232911708001 0 0 0 0 13.617755788593058 -87.297420398771919 0 -87.297420398771919 -98.044334621882626 0 0 0 0 21.050777546184676 -12.781851959925291 0 -12.781851959925291 10.849811832969099 0 0 0 0 -12.264064354647417 -48.122461228507746 0 -48.122461228507746 -63.425305057522564 0 0 0 0 -6.2975264040469483 -64.037558725019323 0 -64.037558725019323 -13.089866067264666 0 0 0 0 34.052944921662856 -90.842330084285436 0 -90.842330084285436 -0.79319888807594907 0 0 0 0 -12.156287104826845 -52.49060891383197 0 -52.49060891383197 -61.829080975943725 0 0 0 0 -9.561305987972446 -100.64991777182559 0 -100.64991777182559 -54.394165153554013 0 0 0 0 15.653115529828938 -74.351228741532736 0 -74.351228741532736 -48.161265090341089 0 0 0 0 1.5174481098010801 -62.580058640057757 0 -62.580058640057757 -15.599875817811153 0 0 0 0 25.253792916617385 -54.942574344865079 0 -54.942574344865079 -16.407690833700201 0 0 0 0 9.895357077170047 -70.089878212214671 0 -70.089878212214671 -59.31738829301139 0 0 0 0 -1.7770651919945522 -69.655018315725485 0 -69.655018315725485 -1.7221863326952871 0 0 0 0 7.8140839745083213 -28.170492247651481 0 -28.170492247651481 11.509686778124546 0 0 0 0 -3.2556600995085319 20.78724065185304 0 20.78724065185304 -108.07918884633523 0 0 0 0 29.65123323975331 -68.274327594916599 0 -68.274327594916599 -34.98137456101631 0 0 0 0 -22.766706822669221 -134.62656802000765 0 -134.62656802000765 -109.1247817491514 0 0 0 0 62.722558724459304 -69.076009287494571 0 -69.076009287494571 -53.635102380861554 0 0 0 0 36.607413381963852 -102.8392534512659 0 -102.8392534512659 41.668028830701587 0 0 0 0 6.9033781944553994 -34.591474987978074 0 -34.591474987978074 -19.312963734235154 0 0 0 0 20.843943171872525 -59.604365944571555 0 -59.604365944571555 -18.965809980441918 0 0 0 0 64.03280185245967 -112.42470684678642 0 -112.42470684678642 16.171904783434684 0 0 0 0 209.08387155850005 -285.11059018965568 0 -285.11059018965568 -45.541505954060995 0 0 0 0 -32.773692083122071 -34.000223346768891 0 -34.000223346768891 -33.52573559821051 0 0 0 0 169.65191115162452 -79.732935576612363 0 -79.732935576612363 -167.93757642151104 0 0 0 0 -320.13008215244918 -219.14127787059078 0 -219.14127787059078 -139.02298917584994 0 0 0 0 -220.45803078767131 55.910364320771805 0 55.910364320771805 -0.73552507208842144 0 0 0 0 -36.741372389473327 -204.72205429812084 0 -204.72205429812084 90.086381293589511 0 0 0 0 -37.651355338934906 -37.537841754391479 0 -37.537841754391479 -37.311668168227804 0 0 0 0 97.107510059675406 -57.3406446845338 0 -57.3406446845338 253.44605947095351 0 0 0 0 287.88034301361768 -89.253898092446207 0 -89.253898092446207 112.46878731073366 0 0 0 0 156.65967113788793 -192.55982063913916 0 -192.55982063913916 40.231645606946586 0 0 0 0 298.85954228199989 -337.24547491810176 0 -337.24547491810176 343.59155635721686 0 0 0 0 2.0026390803905088 -54.244469131771439 0 -54.244469131771439 49.80643524801701 0 0 0 0 186.69488050660402 -150.74898108533995 0 -150.74898108533995 17.484055589586433 0 0 0 0 1.709255634326837 -109.1095446895074 0 -109.1095446895074 226.90543849073947 0 0 0 0 -11.36289112198601 -17.247402279416285 0 -17.247402279416285 -10.442958535911291 0 0 0 0 238.76388372759538 -31.906020526245584 0 -31.906020526245584 -173.62459628030319 0 0 0 0 -85.024731576002523 -116.17007994625362 0 -116.17007994625362 70.806582062728239 0 0 0 0 -172.46412406155105 -41.248353703478642 0 -41.248353703478642 24.848584145004679 0 0 0 0 -2.2567740490416526 -2.0572964127291442 0 -2.0572964127291442 -1.9380475651816074 0 0 0 0 77.442963665460411 18.07491801536321 0 18.07491801536321 -10.454595982412684 0 0 0 0 290.89977831792112 -143.05592015008415 0 -143.05592015008415 -53.938050960940473 0 0 0 0 50.687112532274114 39.850509085903923 0 39.850509085903923 6.4986721262305309 0 0 0 0 -12.124165425118051 -21.118387979453566 0 -21.118387979453566 -22.405813078877763 0 0 0 0 161.53066105621292 -119.87443514294978 0 -119.87443514294978 32.092100685629248 0 0 0 0 163.60039363176202 -56.041832826460222 0 -56.041832826460222 146.15758434803729 0 0 0 0 160.31743185493906 -43.908619970025484 0 -43.908619970025484 -54.826526180610927 0 0 0 0 91.396956645532555 -37.173931634546079 0 -37.173931634546079 -39.451734745982094 0 0 0 0 122.93632060929076 -60.545534570111741 0 -60.545534570111741 -38.847265986169077 0 0 0 0 92.991937990536826 -66.846662848908636 0 -66.846662848908636 -32.740478998517119 0 0 0 0 149.7492539461964 -66.519172652020643 0 -66.519172652020643 -14.237906756985012 0 0 0 0 197.10177665711126 -70.069676925229714 0 -70.069676925229714 -28.633043207768424 0 0 0 0 -14.690507789845508 -22.676359191997818 0 -22.676359191997818 -36.115114985706647 0 0 0 0 131.51621979312768 -57.779313756686406 0 -57.779313756686406 -15.121922608258501 0 0 0 0 153.79315466461776 -27.051474676818543 0 -27.051474676818543 2.1886851091077233 0 0 0 0 -14.977608732602675 -26.060658617359877 0 -26.060658617359877 1.1998816289205934 0 0 0 0 18.063737036376551 -64.061000104714367 0 -64.061000104714367 23.130566008707319 0 0 0 0 8.6734016462869477 -47.104682988982859 0 -47.104682988982859 -5.7423248040013277 0 0 0 0 5.8811587567652168 -71.346546988970658 0 -71.346546988970658 28.183696097712527 0 0 0 0 67.273144398703153 -99.253825669014986 0 -99.253825669014986 21.604637740136241 0 0 0 0 133.61034675100564 -96.123666691075869 0 -96.123666691075869 8.5530193614995369 0 0 0 0 96.275638678569521 -36.056871295990732 0 -36.056871295990732 6.3487926462942141 0 0 0 0 2.8233279209422513 -8.7235296585900102 0 -8.7235296585900102 -5.4839037470463445 0 0 0 0 -2.1268647590895853 3.9695359318152441 0 3.9695359318152441 -50.233784642525279 0 0 0 0 40.405250714509748 -21.395992845034925 0 -21.395992845034925 14.525130669077043 0 0 0 0 7.0436549366524162 2.9859122245872554 0 2.9859122245872554 -14.699310253037453 0 0 0 0 36.180733768332146 -34.086156650820534 0 -34.086156650820534 -19.695447064333678 0 0 0 0 34.315976907517474 -41.373544495547542 0 -41.373544495547542 -8.7419590859531127 0 0 0 0 4.4615583972190507 -19.862602125351259 0 -19.862602125351259 14.577835841089836 0 0 0 0 40.250321784831399 -12.524076607729528 0 -12.524076607729528 -44.611477290537451 0 0 0 0 50.104966774117202 -86.968020105341566 0 -86.968020105341566 -35.971702565351734 0 0 0 0 149.02719025730039 -59.365876481861051 0 -59.365876481861051 -154.47056829679059 0 0 0 0 41.215812996581008 -79.006017251615731 0 -79.006017251615731 34.712332307950419 0 0 0 0 -1.1016591392271948 -232.22587456159454 0 -232.22587456159454 -339.59686153261646 0 0 0 0 42.681155282964028 -72.623918136501743 0 -72.623918136501743 51.615276702996198 0 0 0 0 6.3594244732740464 -8.0005231960128214 0 -8.0005231960128214 9.7807789883085618 0 0 0 0 125.88397467085815 -77.582712498970068 0 -77.582712498970068 -231.7149840406928 0 0 0 0 61.81224744898784 -69.137173992426952 0 -69.137173992426952 11.911457305282994 0 0 0 0 14.406249043297223 -49.87498492853878 0 -49.87498492853878 -5.6175162040294353 0 0 0 0 28.610439491108991 -62.499406865601486 0 -62.499406865601486 -52.798779200842546 0 0 0 0 44.944337664379553 -23.706051125798062 0 -23.706051125798062 -3.2565450609980147 0 0 0 0 68.042536219873 45.194607664496289 0 45.194607664496289 -453.46711740936007 0 0 0 0 -248.93182043381421 284.18909304179761 0 284.18909304179761 -218.73176236337167 0 0 0 0 89.523230987953866 -100.89035509930545 0 -100.89035509930545 -189.3727075647912 0 0 0 0 36.081117410505612 -16.124466767392732 0 -16.124466767392732 16.129935987148201 0 0 0 0 52.114007744708942 2.6329092058876995 0 2.6329092058876995 6.9798386524744274 0 0 0 0 -11.86213348774254 94.98648687570676 0 94.98648687570676 -225.39312021851038 0 0 0 0 -104.21676927660974 36.230876159297623 0 36.230876159297623 115.28895206355082 0 0 0 0 143.62070734607755 -50.663932870136705 0 -50.663932870136705 -99.957657413149718 0 0 0 0 28.912032805990556 -12.756573268045315 0 -12.756573268045315 -46.161873753473529 0 0 0 0 83.647733842559319 -92.941941985911399 0 -92.941941985911399 -126.12621100117394 0 0 0 0 135.46127992561833 -81.795755745952192 0 -81.795755745952192 13.467342118325178 0 0 0 0 47.897692341413858 -5.6983725400059484 0 -5.6983725400059484 90.538864620975801 0 0 0 0 103.07257158701759 -12.772763564265915 0 -12.772763564265915 -129.68739208771603 0 0 0 0 1.4250977537192924 1.1413836382401144 0 1.1413836382401144 -6.5265184258407274 0 0 0 0 238.03717494718057 32.54398704283085 0 32.54398704283085 -28.028772661360563 0 0 0 0 50.674167742628924 -30.403554835516843 0 -30.403554835516843 -17.280445555697952 0 0 0 0 61.455961453491909 -22.558185112240608 0 -22.558185112240608 -32.982744314254887 0 0 0 0 37.78039338815023 -14.374212471771187 0 -14.374212471771187 -33.93773371752895 0 0 0 0 44.726925212303854 -14.046146047594881 0 -14.046146047594881 -26.113401516392539 0 0 0 0 90.616278224519192 -82.075745017038571 0 -82.075745017038571 5.9171434777508694 0 0 0 0 41.875661326813315 -47.63161986031264 0 -47.63161986031264 9.3582866555743749 0 0 0 0 60.48457812697923 -35.682739904195422 0 -35.682739904195422 -8.8124869339254914 0 0 0 0 -3.4929811692032757 -39.337232122073068 0 -39.337232122073068 -40.228146542100518 0 0 0 0 63.553168002210441 -89.411550994434265 0 -89.411550994434265 -47.519361412338185 0 0 0 0 119.89248841421977 -84.848971887616472 0 -84.848971887616472 -10.642627108845772 0 0 0 0 111.12437598078395 -77.007162593105249 0 -77.007162593105249 4.6370879752630572 0 0 0 0 109.3442906072014 -33.353245573292043 0 -33.353245573292043 -43.97211991932636 0 0 0 0 173.50307238952519 -66.245834993119388 0 -66.245834993119388 -49.046237330939107 0 0 0 0 3.3328231735402625 -2.6339150400353972 0 -2.6339150400353972 9.7539982863759391 0 0 0 0 -33.20199888931586 -24.517794362632799 0 -24.517794362632799 89.899992837536047 0 0 0 0 12.656664631398712 -36.915033995024437 0 -36.915033995024437 3.8991692905171433 0 0 0 0 111.45992442886927 -75.131327154984319 0 -75.131327154984319 -63.864775894775448 0 0 0 0 -116.26528613755363 -85.807842684582283 0 -85.807842684582283 15.498731104690705 0 0 0 0 32.525718273624079 -64.829329701431561 0 -64.829329701431561 -345.85433490480864 0 0 0 0 107.47726097499799 -21.725239206598417 0 -21.725239206598417 -47.289135734083175 0 0 0 0 12.248463799998717 -83.561655100209009 0 -83.561655100209009 -13.083110884184862 0 0 0 0 78.979840837993834 29.840556700321031 0 29.840556700321031 -139.9181139829725 0 0 0 0 16.671611492009987 -14.006353441397657 0 -14.006353441397657 -9.0559353005857375 0 0 0 0 8.1068138706592379 -27.573723522000591 0 -27.573723522000591 -7.6085401519194065 0 0 0 0 9.33218701685837 -29.264229428459657 0 -29.264229428459657 -16.159138018714657 0 0 0 0 -27.281927573339445 -29.386440868049554 0 -29.386440868049554 -26.023926810365722 0 0 0 0 82.220743151734496 -146.59116256767948 0 -146.59116256767948 11.975679632916581 0 0 0 0 83.505689161540431 -105.20774271833906 0 -105.20774271833906 27.434967883538775 0 0 0 0 39.235412783531501 -134.63735645161978 0 -134.63735645161978 9.9343830733159848 0 0 0 0 -45.60435513570701 -84.582399512677966 0 -84.582399512677966 49.721062123242518 0 0 0 0 39.859959658919252 -85.770568091391397 0 -85.770568091391397 35.206775509066574 0 0 0 0 5.2758105722932669 -29.53158268133302 0 -29.53158268133302 1.2192330383641092 0 0 0 0 58.163179943396244 -113.22994405791542 0 -113.22994405791542 31.354351594225591 0 0 0 0 26.893742343294434 -106.56639256352901 0 -106.56639256352901 61.968976979556828 0 0 0 0 -1.5514777312777355 -23.264021683074724 0 -23.264021683074724 -25.081722661649366 0 0 0 0 25.87489739004377 -105.37295539356273 0 -105.37295539356273 78.371616959130051 0 0 0 0 41.470737017909414 -73.435188085898517 0 -73.435188085898517 73.058069531980436 0 0 0 0 137.65273780198186 -125.75346942462056 0 -125.75346942462056 2.5397442323383075 0 0 0 0 93.917925111702061 -157.25212491747152 0 -157.25212491747152 149.52394286962954 0 0 0 0 -1.7065711862340862 -7.1431108079215662 0 -7.1431108079215662 -4.6402388807350397 0 0 0 0 -29.252877962648199 -71.370980192346906 0 -71.370980192346906 -8.1801855818684999 0 0 0 0 6.616244541594682 -23.566402777616872 0 -23.566402777616872 -27.460667276959775 0 0 0 0 10.752762667487332 -31.261675607075631 0 -31.261675607075631 -47.05972330772056 0 0 0 0 35.694688061247639 -23.104405295453525 0 -23.104405295453525 13.054924079663543 0 0 0 0 -41.940839643095387 -455.66916960872186 0 -455.66916960872186 294.61266566695122 0 0 0 0 -554.81721860651214 -11.737185644762576 0 -11.737185644762576 245.91266435633588 0 0 0 0 155.12377158019808 -138.0374005607664 0 -138.0374005607664 231.40581671076143 0 0 0 0 -35.282012514340749 -113.87961626112519 0 -113.87961626112519 -77.530499507774948 0 0 0 0 3311.181218450467 -814.4975878103578 0 -814.4975878103578 -449.41968610874028 0 0 0 0 -112.04069394109683 -69.707058408297598 0 -69.707058408297598 -1.3153535261881188 0 0 0 0 4.77743550786181 -10.494605835245238 0 -10.494605835245238 7.7503428545896895 0 0 0 0 36.687712245357034 8.2728164954787644 0 8.2728164954787644 -5.6067539594077971 0 0 0 0 15.469432403089741 -12.201792077463324 0 -12.201792077463324 -5.0141408284507634 0 0 0 0 -9.4406765730891493 45.055791576003685 0 45.055791576003685 -27.513859232072718 0 0 0 0 179.29568217477572 -94.627527631280827 0 -94.627527631280827 30.428640891361283 0 0 0 0 148.42815442693609 -89.391483928182424 0 -89.391483928182424 37.141504496219568 0 0 0 0 124.70636598840974 -125.92691319034202 0 -125.92691319034202 129.71870996349753 0 0 0 0 67.268458703518263 -112.75816644588303 0 -112.75816644588303 57.791843815713946 0 0 0 0 87.354724192737194 -176.67628896950555 0 -176.67628896950555 -370.94439755197527 0 0 0 0 309.42179286307874 496.01702797321559 0 496.01702797321559 268.2678318842045 0 0 0 0 486.53867532536242 -456.48751250103305 0 -456.48751250103305 129.44333271404557 0 0 0 0 144.60731501079135 -636.61820881468884 0 -636.61820881468884 901.92705178148753 0 0 0 0 -228.59222163705635 35.954151784590067 0 35.954151784590067 1189.5668858858626 0 0 0 0 -2132.3247043043011 -87.892739913171681 0 -87.892739913171681 1212.7426233138995 0 0 0 0 306.75249466871901 -188.36740197758263 0 -188.36740197758263 -149.93737358466569 0 0 0 0 13.487732904523952 -12.115311641955934 0 -12.115311641955934 9.0128256308731238 0 0 0 0 554.01754450738918 -1546.6800336696479 0 -1546.6800336696479 -141.5765016520163 0 0 0 0 11.072557564385967 -20.316155885511478 0 -20.316155885511478 28.858462480272735 0 0 0 0 -2080.5145412653328 -1109.3388350052392 0 -1109.3388350052392 20.09385110887888 0 0 0 0 643.19072866780516 9.6305151537580969 0 9.6305151537580969 114.16390561540084 0 0 0 0 873.48650428234032 114.94887051217665 0 114.94887051217665 18.241611329634907 0 0 0 0 -2630.2471188967975 909.19183256440192 0 909.19183256440192 187.36996185684529 0 0 0 0 983.32236596024813 -747.53843561944632 0 -747.53843561944632 249.89998748106882 0 0 0 0 2119.9903559255663 183.0183988161607 0 183.0183988161607 -24.178744220669614 0 0 0 0 2.41480575062862 -5.8445745460519252 0 -5.8445745460519252 13.876502196424937 0 0 0 0 242.38370186629618 -173.24812608972206 0 -173.24812608972206 277.2196296073671 0 0 0 0 136.74597834965607 -601.2194635541091 0 -601.2194635541091 343.63929662858573 0 0 0 0 -166.76558859911347 -177.49647833065683 0 -177.49647833065683 389.68015968206237 0 0 0 0 735.37747541046519 -324.92901501990309 0 -324.92901501990309 -30.318163477080816 0 0 0 0 98.891059909565229 -272.24152043497088 0 -272.24152043497088 338.45920804267735 0 0 0 0 446.45273341451866 -365.30051487249284 0 -365.30051487249284 -257.49559036079881 0 0 0 0 315.88382748200365 -58.555371079453835 0 -58.555371079453835 -195.91336224576662 0 0 0 0 246.41220141650047 -347.54696917382353 0 -347.54696917382353 -172.4905461139133 0 0 0 0 521.37558827341218 -183.58126748232871 0 -183.58126748232871 -252.8901585147978 0 0 0 0 288.09464666126587 -96.805622508665692 0 -96.805622508665692 -249.42791853617064 0 0 0 0 276.82553806721626 -135.17849148129608 0 -135.17849148129608 39.976212194706022 0 0 0 0 20.544811813308833 -34.755144262110619 0 -34.755144262110619 29.550814999876053 0 0 0 0 526.46492759197622 187.67779844334223 0 187.67779844334223 70.902284109994071 0 0 0 0 526.97579365504316 50.100816632124406 0 50.100816632124406 -341.82681684762065 0 0 0 0 302.36693083288992 -301.44962231931277 0 -301.44962231931277 -55.294470007043856 0 0 0 0 340.22808801194333 -244.35325381004805 0 -244.35325381004805 -157.50163869440075 0 0 0 0 -1453.024499390558 -833.08186280011068 0 -833.08186280011068 -250.33103059051064 0 0 0 0 -670.59675632137805 -424.40048785263207 0 -424.40048785263207 -339.02244470943697 0 0 0 0 -701.95652863673968 -430.39389259144082 0 -430.39389259144082 -337.53447859888547 0 0 0 0 -670.59675632110157 -424.40048785263207 0 -424.40048785263207 -339.02244470953883 0 0 0 0 -670.59675632091239 -424.40048785276304 0 -424.40048785276304 -339.02244470949518 0 0 0 0 -565.95251000783173 -521.02955615365863 0 -521.02955615365863 -293.45654785740226 0 0 0 0 -600.46846005585394 -487.52685585298968 0 -487.52685585298968 -318.61889381852052 0 0 0 0 -455.43231233132246 -359.24207675840444 0 -359.24207675840444 -332.73449869688193 0 0 0 0 -439.24115549997805 -400.23855991454184 0 -400.23855991454184 -534.01020416672327 0 0 0 0 -416.54507307014137 -488.28587914336458 0 -488.28587914336458 -405.65874713999801 0 0 0 0 -529.0666272227827 -434.20780980923155 0 -434.20780980923155 -314.06196358716443 0 0 0 0 -730.84265761252209 -547.2593873176038 0 -547.2593873176038 -375.81729270482901 0 0 0 0 -605.66843085185974 -511.85021448356747 0 -511.85021448356747 -369.97262941166991 0 0 0 0 57.509332456003904 -739.9212592136555 0 -739.9212592136555 -803.09922419142822 0 0 0 0 -330.63892721829325 -221.53854019603386 0 -221.53854019603386 -242.96287097100867 0 0 0 0 -838.61164475562691 -966.30355887336555 0 -966.30355887336555 -556.05209923978691 0 0 0 0 -1.0825529901793267 -3.8692177684098255 0 -3.8692177684098255 -13.19904699829857 0 0 0 0 63.858586802190075 -31.031254646921298 0 -31.031254646921298 -14.027410107828473 0 0 0 0 58.981157994657224 -20.958617412288731 0 -20.958617412288731 -10.599203073408717 0 0 0 0 34.713656286743571 12.913396553180064 0 12.913396553180064 -30.47171446644461 0 0 0 0 85.614003004256801 -15.842794316197796 0 -15.842794316197796 -27.526591700414428 0 0 0 0 24.218297294784861 -11.104270253574214 0 -11.104270253574214 -22.887087077933757 0 0 0 0 60.861199786718316 -20.908075262334023 0 -20.908075262334023 -25.353706866466382 0 0 0 0 60.406828432427233 -17.259854473090854 0 -17.259854473090854 -24.70297264605324 0 0 0 0 27.139185697423706 -14.477118811593378 0 -14.477118811593378 -16.033260974449412 0 0 0 0 2.0202793680778974 -7.3298725687465343 0 -7.3298725687465343 -21.030604624726337 0 0 0 0 58.87921452933324 -20.897419209448344 0 -20.897419209448344 -25.652097431244329 0 0 0 0 61.789446359300655 -18.276252813589963 0 -18.276252813589963 -26.56235761156131 0 0 0 0 60.224104396256735 -15.618160127160081 0 -15.618160127160081 -19.704087574529694 0 0 0 0 136.20669301663202 -101.93473587367407 0 -101.93473587367407 55.644176566423994 0 0 0 0 88.045420163638482 -10.994039478669947 0 -10.994039478669947 85.558717568404973 0 0 0 0 167.19805418899114 -122.96410605957863 0 -122.96410605957863 28.000528182332346 0 0 0 0 6.8270788977069969 -78.58338047381767 0 -78.58338047381767 205.3738286810767 0 0 0 0 -78.215800248313826 2.0065500731870998 0 2.0065500731870998 111.27460719465989 0 0 0 0 -83.113381853722785 -4.9087789279255958 0 -4.9087789279255958 152.82926593623415 0 0 0 0 40.323153828439899 -162.95663914753823 0 -162.95663914753823 145.60103007062935 0 0 0 0 -66.91107407446907 -207.38913483901706 0 -207.38913483901706 195.65988219541032 0 0 0 0 148.24792895261407 -281.56931199961036 0 -281.56931199961036 -217.99723927729792 0 0 0 0 224.74486783335306 -105.79435918606396 0 -105.79435918606396 32.960872388849566 0 0 0 0 0.50960955052027579 -1.272250096727042 0 -1.272250096727042 -5.6355401047554778 0 0 0 0 135.90765504765432 -197.46620144420194 0 -197.46620144420194 28.232043022388098 0 0 0 0 306.84195157699196 22.250520096195942 0 22.250520096195942 -50.827308241627179 0 0 0 0 349.66524526693593 -24.275479013635049 0 -24.275479013635049 -195.0675307685525 0 0 0 0 0.14214929321542602 -0.69236119636997273 0 -0.69236119636997273 -4.8823988036515829 0 0 0 0 165.28909495190283 120.77558690823571 0 120.77558690823571 -51.336882703682932 0 0 0 0 298.76838534250669 7.8495640563287452 0 7.8495640563287452 -75.654540337454819 0 0 0 0 299.94070233625916 -148.35760073621168 0 -148.35760073621168 -107.67345523805125 0 0 0 0 70.127224649390428 -39.734192670357515 0 -39.734192670357515 -5.3863352524349466 0 0 0 0 103.33388100169304 -39.879999883212804 0 -39.879999883212804 -26.08347667043563 0 0 0 0 86.665194118342697 -14.798099383813678 0 -14.798099383813678 -40.240282718390517 0 0 0 0 113.81468638216711 0.92661496249002084 0 0.92661496249002084 32.829551900584192 0 0 0 0 -74.503051657239212 -15.903185225099151 0 -15.903185225099151 45.548667674964236 0 0 0 0 -52.382871714570229 -197.18547580862105 0 -197.18547580862105 81.371408527949825 0 0 0 0 233.32670742018445 15.943013927186257 0 15.943013927186257 -44.475136575467332 0 0 0 0 78.393310998323614 3.7589136678507202 0 3.7589136678507202 -13.415392018438069 0 0 0 0 143.85604339865768 -404.54138728958787 0 -404.54138728958787 18.062549134876463 0 0 0 0 280.76817481720991 -152.62301170824867 0 -152.62301170824867 -71.077724601185764 0 0 0 0 -22.114284786705525 -4.1841245021964824 0 -4.1841245021964824 -59.243652897537686 0 0 0 0 -69.64542082051139 -10.157610236528399 0 -10.157610236528399 -26.17139613161271 0 0 0 0 0.12323078437401414 1.4746781028080775 0 1.4746781028080775 -6.3134505647278729 0 0 0 0 9.5648836734875786 -60.697391806021642 0 -60.697391806021642 -113.03559553566447 0 0 0 0 8.7917882402316536 -20.021207725119893 0 -20.021207725119893 -92.169743785329047 0 0 0 0 -20.09545240456373 -37.702846284228144 0 -37.702846284228144 -90.366838169185939 0 0 0 0 -35.330709654690509 -73.63296165002248 0 -73.63296165002248 -101.21487114440242 0 0 0 0 -50.772115353465779 -73.519499437526974 0 -73.519499437526974 -127.94794980114239 0 0 0 0 -58.437393597811024 -76.174273367891146 0 -76.174273367891146 -250.98067375178289 0 0 0 0 3.96355195346041 4.4998295257501013 0 4.4998295257501013 -154.21151010593894 0 0 0 0 -0.37119121164369062 -168.54125058908903 0 -168.54125058908903 -306.34598630903201 0 0 0 0 12.150508730766433 -87.689840612296393 0 -87.689840612296393 -165.29754519585549 0 0 0 0 -1.8867575175102687 -0.89309200660660437 0 -0.89309200660660437 1.2958215942384612 0 0 0 0 32.853444533813672 -19.460347018568427 0 -19.460347018568427 -80.774798737005767 0 0 0 0 -4.4767167089685342 -5.6469350681941393 0 -5.6469350681941393 -4.0611380134081401 0 0 0 0 63.692856912037499 -53.290887742714403 0 -53.290887742714403 22.671323353855769 0 0 0 0 -1.7397276690492163 -14.672867761037196 0 -14.672867761037196 0.11597325010370696 0 0 0 0 -26.085970470990276 12.207774732154576 0 12.207774732154576 -9.3194084719361854 0 0 0 0 1.4948835031796079 -4.4336704202360124 0 -4.4336704202360124 -5.6819975090293156 0 0 0 0 -1.046472967381648 -4.6143935779217955 0 -4.6143935779217955 -7.7320682755206747 0 0 0 0 -7.5886538917047801 -10.415901470587414 0 -10.415901470587414 -23.22616403097345 0 0 0 0 -0.48123445391281994 -4.0364223798039127 0 -4.0364223798039127 -10.521377094798936 0 0 0 0 0.72130012487499151 -0.40112401206671677 0 -0.40112401206671677 -2.5428539112885034 0 0 0 0 14.027232308730163 11.706960896051896 0 11.706960896051896 -29.313859091082122 0 0 0 0 -0.15196713939633 -2.0404426463896286 0 -2.0404426463896286 -6.3409549978345225 0 0 0 0 -16.85550559818148 -19.889896990713169 0 -19.889896990713169 48.332468504100689 0 0 0 0 -11.966181010783203 -37.773937435693369 0 -37.773937435693369 -44.166881300261593 0 0 0 0 -66.809572781879979 -167.25815926797077 0 -167.25815926797077 184.46977904404048 0 0 0 0 -1.4562996660693222 -2.4593929529288943 0 -2.4593929529288943 -1.8597671487380154 0 0 0 0 57.510712200643582 -76.703473934454451 0 -76.703473934454451 -1006.7600302707197 0 0 0 0 14.137864031642778 -35.077643595972404 0 -35.077643595972404 -308.23739412178838 0 0 0 0 78.807981946148175 -54.861713450107345 0 -54.861713450107345 -8.3970325469381351 0 0 0 0 78.830515528657799 -58.724307846945067 0 -58.724307846945067 25.220606099981524 0 0 0 0 23.452085212079396 -75.653409925038432 0 -75.653409925038432 22.098346871542162 0 0 0 0 80.054986190769768 -97.507461043333933 0 -97.507461043333933 15.662697710919019 0 0 0 0 126.40099727394156 -65.635425799035147 0 -65.635425799035147 -8.1008827199281654 0 0 0 0 100.67110132607777 -42.906110233761865 0 -42.906110233761865 -16.94726135887322 0 0 0 0 170.26588062411787 -79.146054562028439 0 -79.146054562028439 -0.060776250113121932 0 0 0 0 116.39139620899206 -126.94801559722418 0 -126.94801559722418 155.86214965813269 0 0 0 0 243.31460801647859 -71.994506675597222 0 -71.994506675597222 -8.4620832548898761 0 0 0 0 58.431573825128993 -39.543599508127045 0 -39.543599508127045 24.603258660223219 0 0 0 0 4.2811073584274482 -26.87340063456486 0 -26.87340063456486 -29.153115084067394 0 0 0 0 1.5824671013823606 -7.3756223954810238 0 -7.3756223954810238 -16.939419156306812 0 0 0 0 17.810624771586845 -0.13048120798339369 0 -0.13048120798339369 -14.091000861855719 0 0 0 0 16.808993325551455 -7.6241723371276748 0 -7.6241723371276748 -23.417956051664078 0 0 0 0 -0.043692599177518332 -30.17559618048108 0 -30.17559618048108 3.5612426385960134 0 0 0 0 7.0072581222514145 -4.4639967762414017 0 -4.4639967762414017 -17.978357973839593 0 0 0 0 -0.13955706896693121 -4.3784146501510648 0 -4.3784146501510648 0.66782235048714256 0 0 0 0 28.4542157427029 -37.897058004105929 0 -37.897058004105929 4.008389033133426 0 0 0 0 104.4012011370132 -29.320376718103944 0 -29.320376718103944 -13.493409164468176 0 0 0 0 6.9122655571157452 7.1880693643106497 0 7.1880693643106497 2.6646872925120988 0 0 0 0 133.73530572538141 32.784007053942332 0 32.784007053942332 -15.282076509261969 0 0 0 0 2.6715047047345593 -20.401521799158218 0 -20.401521799158218 -29.890792544305441 0 0 0 0 -6.226302540929737 -33.789353468200716 0 -33.789353468200716 -19.861696790580027 0 0 0 0 -5.996727685478163 -9.5509340718490421 0 -9.5509340718490421 5.5583001953345956 0 0 0 0 0.016107052465788252 -0.46042033459106335 0 -0.46042033459106335 1.7169283693999233 0 0 0 0 239.50286101200135 0.81827779921150068 0 0.81827779921150068 -6.7188732378308487 0 0 0 0 -36.501542367235288 -21.319968553138096 0 -21.319968553138096 147.53421265149518 0 0 0 0 21.037817377415877 -64.823733729150263 0 -64.823733729150263 102.55863081045027 0 0 0 0 1.557320443656514 -24.390662791363436 0 -24.390662791363436 29.45340893526047 0 0 0 0 -9.1320020925254539 -5.0492010751604539 0 -5.0492010751604539 27.89880611247645 0 0 0 0 5.5998311924245128 -1.7158216512642852 0 -1.7158216512642852 -4.6895681806281573 0 0 0 0 -6.8013791049375953 -27.522936365551914 0 -27.522936365551914 24.340592620974348 0 0 0 0 20.494103226984862 -95.230811284613083 0 -95.230811284613083 61.775607866786231 0 0 0 0 46.203750382683154 -73.205066130617979 0 -73.205066130617979 31.92348747896547 0 0 0 0 71.651913194164081 -109.68477450844648 0 -109.68477450844648 -65.11403290346243 0 0 0 0 73.617433621417149 -103.55605488538231 0 -103.55605488538231 -81.155561950040465 0 0 0 0 25.412578036426567 -99.515889472796061 0 -99.515889472796061 -45.261314026324271 0 0 0 0 50.170775127568049 -154.74596432656108 0 -154.74596432656108 171.14606556685612 0 0 0 0 83.665730701877365 11.893800966341587 0 11.893800966341587 132.61818360785037 0 0 0 0 159.46719430436877 -0.082885005139360146 0 -0.082885005139360146 33.969379598922387 0 0 0 0 46.845514590821274 -36.276476188784727 0 -36.276476188784727 77.411104208687902 0 0 0 0 46.74053535475975 -31.02318594367442 0 -31.02318594367442 63.023024982718198 0 0 0 0 37.381198244234838 -128.59653078073143 0 -128.59653078073143 -10.125940357400168 0 0 0 0 46.959024560400209 -69.351150541607765 0 -69.351150541607765 34.885934978820437 0 0 0 0 119.33453051581779 -47.083867521680077 0 -47.083867521680077 -2.1820694606994948 0 0 0 0 11.157005942259161 -125.08485772200527 0 -125.08485772200527 1.848065167934692 0 0 0 0 16.618847741739501 -83.483309917228155 0 -83.483309917228155 67.767206656553753 0 0 0 0 -91.973976539356954 -107.16503842840632 0 -107.16503842840632 77.444689217201812 0 0 0 0 20.218324399260382 -153.77825697849221 0 -153.77825697849221 32.382142943648205 0 0 0 0 -4.2876106916592107 -184.88867689281051 0 -184.88867689281051 22.025571362653864 0 0 0 0 8.0461637367907315 -216.40784057420444 0 -216.40784057420444 -20.655448796150267 0 0 0 0 43.404227243830974 -180.75632849689191 0 -180.75632849689191 -7.4985735012153327 0 0 0 0 92.524347913298698 -115.34351966330496 0 -115.34351966330496 -57.343689645104121 0 0 0 0 204.8904478159584 -103.18646081494308 0 -103.18646081494308 -57.647293050491498 0 0 0 0 122.5012061021022 -89.437996440368821 0 -89.437996440368821 -42.985335038560152 0 0 0 0 71.218778814887628 -91.582976577457885 0 -91.582976577457885 -55.032471022840582 0 0 0 0 82.008503872062192 -102.2676748457958 0 -102.2676748457958 -44.467608229932011 0 0 0 0 60.349399529758102 -120.35714834430973 0 -120.35714834430973 -32.847629031432916 0 0 0 0 97.689087443774042 -127.0016303428938 0 -127.0016303428938 -34.922250975615498 0 0 0 0 42.399529690801778 -70.263836772581442 0 -70.263836772581442 36.868402577703506 0 0 0 0 5.7522932987958484 -76.346975031059628 0 -76.346975031059628 103.30503724259415 0 0 0 0 39.856400293029765 -71.181100272430967 0 -71.181100272430967 110.16890929814281 0 0 0 0 -76.942891817140662 -45.612612066381189 0 -45.612612066381189 99.11177420783406 0 0 0 0 5.0602097383193687 -17.283892823605168 0 -17.283892823605168 17.351099050611879 0 0 0 0 7.890281513065351 -54.201846820451401 0 -54.201846820451401 19.905392319988721 0 0 0 0 17.62754255108424 -57.191037424603337 0 -57.191037424603337 39.429169400573301 0 0 0 0 12.173231922917882 -13.481768673371114 0 -13.481768673371114 -3.126587766403901 0 0 0 0 8.2557542668309907 -31.19992182869737 0 -31.19992182869737 39.505035266573032 0 0 0 0 -6.623228753900662 -18.498668193510269 0 -18.498668193510269 13.352951325467899 0 0 0 0 17.248957618993121 -47.767257459182559 0 -47.767257459182559 52.412305032275981 0 0 0 0 -17.078687274936662 -22.225383213115709 0 -22.225383213115709 48.33695137188117 0 0 0 0 25.566130759559201 -79.983229918814459 0 -79.983229918814459 75.034690213426529 0 0 0 0 41.888064837103229 -58.497457338811728 0 -58.497457338811728 76.144906007894264 0 0 0 0 23.212784389623266 -87.302916534548785 0 -87.302916534548785 59.590437512718381 0 0 0 0 17.92114909951033 -86.300083276331407 0 -86.300083276331407 72.99072804577736 0 0 0 0 24.833478621584618 -90.740574422127565 0 -90.740574422127565 66.434947659146019 0 0 0 0 39.599871201263682 -82.199377596626618 0 -82.199377596626618 74.329090184084635 0 0 0 0 10.817300601119143 -23.743560829563648 0 -23.743560829563648 104.22970980089576 0 0 0 0 44.720950572097003 -69.298479996786909 0 -69.298479996786909 34.246738490896327 0 0 0 0 -41.334173619407011 -61.86643645168806 0 -61.86643645168806 78.578067943313727 0 0 0 0 -6.5240976800105273 -126.36376938809781 0 -126.36376938809781 58.452698343098746 0 0 0 0 80.357395280381752 -137.00648305422146 0 -137.00648305422146 64.270794592132006 0 0 0 0 -66.683746463770831 -152.1552639467991 0 -152.1552639467991 70.407778930651602 0 0 0 0 0.5236223297779361 -99.845182634988305 0 -99.845182634988305 74.736765626270426 0 0 0 0 -74.902248990259523 -150.6303766042729 0 -150.6303766042729 115.70312859190744 0 0 0 0 -87.794687295485232 -162.58439335528942 0 -162.58439335528942 30.61646135546107 0 0 0 0 -41.495304054755479 -78.991636992965141 0 -78.991636992965141 -38.231523207225109 0 0 0 0 -104.78802188679538 -90.302495148676826 0 -90.302495148676826 46.857384012415423 0 0 0 0 -3.7479509849784449 -32.746465588788851 0 -32.746465588788851 -1.1810308840831567 0 0 0 0 9.3664846288098715 -67.143050834823953 0 -67.143050834823953 86.528748313072356 0 0 0 0 -55.03687430412117 -99.222345859772759 0 -99.222345859772759 54.692506250081351 0 0 0 0 -118.36297329291301 -162.66934535513064 0 -162.66934535513064 -72.993353555028989 0 0 0 0 -75.124544555529383 -53.495012050649166 0 -53.495012050649166 6.8118013184980555 0 0 0 0 -29.012468553986992 -206.79569806426753 0 -206.79569806426753 -512.77809077340862 0 0 0 0 -111.7917585478661 -265.33392888950948 0 -265.33392888950948 -23.762419210439475 0 0 0 0 20.42900723745624 -98.940389380583952 0 -98.940389380583952 -101.35323250814326 0 0 0 0 -95.768969874759307 -259.21673327339408 0 -259.21673327339408 -343.30737371220675 0 0 0 0 -142.56890730174894 -105.94976344361476 0 -105.94976344361476 -127.33081120903626 0 0 0 0 -89.170543088976501 -183.31752311294986 0 -183.31752311294986 -416.33041236067766 0 0 0 0 -423.66322000326397 -329.47363226038487 0 -329.47363226038487 -478.60389626025062 0 0 0 0 -208.36559460147245 -1.0989724918981665 0 -1.0989724918981665 -684.71872623558011 0 0 0 0 -6.8255107900263283 -145.76187862612278 0 -145.76187862612278 -793.26810992360151 0 0 0 0 -442.81766658899755 -249.16179985918984 0 -249.16179985918984 21.501495447493653 0 0 0 0 -412.80207584465882 -276.89203212966777 0 -276.89203212966777 -486.56114351826182 0 0 0 0 -42.52766197761639 -137.12521054514764 0 -137.12521054514764 -442.72825580851259 0 0 0 0 -309.6008790471866 147.02875683420916 0 147.02875683420916 -636.29268726986629 0 0 0 0 -455.34366646299304 60.246979231098521 0 60.246979231098521 -97.412082422981257 0 0 0 0 231.65650360679308 -256.36063435007236 0 -256.36063435007236 -548.34826981979313 0 0 0 0 -14.104653370441603 -197.38800562064807 0 -197.38800562064807 -544.2736064138553 0 0 0 0 -75.670521170247525 -145.9426697376457 0 -145.9426697376457 -291.064507661682 0 0 0 0 -122.23242064582098 -116.36639487021421 0 -116.36639487021421 -530.46622487705326 0 0 0 0 5.7432304371831719 -227.55401811805132 0 -227.55401811805132 -638.13732839794466 0 0 0 0 -79.835701055824075 -156.35429738001403 0 -156.35429738001403 -666.07581704701079 0 0 0 0 -44.000613513355468 -316.02685375732653 0 -316.02685375732653 -719.69652185991799 0 0 0 0 -3.9724354165171007 -245.86163357393343 0 -245.86163357393343 -634.98933609045707 0 0 0 0 -37.448483017882381 -499.28806902970973 0 -499.28806902970973 -602.89761362515492 0 0 0 0 79.904673422502327 -393.19328162964302 0 -393.19328162964302 -507.12770195624398 0 0 0 0 135.6593948898003 -234.29111965955963 0 -234.29111965955963 -683.84200551347931 0 0 0 0 -160.40482364540458 -131.97096801218322 0 -131.97096801218322 -176.34091992789763 0 0 0 0 -77.835351548177186 -135.43555000359629 0 -135.43555000359629 -180.37463394074439 0 0 0 0 -79.091606357475939 -100.65657513739279 0 -100.65657513739279 -105.10975845371649 0 0 0 0 -29.371137882388439 -158.58257737539134 0 -158.58257737539134 -257.75884253285767 0 0 0 0 -93.382031675954295 -224.98397803851185 0 -224.98397803851185 -235.75264106885879 0 0 0 0 -36.587480787971344 -268.48741459404664 0 -268.48741459404664 -414.93042517238064 0 0 0 0 -72.048366121669005 -203.32645240595957 0 -203.32645240595957 -221.3513006245812 0 0 0 0 0.073256576381510286 -185.73253542304633 0 -185.73253542304633 -273.92531065439107 0 0 0 0 -130.18977322757496 -410.42318429626721 0 -410.42318429626721 -276.90780115117741 0 0 0 0 -52.272588743472852 -401.47284355355623 0 -401.47284355355623 -376.22597276257829 0 0 0 0 -291.89217251230548 -321.66804314561523 0 -321.66804314561523 -271.30264133608944 0 0 0 0 -295.49605078317364 -138.1958140377759 0 -138.1958140377759 -185.69664677838591 0 0 0 0 -99.106089931825409 -126.79464705141072 0 -126.79464705141072 -211.98225416972855 0 0 0 0 -398.67621379504681 -99.311259782634806 0 -99.311259782634806 -169.47415760753574 0 0 0 0 -794.2001925499651 -692.4674965844315 0 -692.4674965844315 -366.99740809298237 0 0 0 0 637.23503627633409 -305.9573934832988 0 -305.9573934832988 -756.40452939731881 0 0 0 0 53.929496816546475 -785.09518853739792 0 -785.09518853739792 -815.67518688672862 0 0 0 0 -4.9234450543669768 -5.9266030668773269 0 -5.9266030668773269 -5.5713495325918672 0 0 0 0 -370.98854216836025 -718.19937122692136 0 -718.19937122692136 -634.31948131570607 0 0 0 0 403.46507999380378 -363.20182789534374 0 -363.20182789534374 -602.92904896528512 0 0 0 0 268.60417701190488 -403.88650199115182 0 -403.88650199115182 -381.08412766036417 0 0 0 0 298.4974255453418 -118.51094741947963 0 -118.51094741947963 -346.50449535289226 0 0 0 0 212.06359610337017 -111.80272010752378 0 -111.80272010752378 34.048637766996762 0 0 0 0 572.71863679807075 -589.23507248437454 0 -589.23507248437454 186.3871097586125 0 0 0 0 384.65599170406495 -744.03469601132383 0 -744.03469601132383 540.34404370551783 0 0 0 0 -10.583038959209309 -13.829395129606311 0 -13.829395129606311 -13.100670649284865 0 0 0 0 257.68751109616784 -257.92425245284539 0 -257.92425245284539 356.60320856797262 0 0 0 0 -666.98227472321855 -886.17375994894974 0 -886.17375994894974 92.836573818083707 0 0 0 0 -658.979800911349 -948.77703657573716 0 -948.77703657573716 -65.38124077134853 0 0 0 0 -738.09346081650028 -457.98976291989493 0 -457.98976291989493 619.84937091205211 0 0 0 0 -220.86286637206285 -127.15137226883962 0 -127.15137226883962 391.21356001913045 0 0 0 0 350.79292434166018 -392.34037201822446 0 -392.34037201822446 85.040837773201929 0 0 0 0 -421.69762462839844 -149.55327277084507 0 -149.55327277084507 -101.70054119675251 0 0 0 0 -343.52206244059926 -308.78469618234249 0 -308.78469618234249 220.65416827176887 0 0 0 0 111.77367889385278 -486.17938589266305 0 -486.17938589266305 327.448417917607 0 0 0 0 -216.05609498080253 -224.06209599536032 0 -224.06209599536032 42.835594133855921 0 0 0 0 -406.72060850560501 -115.15247796751464 0 -115.15247796751464 224.57034593612286 0 0 0 0 655.97976865889507 -650.45483518456604 0 -650.45483518456604 320.70391987165931 0 0 0 0 -10.817726334351729 -14.869220909530952 0 -14.869220909530952 -14.43933206562842 0 0 0 0 658.46213613206294 -709.35730357768989 0 -709.35730357768989 334.32915944052365 0 0 0 0 321.9174084420074 -289.08170342515587 0 -289.08170342515587 460.53360494250637 0 0 0 0 200.67154463452107 -690.28553555186954 0 -690.28553555186954 137.49060522490254 0 0 0 0 -264.2385170258276 -216.2365879692843 0 -216.2365879692843 288.74725733250034 0 0 0 0 440.13475990769371 -428.73329710947837 0 -428.73329710947837 346.35144724956626 0 0 0 0 711.99963444246418 -563.99389143756525 0 -563.99389143756525 345.59355730796233 0 0 0 0 711.38339476476017 -413.03340167375609 0 -413.03340167375609 257.990453258466 0 0 0 0 -8.61762690507725 -11.630854374557501 0 -11.630854374557501 -10.80148008350281 0 0 0 0 444.04071737487811 -659.30975565406879 0 -659.30975565406879 481.32531258220115 0 0 0 0 245.42898301560626 -260.39440754500538 0 -260.39440754500538 360.49288285853345 0 0 0 0 -44.442911977509709 -440.23667919345462 0 -440.23667919345462 308.67544340601307 0 0 0 0 -148.74932736444589 -220.20478311133411 0 -220.20478311133411 530.97714012350843 0 0 0 0 243.25507459269238 -239.35090679296627 0 -239.35090679296627 266.64691817787025 0 0 0 0 -456.36214389893524 -194.85701347245777 0 -194.85701347245777 118.48442365451956 0 0 0 0 -354.31860935207453 -446.1011144846816 0 -446.1011144846816 395.55295910396671 0 0 0 0 -956.31499785297592 -70.633123513551254 0 -70.633123513551254 350.49806945609089 0 0 0 0 8.8692358578039148 -390.34317468948211 0 -390.34317468948211 196.49522107230587 0 0 0 0 -2.7032011617729035 -4.8240882357384756 0 -4.8240882357384756 11.426212889160212 0 0 0 0 2161.4772398552673 -1336.1113207791495 0 -1336.1113207791495 -295.17158659466077 0 0 0 0 2270.3256232452609 -1053.3223791164673 0 -1053.3223791164673 286.00713384375558 0 0 0 0 -1162.38606523676 -134.67469963487383 0 -134.67469963487383 503.41044040091219 0 0 0 0 -1.2462468493591938 -1.9981358889948524 0 -1.9981358889948524 1.7307623207697773 0 0 0 0 1621.7072998890635 -1189.0041725716328 0 -1189.0041725716328 892.87971571451635 0 0 0 0 -152.2861174757565 -268.67978972447781 0 -268.67978972447781 240.56209552714427 0 0 0 0 -392.08632332863112 -230.65756356256315 0 -230.65756356256315 359.08809230550469 0 0 0 0 -410.38257477011626 -287.56542569962039 0 -287.56542569962039 282.25558207435824 0 0 0 0 -971.10224876079144 -487.74013332890536 0 -487.74013332890536 359.24259743865696 0 0 0 0 -257.01152092745156 -358.63366371658049 0 -358.63366371658049 374.55433984524461 0 0 0 0 -295.5630067883244 -378.67147160289278 0 -378.67147160289278 211.56095889072458 0 0 0 0 -188.0568140614912 -514.54143810051937 0 -514.54143810051937 244.49334979285777 0 0 0 0 -125.02833711925331 -290.18076580180787 0 -290.18076580180787 21.467101095739054 0 0 0 0 -104.13757843141305 -449.27850360757611 0 -449.27850360757611 179.97418889764958 0 0 0 0 529.31391618476232 -617.94539784702465 0 -617.94539784702465 -728.54304616260924 0 0 0 0 1176.9029137240495 -1855.8380313495582 0 -1855.8380313495582 1626.1120053645427 0 0 0 0 28.366421747475925 -67.163382028771593 0 -67.163382028771593 447.07396259808229 0 0 0 0 236.79936249710653 -470.64915599717824 0 -470.64915599717824 79.675865955869085 0 0 0 0 95.398780484147096 -33.644299453046187 0 -33.644299453046187 204.74622734011064 0 0 0 0 -219.3464462559748 -236.48917952799411 0 -236.48917952799411 100.99254687265056 0 0 0 0 -145.72231506793781 -556.87061951821443 0 -556.87061951821443 -119.02345413661533 0 0 0 0 -54.758101322633365 -285.29885762907543 0 -285.29885762907543 -83.925015337248624 0 0 0 0 48.920203673623575 -409.09623509006997 0 -409.09623509006997 -614.89073879594901 0 0 0 0 -13.100115351118689 -378.82148612308811 0 -378.82148612308811 -142.08801646758184 0 0 0 0 202.08748812942292 -173.12931729113552 0 -173.12931729113552 -346.02059766996354 0 0 0 0 96.335896972112323 -294.74384354706672 0 -294.74384354706672 -72.950868337022257 0 0 0 0 329.24378608814663 -363.55071489874717 0 -363.55071489874717 -120.48671778714015 0 0 0 0 53.482774707199326 -405.56233867207629 0 -405.56233867207629 260.32667532800042 0 0 0 0 139.55497661871948 -160.38271020573211 0 -160.38271020573211 129.62861924379831 0 0 0 0 -93.845244343203717 -206.74453933961559 0 -206.74453933961559 215.93788948754627 0 0 0 0 388.57889367575081 -181.12279754148767 0 -181.12279754148767 -44.302050751874049 0 0 0 0 -1.5684990456591983 -5.6284652252834988 0 -5.6284652252834988 -12.848663290182344 0 0 0 0 314.16726691907024 -210.21310089570761 0 -210.21310089570761 -49.013246140051706 0 0 0 0 18.326387165812775 -106.93864245256918 0 -106.93864245256918 103.633318069089 0 0 0 0 8.5361136272240401 -59.312592467842478 0 -59.312592467842478 -45.530387086328119 0 0 0 0 -169.04777752692098 -248.22351061146037 0 -248.22351061146037 38.077301251038989 0 0 0 0 15.588428703705176 11.067345884970564 0 11.067345884970564 40.783976696213358 0 0 0 0 12.720063186841699 -35.276593496333575 0 -35.276593496333575 64.878861760137909 0 0 0 0 57.112433920520743 -175.98517839519263 0 -175.98517839519263 -5.408087294541474 0 0 0 0 -722.3030308276866 -522.33785602479293 0 -522.33785602479293 -164.90143773313321 0 0 0 0 265.23813361509383 -209.68203805714802 0 -209.68203805714802 -21.917439774610102 0 0 0 0 4.2417533147415067 -16.732939839614552 0 -16.732939839614552 -25.353242873858022 0 0 0 0 250.05325353636408 -194.74905803974343 0 -194.74905803974343 115.80176845261303 0 0 0 0 55.545218377967558 -80.456278160202601 0 -80.456278160202601 113.85207258135051 0 0 0 0 -3.6406246448389989 -8.2143980390448803 0 -8.2143980390448803 -20.999392651992707 0 0 0 0 222.56022629091422 -82.034167147961853 0 -82.034167147961853 48.338418605617335 0 0 0 0 322.72213948562512 -239.69293168372496 0 -239.69293168372496 81.324836622283328 0 0 0 0 -0.14985902574618493 -1.5299438134415695 0 -1.5299438134415695 -2.6551145637069027 0 0 0 0 230.86147659167182 -270.27276295377851 0 -270.27276295377851 51.462166232835443 0 0 0 0 280.4360467040824 -241.95955719346239 0 -241.95955719346239 47.424032370367058 0 0 0 0 330.77717202834356 -205.87196286878134 0 -205.87196286878134 20.328738965130469 0 0 0 0 354.20057552424987 -317.42566691466345 0 -317.42566691466345 99.247398023602727 0 0 0 0 156.09493965364891 -174.23307218207265 0 -174.23307218207265 132.22159981305958 0 0 0 0 -1.2903880960821539 -3.8894965101509769 0 -3.8894965101509769 -6.8384933374956205 0 0 0 0 159.35164563415705 -288.02173252357164 0 -288.02173252357164 282.723542635802 0 0 0 0 -7.9210639317570894 -12.940228893572566 0 -12.940228893572566 64.891781760554295 0 0 0 0 -0.17581830806995313 -5.7006579095688323 0 -5.7006579095688323 -11.072945040574695 0 0 0 0 304.93987488277435 -221.81366465671817 0 -221.81366465671817 54.070769579426269 0 0 0 0 192.20311724659405 -107.45458659404176 0 -107.45458659404176 113.60600797079223 0 0 0 0 192.25881453397415 -142.65244505931332 0 -142.65244505931332 -31.752402775760856 0 0 0 0 -71.065291549629364 -17.874776087091959 0 -17.874776087091959 50.885167658321734 0 0 0 0 144.92393481892259 -175.58996051032591 0 -175.58996051032591 -7.4617408750600589 0 0 0 0 213.1492646824845 -79.463039890808432 0 -79.463039890808432 67.693673396101076 0 0 0 0 542.39196197672447 -188.73743573099978 0 -188.73743573099978 -85.852972321903508 0 0 0 0 2.6719959113265688 0.67677324314077225 0 0.67677324314077225 -0.19118225381568266 0 0 0 0 375.80720707697492 -183.49814522506495 0 -183.49814522506495 97.216490598427754 0 0 0 0 -0.20825080576197985 -5.7593251205427425 0 -5.7593251205427425 -8.5520083086821046 0 0 0 0 387.2042448192442 -224.97954166270392 0 -224.97954166270392 155.70341607771479 0 0 0 0 400.74876803371399 -271.24081928236228 0 -271.24081928236228 119.15354500921967 0 0 0 0 0.29059350545332396 -1.1685308599559825 0 -1.1685308599559825 2.7871925833953384 0 0 0 0 480.92788833844861 -222.52242150199527 0 -222.52242150199527 94.698031722359701 0 0 0 0 572.47664747649833 -248.00016865003636 0 -248.00016865003636 69.818338375313033 0 0 0 0 412.34828889755977 -143.21708195818246 0 -143.21708195818246 17.232105422270251 0 0 0 0 784.72141181998018 -203.23801625969281 0 -203.23801625969281 -78.41524330546963 0 0 0 0 384.58570588378552 -109.05136297734134 0 -109.05136297734134 77.434046844657132 0 0 0 0 488.15663499648053 -272.92467563970604 0 -272.92467563970604 98.010424954729388 0 0 0 0 -0.90673825593189505 -5.5557279383213469 0 -5.5557279383213469 -13.384204095028906 0 0 0 0 320.46514721795438 -139.53182606346581 0 -139.53182606346581 157.87075043183722 0 0 0 0 604.39123740510968 178.54575703207229 0 178.54575703207229 -219.05394457676812 0 0 0 0 49.572702993787061 -263.20151835728393 0 -263.20151835728393 433.14087731328982 0 0 0 0 201.51855381677069 -109.36039753688601 0 -109.36039753688601 -237.54514262003067 0 0 0 0 398.99654397318727 -47.950992618735654 0 -47.950992618735654 21.983724013527535 0 0 0 0 387.59135692127916 72.650901266289907 0 72.650901266289907 -135.31583581295126 0 0 0 0 -0.67471565669879485 1.6027032832694594 0 1.6027032832694594 -2.8120067465179659 0 0 0 0 -118.29629748011712 -168.19610377017671 0 -168.19610377017671 -223.61170642539946 0 0 0 0 -122.64989965330096 -137.09261626965417 0 -137.09261626965417 -163.66431797791302 0 0 0 0 54.081989219200295 386.14727733748805 0 386.14727733748805 91.204932859589462 0 0 0 0 -131.29586287639995 -103.52502057421952 0 -103.52502057421952 -41.785757374412242 0 0 0 0 -153.28650036121871 -56.013394522557064 0 -56.013394522557064 -187.10489892695477 0 0 0 0 -46.272729029989932 -96.530766861233133 0 -96.530766861233133 -251.86691973272536 0 0 0 0 -112.30536394302089 -97.269985876662759 0 -97.269985876662759 -229.67114018708526 0 0 0 0 -31.667869997251728 -168.20689510794182 0 -168.20689510794182 -247.53515174258791 0 0 0 0 560.09300964027307 -179.93596909420739 0 -179.93596909420739 -262.19451543825016 0 0 0 0 -115.03641887321419 -192.06785728318937 0 -192.06785728318937 -229.71998761924624 0 0 0 0 -98.926342304801892 -128.04247322346691 0 -128.04247322346691 21.307787361096416 0 0 0 0 684.06585752029605 -615.90863850027199 0 -615.90863850027199 -62.720435395414825 0 0 0 0 -2.8751677087096015 -8.4527678568322457 0 -8.4527678568322457 -14.258179517418256 0 0 0 0 387.52011055696426 -253.9838979721726 0 -253.9838979721726 127.62290086695793 0 0 0 0 -194.68566402459328 -194.05508367339644 0 -194.05508367339644 331.9106513106417 0 0 0 0 -824.14875374724988 -689.70137690802403 0 -689.70137690802403 35.149547959819756 0 0 0 0 -2.1832371145613534 -4.6116227001762233 0 -4.6116227001762233 -6.0188849106680067 0 0 0 0 418.54145250160059 -101.36554329745195 0 -101.36554329745195 -46.345820909111353 0 0 0 0 565.22609167887686 -373.53710774807223 0 -373.53710774807223 -287.37485810430371 0 0 0 0 134.98147898692002 -288.75795297968807 0 -288.75795297968807 -232.39922617898264 0 0 0 0 43.579454736340267 -670.86527636517712 0 -670.86527636517712 -411.12057106042448 0 0 0 0 -661.18102580941718 -358.47589724965474 0 -358.47589724965474 157.75757521350897 0 0 0 0 -447.23279054467093 -172.02205186731044 0 -172.02205186731044 241.08725645739469 0 0 0 0 -282.23543764129818 -270.30588724666814 0 -270.30588724666814 166.28144019214596 0 0 0 0 -203.45667139858415 -190.36291743775655 0 -190.36291743775655 193.40432412134942 0 0 0 0 163.83864664640623 -183.95754452021356 0 -183.95754452021356 -84.220534825957657 0 0 0 0 213.53340709000531 -331.6308433813756 0 -331.6308433813756 -421.1566955677481 0 0 0 0 -86.591468625446169 -338.15718495228157 0 -338.15718495228157 9.9413989983222564 0 0 0 0 33.578337437293726 -194.2526621468202 0 -194.2526621468202 310.10239002144226 0 0 0 0 33.330965553850547 -215.98282139708681 0 -215.98282139708681 134.32615733724379 0 0 0 0 0.73356808343418045 -0.017431701299035041 0 -0.017431701299035041 0.91383195556385033 0 0 0 0 830.5861048874458 -800.62343822854905 0 -800.62343822854905 -494.17305293639947 0 0 0 0 835.29665183809811 202.33855186166693 0 202.33855186166693 -54.438675661043817 0 0 0 0 -313.0423777238816 -191.48178175257999 0 -191.48178175257999 -44.042475201902562 0 0 0 0 1139.4758051030749 -362.38827171881167 0 -362.38827171881167 -44.770447473914828 0 0 0 0 0.51562213720282557 -1.5730553983997755 0 -1.5730553983997755 -3.7561407516073899 0 0 0 0 -114.31955576026348 -382.25809993471012 0 -382.25809993471012 -251.7516769055801 0 0 0 0 -20.467555708612053 -5.0510111634739587 0 -5.0510111634739587 -28.075779741695442 0 0 0 0 212.0835357425949 -341.44624216066768 0 -341.44624216066768 -205.27845830656588 0 0 0 0 253.74476988490733 -246.09815380822693 0 -246.09815380822693 -235.98790037915387 0 0 0 0 22.979037301430253 12.867231042984713 0 12.867231042984713 -32.552408158080652 0 0 0 0 211.07360771957974 -280.04707626584786 0 -280.04707626584786 -10.583488083243992 0 0 0 0 101.514218237367 -31.345306597585477 0 -31.345306597585477 -73.751869166808319 0 0 0 0 -455.9590854761982 -25.62721672330008 0 -25.62721672330008 93.420980847597093 0 0 0 0 -0.074872029766131831 -0.95893299111857289 0 -0.95893299111857289 -4.962680855713046 0 0 0 0 808.28759086962145 80.167478818745622 0 80.167478818745622 -34.25549778140703 0 0 0 0 47.56149577796441 -384.11660054407366 0 -384.11660054407366 -243.39452049086685 0 0 0 0 185.38279341565067 10.378672486043797 0 10.378672486043797 -393.63897841900416 0 0 0 0 62.572614328755662 66.988619684967489 0 66.988619684967489 -216.59631115663069 0 0 0 0 160.47633202227189 -14.709128275884723 0 -14.709128275884723 -121.06691828578369 0 0 0 0 219.54714066814267 129.18751029604755 0 129.18751029604755 -197.53222372937307 0 0 0 0 164.02718229599895 23.525129816798653 0 23.525129816798653 -123.47701008152217 0 0 0 0 651.41197623620792 -66.994729447338614 0 -66.994729447338614 -108.77572179668732 0 0 0 0 361.14199128180007 -288.477564743318 0 -288.477564743318 49.197494664878832 0 0 0 0 420.76236894209615 -130.14756696048062 0 -130.14756696048062 -190.76736188919313 0 0 0 0 118.09340555263498 -325.98034813997856 0 -325.98034813997856 43.623766181572137 0 0 0 0 161.18871905763626 -330.99857561264707 0 -330.99857561264707 -233.15938680953695 0 0 0 0 -79.800648074384299 -15.386676047342917 0 -15.386676047342917 -201.22232601423457 0 0 0 0 209.28997951946076 -229.821425712169 0 -229.821425712169 -122.95936849790087 0 0 0 0 0.52396408656568383 -196.31685110005492 0 -196.31685110005492 63.674350530665834 0 0 0 0 56.993729518482724 -257.08130932948552 0 -257.08130932948552 41.912709121748776 0 0 0 0 210.11974181056064 -238.46170365481476 0 -238.46170365481476 -122.12867081635341 0 0 0 0 80.386177120832144 -169.58718584429153 0 -169.58718584429153 -147.78860390994669 0 0 0 0 272.40090175605292 -90.763678142295248 0 -90.763678142295248 -127.85125076714758 0 0 0 0 502.52789472625363 -35.388726809383115 0 -35.388726809383115 -187.32027127516631 0 0 0 0 249.79249318121219 -195.0656960027809 0 -195.0656960027809 -288.15694049308786 0 0 0 0 125.34532385772764 -60.083657630100788 0 -60.083657630100788 39.756059432333132 0 0 0 0 26.340242734823278 -160.35293090765026 0 -160.35293090765026 -38.424718274007319 0 0 0 0 -32.003146911873046 -59.733662113219907 0 -59.733662113219907 1.0326828597681015 0 0 0 0 -31.974616207869985 -95.883787156595645 0 -95.883787156595645 -37.40975587147841 0 0 0 0 -183.41116559868169 -149.13107174297693 0 -149.13107174297693 -37.204360933974385 0 0 0 0 72.091985944451153 -46.508388438873226 0 -46.508388438873226 54.460771186408238 0 0 0 0 -248.87289482729557 -17.794577899745491 0 -17.794577899745491 16.847932994918665 0 0 0 0 0.17191030364753956 -0.25402828550955547 0 -0.25402828550955547 -1.7782599053915078 0 0 0 0 17.676582271133157 -98.07275640296757 0 -98.07275640296757 8.8968992669833824 0 0 0 0 -217.22510821117612 -201.72072451928398 0 -201.72072451928398 -26.245297171350103 0 0 0 0 21.320475155559048 -20.741304049840551 0 -20.741304049840551 4.0506799601520598 0 0 0 0 -34.825664826213142 -31.907898071402485 0 -31.907898071402485 -14.492896755431161 0 0 0 0 149.02619923649036 -100.6158043015821 0 -100.6158043015821 -176.04125125463179 0 0 0 0 16.682802778424957 30.744252557866275 0 30.744252557866275 28.009280965728976 0 0 0 0 -73.00632990590384 8.746911638918391 0 8.746911638918391 60.125599783146754 0 0 0 0 -13.575007525617814 -31.626261160775599 0 -31.626261160775599 27.084080256451045 0 0 0 0 0.29081092938641717 -4.5594047523987058 0 -4.5594047523987058 11.753104124023643 0 0 0 0 -85.061611108372745 -65.815847608144395 0 -65.815847608144395 253.28017869052564 0 0 0 0 -84.465138752348139 -78.819050450962095 0 -78.819050450962095 342.68126536449563 0 0 0 0 10.011013658666343 -38.453226906005511 0 -38.453226906005511 268.66857751202406 0 0 0 0 -29.971604525038856 -129.61217736863182 0 -129.61217736863182 306.51706006635141 0 0 0 0 -75.469095880462191 -101.41401011711059 0 -101.41401011711059 306.42897312676359 0 0 0 0 -92.577868485350336 -217.58759964407727 0 -217.58759964407727 351.28670500485896 0 0 0 0 41.408951975891796 -273.17557792341904 0 -273.17557792341904 145.57458621091791 0 0 0 0 75.060713194638993 -379.05795699620649 0 -379.05795699620649 466.47407753070365 0 0 0 0 -26.875963469733165 -99.767120008751135 0 -99.767120008751135 498.9647007040985 0 0 0 0 48.109735879832442 -51.890813803925994 0 -51.890813803925994 371.64643927914221 0 0 0 0 1.0258882008624823 -34.249483193203105 0 -34.249483193203105 391.36827452713987 0 0 0 0 9.7499730145189751 -4.9589804703173854 0 -4.9589804703173854 3.78251253697875 0 0 0 0 73.026874271656425 -242.15005828401377 0 -242.15005828401377 1459.0364577571163 0 0 0 0 865.12709765980071 37.882350733641942 0 37.882350733641942 -187.53658857261689 0 0 0 0 1033.7921375375299 -746.19079872885777 0 -746.19079872885777 471.65355036493747 0 0 0 0 414.82932695020645 -437.80895177792809 0 -437.80895177792809 369.61103518264281 0 0 0 0 264.9611767849965 272.92938995650002 0 272.92938995650002 936.88147956351168 0 0 0 0 241.3292931049391 172.20474783435202 0 172.20474783435202 103.56321647233563 0 0 0 0 1203.5318505542273 -21.08646459045849 0 -21.08646459045849 138.48980026102618 0 0 0 0 380.30425864264726 -770.20495497134652 0 -770.20495497134652 827.9900023843511 0 0 0 0 1042.6239002712973 -606.42991707550573 0 -606.42991707550573 27.845459616939479 0 0 0 0 499.66256476682065 -444.02074468911178 0 -444.02074468911178 81.948216696364398 0 0 0 0 471.46311439385954 -363.88802265165941 0 -363.88802265165941 -43.948889256057555 0 0 0 0 49.504197700348413 -7.5858459546816448 0 -7.5858459546816448 120.80393652723797 0 0 0 0 446.48132307867263 -314.62493594948137 0 -314.62493594948137 98.359543664781086 0 0 0 0 360.61970395550088 -285.9458867356243 0 -285.9458867356243 91.466467937931156 0 0 0 0 345.83124149404557 -355.1176921260012 0 -355.1176921260012 257.08833548943949 0 0 0 0 537.33797460002552 -364.93923495642866 0 -364.93923495642866 61.757877900185122 0 0 0 0 437.6560815163848 -369.50363860596553 0 -369.50363860596553 162.41476402622357 0 0 0 0 437.24565833417728 -450.51965054155517 0 -450.51965054155517 96.030099707069894 0 0 0 0 513.36442238933705 -426.07566219429282 0 -426.07566219429282 202.00215280257544 0 0 0 0 -1.9206942903827002 -2.7749887848638153 0 -2.7749887848638153 3.0537697930578105 0 0 0 0 550.19034333675609 -397.11052491686769 0 -397.11052491686769 119.86235855672567 0 0 0 0 520.82074292290054 -395.50832156015531 0 -395.50832156015531 157.9999241020123 0 0 0 0 -1.2523353307740468 -5.241390323764028 0 -5.241390323764028 8.4381670267612208 0 0 0 0 -911.67391004884485 340.40508790517197 0 340.40508790517197 -359.71015045710374 0 0 0 0 -1265.2150581020105 -30.043071158062958 0 -30.043071158062958 70.614346947117156 0 0 0 0 -518.68311181261652 266.2985046445865 0 266.2985046445865 -107.32239325044247 0 0 0 0 238.20688760051416 -158.68706251608819 0 -158.68706251608819 -62.276040710632515 0 0 0 0 259.57377958690267 -492.46018493911834 0 -492.46018493911834 217.75561371206277 0 0 0 0 -377.72721332660603 -141.32959340459274 0 -141.32959340459274 343.68843565842326 0 0 0 0 257.16482341082337 -377.30761209222328 0 -377.30761209222328 115.22419090307449 0 0 0 0 -145.93608481807769 -515.8886392770728 0 -515.8886392770728 460.60580103199754 0 0 0 0 -400.42795979237553 341.4394811530783 0 341.4394811530783 266.73977089040636 0 0 0 0 43.901906275883448 -270.54102638306722 0 -270.54102638306722 196.19798530464686 0 0 0 0 253.29749465452915 132.85260931424227 0 132.85260931424227 -212.01444064874522 0 0 0 0 -1.5420917247385368 -1.8212812368961124 0 -1.8212812368961124 6.3942789659814849 0 0 0 0 31.664823681233884 -258.13072408249536 0 -258.13072408249536 195.51287420377048 0 0 0 0 -17.774554971722864 -295.69471664605953 0 -295.69471664605953 178.30420734418658 0 0 0 0 -0.3642845934477279 -2.1596979035318551 0 -2.1596979035318551 3.3041105743397594 0 0 0 0 -758.85579138820992 54.118056962436413 0 54.118056962436413 167.25487003542366 0 0 0 0 -633.15716429335134 -59.650903921094141 0 -59.650903921094141 146.03813602583068 0 0 0 0 -368.56385608875462 -20.820881505842408 0 -20.820881505842408 -0.15505347157886717 0 0 0 0 -2.8083608981717907 -3.3197774814409264 0 -3.3197774814409264 7.8041523240033115 0 0 0 0 361.69249168019473 -233.43756098143899 0 -233.43756098143899 -64.659445623430656 0 0 0 0 26.678321912042065 -440.34080096467915 0 -440.34080096467915 227.30310795300466 0 0 0 0 -50.80127979698409 -168.92555495067791 0 -168.92555495067791 195.68698786945242 0 0 0 0 -305.28300438755741 -210.11479653426068 0 -210.11479653426068 363.25987056858503 0 0 0 0 -312.21438359540355 -250.27664982567967 0 -250.27664982567967 181.03195373852213 0 0 0 0 -315.59175955523278 -248.04800146607886 0 -248.04800146607886 138.77339863465022 0 0 0 0 -329.63441534563799 -373.01747901436374 0 -373.01747901436374 12.844649028025742 0 0 0 0 -307.43825947749065 -419.31672406831967 0 -419.31672406831967 -468.87146645878238 0 0 0 0 -318.95238177973761 -381.82131853802275 0 -381.82131853802275 -82.227629959852493 0 0 0 0 -611.88650761281133 -253.07046797337716 0 -253.07046797337716 -15.540691080670513 0 0 0 0 -339.2006294544135 -381.08387646948177 0 -381.08387646948177 -10.216134663351113 0 0 0 0 -73.657379869822762 -347.96870055681211 0 -347.96870055681211 -42.745147806184832 0 0 0 0 -523.9926635421516 -207.046929916105 0 -207.046929916105 11.517333116575173 0 0 0 0 22.382959697729348 -37.374773888084746 0 -37.374773888084746 -3.4495996078767348 0 0 0 0 -273.13891083227827 -111.16217455604783 0 -111.16217455604783 40.321574695375602 0 0 0 0 -365.29129156929957 -353.96504222624208 0 -353.96504222624208 -78.587461639508547 0 0 0 0 -250.79295420470589 -369.3692331352795 0 -369.3692331352795 -77.665125122686732 0 0 0 0 -387.91636184998242 -377.555673981984 0 -377.555673981984 -102.56124949730292 0 0 0 0 -593.15843010757044 -294.8246528366908 0 -294.8246528366908 -22.641524231039512 0 0 0 0 -536.45158679304927 -288.17984817848082 0 -288.17984817848082 -145.55683595675509 0 0 0 0 -517.77734122152651 -400.50575142472371 0 -400.50575142472371 -85.322607320988027 0 0 0 0 -553.97058900179945 -348.25410738406208 0 -348.25410738406208 3.6162324295000872 0 0 0 0 -587.15809876623371 -583.36303067803237 0 -583.36303067803237 -55.630465948459459 0 0 0 0 -508.72993264201432 -461.09461502391241 0 -461.09461502391241 130.54542705747008 0 0 0 0 -602.39185214423753 -480.21465992404865 0 -480.21465992404865 504.85529062273417 0 0 0 0 -359.31303521325754 -444.6942339990419 0 -444.6942339990419 -150.32060911184089 0 0 0 0 -658.23065133309228 -178.557649142218 0 -178.557649142218 338.36001022408163 0 0 0 0 -663.57549297714218 -208.81265236402032 0 -208.81265236402032 682.69437697450485 0 0 0 0 -582.48768707778436 -303.72630508957081 0 -303.72630508957081 266.9712455238332 0 0 0 0 -611.37222343758731 -159.50322965193845 0 -159.50322965193845 220.25899034498434 0 0 0 0 -1118.3355888927667 74.366755765031485 0 74.366755765031485 388.85169432854309 0 0 0 0 -620.32253426702664 -118.48311743728118 0 -118.48311743728118 105.27514956821688 0 0 0 0 -577.43921381243945 -303.15335514359685 0 -303.15335514359685 -49.491220752868685 0 0 0 0 -643.9247019535751 -11.646900058039137 0 -11.646900058039137 -253.92848996046814 0 0 0 0 -694.82683580085359 18.786747593258042 0 18.786747593258042 197.79687398906572 0 0 0 0 -607.32928346036806 -166.93657678108138 0 -166.93657678108138 178.44844019164884 0 0 0 0 -899.37272492019838 27.305842556532298 0 27.305842556532298 481.63323586049955 0 0 0 0 -944.99723105198291 -188.9761869052254 0 -188.9761869052254 695.79212373503833 0 0 0 0 -798.73300628236393 -300.15113461611872 0 -300.15113461611872 780.19129934530065 0 0 0 0 -586.31053409217566 -159.35452237721984 0 -159.35452237721984 592.58242176433851 0 0 0 0 -813.45608484065997 109.36439343598249 0 109.36439343598249 586.7818721635922 0 0 0 0 -702.64914857976055 -75.854001960045935 0 -75.854001960045935 563.43199022609042 0 0 0 0 -643.35221089144261 54.054714937798508 0 54.054714937798508 563.16066492068057 0 0 0 0 -278.49290294825914 4.1822984868849744 0 4.1822984868849744 383.30492971042986 0 0 0 0 -1.8848299245765077 -7.631118230095197 0 -7.631118230095197 -3.5961497032907985 0 0 0 0 -19.529981786001827 2.7139343394201205 0 2.7139343394201205 35.458646021361346 0 0 0 0 -1110.5720347074812 534.95877232759267 0 534.95877232759267 108.47036879529514 0 0 0 0 -1.4769178596170605 -8.8670081601594575 0 -8.8670081601594575 -0.0010305599716957659 0 0 0 0 -5.5382649751559399 2.4437482543083178 0 2.4437482543083178 5.5229650800472996 0 0 0 0 -0.32127869912392271 -34.260594528072943 0 -34.260594528072943 33.37473564645552 0 0 0 0 -1.4991592129690616 -8.8873225129755156 0 -8.8873225129755156 0.00419450800109189 0 0 0 0 -234.75973636993348 -570.86755944624167 0 -570.86755944624167 725.9812849406735 0 0 0 0 -16.630631007164993 5.4480902634604718 0 5.4480902634604718 18.708669254658162 0 0 0 0 -13.628602429810847 -5.3728969725376601 0 -5.3728969725376601 0.86034658602443415 0 0 0 0 184.43048717182683 -284.44066191193997 0 -284.44066191193997 834.71323083767493 0 0 0 0 1.7676868255075533 -14.163604964469414 0 -14.163604964469414 3.1259223302622559 0 0 0 0 -3.2889561082544745 -8.1242743492270506 0 -8.1242743492270506 -3.6755729411331686 0 0 0 0 2.3840169159466313 -14.363543463663518 0 -14.363543463663518 0.0099714311872958206 0 0 0 0 -22.327132486290793 -13.392809474073147 0 -13.392809474073147 14.009491764903942 0 0 0 0 -4.0887947173458059 -8.7070056404936196 0 -8.7070056404936196 -4.3030720205367317 0 0 0 0 -0.37305009041210724 -33.500991900622921 0 -33.500991900622921 5.746274896315299 0 0 0 0 -8.3755789641381853 -27.174017710452972 0 -27.174017710452972 35.599561294751766 0 0 0 0 443.31957611899315 -617.83343365033033 0 -617.83343365033033 479.70916853301605 0 0 0 0 -12.375963893680819 5.7127510188547603 0 5.7127510188547603 -8.8114789315513917 0 0 0 0 -19.725254751867247 -12.920555406158584 0 -12.920555406158584 -6.4113623232504295 0 0 0 0 -0.31040684728606904 -3.5883862737207295 0 -3.5883862737207295 5.0979698447936528 0 0 0 0 479.45705691721889 -593.08032373593096 0 -593.08032373593096 374.63636757621134 0 0 0 0 482.21076503139443 -620.31097833661579 0 -620.31097833661579 401.57204690869548 0 0 0 0 603.88385455474418 -803.1315996436424 0 -803.1315996436424 614.54172460968402 0 0 0 0 687.46898559134206 -671.6399599456563 0 -671.6399599456563 329.68796648316493 0 0 0 0 698.31686295149666 -627.92773468862288 0 -627.92773468862288 293.3774886447718 0 0 0 0 729.51768225494743 -727.13162093064966 0 -727.13162093064966 325.86051219864748 0 0 0 0 524.81407339735688 -538.75007275511962 0 -538.75007275511962 393.7114479351003 0 0 0 0 583.09982529573608 -474.78330545009521 0 -474.78330545009521 95.911250599267078 0 0 0 0 467.60174547174393 -433.96388691419634 0 -433.96388691419634 201.90707660669796 0 0 0 0 388.22741501494465 -484.24887772719285 0 -484.24887772719285 481.803336755489 0 0 0 0 -27.227227640866023 -19.882583188159515 0 -19.882583188159515 -15.564895415842557 0 0 0 0 67.636793477729952 -42.422600255915313 0 -42.422600255915313 -23.913897046381862 0 0 0 0 -0.31429058777175456 -1.3723039539104178 0 -1.3723039539104178 -4.0722842670450916 0 0 0 0 67.953729648870649 -46.455578968878399 0 -46.455578968878399 -8.8156498718053626 0 0 0 0 61.075030646930827 -19.471726406372909 0 -19.471726406372909 -18.690632809222734 0 0 0 0 55.846156711366348 -17.251004603826004 0 -17.251004603826004 17.097300612571416 0 0 0 0 -14.522183343349752 -18.188408032512598 0 -18.188408032512598 -12.600782296634861 0 0 0 0 -1.3006447994066548 3.7501622019080969 0 3.7501622019080969 -6.3176157324560336 0 0 0 0 -27.08652083546076 -33.145443147475817 0 -33.145443147475817 26.787466024372407 0 0 0 0 -1.7652374114034473 -3.5909087971756435 0 -3.5909087971756435 -4.1244087500376452 0 0 0 0 30.564153880524827 -43.56975670382235 0 -43.56975670382235 12.102756433572722 0 0 0 0 174.20891079674948 -178.24219978575638 0 -178.24219978575638 0.26281923898932291 0 0 0 0 0.31040327460656414 -0.30520320085432928 0 -0.30520320085432928 0.63557387657948539 0 0 0 0 126.3010572210751 -129.86924677046954 0 -129.86924677046954 162.42861531175731 0 0 0 0 -1.4450159974439885 -273.94925998552208 0 -273.94925998552208 0.029959336381580215 0 0 0 0 1.9092094039060612 -2.6072687302639679 0 -2.6072687302639679 4.5311727904118015 0 0 0 0 -0.94173990217375092 -4.7416023070849036 0 -4.7416023070849036 -2.3203107544591859 0 0 0 0 -25.079279230380052 -190.92114225467958 0 -190.92114225467958 251.93177698655199 0 0 0 0 -51.206578190180153 -119.64644874552323 0 -119.64644874552323 431.26588457694379 0 0 0 0 -1.7225687289466975 -3.3216671984529142 0 -3.3216671984529142 -1.0507387276681825 0 0 0 0 -33.870770070941944 -12.093377999168297 0 -12.093377999168297 353.64535638854068 0 0 0 0 86.876857168903371 -91.086742244217021 0 -91.086742244217021 237.83509892693837 0 0 0 0 -13.84182148191212 8.0259048975149199 0 8.0259048975149199 141.23961024991149 0 0 0 0 -0.92256802520342518 -1.5892007318727508 0 -1.5892007318727508 -0.88450552599942256 0 0 0 0 -193.08329444565243 -145.14929456938989 0 -145.14929456938989 227.42238654952962 0 0 0 0 47.237581715184206 -86.902877440388693 0 -86.902877440388693 167.73578875705425 0 0 0 0 219.67535404144292 -169.74466541665606 0 -169.74466541665606 0.062620073825753977 0 0 0 0 176.60911255489918 -94.201447394658317 0 -94.201447394658317 -94.389812727744356 0 0 0 0 26.71579778344676 -149.32047385055557 0 -149.32047385055557 287.62534921080078 0 0 0 0 23.006688673478493 -51.619735417480115 0 -51.619735417480115 364.92597335224127 0 0 0 0 2.6066318784869509 -45.913509685389727 0 -45.913509685389727 -195.5141008186838 0 0 0 0 -24.159501493057633 -15.670370286928573 0 -15.670370286928573 -17.726760024648684 0 0 0 0 -18.958921317622298 -30.653942677494342 0 -30.653942677494342 -101.72852380380209 0 0 0 0 -49.464824470393069 -107.29897845326195 0 -107.29897845326195 -55.268599140916194 0 0 0 0 -21.268795013002091 -24.179589997223957 0 -24.179589997223957 -6.5904088143906847 0 0 0 0 -65.963526150804682 -53.270787859852135 0 -53.270787859852135 -30.054798195767944 0 0 0 0 -23.222722359227191 -8.6639137102174573 0 -8.6639137102174573 -11.096764919391717 0 0 0 0 -108.70992188584569 -8.7136527279726579 0 -8.7136527279726579 7.1075199253173196 0 0 0 0 -112.79607500865075 -85.025287391203619 0 -85.025287391203619 -4.5188491528388113 0 0 0 0 -47.52915523287993 -81.733528341688725 0 -81.733528341688725 -31.557106017557089 0 0 0 0 -46.640419213363202 -75.99599632146419 0 -75.99599632146419 -3.5815221804077737 0 0 0 0 236.64792316246448 -515.39596526661626 0 -515.39596526661626 87.294754474813089 0 0 0 0 324.5362480694597 -398.00820552638379 0 -398.00820552638379 106.0460119536001 0 0 0 0 139.11806727916513 -264.90879877015686 0 -264.90879877015686 177.31755783390781 0 0 0 0 49.745415009630051 -490.18920250210795 0 -490.18920250210795 301.54262754462525 0 0 0 0 534.6071578246615 -216.5609491584928 0 -216.5609491584928 214.01187360429685 0 0 0 0 425.9456223531655 -439.44851085845039 0 -439.44851085845039 341.08232966617288 0 0 0 0 459.18486225919753 -268.30064410529303 0 -268.30064410529303 211.31887188106339 0 0 0 0 333.16772866079782 -108.4779200393059 0 -108.4779200393059 123.7552670331861 0 0 0 0 152.75334780116259 -364.75570827812408 0 -364.75570827812408 214.56570270777593 0 0 0 0 180.56501936573363 -289.58574413966926 0 -289.58574413966926 270.50750017933751 0 0 0 0 165.94315852049181 -153.80446165368994 0 -153.80446165368994 -160.13326821912779 0 0 0 0 -333.89227659080888 -204.43056819924095 0 -204.43056819924095 167.12983448008163 0 0 0 0 262.03247188756541 -293.04680519260728 0 -293.04680519260728 41.443755265661821 0 0 0 0 467.09695186575345 -30.712080141211118 0 -30.712080141211118 132.92657872262498 0 0 0 0 -4.8588487880388875 -4.6721640511480196 0 -4.6721640511480196 30.293886209578531 0 0 0 0 97.313016578014867 -443.09757207526764 0 -443.09757207526764 -9.936325983810093 0 0 0 0 221.22221444155025 -267.61544098820741 0 -267.61544098820741 158.45421604475996 0 0 0 0 -374.64232768402746 -685.75622103934029 0 -685.75622103934029 -30.09292702597304 0 0 0 0 86.531084689540876 -530.28555155982031 0 -530.28555155982031 -272.37001836989475 0 0 0 0 -419.72243256491771 -541.06811432912582 0 -541.06811432912582 505.09332412385243 0 0 0 0 -4.0856236025945485 -4.6459597661004324 0 -4.6459597661004324 -3.3824609188813923 0 0 0 0 404.51705267020498 -317.70742568206333 0 -317.70742568206333 -251.58259504103626 0 0 0 0 -116.86088538155596 -859.59322202522708 0 -859.59322202522708 -190.56458055000257 0 0 0 0 295.04245077478549 -481.42246233102924 0 -481.42246233102924 95.527205675948608 0 0 0 0 519.66175542789938 -642.23777922683439 0 -642.23777922683439 -115.94650472400463 0 0 0 0 741.5749970704303 -317.05191858734997 0 -317.05191858734997 -17.392015047145833 0 0 0 0 402.1355260980701 -284.15267814403774 0 -284.15267814403774 227.9533401683002 0 0 0 0 1685.2645347621574 -245.60541327036663 0 -245.60541327036663 -78.386379209296138 0 0 0 0 1.3647975254106448 -3.2800408290252641 0 -3.2800408290252641 0.59376788710204664 0 0 0 0 -994.3540029505757 -495.66075405155971 0 -495.66075405155971 137.64874350785249 0 0 0 0 -370.09528007755898 -288.67590379655667 0 -288.67590379655667 -161.206532143402 0 0 0 0 -367.19059706739972 -338.70977062448583 0 -338.70977062448583 -123.63402180422599 0 0 0 0 3.1007951566118921 -7.5130855321065075 0 -7.5130855321065075 1.871673358060562 0 0 0 0 704.86961890606824 -186.6386350494522 0 -186.6386350494522 -34.04469807442365 0 0 0 0 637.13016694559133 -202.88567177444202 0 -202.88567177444202 42.541730414955964 0 0 0 0 -402.80797432103373 -291.90380261068458 0 -291.90380261068458 84.793527775820621 0 0 0 0 -482.36332933787071 -220.22855777038058 0 -220.22855777038058 202.36471561402141 0 0 0 0 -403.94606123019366 -339.12533295083631 0 -339.12533295083631 -42.687481989531079 0 0 0 0 -669.88839679944886 -555.92228022830932 0 -555.92228022830932 -77.488722260099166 0 0 0 0 -326.50037686731139 -567.63862111589515 0 -567.63862111589515 -536.83751199168182 0 0 0 0 80.328515239918488 -115.40734328639883 0 -115.40734328639883 -748.60445211222032 0 0 0 0 -164.01275266610173 -255.74363195792739 0 -255.74363195792739 -99.992834765624139 0 0 0 0 -103.00825324453717 -73.547947002101864 0 -73.547947002101864 -20.810678895526507 0 0 0 0 -8.6868491170960986 -9.3960996258770493 0 -9.3960996258770493 -2.0053201177012667 0 0 0 0 295.1848257143356 -356.80905787074153 0 -356.80905787074153 282.46918028161963 0 0 0 0 272.88124531717949 -401.02384797634659 0 -401.02384797634659 553.38684808797552 0 0 0 0 -4.4635614300909801 -2.4597445400556097 0 -2.4597445400556097 -1.0451845717771064 0 0 0 0 -511.65814198249609 -446.08682076665355 0 -446.08682076665355 745.11260204714563 0 0 0 0 -734.65863680787515 -946.08495913582374 0 -946.08495913582374 -35.384589699860953 0 0 0 0 401.80292471955283 -385.7113074813642 0 -385.7113074813642 -30.704735050175259 0 0 0 0 497.81472927699815 -118.19449920301122 0 -118.19449920301122 -33.601501206761895 0 0 0 0 -28.452025214007335 -52.61325775563455 0 -52.61325775563455 -171.26507264660358 0 0 0 0 -1.1700081085211054 -11.812951204926444 0 -11.812951204926444 2.780381208845597 0 0 0 0 138.20966454895412 -123.00624706037888 0 -123.00624706037888 66.658962265042646 0 0 0 0 205.23279289108467 -152.91358675601259 0 -152.91358675601259 77.79928986430059 0 0 0 0 -18.805268588289259 -16.661130359620039 0 -16.661130359620039 -6.6620685345072417 0 0 0 0 -8.666958934321201 75.415717520075759 0 75.415717520075759 642.02517999359043 0 0 0 0 -4.9829630762345332 -6.2008765548011802 0 -6.2008765548011802 5.8474778485841625 0 0 0 0 959.08913619368582 -711.51923067328516 0 -711.51923067328516 471.97121368652006 0 0 0 0 513.48142263647969 -558.62242215701008 0 -558.62242215701008 278.95441756057699 0 0 0 0 109.85141222976472 -523.21198110437217 0 -523.21198110437217 841.09758642247107 0 0 0 0 -429.74080776608207 -388.42029650279801 0 -388.42029650279801 419.00766168122027 0 0 0 0 -431.91447476626035 -363.96026474642167 0 -363.96026474642167 849.48746556670812 0 0 0 0 -101.8559991946131 -238.42822232793333 0 -238.42822232793333 677.77495251038636 0 0 0 0 -62.627607555319628 -529.65591287199277 0 -529.65591287199277 1514.1113002325947 0 0 0 0 391.65485431901197 -34.119675154724973 0 -34.119675154724973 653.08598907269698 0 0 0 0 -454.9627498805603 -37.931190602696006 0 -37.931190602696006 725.94120003036551 0 0 0 0 -876.13069730479128 -93.486880151339392 0 -93.486880151339392 752.39136190417048 0 0 0 0 -536.17579632980232 -141.009567578727 0 -141.009567578727 593.39644121459423 0 0 0 0 -476.70442307210396 -342.77599342199755 0 -342.77599342199755 860.91699494948989 0 0 0 0 -555.24983898796927 -176.38847674806857 0 -176.38847674806857 549.53484255279909 0 0 0 0 60.908543634843227 -261.46061975622069 0 -261.46061975622069 173.26481754674023 0 0 0 0 -97.222500620205665 -456.2741054262915 0 -456.2741054262915 323.3754642598069 0 0 0 0 -462.52276400629034 -685.33596760675755 0 -685.33596760675755 -0.86110178481976618 0 0 0 0 -1410.4930471759708 -125.06736396883753 0 -125.06736396883753 571.63273370772504 0 0 0 0 74.657562612101174 -511.95184301915288 0 -511.95184301915288 282.20928500895479 0 0 0 0 261.65543734149014 -511.8989186144554 0 -511.8989186144554 0.28155360863820533 0 0 0 0 240.25692137537771 -370.55173392685174 0 -370.55173392685174 0.073631350841450616 0 0 0 0 198.56002915071099 -343.52495854450535 0 -343.52495854450535 169.30463955143205 0 0 0 0 136.2114779787828 -239.47541143948729 0 -239.47541143948729 172.36892713019188 0 0 0 0 256.00640036232892 -482.73622679903565 0 -482.73622679903565 262.08235565658106 0 0 0 0 88.045452551526978 -296.30300044018531 0 -296.30300044018531 433.04594716093925 0 0 0 0 159.4133594613873 -304.76381951763869 0 -304.76381951763869 377.48854503849543 0 0 0 0 55.796173406487469 -354.09051980122058 0 -354.09051980122058 346.08213718124262 0 0 0 0 135.21187848621921 -334.58830924911945 0 -334.58830924911945 380.0749307084443 0 0 0 0 -11.762773744531252 -12.001685031458337 0 -12.001685031458337 -7.4720445513004066 0 0 0 0 157.83296396410708 -331.0486493048993 0 -331.0486493048993 566.60247242544574 0 0 0 0 -4.3470063156714396 -8.4244003527994664 0 -8.4244003527994664 -5.1550640281667697 0 0 0 0 272.16559535084559 -368.41513893070623 0 -368.41513893070623 574.19311474795722 0 0 0 0 127.20964674149613 -243.1471621505425 0 -243.1471621505425 108.71122941891736 0 0 0 0 140.46246683456866 -244.99048972375385 0 -244.99048972375385 107.78461930236153 0 0 0 0 175.70935027108857 -281.32509869759451 0 -281.32509869759451 0.098665976238407893 0 0 0 0 151.06053658941818 -129.37905922134291 0 -129.37905922134291 -331.08962536360195 0 0 0 0 474.16317408199234 -481.08855623237105 0 -481.08855623237105 -0.30926593920123618 0 0 0 0 477.24899416385074 -473.92022165073286 0 -473.92022165073286 14.423236095652101 0 0 0 0 891.29156238236123 -703.07203699110687 0 -703.07203699110687 -5.5697977170420927 0 0 0 0 635.89626304082549 -777.56797974501205 0 -777.56797974501205 1153.2420785083086 0 0 0 0 768.25025971313698 -701.52885186654748 0 -701.52885186654748 892.82827575384727 0 0 0 0 0.076366379782049965 -3.5259969795071129 0 -3.5259969795071129 -1.9462817920201942 0 0 0 0 240.35570472829704 -436.88439668751198 0 -436.88439668751198 281.72412321179581 0 0 0 0 485.57656940729294 -473.54673102597735 0 -473.54673102597735 0.08041566040735991 0 0 0 0 166.34828693586678 -369.32324372843141 0 -369.32324372843141 220.08623284434725 0 0 0 0 193.26769916587546 -657.45211838965042 0 -657.45211838965042 864.77871010272793 0 0 0 0 252.86092581403909 -346.37315821346579 0 -346.37315821346579 114.77668387963786 0 0 0 0 143.68175088864547 -232.60882261376651 0 -232.60882261376651 170.21525226835365 0 0 0 0 138.12803002744852 -284.71784168144768 0 -284.71784168144768 318.63277544781158 0 0 0 0 87.046020388386751 -175.08747067303193 0 -175.08747067303193 225.86204710052698 0 0 0 0 134.74174066346814 -198.4930284952643 0 -198.4930284952643 47.625798777990894 0 0 0 0 53.9429627760438 -92.485481108290514 0 -92.485481108290514 70.562008745011553 0 0 0 0 138.74000304246556 -232.22911083281724 0 -232.22911083281724 138.11469169308475 0 0 0 0 150.64135693020626 -204.18322995725975 0 -204.18322995725975 171.56229113379231 0 0 0 0 161.33659488301691 -204.23775047467279 0 -204.23775047467279 120.44215980818262 0 0 0 0 301.6276197813566 -616.23701505365875 0 -616.23701505365875 914.82961644827446 0 0 0 0 0.27983510460325856 -0.59322946217025674 0 -0.59322946217025674 7.9907202004820306 0 0 0 0 1414.6724106785878 -1012.2619939668257 0 -1012.2619939668257 684.31113145779454 0 0 0 0 -331.87817645951623 -90.658073766355301 0 -90.658073766355301 334.55138303357671 0 0 0 0 1008.9451631667074 -455.87980946252719 0 -455.87980946252719 272.66103549707987 0 0 0 0 738.46388205678852 -402.73247079434259 0 -402.73247079434259 279.50994728802993 0 0 0 0 198.3325225286718 -379.97801731035906 0 -379.97801731035906 216.24380742916401 0 0 0 0 442.39430053673931 -334.58359895246031 0 -334.58359895246031 -66.530555074044059 0 0 0 0 -1.0739046385322726 -0.29495163907349209 0 -0.29495163907349209 21.815713035822597 0 0 0 0 87.74187764327462 -133.76828316702995 0 -133.76828316702995 -12.240935654066561 0 0 0 0 152.92892209896877 -244.85873178063866 0 -244.85873178063866 98.394440724121523 0 0 0 0 144.36082196224697 -220.30477349061039 0 -220.30477349061039 156.76462095003808 0 0 0 0 89.025594666457437 -247.77187645445156 0 -247.77187645445156 156.47232840559445 0 0 0 0 115.55148030387568 -294.26520112093567 0 -294.26520112093567 232.0893125579023 0 0 0 0 137.66803972059097 -283.46689717119079 0 -283.46689717119079 67.564652288012439 0 0 0 0 30.141120796186812 -353.94920024761996 0 -353.94920024761996 517.6789025102189 0 0 0 0 20.76451838198409 -250.50164247837893 0 -250.50164247837893 180.38239185538987 0 0 0 0 -12.291069969915952 -269.13897855619507 0 -269.13897855619507 239.41537913360753 0 0 0 0 48.8262810150527 -231.13267814035498 0 -231.13267814035498 192.12618238956202 0 0 0 0 -17.582050512388378 -324.36270360085837 0 -324.36270360085837 158.28115474288643 0 0 0 0 33.057502028169097 -206.68044610804645 0 -206.68044610804645 213.2926564157533 0 0 0 0 41.195773898607513 -234.8598364601603 0 -234.8598364601603 -191.60139218728 0 0 0 0 67.974373365312204 -2.9623244597460143 0 -2.9623244597460143 17.535422304150416 0 0 0 0 48.310296360554275 55.291709945347975 0 55.291709945347975 -152.27372498968725 0 0 0 0 1.5046456459054802 -1.3151457569336742 0 -1.3151457569336742 -0.71456681285965828 0 0 0 0 -11.954864406519846 -65.921945132882684 0 -65.921945132882684 104.62009582587052 0 0 0 0 -245.28168366169484 -206.17941755460197 0 -206.17941755460197 -198.25532423690311 0 0 0 0 87.613020368297214 -85.552226846351004 0 -85.552226846351004 51.638430496597721 0 0 0 0 14.110064142540978 -51.002547442192736 0 -51.002547442192736 49.225827728192598 0 0 0 0 63.952455522976379 -20.576995568299026 0 -20.576995568299026 -3.1359015761991031 0 0 0 0 12.874694312381735 31.915433629266772 0 31.915433629266772 255.92755291493813 0 0 0 0 12.899000152523099 -7.6772155554984209 0 -7.6772155554984209 4.897369722927678 0 0 0 0 -10.241732287700415 -173.9800033262436 0 -173.9800033262436 1086.3487097966135 0 0 0 0 1457.7972490384607 -65.51211196341319 0 -65.51211196341319 -64.847307960684702 0 0 0 0 1111.7270409081877 -715.64176034725097 0 -715.64176034725097 61.431857378971472 0 0 0 0 75.000875441853196 -700.57794402969012 0 -700.57794402969012 524.88667435220123 0 0 0 0 165.67148093923379 -1302.0734114615843 0 -1302.0734114615843 889.17374524586194 0 0 0 0 1730.7703222179784 -1212.7957808570281 0 -1212.7957808570281 122.40249926490651 0 0 0 0 786.42126933053748 -1846.9154716449739 0 -1846.9154716449739 973.82606543212023 0 0 0 0 53.861383585483253 255.62213316679663 0 255.62213316679663 219.33303783585143 0 0 0 0 1931.2836589814178 906.26251818748278 0 906.26251818748278 -293.65869581142761 0 0 0 0 741.57509617432697 -246.20795613526934 0 -246.20795613526934 19.63728676226674 0 0 0 0 -2.1770684830219462 0.34805232426188937 0 0.34805232426188937 32.625196273413366 0 0 0 0 270.19541633996778 -395.07965920544666 0 -395.07965920544666 213.58196334041077 0 0 0 0 775.04656456357941 -895.58597722314153 0 -895.58597722314153 709.7718035939979 0 0 0 0 6.1994250575316983 -4.6182076736658928 0 -4.6182076736658928 -34.022007912506524 0 0 0 0 10.101388040987523 -8.6680514400745068 0 -8.6680514400745068 -8.7520274775507687 0 0 0 0 -14.874146597849176 -39.34077366033307 0 -39.34077366033307 -10.260924870286544 0 0 0 0 5.0955594283814207 -32.447844935453759 0 -32.447844935453759 -88.254931281153404 0 0 0 0 -63.525669057024288 -129.19844663091476 0 -129.19844663091476 -114.55315878351394 0 0 0 0 -37.953096886438516 -94.682938205170103 0 -94.682938205170103 -54.963695656915661 0 0 0 0 3.5349030370014916 -11.827827298471433 0 -11.827827298471433 -21.126842456544907 0 0 0 0 0.14631167482730234 -11.642843385183369 0 -11.642843385183369 -104.68140517402753 0 0 0 0 -27.680432678388115 -46.27266549388878 0 -46.27266549388878 -126.0252816873035 0 0 0 0 -97.282942020821793 -88.329605488324887 0 -88.329605488324887 -21.397730531345587 0 0 0 0 -61.616011763748247 -92.334639480672195 0 -92.334639480672195 -59.654730390771874 0 0 0 0 -1.6435293174476158 -12.456109506013505 0 -12.456109506013505 -14.164047256768555 0 0 0 0 18.562319227556145 -72.74579762545909 0 -72.74579762545909 -129.35847069363444 0 0 0 0 24.773573942001804 -55.52560901308243 0 -55.52560901308243 -87.912534433315159 0 0 0 0 27.816073924444936 -38.345028630152228 0 -38.345028630152228 -97.805486296955792 0 0 0 0 26.33533229321074 -50.408887165111082 0 -50.408887165111082 -98.020885102415946 0 0 0 0 14.53703001172471 -82.148884295849712 0 -82.148884295849712 -92.237814572010393 0 0 0 0 33.410987921649848 -49.786459287683101 0 -49.786459287683101 -145.42088303005585 0 0 0 0 119.94580922794921 -117.46487698894634 0 -117.46487698894634 -383.87338894228742 0 0 0 0 24.19354573972123 89.196340079739457 0 89.196340079739457 -332.8208137972033 0 0 0 0 -63.228579070656451 -158.59733149109525 0 -158.59733149109525 -49.494242228756775 0 0 0 0 11.297681383221061 -35.5426975969458 0 -35.5426975969458 -224.79396445093153 0 0 0 0 -0.3362665351746017 -2.3576179703948554 0 -2.3576179703948554 -2.9909111053749484 0 0 0 0 11.39885435032852 -260.21927190563929 0 -260.21927190563929 253.64924783868628 0 0 0 0 31.157920073499099 -193.53118814909521 0 -193.53118814909521 269.06901633481175 0 0 0 0 4.1314948316758091 -21.299889509380591 0 -21.299889509380591 -51.253755539923077 0 0 0 0 0.46882754172838759 -19.407979537994834 0 -19.407979537994834 -51.51732150704629 0 0 0 0 -18.48203131862283 30.958739484893158 0 30.958739484893158 -125.97850421776639 0 0 0 0 -0.51333848308600238 -6.928289806591188 0 -6.928289806591188 -8.5200057558216571 0 0 0 0 142.53080164476347 -210.0138619568902 0 -210.0138619568902 214.91383236621914 0 0 0 0 215.17158506995111 -197.29918709342746 0 -197.29918709342746 139.06354554335121 0 0 0 0 111.29618652252975 -206.58010081857719 0 -206.58010081857719 200.95283493107127 0 0 0 0 143.66092755264162 -179.14494590862523 0 -179.14494590862523 221.08501431181503 0 0 0 0 151.87853163412728 -188.15582838659247 0 -188.15582838659247 155.94971066501967 0 0 0 0 144.22341605523798 -199.46108357373305 0 -199.46108357373305 148.52976676602339 0 0 0 0 172.08689585613138 -192.43318800021007 0 -192.43318800021007 119.18655839956773 0 0 0 0 144.30446036524881 -164.17773504010984 0 -164.17773504010984 208.98130379780923 0 0 0 0 147.83862501955991 -193.12267456520931 0 -193.12267456520931 169.79712636442127 0 0 0 0 77.091329158245969 -133.72314253951504 0 -133.72314253951504 107.40005551977083 0 0 0 0 166.46414477935105 -160.05981641299877 0 -160.05981641299877 143.77384220105887 0 0 0 0 67.474823554743125 -252.19369300009566 0 -252.19369300009566 308.61682722953265 0 0 0 0 -4.2984569876913206 -3.887567815036725 0 -3.887567815036725 -2.8677546242091694 0 0 0 0 -39.93021583749578 26.121429561120749 0 26.121429561120749 0.22700314954272471 0 0 0 0 -83.255005907853047 -103.08223255178746 0 -103.08223255178746 -12.514553571488705 0 0 0 0 -24.334969314658945 -19.300767973987973 0 -19.300767973987973 -12.018033280149709 0 0 0 0 -4.1293136743406649 -3.5530817467788438 0 -3.5530817467788438 37.392832466823165 0 0 0 0 102.17032073835981 -209.54660609488201 0 -209.54660609488201 119.80870993121971 0 0 0 0 34.992673615727654 -129.81416347530831 0 -129.81416347530831 69.51993635261897 0 0 0 0 218.03788154740687 -212.01131268502286 0 -212.01131268502286 83.962228576349844 0 0 0 0 133.03508363522997 -196.29690625227522 0 -196.29690625227522 108.46503283809579 0 0 0 0 135.89605035271961 -206.2426548485455 0 -206.2426548485455 131.77920764503324 0 0 0 0 126.92081301368307 -221.4891467554371 0 -221.4891467554371 115.86051357408996 0 0 0 0 137.07150407113431 -211.98367048340515 0 -211.98367048340515 119.19354505126103 0 0 0 0 159.81600176933534 -224.60939247490751 0 -224.60939247490751 115.95970903329726 0 0 0 0 171.21705355513041 -153.26820542473797 0 -153.26820542473797 94.777175007980986 0 0 0 0 132.06945518242583 -233.09252050718987 0 -233.09252050718987 140.27286010971147 0 0 0 0 153.99971221598753 -212.17526570431073 0 -212.17526570431073 147.72451428268641 0 0 0 0 135.94075204526052 -209.77809832533603 0 -209.77809832533603 147.509498026855 0 0 0 0 151.83824865534825 -204.62071594553709 0 -204.62071594553709 137.24908131748089 0 0 0 0 156.24693373158243 -200.33752730635024 0 -200.33752730635024 123.79984609014355 0 0 0 0 154.4195819292072 -198.7883459133518 0 -198.7883459133518 144.20625327818561 0 0 0 0 147.07284486167009 -221.18496605986365 0 -221.18496605986365 126.16800376811079 0 0 0 0 149.82249024621706 -213.08428229141282 0 -213.08428229141282 149.47110571146914 0 0 0 0 152.13765873665488 -251.93553036182493 0 -251.93553036182493 197.08002320467494 0 0 0 0 155.86700979985744 -242.3285225484542 0 -242.3285225484542 128.84193061484075 0 0 0 0 157.45670037170203 -230.81905051946887 0 -230.81905051946887 101.86956276495766 0 0 0 0 199.18797814966729 -280.48638062459759 0 -280.48638062459759 99.717660566400468 0 0 0 0 225.78907101318873 -285.93023156151867 0 -285.93023156151867 0.24132814327822416 0 0 0 0 156.25686339437408 -230.75896413180783 0 -230.75896413180783 20.747572788968682 0 0 0 0 154.25405799536202 -203.56570855591053 0 -203.56570855591053 85.838768068268109 0 0 0 0 193.18987118956579 -259.25756665993868 0 -259.25756665993868 32.813936908984033 0 0 0 0 170.33296820606938 -229.4903028677054 0 -229.4903028677054 -0.025989461872086395 0 0 0 0 120.23015162204501 -260.49684479593725 0 -260.49684479593725 35.233295033769537 0 0 0 0 52.909188688596259 -204.67005980085742 0 -204.67005980085742 -0.0051785368013952393 0 0 0 0 -44.004235750931912 -281.42768141732813 0 -281.42768141732813 40.492311694055388 0 0 0 0 -159.09182832158695 -194.21160653521656 0 -194.21160653521656 18.030376799254554 0 0 0 0 -135.67735511097999 -183.00922989507126 0 -183.00922989507126 0.097324635650732447 0 0 0 0 -169.90925231046822 -176.35593396876538 0 -176.35593396876538 -23.449984965103795 0 0 0 0 -197.37948937287274 -162.10067964473092 0 -162.10067964473092 -17.114535181921383 0 0 0 0 -165.64674936304937 -204.76696548691348 0 -204.76696548691348 4.4069407823189977 0 0 0 0 -195.87743405418951 -171.46375188066304 0 -171.46375188066304 11.963977767243705 0 0 0 0 -204.46714578796673 -108.78371501361107 0 -108.78371501361107 -51.102553334112599 0 0 0 0 -154.41075178535266 -197.251959991494 0 -197.251959991494 0.90268802722130204 0 0 0 0 -190.51499274522575 -142.49375968686036 0 -142.49375968686036 -24.986543983293814 0 0 0 0 -186.03441507400748 -169.74525423415253 0 -169.74525423415253 -45.575469714996871 0 0 0 0 -172.14382431061676 -150.23800670498167 0 -150.23800670498167 -69.050389074222039 0 0 0 0 -210.88635537738628 -171.18680002463225 0 -171.18680002463225 -75.926382752133577 0 0 0 0 -193.28904551616415 -134.17685157896176 0 -134.17685157896176 -103.06567783388891 0 0 0 0 -192.40931388310491 -188.67905072887152 0 -188.67905072887152 -162.53964711774279 0 0 0 0 -198.44275842938441 -171.91453950756477 0 -171.91453950756477 -151.14521846007119 0 0 0 0 -161.20208049232679 -166.42044278288085 0 -166.42044278288085 -156.79540757140785 0 0 0 0 -176.18781239095188 -165.17620397891005 0 -165.17620397891005 -99.886207828116312 0 0 0 0 -47.911410902432181 -71.477202360831143 0 -71.477202360831143 -125.10799767052958 0 0 0 0 -302.75132036049763 -242.31871312372095 0 -242.31871312372095 -167.87886401967262 0 0 0 0 -159.88717325219295 -155.32730896766225 0 -155.32730896766225 -211.92140686557104 0 0 0 0 -4.4400160353114089 1.4452410978674166 0 1.4452410978674166 4.0842178667733151 0 0 0 0 -3.117240690384854 -3.71836567914238 0 -3.71836567914238 0.51844448375422303 0 0 0 0 107.61600242203895 -10.487934098026017 0 -10.487934098026017 -10.291733357931662 0 0 0 0 208.20860104971143 -71.743798576258996 0 -71.743798576258996 -8.2827333969987649 0 0 0 0 49.97868022086368 -310.11504071725994 0 -310.11504071725994 36.888544050118071 0 0 0 0 -194.36591907843649 -206.11751476006975 0 -206.11751476006975 57.031392704458995 0 0 0 0 -179.05899488861542 -102.14964897203754 0 -102.14964897203754 -123.92277812783141 0 0 0 0 -48.885499385492949 -158.9340144980124 0 -158.9340144980124 13.932014695674297 0 0 0 0 30.551041690017883 -87.547546532714478 0 -87.547546532714478 -23.480282556949533 0 0 0 0 43.008572561129768 -112.99107571326567 0 -112.99107571326567 0.15614052302771597 0 0 0 0 -81.038969875598923 -84.962365277089702 0 -84.962365277089702 49.908183210460265 0 0 0 0 -89.114382796903101 -48.366606574445541 0 -48.366606574445541 -51.239392823015805 0 0 0 0 -204.55542667771715 -116.78921650840857 0 -116.78921650840857 -0.074927908342942828 0 0 0 0 -110.30354570211421 -184.18061422168103 0 -184.18061422168103 -44.75313992907229 0 0 0 0 -196.25109736692139 -117.88873689849788 0 -117.88873689849788 -63.583058969945341 0 0 0 0 -110.06336898249992 -153.22432805514472 0 -153.22432805514472 -56.52567258203635 0 0 0 0 -1.3114629099317057 0.23580098515641623 0 0.23580098515641623 1.3984836845539519 0 0 0 0 -162.24882871543377 -191.7175054724139 0 -191.7175054724139 -0.12421510392157666 0 0 0 0 -209.00089286800903 -139.05962574215482 0 -139.05962574215482 -63.099836971414334 0 0 0 0 -167.71645016564617 -149.03705209525106 0 -149.03705209525106 -60.877369222012931 0 0 0 0 -203.58805873331949 -160.55353425277644 0 -160.55353425277644 -93.407305331835232 0 0 0 0 -186.75269773376203 -155.26337299344959 0 -155.26337299344959 -130.56144373219649 0 0 0 0 -197.98879152251175 -139.18012820972217 0 -139.18012820972217 -110.68133191799279 0 0 0 0 -1.0829669234403205 0.16519788233688359 0 0.16519788233688359 1.2533957501576651 0 0 0 0 -214.0501955097352 -126.44605226084968 0 -126.44605226084968 -36.060514311910083 0 0 0 0 -172.64283358988177 -189.85191667951585 0 -189.85191667951585 -25.646889099928558 0 0 0 0 -139.2991113123062 -204.78121293265031 0 -204.78121293265031 -130.70300977304578 0 0 0 0 -185.94369174452004 -101.43382106025092 0 -101.43382106025092 -79.31485676741795 0 0 0 0 -82.110024941957818 -165.38391021018106 0 -165.38391021018106 -39.930186728241097 0 0 0 0 -80.360734957543173 -123.86541848592788 0 -123.86541848592788 -1.560125981013698 0 0 0 0 0.12009423504614603 -0.48624544708358997 0 -0.48624544708358997 -2.4278695133570807 0 0 0 0 -662.2260811090855 -378.5314492588177 0 -378.5314492588177 -97.826582257446717 0 0 0 0 -96.329677804978928 -209.90699185131052 0 -209.90699185131052 -376.72896322072484 0 0 0 0 -115.86511514968515 -160.06873194735454 0 -160.06873194735454 -187.78164456520972 0 0 0 0 -235.71648961745996 6.0010702051222324 0 6.0010702051222324 161.88475486973766 0 0 0 0 382.19688514623158 70.455264255839211 0 70.455264255839211 -138.33634849022201 0 0 0 0 -138.67285777089273 -98.790289057105838 0 -98.790289057105838 -144.33870026011573 0 0 0 0 -274.26962713827822 -200.97975050942998 0 -200.97975050942998 -291.07667136069358 0 0 0 0 -282.601613399911 -271.82232104618015 0 -271.82232104618015 -120.32298208828115 0 0 0 0 -115.44685866616578 -149.0979515950994 0 -149.0979515950994 -122.87208373058093 0 0 0 0 -202.05035706620947 -110.20166638556839 0 -110.20166638556839 -110.10243178581732 0 0 0 0 -261.77505698162713 -193.96712884416411 0 -193.96712884416411 -115.11702895509734 0 0 0 0 -11.58470353844848 -3.7307827727692029 0 -3.7307827727692029 12.860342384529829 0 0 0 0 -273.8606375172327 -312.38803327807318 0 -312.38803327807318 -255.44505809755356 0 0 0 0 -9.5631232934538275 3.002054918120848 0 3.002054918120848 23.866241406409245 0 0 0 0 -2.1557893194876669 -0.88917520257746219 0 -0.88917520257746219 22.049491269979626 0 0 0 0 -7.8764959194359108 5.8205263289546565 0 5.8205263289546565 23.913451384883956 0 0 0 0 -5.2702928223727312 -3.5772229159198616 0 -3.5772229159198616 0.52497874840537406 0 0 0 0 -58.680446372854931 -33.725427780875179 0 -33.725427780875179 45.942702643085795 0 0 0 0 -11.318572386149754 -18.875880277155375 0 -18.875880277155375 73.428237726348016 0 0 0 0 -6.4445260585671349 -20.27760350661265 0 -20.27760350661265 62.679140405511134 0 0 0 0 -7.7769375269465684 8.3295852402288091 0 8.3295852402288091 10.007500435182152 0 0 0 0 -1.3872575546468369 2.7506435031031344 0 2.7506435031031344 2.3289652074833285 0 0 0 0 -328.1982300205309 -460.88971455143837 0 -460.88971455143837 -339.23647019321652 0 0 0 0 -307.49705550632279 -483.15042306304895 0 -483.15042306304895 -680.17229718810995 0 0 0 0 -10.041976961168004 -3.6063013529612249 0 -3.6063013529612249 12.645031905613394 0 0 0 0 -272.36261000741615 -58.536861194470475 0 -58.536861194470475 -271.17411742791592 0 0 0 0 -539.61283735737379 -360.86011748780948 0 -360.86011748780948 -105.90406145461702 0 0 0 0 -2.9808515246450327 2.3814918305020996 0 2.3814918305020996 0.64236396531677542 0 0 0 0 -42.550393195765082 98.834986595692499 0 98.834986595692499 157.93483648555411 0 0 0 0 -677.17797894509567 -581.76175597353358 0 -581.76175597353358 -501.18827363172932 0 0 0 0 -643.54332584628719 -641.05386297533551 0 -641.05386297533551 -409.40167780067623 0 0 0 0 -401.73278591961935 37.109903697204572 0 37.109903697204572 122.27115308209613 0 0 0 0 2.0342235234353119 -3.1949410658218937 0 -3.1949410658218937 -5.549583275425249 0 0 0 0 422.57087370387217 159.94483840457724 0 159.94483840457724 -307.37885421984538 0 0 0 0 -30.739273377310383 -310.03025673084267 0 -310.03025673084267 -36.866522472853831 0 0 0 0 -15.718715618739225 -7.452893705909446 0 -7.452893705909446 14.993845557506575 0 0 0 0 -34.115653229762756 0.66258895767350623 0 0.66258895767350623 13.979502778824099 0 0 0 0 -7.0585334816350951 16.408149613464047 0 16.408149613464047 44.568530056674717 0 0 0 0 -1.4973533520283127 -0.22081037701914852 0 -0.22081037701914852 0.44632831438346443 0 0 0 0 -2.963360954880045 14.834882576458767 0 14.834882576458767 27.477421435873111 0 0 0 0 -24.265513895922147 -15.496264452169257 0 -15.496264452169257 -8.6156027256419065 0 0 0 0 1.1984694352722727 -0.12481428147111728 0 -0.12481428147111728 12.317782749421895 0 0 0 0 -25.206970377494144 -6.1414776060955774 0 -6.1414776060955774 19.523893131699879 0 0 0 0 -18.947622740711687 -2.1074931999041411 0 -2.1074931999041411 10.769885985937336 0 0 0 0 -29.863669468393255 -25.365999361454669 0 -25.365999361454669 -5.4022581434473977 0 0 0 0 -213.18727999287512 -183.345485849135 0 -183.345485849135 -207.35580509501597 0 0 0 0 -14.126974460320689 -2.4391233043117069 0 -2.4391233043117069 13.160765269775567 0 0 0 0 -212.33436925099159 -231.43913425065693 0 -231.43913425065693 -214.33768211642746 0 0 0 0 -45.746527255130786 95.780174122246535 0 95.780174122246535 95.786672036065283 0 0 0 0 55.15437754841696 -49.463051943806931 0 -49.463051943806931 -42.926181645525503 0 0 0 0 -38.102000369231973 -33.066271206582314 0 -33.066271206582314 23.393140238898923 0 0 0 0 -43.037719584066508 -15.523278562704945 0 -15.523278562704945 38.602298228404834 0 0 0 0 -44.077060156994776 -10.78776883532737 0 -10.78776883532737 22.046036588712013 0 0 0 0 -33.273308159310545 -20.956172988975595 0 -20.956172988975595 25.816937196839717 0 0 0 0 -20.205069060732058 -13.99401014855539 0 -13.99401014855539 2.3494639323325828 0 0 0 0 -23.906066249948708 -22.500522228363479 0 -22.500522228363479 -6.443333036317199 0 0 0 0 -31.236453197860101 -21.545144268675358 0 -21.545144268675358 8.405290924696601 0 0 0 0 -0.47697578689301423 0.10612151966596173 0 0.10612151966596173 1.2490906933492454 0 0 0 0 -30.11396692886774 -28.019493319909088 0 -28.019493319909088 -8.6797878430588753 0 0 0 0 -37.555824014469181 -34.172732977812302 0 -34.172732977812302 2.7077140230103396 0 0 0 0 -31.318299840535474 -16.204680028877192 0 -16.204680028877192 -10.834357320527488 0 0 0 0 -43.514733105927007 -72.33589664282772 0 -72.33589664282772 -5.3307063425036176 0 0 0 0 -32.174508078354847 -18.193198376851797 0 -18.193198376851797 -5.2173985680419719 0 0 0 0 -36.056938912421899 -27.182293775308842 0 -27.182293775308842 2.4997027641882319 0 0 0 0 -37.437394219181442 -15.962570339943341 0 -15.962570339943341 -6.1427215863077436 0 0 0 0 110.7815949262731 80.096637409136747 0 80.096637409136747 146.68546124905697 0 0 0 0 -5.2442123421773204 -8.6557500123144706 0 -8.6557500123144706 -13.983281696599711 0 0 0 0 -32.207240294375424 -18.742067431881878 0 -18.742067431881878 -6.6433938043410308 0 0 0 0 -37.592674300132444 -28.987950021507146 0 -28.987950021507146 -6.7689567677038447 0 0 0 0 -9.4514913179766538 -5.1076934643420202 0 -5.1076934643420202 -9.7171351327802427 0 0 0 0 -887.78469274489908 -169.69363936467562 0 -169.69363936467562 -60.889943100235541 0 0 0 0 -51.657670035827323 -148.54425740674196 0 -148.54425740674196 -90.363982457536622 0 0 0 0 -45.588588457729202 -56.947480439976061 0 -56.947480439976061 -54.734609605372498 0 0 0 0 -26.766897628280276 -19.976161211673571 0 -19.976161211673571 -61.874971057921357 0 0 0 0 -3.0589816046663785 0.88673362332946226 0 0.88673362332946226 1.3403424632444541 0 0 0 0 -60.222560614183749 -91.6595115475684 0 -91.6595115475684 -91.525612324039685 0 0 0 0 -20.279572979467005 -2.4291290207683716 0 -2.4291290207683716 20.140568929331494 0 0 0 0 -71.519701689961948 -32.618311376583733 0 -32.618311376583733 -26.581938359304331 0 0 0 0 -67.039152945517344 -48.033367413328961 0 -48.033367413328961 2.0158378724045178 0 0 0 0 -21.656000051603769 -22.389947925399611 0 -22.389947925399611 -35.088209426898175 0 0 0 0 -31.553160404949871 -44.05447821908627 0 -44.05447821908627 -7.895984737378356 0 0 0 0 -1.3000187891736559 -34.280402525977038 0 -34.280402525977038 -33.526213444739994 0 0 0 0 -92.550116626873205 -12.732145970898273 0 -12.732145970898273 -94.300354529732431 0 0 0 0 -12.888252831326099 -45.741978268782077 0 -45.741978268782077 -16.698086238407996 0 0 0 0 -10.09460904324078 -37.444359522160994 0 -37.444359522160994 -23.259621020624763 0 0 0 0 -7.3576520715505467 -48.128702584326675 0 -48.128702584326675 -15.668310208220646 0 0 0 0 -51.777791170417913 -45.819353062506707 0 -45.819353062506707 -6.514889327059791 0 0 0 0 -2.9171260803414043 -41.609789486368754 0 -41.609789486368754 -21.050594236323377 0 0 0 0 -15.670387166133253 -37.159773480931818 0 -37.159773480931818 -6.6378505729844619 0 0 0 0 10.370329206647511 -44.506296404508248 0 -44.506296404508248 -122.6306098114801 0 0 0 0 -75.940580776659772 -50.324227864457498 0 -50.324227864457498 13.026042179752039 0 0 0 0 -16.511146646081549 -62.644971328261178 0 -62.644971328261178 14.311938478578874 0 0 0 0 -10.495636496045336 -2.5000177117144631 0 -2.5000177117144631 221.35330430073736 0 0 0 0 -5.6564257376032856 -4.3294658326866227 0 -4.3294658326866227 7.9410893378065879 0 0 0 0 -38.665234545886051 -40.213691918057521 0 -40.213691918057521 -11.365459602016927 0 0 0 0 -48.677103700258158 14.274344467905394 0 14.274344467905394 -9.018262888341269 0 0 0 0 0.43549625751990106 -9.0898047574352461 0 -9.0898047574352461 4.8936842031702952 0 0 0 0 -73.567964642723382 -60.619013520039061 0 -60.619013520039061 1.4723497057857458 0 0 0 0 -139.96585162045267 -59.181863411923587 0 -59.181863411923587 15.166009270644281 0 0 0 0 -118.1342181440923 -55.123053521907423 0 -55.123053521907423 11.010481894300028 0 0 0 0 -165.54469258814061 11.680392105801729 0 11.680392105801729 -6.8593553838218213 0 0 0 0 -0.36473673989713973 -3.4764484426464985 0 -3.4764484426464985 -1.3336213953893008 0 0 0 0 -43.762678550201116 -34.358958435396339 0 -34.358958435396339 -12.369813548956149 0 0 0 0 -116.72305774147389 18.788875845046277 0 18.788875845046277 -5.8294480318691058 0 0 0 0 647.32147474746307 149.55458165245727 0 149.55458165245727 -192.59460967895029 0 0 0 0 -276.30325212693424 -65.654945207323181 0 -65.654945207323181 17.351110096627963 0 0 0 0 -205.19962239760207 -51.916581189594581 0 -51.916581189594581 14.979598131263629 0 0 0 0 -131.6758803344419 -136.3928691061592 0 -136.3928691061592 -12.688096942300035 0 0 0 0 -242.91236417086657 -165.35550548812989 0 -165.35550548812989 -21.885548539707088 0 0 0 0 -146.91433799400693 -150.31483662431128 0 -150.31483662431128 -22.232186037621432 0 0 0 0 46.841622040083166 -112.39726283869823 0 -112.39726283869823 -83.017335432559776 0 0 0 0 -41.393288167580977 -128.81715227882523 0 -128.81715227882523 -16.300383281391987 0 0 0 0 -110.92059635453188 -115.48989139771584 0 -115.48989139771584 -10.088242620917299 0 0 0 0 8.0495748306311725 -52.117966329903538 0 -52.117966329903538 -10.989916990882193 0 0 0 0 12.40926645041327 -37.831023816146626 0 -37.831023816146626 35.292946043693519 0 0 0 0 120.17723057826515 -28.646918142592767 0 -28.646918142592767 -10.106338429803145 0 0 0 0 71.190842415388033 -111.16862849518657 0 -111.16862849518657 -71.522287174440862 0 0 0 0 -29.665879573632992 -107.56302787884306 0 -107.56302787884306 -37.995276385474426 0 0 0 0 -40.124499185716559 -71.097002286554925 0 -71.097002286554925 -18.068612410195783 0 0 0 0 -21.394204470867408 -72.732542150341033 0 -72.732542150341033 -21.399844581952493 0 0 0 0 -30.792828268269659 -105.48382701490118 0 -105.48382701490118 -37.130772724860435 0 0 0 0 -6.6367895960102032 -88.377617931124405 0 -88.377617931124405 -36.268831949229934 0 0 0 0 -7.7779753826835076 -86.432726172977709 0 -86.432726172977709 -37.35346827862486 0 0 0 0 -71.998585441564501 -62.773552811546324 0 -62.773552811546324 -2.8449069063790375 0 0 0 0 -47.225248052251118 -90.642630706013733 0 -90.642630706013733 -10.4131332869365 0 0 0 0 -26.59657368457556 -66.15184291217156 0 -66.15184291217156 -19.784563107670692 0 0 0 0 -56.037378641820396 -83.207580945789232 0 -83.207580945789232 -13.017833783555034 0 0 0 0 -52.97656578344322 -57.209646518875161 0 -57.209646518875161 -5.6188839141486824 0 0 0 0 -51.544443989718275 -54.384973673817512 0 -54.384973673817512 -25.277159008535818 0 0 0 0 9.465500376009004 -45.039074111950413 0 -45.039074111950413 -39.136743160896003 0 0 0 0 -34.933327593931608 -102.52287898422674 0 -102.52287898422674 -27.629108995202841 0 0 0 0 29.454096744125764 -124.25583997815033 0 -124.25583997815033 -20.40155252139084 0 0 0 0 37.348198601997865 -185.93191012884017 0 -185.93191012884017 92.200733064390079 0 0 0 0 -34.066426463196876 26.258584151982177 0 26.258584151982177 154.70110907226262 0 0 0 0 115.72144616338483 -69.343459763122155 0 -69.343459763122155 -33.680688847630336 0 0 0 0 1.5730693026731544 -1.4625148962037429 0 -1.4625148962037429 0.82804029601091145 0 0 0 0 1.8889725791082768 -1.0199804120315434 0 -1.0199804120315434 1.2660426913300569 0 0 0 0 -62.488609471383825 -202.61112464916005 0 -202.61112464916005 -90.952858570892204 0 0 0 0 6.617448613621562 -9.8040651272650479 0 -9.8040651272650479 4.6390496874185772 0 0 0 0 -322.6331674506207 50.974450403353899 0 50.974450403353899 -36.530009028188942 0 0 0 0 -64.668149541757884 -64.730296297369932 0 -64.730296297369932 9.691633073380217 0 0 0 0 -225.5489237691072 171.98662630512263 0 171.98662630512263 157.88836052991246 0 0 0 0 -358.74876318225506 -344.97527593458108 0 -344.97527593458108 -217.89660028334765 0 0 0 0 -434.967862848187 -469.30487967774297 0 -469.30487967774297 -211.01001888362225 0 0 0 0 -479.8072020179734 -429.05045048285228 0 -429.05045048285228 -33.348105105429568 0 0 0 0 9.3037881139016108 -20.092401866912638 0 -20.092401866912638 20.888154312917237 0 0 0 0 -114.97237186366328 -18.027661004960464 0 -18.027661004960464 -18.155160234834511 0 0 0 0 -246.44470144066872 34.245745071388228 0 34.245745071388228 113.06444039463531 0 0 0 0 -290.53764199561374 -435.70609454535315 0 -435.70609454535315 -202.33331604621344 0 0 0 0 -397.76661132524532 -250.10872914704669 0 -250.10872914704669 161.98130279979523 0 0 0 0 -24.880893377787288 7.470477784250761 0 7.470477784250761 -35.367033801005164 0 0 0 0 3.2249996373581382 -3.3112083788890203 0 -3.3112083788890203 4.3800227006782109 0 0 0 0 -193.93393710693726 -112.46271177602193 0 -112.46271177602193 15.80560978808353 0 0 0 0 -138.7969379113365 -179.16800433846947 0 -179.16800433846947 18.065121198236739 0 0 0 0 -380.77565998491264 -315.36199631234194 0 -315.36199631234194 -32.151758869247715 0 0 0 0 -8.5809464585181559 -317.38502261514805 0 -317.38502261514805 -230.8867514567537 0 0 0 0 -131.5887517678857 -63.774898098850826 0 -63.774898098850826 46.707149503439723 0 0 0 0 -385.68213135046608 36.562964971737529 0 36.562964971737529 146.73844436863692 0 0 0 0 -50.852513466725213 -28.232107811894821 0 -28.232107811894821 29.385014954613325 0 0 0 0 -142.29162739506137 -114.1580276287923 0 -114.1580276287923 1.3026017502925242 0 0 0 0 -8.4578628732534824 -7.9116954247458011 0 -7.9116954247458011 56.132655057810467 0 0 0 0 -7.4568679165968206 -8.3595104185733362 0 -8.3595104185733362 51.155439726146142 0 0 0 0 -45.388379904696194 -61.109960895475524 0 -61.109960895475524 -2.5366990219081345 0 0 0 0 -78.970244605796324 -71.40863275479569 0 -71.40863275479569 15.730235821662063 0 0 0 0 -12.59953635762141 -13.320481762214868 0 -13.320481762214868 54.760880182505929 0 0 0 0 -8.2140679470066971 -11.653500263037131 0 -11.653500263037131 65.720628040391603 0 0 0 0 -85.418630386207951 -65.838363423372357 0 -65.838363423372357 -2.9726022715567524 0 0 0 0 -45.64016119207372 -89.601519108196953 0 -89.601519108196953 -21.532436577072076 0 0 0 0 -63.147654809319647 -81.354715750681862 0 -81.354715750681862 -23.649340105459487 0 0 0 0 -69.352146233191888 -103.53150140247817 0 -103.53150140247817 28.568115779540676 0 0 0 0 -69.450970106881869 -118.41266299982271 0 -118.41266299982271 11.469754395844575 0 0 0 0 -153.16693352094808 -84.86229262739289 0 -84.86229262739289 5.6552538786181685 0 0 0 0 -78.44146105771506 -115.34910279234782 0 -115.34910279234782 -10.67766067309276 0 0 0 0 -190.76751588414299 -120.63914011790985 0 -120.63914011790985 36.038423315731052 0 0 0 0 -179.1483892928818 -126.59385515478698 0 -126.59385515478698 25.312477741183102 0 0 0 0 -10.139900869018419 -7.1779844653190423 0 -7.1779844653190423 54.340374098489804 0 0 0 0 -31.376359929046885 -18.437975372800793 0 -18.437975372800793 0.2008867463664501 0 0 0 0 -174.03234094288018 -137.76302899300754 0 -137.76302899300754 48.855121008786227 0 0 0 0 -10.859704273690603 -5.6493617669047751 0 -5.6493617669047751 54.483018801759798 0 0 0 0 -24.103483859573316 52.948249203638625 0 52.948249203638625 -35.295746389616397 0 0 0 0 -158.91522228396207 -80.759061008586286 0 -80.759061008586286 0.60681518104684073 0 0 0 0 -177.02964200677343 -91.966068209948389 0 -91.966068209948389 1.9781620171615941 0 0 0 0 -169.54503387783188 -94.006554862484336 0 -94.006554862484336 2.3845771015189712 0 0 0 0 -134.39938190288376 -91.601178262181747 0 -91.601178262181747 -35.617172137805028 0 0 0 0 -158.39211097344059 -86.668010612159378 0 -86.668010612159378 56.49157120171003 0 0 0 0 -77.100210160646384 -58.982924751120663 0 -58.982924751120663 -22.9158425300011 0 0 0 0 -38.249177746506575 1.4409589940740943 0 1.4409589940740943 -115.22306517750985 0 0 0 0 -20.467381395160828 -93.288543114137383 0 -93.288543114137383 -159.40458042686441 0 0 0 0 0.95182111246981549 -0.14910505953285735 0 -0.14910505953285735 -1.2963002457702331 0 0 0 0 -45.54224030729165 -215.26342622749598 0 -215.26342622749598 -516.43968137174488 0 0 0 0 -88.285608845228126 -171.53911651135513 0 -171.53911651135513 -193.49564049771379 0 0 0 0 -75.014152371075397 -158.95141862021728 0 -158.95141862021728 -219.85108639895043 0 0 0 0 -134.80012173709747 -96.501315879666436 0 -96.501315879666436 -68.755958703495708 0 0 0 0 1.2252257228793297 -0.47369140321544023 0 -0.47369140321544023 -1.6155887072362134 0 0 0 0 -165.34230710392148 -140.38564826000948 0 -140.38564826000948 -86.943882344856775 0 0 0 0 -161.39077572980023 -118.30333163638988 0 -118.30333163638988 -77.308578985266649 0 0 0 0 -159.14225417125454 -137.26619078326712 0 -137.26619078326712 -122.27919813687186 0 0 0 0 -163.95771987799162 -105.56755360377429 0 -105.56755360377429 -41.08322828263772 0 0 0 0 -177.54550977526742 -107.23090560757919 0 -107.23090560757919 -21.241112892388628 0 0 0 0 -186.72101270863641 -126.105692126348 0 -126.105692126348 -42.492680283656227 0 0 0 0 5.1208473869449946 -6.291857647323674 0 -6.291857647323674 -11.120305853919376 0 0 0 0 -454.36853128791972 -174.17682664576614 0 -174.17682664576614 -815.03651998526038 0 0 0 0 -693.68235588854986 -859.86650770184315 0 -859.86650770184315 -306.24571331904735 0 0 0 0 -818.06025605622563 -643.58894586780661 0 -643.58894586780661 -681.63566485941192 0 0 0 0 -1527.1789906982995 -821.36963035288863 0 -821.36963035288863 -629.28038281702175 0 0 0 0 -1159.8677072036116 -768.83529837798778 0 -768.83529837798778 -1358.8822352329371 0 0 0 0 -1422.0187270322276 -623.17793290108239 0 -623.17793290108239 -1241.5274172303834 0 0 0 0 -1353.0659692072393 -1373.2957460402122 0 -1373.2957460402122 -979.29675268123901 0 0 0 0 25.117842810668876 -25.723250667631348 0 -25.723250667631348 4.3187796109685621 0 0 0 0 -904.09562615887262 -1188.8944389020371 0 -1188.8944389020371 -1127.1204530178802 0 0 0 0 -926.10445770857768 -1211.1309754715746 0 -1211.1309754715746 -1498.5770508026217 0 0 0 0 -1278.7499887011982 -978.64326223741591 0 -978.64326223741591 -322.93440975723206 0 0 0 0 -999.30730680762281 -673.66252657956829 0 -673.66252657956829 -282.80280284550099 0 0 0 0 -751.84381608716285 -695.47317974417911 0 -695.47317974417911 -1023.765811829533 0 0 0 0 -872.67055854682985 -511.99224505859456 0 -511.99224505859456 -314.03859689968522 0 0 0 0 -670.40047596243858 -197.92528760342066 0 -197.92528760342066 -59.07644105014333 0 0 0 0 -879.59519513809209 -602.44847883174771 0 -602.44847883174771 -188.49909564654081 0 0 0 0 -1013.7343951802541 -448.79846740606081 0 -448.79846740606081 501.4317605347569 0 0 0 0 234.16762866210047 -173.50740778618274 0 -173.50740778618274 -166.73642717500752 0 0 0 0 45.8966156140159 -138.01289655587971 0 -138.01289655587971 139.16313575905951 0 0 0 0 -72.781129525767938 -32.60053374203153 0 -32.60053374203153 137.9043300171179 0 0 0 0 156.32577701867194 -77.91026184574639 0 -77.91026184574639 -38.503678736531583 0 0 0 0 42.920652880660782 -56.187793393883112 0 -56.187793393883112 -42.599698551338406 0 0 0 0 -65.056935143293231 -221.69713803518061 0 -221.69713803518061 -4.6414444738984457 0 0 0 0 70.23906794598588 -90.993161050957497 0 -90.993161050957497 -23.971922618249664 0 0 0 0 88.776446502197359 -6.1374125104448467 0 -6.1374125104448467 6.6315375094636693 0 0 0 0 -22.019706100858457 -58.753978365079092 0 -58.753978365079092 -29.598549263087989 0 0 0 0 78.004043679835377 -64.37524155482788 0 -64.37524155482788 -167.73709088232863 0 0 0 0 3.8971470823598793 -188.83606352546394 0 -188.83606352546394 -479.92562947732222 0 0 0 0 -47.657913616836595 -71.59914919406765 0 -71.59914919406765 -171.85098775060669 0 0 0 0 294.29011933423317 -56.560708519236869 0 -56.560708519236869 -628.61966425794526 0 0 0 0 92.365547186396725 -16.278301603051659 0 -16.278301603051659 -146.3135108017068 0 0 0 0 272.52587544619018 -126.18496367763692 0 -126.18496367763692 -783.85844145106967 0 0 0 0 332.80633032179321 97.705510436187978 0 97.705510436187978 -300.34018550963447 0 0 0 0 1.5766233915610925 -3.3883006697612146 0 -3.3883006697612146 -9.0668914272463041 0 0 0 0 -2327.0310170005623 -1180.234703936638 0 -1180.234703936638 -1301.6026790673932 0 0 0 0 -92.740091721461795 -133.46619444125645 0 -133.46619444125645 -16.755598763953458 0 0 0 0 -2194.1888544533103 -2005.4543246541125 0 -2005.4543246541125 -1573.111709490764 0 0 0 0 -105.23519911304402 322.54151767949719 0 322.54151767949719 106.05916729278761 0 0 0 0 -3.7798665860010345 0.8068955532504134 0 0.8068955532504134 -2.4779913775155862 0 0 0 0 -2128.937604311941 -1419.7748937953675 0 -1419.7748937953675 -132.05629991206661 0 0 0 0 -28.007368396597975 1.0176674138733262 0 1.0176674138733262 2.727617182085659 0 0 0 0 -2056.6698909014685 -1844.4632110858495 0 -1844.4632110858495 -946.33607254244271 0 0 0 0 -2055.4773996776639 -1085.4616047851741 0 -1085.4616047851741 -877.95441117973678 0 0 0 0 -1309.6544378576073 -651.2620103813606 0 -651.2620103813606 -1393.6536842652713 0 0 0 0 -1335.3272406246542 -112.51270440392909 0 -112.51270440392909 -65.670015899624559 0 0 0 0 -1402.4137360007317 -1124.1779566133164 0 -1124.1779566133164 -1888.2800522333855 0 0 0 0 -3269.1619130909385 -1809.7034551585384 0 -1809.7034551585384 -1306.2188504095211 0 0 0 0 1.8096534052671913 -4.3410882549552028 0 -4.3410882549552028 -0.47606876702191414 0 0 0 0 -73.212344672021572 -65.698168962710952 0 -65.698168962710952 77.688271207514845 0 0 0 0 581.44873228027518 49.9746345945332 0 49.9746345945332 -25.486103468987494 0 0 0 0 -11.884372759178369 -51.576203698161706 0 -51.576203698161706 -7.0163558725771225 0 0 0 0 707.74710752357896 32.724502889113865 0 32.724502889113865 -122.43250741264001 0 0 0 0 676.54105341218246 16.308687482639471 0 16.308687482639471 -68.266513626953383 0 0 0 0 723.70189867165209 64.86541112114628 0 64.86541112114628 -409.9295709910657 0 0 0 0 631.34277946347265 204.88939104811288 0 204.88939104811288 11.552988057326729 0 0 0 0 683.17227822135101 127.46799047199966 0 127.46799047199966 -159.23863879261989 0 0 0 0 646.62506414489781 128.29590849389751 0 128.29590849389751 55.667904645601084 0 0 0 0 652.56061259917146 131.03318229235128 0 131.03318229235128 80.272966456261202 0 0 0 0 668.85668295508185 199.96225146206598 0 199.96225146206598 41.29719828491352 0 0 0 0 1188.1191884074778 575.79650311453588 0 575.79650311453588 389.19188168031724 0 0 0 0 1972.3898765980684 1020.4567867928672 0 1020.4567867928672 121.47134738086788 0 0 0 0 12.110772669073405 -7.1291302311880216 0 -7.1291302311880216 4.122829065338081 0 0 0 0 -705.02428439616324 -1460.7793149018707 0 -1460.7793149018707 -596.40748366834669 0 0 0 0 -1124.7186666325288 -860.92647147820026 0 -860.92647147820026 -258.06514300248818 0 0 0 0 -932.18275348531461 -465.27959539411131 0 -465.27959539411131 -488.72842097204921 0 0 0 0 -205.20869319600479 44.531659015608966 0 44.531659015608966 363.52122849836087 0 0 0 0 -374.00267430317581 -304.44595124223633 0 -304.44595124223633 -204.13584386876391 0 0 0 0 2157.1810866903907 124.00948505258202 0 124.00948505258202 -432.40982333395914 0 0 0 0 485.70617010102433 268.93076467665014 0 268.93076467665014 -492.18559481790726 0 0 0 0 1014.3741983205615 -377.14381495407542 0 -377.14381495407542 -228.89651148823032 0 0 0 0 1.2430102009348456 -0.069474783570108833 0 -0.069474783570108833 -2.4781568891389583 0 0 0 0 342.20079086580927 -71.969401990290862 0 -71.969401990290862 9.0963804068542231 0 0 0 0 284.72956302432885 -389.72133767254491 0 -389.72133767254491 211.58554940153545 0 0 0 0 779.54969193073975 -70.358751655146989 0 -70.358751655146989 -89.142432800723327 0 0 0 0 322.45638543689711 -12.571707789764332 0 -12.571707789764332 -85.99709597275978 0 0 0 0 0.2817412583565595 -0.20247294160137841 0 -0.20247294160137841 -1.4851994673696112 0 0 0 0 261.79856442836535 124.8383816076348 0 124.8383816076348 -388.70411321247593 0 0 0 0 -158.45374642943352 -373.20382276409509 0 -373.20382276409509 -152.44852463287043 0 0 0 0 -109.57634028225493 -260.64074996277668 0 -260.64074996277668 -390.01074380260798 0 0 0 0 -120.02099230187741 -79.273675058360823 0 -79.273675058360823 74.095578047830713 0 0 0 0 60.756864591437079 -37.766976786018859 0 -37.766976786018859 -884.18420249074825 0 0 0 0 -107.79541564674037 -457.58009133760061 0 -457.58009133760061 -741.95741722130151 0 0 0 0 23.139805886578415 -330.3806332777549 0 -330.3806332777549 -622.02379700729944 0 0 0 0 19.509254931806026 -308.91782732206957 0 -308.91782732206957 -376.23140830898592 0 0 0 0 -31.885030369573315 -34.629509121040883 0 -34.629509121040883 -107.14988102512507 0 0 0 0 -3.8310193095696152 -3.7782084310800172 0 -3.7782084310800172 -3.5841287971064375 0 0 0 0 130.61327770230005 251.01658936593594 0 251.01658936593594 -1317.7115556725948 0 0 0 0 20.777244909041769 -199.18466342871761 0 -199.18466342871761 -957.46272397978464 0 0 0 0 -6.7224274801069122 -7.2217375664093524 0 -7.2217375664093524 -6.517439501498778 0 0 0 0 -39.918492506724078 47.57882001125472 0 47.57882001125472 -53.366184313768827 0 0 0 0 -6.6403357311230593 7.594633429122041 0 7.594633429122041 12.190694068700395 0 0 0 0 -100.87150427523738 4.6785432404594758 0 4.6785432404594758 63.43329609655666 0 0 0 0 -55.141660510556903 -83.699075160728171 0 -83.699075160728171 -93.130373145565954 0 0 0 0 -311.64423604886815 172.16501667442208 0 172.16501667442208 18.324354198513902 0 0 0 0 -2.202407719015568 -3.5705458620406176 0 -3.5705458620406176 -4.4972265537982707 0 0 0 0 -3.9777303188788125 -1.7996285144752164 0 -1.7996285144752164 -1.2781386498533607 0 0 0 0 -307.67655894639574 384.48126577468975 0 384.48126577468975 -1372.9463790513955 0 0 0 0 -344.70281669458564 -208.09147618780662 0 -208.09147618780662 -130.51689489405362 0 0 0 0 -247.15275844350163 -62.178410478493788 0 -62.178410478493788 -1150.3160871885448 0 0 0 0 79.589374782103732 285.72089650514317 0 285.72089650514317 -1334.680401494843 0 0 0 0 180.96625352250339 220.09070808710385 0 220.09070808710385 -1403.3995223350394 0 0 0 0 81.208455104548648 -95.180512844638542 0 -95.180512844638542 7.3165132021240424 0 0 0 0 51.803976876488605 -35.298522919654715 0 -35.298522919654715 -0.85540572531317594 0 0 0 0 15.490058759796739 -48.116197595190897 0 -48.116197595190897 0.72118834806133236 0 0 0 0 -1.7593021945303917 -71.134365775687911 0 -71.134365775687911 1.4432076338434854 0 0 0 0 1.5481992449185782 -61.250312113072141 0 -61.250312113072141 -31.995685444468108 0 0 0 0 26.678040385875647 -97.92720761399687 0 -97.92720761399687 -15.604815464495914 0 0 0 0 -44.338353767090666 -81.738727564081273 0 -81.738727564081273 70.605725821165834 0 0 0 0 -12.896218863177637 -122.2762664032125 0 -122.2762664032125 83.907284094206261 0 0 0 0 -26.748036012960249 -18.022734613209771 0 -18.022734613209771 -11.854055290687857 0 0 0 0 -133.13947444966107 -77.914808152214391 0 -77.914808152214391 385.79531298477195 0 0 0 0 -5.4133975466904225 -3.3278051286589161 0 -3.3278051286589161 -2.2527484787012746 0 0 0 0 -17.163048122428563 -10.866122731137033 0 -10.866122731137033 -4.8741031814672695 0 0 0 0 380.30229903075303 382.99145826481072 0 382.99145826481072 -1272.2344652941065 0 0 0 0 75.766948396088537 -128.68921704164677 0 -128.68921704164677 26.134353432702483 0 0 0 0 -27.550889439323328 -157.77165868135125 0 -157.77165868135125 248.50220269747842 0 0 0 0 -36.000127677594719 -200.52202460836634 0 -200.52202460836634 -14.783312953677523 0 0 0 0 48.371105600646786 -1.1433362169500469 0 -1.1433362169500469 103.86772247045155 0 0 0 0 -69.851430258030803 -58.069273480867651 0 -58.069273480867651 92.268059797359456 0 0 0 0 -42.791433586584617 -176.5887184003368 0 -176.5887184003368 -178.40596615695188 0 0 0 0 -75.71047197572193 -95.195024701773946 0 -95.195024701773946 360.33014363443726 0 0 0 0 371.62177689194505 -770.34833588183392 0 -770.34833588183392 1591.6744527979754 0 0 0 0 283.59110906923115 148.85494685390222 0 148.85494685390222 -1081.6856328757804 0 0 0 0 24.917494462002651 -612.26485104268795 0 -612.26485104268795 779.61047620459431 0 0 0 0 -161.79612273353268 50.978079522690678 0 50.978079522690678 -186.27737299740579 0 0 0 0 165.10486975733056 -187.2093238922098 0 -187.2093238922098 -57.66578631214179 0 0 0 0 -0.74594244539736909 0.43535077450860626 0 0.43535077450860626 -0.28135948525803656 0 0 0 0 13.176993862351537 -87.511925766096283 0 -87.511925766096283 -329.27268348280995 0 0 0 0 -22.332776118981201 -20.321711919765221 0 -20.321711919765221 63.769509155747073 0 0 0 0 15.794909444855875 -6.8119819488747453 0 -6.8119819488747453 -165.38118866922741 0 0 0 0 -0.12264828923125215 -8.6814915655405613 0 -8.6814915655405613 -3.6912358547894542 0 0 0 0 -7.9969297035439819 2.1765763743000548 0 2.1765763743000548 6.6516489086878181 0 0 0 0 -18.381052429181182 69.271434859841975 0 69.271434859841975 85.2106980016124 0 0 0 0 -40.213997517603161 -84.860476776489804 0 -84.860476776489804 44.999120251588465 0 0 0 0 548.85041581877044 -349.59094213713615 0 -349.59094213713615 170.75962433917448 0 0 0 0 98.493980393581751 59.804844575162861 0 59.804844575162861 56.219784106793668 0 0 0 0 509.67286482063173 -434.78987307542047 0 -434.78987307542047 -14.087560379975002 0 0 0 0 517.24546099673876 -496.25856054508768 0 -496.25856054508768 364.59725841905311 0 0 0 0 1551.42210037686 -421.75243798987867 0 -421.75243798987867 289.3605888818638 0 0 0 0 5.0281225813341734 -32.008697833534825 0 -32.008697833534825 -46.145022699020956 0 0 0 0 -5.0666341241729356 -83.431631014546042 0 -83.431631014546042 -93.596678959118435 0 0 0 0 20.011586804346578 -12.136926314117183 0 -12.136926314117183 -4.8497446685143188 0 0 0 0 7.3450041616279123 -60.076142560688822 0 -60.076142560688822 -79.888319967736606 0 0 0 0 19.823356370795409 -79.814500298376515 0 -79.814500298376515 -95.431114745937521 0 0 0 0 6.2688136009173832 -93.142349472174828 0 -93.142349472174828 -57.585851460986305 0 0 0 0 5.9308370760875846 -98.999095613896998 0 -98.999095613896998 -92.005653411586536 0 0 0 0 19.927036764897593 -66.224597451257978 0 -66.224597451257978 -102.74389212953247 0 0 0 0 16.172960966225219 -93.688115167722572 0 -93.688115167722572 -43.897019974159775 0 0 0 0 46.424147603163874 -49.288519982354046 0 -49.288519982354046 -172.92092392948689 0 0 0 0 -7.3395250926687368 -48.340540349014191 0 -48.340540349014191 -99.310212420422431 0 0 0 0 9.1779078482416701 -31.103265051859239 0 -31.103265051859239 13.096521818988336 0 0 0 0 -1.9142605393965368 -26.199892099855788 0 -26.199892099855788 24.118599937464751 0 0 0 0 5.9696381834248555 -12.548962290678638 0 -12.548962290678638 1.6673582623487562 0 0 0 0 26.127399636090786 -13.673012560964708 0 -13.673012560964708 21.595806512184936 0 0 0 0 -18.129717564312614 -12.480682557673717 0 -12.480682557673717 11.664045332884363 0 0 0 0 26.524281630189041 -25.407056826949145 0 -25.407056826949145 16.689092123983954 0 0 0 0 42.410925222785863 9.3011694560227625 0 9.3011694560227625 11.875724622717826 0 0 0 0 -16.627025971120929 -45.261312009628455 0 -45.261312009628455 84.735472414133255 0 0 0 0 5.7968401272136276 -7.2055213767332873 0 -7.2055213767332873 10.119142642491553 0 0 0 0 4.0345342924023697 -39.600012262699046 0 -39.600012262699046 -4.2617925990434671 0 0 0 0 24.572537433031357 -46.6027632156256 0 -46.6027632156256 66.239303744398057 0 0 0 0 31.140928915680433 -35.487213740760126 0 -35.487213740760126 75.59635968983639 0 0 0 0 36.964498685345461 -23.338400339569489 0 -23.338400339569489 21.919562582534127 0 0 0 0 -5.4081977034513784 -33.759229463377778 0 -33.759229463377778 -21.827399565794622 0 0 0 0 8.8186128837751312 -38.755416846990556 0 -38.755416846990556 -23.772258483714722 0 0 0 0 4.6264555062225554 -45.094565254066765 0 -45.094565254066765 -26.511371168526239 0 0 0 0 10.709572421736084 -39.517836064886069 0 -39.517836064886069 -23.196251548859436 0 0 0 0 -33.904956860971652 -102.3157675184757 0 -102.3157675184757 2.3152516208137968 0 0 0 0 8.5186462664405553 -37.459090771113551 0 -37.459090771113551 -55.552287755584985 0 0 0 0 10.200005913966379 -37.386218647592614 0 -37.386218647592614 -37.249005379675509 0 0 0 0 -0.6777545142862742 -37.287125807301223 0 -37.287125807301223 -11.736534824164224 0 0 0 0 10.525661523686722 -46.770241707234163 0 -46.770241707234163 -73.016692157514626 0 0 0 0 -3.581761585733652 -39.850579737101896 0 -39.850579737101896 -11.597199188700767 0 0 0 0 2.5970787306614511 -47.598851243346871 0 -47.598851243346871 -16.050567910751852 0 0 0 0 -1.0981201235845219 -46.411927927802026 0 -46.411927927802026 -16.420017984402875 0 0 0 0 -60.007933931134176 -50.585573128795659 0 -50.585573128795659 -30.701335068559274 0 0 0 0 -19.734959056544454 -45.90238121900407 0 -45.90238121900407 -28.951691656429844 0 0 0 0 -6.3807273626771348 -49.654608434968395 0 -49.654608434968395 -12.850185460658395 0 0 0 0 -1.3044430018824045 -26.477878799712315 0 -26.477878799712315 -15.932449342399664 0 0 0 0 -8.1766704498556493 -29.294715233995035 0 -29.294715233995035 -11.688206891976989 0 0 0 0 -6.1116818447387757 -44.3622239896184 0 -44.3622239896184 -28.143032652401097 0 0 0 0 -2.2247457953235426 -50.339668127555342 0 -50.339668127555342 -12.772358044267548 0 0 0 0 -85.840289576502983 -268.17436172543091 0 -268.17436172543091 -92.617582447395762 0 0 0 0 -1.0999602503295378 -35.417409904954823 0 -35.417409904954823 -35.54374017071143 0 0 0 0 148.78735479173702 64.197940270873005 0 64.197940270873005 -301.82958362540921 0 0 0 0 -4.56955937865132 -42.417984790223272 0 -42.417984790223272 -15.003484162298264 0 0 0 0 -172.92455450365014 -34.140724752531241 0 -34.140724752531241 -125.41241742814236 0 0 0 0 10.084481128307743 -55.706994701133226 0 -55.706994701133226 -9.747905892545532 0 0 0 0 51.883605555907707 -477.62605418690873 0 -477.62605418690873 -498.78172695897229 0 0 0 0 557.24152176721691 -715.08158597883812 0 -715.08158597883812 -795.08154885548174 0 0 0 0 367.2831815244499 -322.76207889988655 0 -322.76207889988655 -1179.2003450241536 0 0 0 0 -104.57086177062411 -21.703042935350823 0 -21.703042935350823 -949.2289974021769 0 0 0 0 72.190790285778348 -304.42784404757185 0 -304.42784404757185 -814.88693935827905 0 0 0 0 1.4413677638187465 -4.1136164341180717 0 -4.1136164341180717 -2.0861476874004605 0 0 0 0 -48.740505432506325 -357.9243538355513 0 -357.9243538355513 -547.26281789469613 0 0 0 0 -21.450878782094151 -237.82207948327277 0 -237.82207948327277 -283.74909781347742 0 0 0 0 -201.02911551277066 -586.47214435423666 0 -586.47214435423666 -545.59385453922368 0 0 0 0 -336.20017262359033 -475.70021164613718 0 -475.70021164613718 -205.55478718841459 0 0 0 0 -197.2306089612357 -547.954682289419 0 -547.954682289419 -219.06369684011588 0 0 0 0 -541.62059165287064 -469.85348685842109 0 -469.85348685842109 -77.450036990667286 0 0 0 0 -566.77979054015304 -676.97104428591774 0 -676.97104428591774 -234.0872493059851 0 0 0 0 -147.10879722897516 -720.93711473069561 0 -720.93711473069561 -415.34573290646949 0 0 0 0 -329.0946649224752 -835.70015822856658 0 -835.70015822856658 -298.56806008865533 0 0 0 0 1170.8868909203429 -643.83013206745727 0 -643.83013206745727 -1079.8020092339502 0 0 0 0 5.1342200490380492 -969.53710725069686 0 -969.53710725069686 -616.70120177753415 0 0 0 0 669.03067103057219 -1271.3568976653387 0 -1271.3568976653387 -585.29145277441421 0 0 0 0 688.73679488081325 54.877200399727371 0 54.877200399727371 858.38929130835822 0 0 0 0 668.92241218480012 -81.934349359297357 0 -81.934349359297357 -979.78317836630595 0 0 0 0 252.49332066177885 -73.525204866917193 0 -73.525204866917193 -791.07027009404919 0 0 0 0 2.8432214655285151 2.0294466000902656 0 2.0294466000902656 -2.5628984321980113 0 0 0 0 366.59529539405958 -25.511441693342931 0 -25.511441693342931 -1183.5345935123296 0 0 0 0 -351.45488998571818 358.71378014080437 0 358.71378014080437 -982.44411416147977 0 0 0 0 -39.634347853034797 -47.599894399594632 0 -47.599894399594632 21.209254598674306 0 0 0 0 -10.319766197842455 -82.312481186121659 0 -82.312481186121659 -37.547686499696283 0 0 0 0 -25.649626305812056 -31.922647449143362 0 -31.922647449143362 -3.8068617777181259 0 0 0 0 22.588138539374576 -22.268602847109634 0 -22.268602847109634 2.7429581083508481 0 0 0 0 -4.9250012541907005 -5.1269512015625232 0 -5.1269512015625232 -8.6505261600171455 0 0 0 0 311.69558523119485 664.71620850470208 0 664.71620850470208 -958.22561186578605 0 0 0 0 93.36394351740455 41.369784715716378 0 41.369784715716378 -190.34910509351357 0 0 0 0 0.43734588151710341 42.408987311486271 0 42.408987311486271 -188.48535879581323 0 0 0 0 9.6720650601362195 -50.969465872198953 0 -50.969465872198953 -0.64766686798247974 0 0 0 0 9.5623049562301112 -35.072548778766034 0 -35.072548778766034 -37.884279659733302 0 0 0 0 73.650167415613396 -316.83538197688904 0 -316.83538197688904 68.909079972258041 0 0 0 0 -26.637138812584453 -358.89923013751832 0 -358.89923013751832 102.39071280307053 0 0 0 0 30.47126276850031 -402.62119455706852 0 -402.62119455706852 -66.531568166465149 0 0 0 0 -15.196063397197577 -359.45774789894131 0 -359.45774789894131 102.2754216253461 0 0 0 0 -0.3067801809120283 -27.224428278348569 0 -27.224428278348569 47.867547462257789 0 0 0 0 756.1144720197517 -307.40932426278596 0 -307.40932426278596 -201.61213630809652 0 0 0 0 0.18867781121025828 -2.4421186899093499 0 -2.4421186899093499 -1.2239162479911698 0 0 0 0 346.17872902696763 86.703033003544988 0 86.703033003544988 116.09650163805054 0 0 0 0 251.1306358100137 -210.15459008434027 0 -210.15459008434027 98.682192888460122 0 0 0 0 44.947263409474544 32.525819483540545 0 32.525819483540545 243.89536545012379 0 0 0 0 246.00219684226613 -32.801202876758907 0 -32.801202876758907 -51.868463258824704 0 0 0 0 -189.5894582443143 -389.40295574527772 0 -389.40295574527772 63.635783284436911 0 0 0 0 -572.07763304759283 -394.46554503251537 0 -394.46554503251537 -34.971057481714524 0 0 0 0 -339.30865474714938 -589.27575346142203 0 -589.27575346142203 -193.58997288014507 0 0 0 0 -372.21811507325037 -192.72311873800209 0 -192.72311873800209 164.03047763119139 0 0 0 0 -144.05129518064132 -600.49732608423119 0 -600.49732608423119 -236.93805659790087 0 0 0 0 -260.37751831952482 -541.35663215939712 0 -541.35663215939712 -280.03288294136291 0 0 0 0 -340.89613306889078 -707.27790087772155 0 -707.27790087772155 -269.19465866451719 0 0 0 0 -206.12306244716456 -386.11586285273734 0 -386.11586285273734 67.767010235431371 0 0 0 0 -91.961791895744682 -493.12211629140984 0 -493.12211629140984 -43.363648219230527 0 0 0 0 139.4147426585987 -535.72227501144516 0 -535.72227501144516 -424.11252234256608 0 0 0 0 154.63896986501641 -498.98045204045411 0 -498.98045204045411 -352.99349160930433 0 0 0 0 105.12665404751897 -557.96105342285591 0 -557.96105342285591 -328.28644928310314 0 0 0 0 88.899667290505022 -590.78302239414552 0 -590.78302239414552 -383.33692727185553 0 0 0 0 309.37294374080375 -426.54356618622478 0 -426.54356618622478 -427.4043087132377 0 0 0 0 267.00021057632694 -520.0038192807333 0 -520.0038192807333 -484.69834551482199 0 0 0 0 291.53278887255146 -503.64496942713959 0 -503.64496942713959 -572.04309821801871 0 0 0 0 330.86800955103172 -452.95715642803225 0 -452.95715642803225 -91.503888379731507 0 0 0 0 240.1595933645649 -493.98546240886344 0 -493.98546240886344 -323.51014199243946 0 0 0 0 267.62024386825942 -357.99191394920126 0 -357.99191394920126 -134.48999834000278 0 0 0 0 91.077424924398656 -427.74209077931664 0 -427.74209077931664 -79.58248332171388 0 0 0 0 210.83266325279783 -375.6674042586792 0 -375.6674042586792 -161.91429623246222 0 0 0 0 388.75283904631942 -413.60366194264861 0 -413.60366194264861 137.52880056590948 0 0 0 0 214.68714810347592 -268.7088279458585 0 -268.7088279458585 107.9133388744558 0 0 0 0 261.54863454448059 -311.84235021484346 0 -311.84235021484346 231.26452422600096 0 0 0 0 187.08307888301715 -371.14328515624948 0 -371.14328515624948 622.20973228490766 0 0 0 0 -14.790466424200474 -14.470028323869728 0 -14.470028323869728 -9.0669309894042129 0 0 0 0 429.86394478534595 -752.16644254462688 0 -752.16644254462688 686.83488539967948 0 0 0 0 -46.259978426216549 -255.94230713178149 0 -255.94230713178149 408.27925653851344 0 0 0 0 417.12802763233049 -256.46021750045475 0 -256.46021750045475 354.35510057547981 0 0 0 0 -124.75638912849172 -588.56507140555732 0 -588.56507140555732 272.601415269477 0 0 0 0 -747.24342913863075 -831.94519178095652 0 -831.94519178095652 476.68945123082813 0 0 0 0 -23.278028292261297 -345.47546215487819 0 -345.47546215487819 195.29583879766869 0 0 0 0 -203.6383899491484 -479.26655800554545 0 -479.26655800554545 166.32699712317844 0 0 0 0 -242.77937106237368 -804.97837058699224 0 -804.97837058699224 -72.673256967369525 0 0 0 0 334.21618491960544 -584.23310945474987 0 -584.23310945474987 -174.44656502105499 0 0 0 0 -3.3465420363318117 -998.27855954690494 0 -998.27855954690494 -15.769237191299908 0 0 0 0 -1633.4974854585525 -1527.3904057242144 0 -1527.3904057242144 -322.85363430455982 0 0 0 0 -1.0807774516724749 -180.00181448497915 0 -180.00181448497915 -256.16513538322033 0 0 0 0 -0.058013080985659826 -3.9390183636924974 0 -3.9390183636924974 -2.4342874631427946 0 0 0 0 -536.13125468586077 -1455.0870875879482 0 -1455.0870875879482 -391.42906334013242 0 0 0 0 -720.02950644948578 -1295.8101334902967 0 -1295.8101334902967 -383.87976818748575 0 0 0 0 -526.90816485533469 -1366.4624492350531 0 -1366.4624492350531 -1202.9293310123612 0 0 0 0 -982.57622542112586 -608.15324910671552 0 -608.15324910671552 -305.92809212031716 0 0 0 0 -912.22274321982331 -963.94357568904707 0 -963.94357568904707 -900.79453376161473 0 0 0 0 -618.03634062063429 -365.3155428532591 0 -365.3155428532591 -576.15453165528015 0 0 0 0 1.9259037446935992 -5.3260073437594713 0 -5.3260073437594713 -3.4160607775836809 0 0 0 0 -256.77262304237956 -499.21929246603031 0 -499.21929246603031 -538.89303287770235 0 0 0 0 -80.295872941658672 -486.49609916039481 0 -486.49609916039481 -498.20460570428986 0 0 0 0 -557.93565666957147 -750.78997407259885 0 -750.78997407259885 -264.39795119144401 0 0 0 0 -283.54434588934237 -476.04446556691983 0 -476.04446556691983 -68.777471558209072 0 0 0 0 -74.057427307659964 -918.28424968902982 0 -918.28424968902982 0.16942485981417121 0 0 0 0 879.58847911748489 -472.76765966618859 0 -472.76765966618859 -201.89063973862358 0 0 0 0 0.5804663103187977 -3.1620565415614266 0 -3.1620565415614266 -1.8388606070806759 0 0 0 0 -1201.2462876167829 -1375.6713215166392 0 -1375.6713215166392 1.8983831749646924 0 0 0 0 -220.68123934043979 -777.420374132902 0 -777.420374132902 -0.076608600982581265 0 0 0 0 -251.36270778536345 -924.46600697286704 0 -924.46600697286704 -243.34043026322252 0 0 0 0 -259.21624449588853 -830.87966237615183 0 -830.87966237615183 -8.7242210068325221 0 0 0 0 -204.51130994786945 -884.37100885547625 0 -884.37100885547625 -531.72727147726619 0 0 0 0 -266.61411411981919 -1124.5636128714364 0 -1124.5636128714364 -312.92851192816306 0 0 0 0 -72.109495499746117 -804.29485569859753 0 -804.29485569859753 -351.8900509099476 0 0 0 0 -175.15972832697662 -1027.1648344922396 0 -1027.1648344922396 -577.73136592740775 0 0 0 0 234.87734737064602 -522.0833921542926 0 -522.0833921542926 -1113.132188589394 0 0 0 0 140.90344808445661 -900.85520205520879 0 -900.85520205520879 -1382.3487727317488 0 0 0 0 -6.7358161731281996 -6.3563294169519864 0 -6.3563294169519864 -3.8470272097932678 0 0 0 0 -643.06672787521575 -790.93756660113422 0 -790.93756660113422 990.48604252254881 0 0 0 0 185.71897056634043 -569.38857274013208 0 -569.38857274013208 710.03080154120289 0 0 0 0 302.79594453757272 -328.14939952357963 0 -328.14939952357963 615.06182632882701 0 0 0 0 0.086063384272264898 -3.4604499300800668 0 -3.4604499300800668 -2.82848655466465 0 0 0 0 129.3703161239755 -166.18496986007085 0 -166.18496986007085 134.19531472360541 0 0 0 0 -3.2473113348892468 -5.6684108349458242 0 -5.6684108349458242 -3.0322191127289528 0 0 0 0 144.36380113211635 -642.21676441353884 0 -642.21676441353884 536.63539027668776 0 0 0 0 35.297971111991501 -462.67409849626347 0 -462.67409849626347 -123.3479303697095 0 0 0 0 89.152118534943838 -263.27105120171336 0 -263.27105120171336 -185.10027416895173 0 0 0 0 258.80788488887265 -513.44437356892013 0 -513.44437356892013 -548.20815383229638 0 0 0 0 308.75130143120077 -263.87299148562488 0 -263.87299148562488 -238.21086759366153 0 0 0 0 -60.911089097794047 -735.61213516946123 0 -735.61213516946123 -354.02393945893709 0 0 0 0 -199.70683882991398 -605.91283882471089 0 -605.91283882471089 -0.49060148115313496 0 0 0 0 -208.3341082943698 -682.10287367810452 0 -682.10287367810452 -282.40354154936176 0 0 0 0 -736.07972672644973 -495.7135769903316 0 -495.7135769903316 0.11408558701441507 0 0 0 0 -1169.903522732915 -245.03398399769867 0 -245.03398399769867 -9.8960696077024295 0 0 0 0 -488.69444657116037 -320.05651895515621 0 -320.05651895515621 -186.39528734482155 0 0 0 0 -309.5885498110365 -392.00790247633267 0 -392.00790247633267 -164.35067904967218 0 0 0 0 -751.65267913388379 -75.441289522412262 0 -75.441289522412262 -51.525826499608229 0 0 0 0 -1033.7545849145372 -381.09307309466294 0 -381.09307309466294 13.751779144662578 0 0 0 0 -314.57433878106531 -261.74705718458426 0 -261.74705718458426 46.494257886937703 0 0 0 0 -289.2342191688731 -209.27956782940964 0 -209.27956782940964 -61.503346414241605 0 0 0 0 467.622815666713 -277.77839807144119 0 -277.77839807144119 -47.033848610002678 0 0 0 0 -146.8211617589368 162.23416783648645 0 162.23416783648645 266.05501480734529 0 0 0 0 -1075.9235967539462 -23.373079122444324 0 -23.373079122444324 298.60702847979701 0 0 0 0 -1073.4950144322679 -174.02859012942457 0 -174.02859012942457 -88.781287617348426 0 0 0 0 -1204.7339801230164 -511.71820110058957 0 -511.71820110058957 856.07181514483818 0 0 0 0 -1448.8905288251572 -1010.2220610993681 0 -1010.2220610993681 -498.26568616856821 0 0 0 0 -1450.3632816429163 -1175.7729648867899 0 -1175.7729648867899 571.04867395168367 0 0 0 0 -7.49261904550157 -6.6154796665072269 0 -6.6154796665072269 -4.2682632837854726 0 0 0 0 -3.5732808396971478 -1.9932383389209818 0 -1.9932383389209818 -0.05305865301749435 0 0 0 0 137.7803289127587 -35.059220764604106 0 -35.059220764604106 27.051023091193201 0 0 0 0 277.31173824274447 -627.38885743725768 0 -627.38885743725768 597.60261588447884 0 0 0 0 260.01307983970037 -144.97843658865168 0 -144.97843658865168 405.53635095558639 0 0 0 0 442.44849393611548 -387.50904971673572 0 -387.50904971673572 171.23093570701894 0 0 0 0 396.46776479076652 -254.70831596246717 0 -254.70831596246717 234.87764359868743 0 0 0 0 256.05232257166062 -476.1257048368534 0 -476.1257048368534 135.09470104335196 0 0 0 0 -15.509628926447562 -14.721124917007959 0 -14.721124917007959 -9.6179503596671481 0 0 0 0 101.79498843431793 -360.89000249925448 0 -360.89000249925448 254.97254510099083 0 0 0 0 251.11175414565878 -563.29586835879491 0 -563.29586835879491 326.65704814120545 0 0 0 0 210.15021341596002 -417.93948178137362 0 -417.93948178137362 -367.71547692863896 0 0 0 0 199.04287200625913 -286.50006790713633 0 -286.50006790713633 -382.98079224919275 0 0 0 0 247.19064048043219 -490.91267735405199 0 -490.91267735405199 -275.4341942091196 0 0 0 0 269.73845192823865 -306.31621893496049 0 -306.31621893496049 -167.92869423177035 0 0 0 0 359.97721009324232 -410.78982774553333 0 -410.78982774553333 -377.33904861844348 0 0 0 0 298.78289444841721 -491.04795100651063 0 -491.04795100651063 -588.3380651511834 0 0 0 0 250.79272442248475 -491.44335297665384 0 -491.44335297665384 -376.74206627760293 0 0 0 0 222.75347342172154 -672.54050239850221 0 -672.54050239850221 -846.74424403137527 0 0 0 0 -269.52715173220349 -913.37492813849167 0 -913.37492813849167 -606.54845336900689 0 0 0 0 -570.71449615079473 -719.09853068232769 0 -719.09853068232769 -182.15207555418237 0 0 0 0 -578.01482369778932 -750.52810887692704 0 -750.52810887692704 -276.17313242653472 0 0 0 0 -1346.0097593766914 -1042.1476530487962 0 -1042.1476530487962 -259.98533857183793 0 0 0 0 -1394.2621946745028 -329.64294843335404 0 -329.64294843335404 -94.838856808957644 0 0 0 0 -812.91442256134906 -431.70133561760304 0 -431.70133561760304 -94.953588445687274 0 0 0 0 -983.25365003204206 -323.53536324108427 0 -323.53536324108427 -676.16299943676677 0 0 0 0 -105.29854541881832 -924.51625056333887 0 -924.51625056333887 -1498.9953434179552 0 0 0 0 -774.80230796918113 -284.51743745293788 0 -284.51743745293788 -132.56384588702349 0 0 0 0 -445.5433417758868 -223.79976019909191 0 -223.79976019909191 -9.3716815968145966 0 0 0 0 -563.07659717774368 -58.055856142196717 0 -58.055856142196717 -200.91920162891438 0 0 0 0 -516.35004197256058 -233.30524227895512 0 -233.30524227895512 -264.45335673890258 0 0 0 0 -1002.3088474561009 -279.90268636769906 0 -279.90268636769906 -103.85067881311988 0 0 0 0 -798.15756151272217 -221.39345483737634 0 -221.39345483737634 -287.32276760830473 0 0 0 0 -774.7642579860476 -308.11274545434935 0 -308.11274545434935 -181.64736139635352 0 0 0 0 -686.45676589913637 -111.00088173554832 0 -111.00088173554832 -81.196365349525877 0 0 0 0 -436.11726300495502 -16.684748477382527 0 -16.684748477382527 -18.537753101678391 0 0 0 0 -518.44739248885162 -161.32664037193899 0 -161.32664037193899 -77.607437938066141 0 0 0 0 -650.59335756700602 -88.593438867828809 0 -88.593438867828809 -65.945877393452975 0 0 0 0 -428.1100663127072 47.862863217434096 0 47.862863217434096 74.5704136112181 0 0 0 0 78.904062141715258 22.601818579350947 0 22.601818579350947 4.3489788201623014 0 0 0 0 -152.93085685030383 16.780833480899673 0 16.780833480899673 -88.482219927638653 0 0 0 0 194.07134976780435 69.238073253758557 0 69.238073253758557 -67.052047942663194 0 0 0 0 -0.097494570322201213 -1.7761771436821618 0 -1.7761771436821618 -4.8900010240254232 0 0 0 0 0.064539337628957583 -42.585445210763282 0 -42.585445210763282 -46.079795751400525 0 0 0 0 249.10526181257592 -15.811713742398751 0 -15.811713742398751 -59.276710299454862 0 0 0 0 -0.95784043236095329 -36.257199439841884 0 -36.257199439841884 -35.460957013666132 0 0 0 0 -3.4649736630405457 -10.839332991665501 0 -10.839332991665501 0.62765836483299609 0 0 0 0 -36.876554717793624 -31.91085114658199 0 -31.91085114658199 14.80802316419431 0 0 0 0 57.943316949946166 -92.981379933400603 0 -92.981379933400603 2.6385326823146897 0 0 0 0 0.50774328291600668 -1.6099957181497757 0 -1.6099957181497757 -2.3889641567561455 0 0 0 0 -227.21735703668674 -119.90048416478203 0 -119.90048416478203 -247.26803031249437 0 0 0 0 96.239951163086516 -54.792894951289782 0 -54.792894951289782 203.2089775637869 0 0 0 0 -24.83735585674367 170.49421251180502 0 170.49421251180502 22.030585246895498 0 0 0 0 -434.72172859710554 -72.68180759399911 0 -72.68180759399911 -167.35007124359254 0 0 0 0 372.40306976599823 -199.28219149292636 0 -199.28219149292636 -508.08615710434242 0 0 0 0 -435.43138896112214 -153.85263013829172 0 -153.85263013829172 -178.4305101039572 0 0 0 0 63.499367507677562 -63.359005156115927 0 -63.359005156115927 -37.991573423350928 0 0 0 0 70.509315146940935 -57.239322858080413 0 -57.239322858080413 -32.921418708216152 0 0 0 0 -11.336797125995481 -35.328343216659178 0 -35.328343216659178 -20.597861271927513 0 0 0 0 36.003185718720488 -16.331298265729856 0 -16.331298265729856 -16.470858145359671 0 0 0 0 30.643177201411163 -17.845125474237648 0 -17.845125474237648 3.9435691180624417 0 0 0 0 -104.60161314485595 -269.01371718212977 0 -269.01371718212977 59.430634929260123 0 0 0 0 -316.30027285327378 -154.11587698461517 0 -154.11587698461517 199.476066887255 0 0 0 0 -1783.0614714765616 100.5615150152189 0 100.5615150152189 250.3590755975456 0 0 0 0 -240.41337868646224 403.27474908378645 0 403.27474908378645 129.79270218055535 0 0 0 0 -521.46114773866248 12.029111106522578 0 12.029111106522578 -73.41167214143934 0 0 0 0 -951.37569017065107 -54.477801323977474 0 -54.477801323977474 -73.347923602341325 0 0 0 0 -1253.6090201423322 -684.87120933478218 0 -684.87120933478218 38.706080118507089 0 0 0 0 -1261.5936077439765 -565.72190079974462 0 -565.72190079974462 -274.92721923275428 0 0 0 0 -1857.0374480821047 -884.56058938113711 0 -884.56058938113711 -18.123211723941495 0 0 0 0 -1246.8456548715635 -780.43293206661883 0 -780.43293206661883 -484.02068051240349 0 0 0 0 -1996.9617060253877 -114.22556450519915 0 -114.22556450519915 73.999638217188476 0 0 0 0 -2764.0658191526127 -1392.6226952384113 0 -1392.6226952384113 -465.87113650776882 0 0 0 0 -1416.7211971179568 -683.08183143157294 0 -683.08183143157294 -161.83332330744634 0 0 0 0 -7.8564754978655458 3.8305268827141816 0 3.8305268827141816 -3.2312169301285678 0 0 0 0 -1137.4590934515172 -386.01912641275794 0 -386.01912641275794 35.135275160777383 0 0 0 0 -1839.0126034784735 -340.50706457641718 0 -340.50706457641718 200.0326019014974 0 0 0 0 -1379.5104658959208 -249.48707878168352 0 -249.48707878168352 188.22078440408268 0 0 0 0 -1619.7954955262976 -467.68218722461461 0 -467.68218722461461 21.611779494488474 0 0 0 0 -1568.6964013219422 -529.53274612708265 0 -529.53274612708265 77.228025604861614 0 0 0 0 -1853.8543142180351 -308.27562293939627 0 -308.27562293939627 32.926027987092311 0 0 0 0 -1747.9021925574016 -585.7281930205445 0 -585.7281930205445 -281.91533459343191 0 0 0 0 -1376.4670845615292 -489.04527604599753 0 -489.04527604599753 -0.17330956803198205 0 0 0 0 -66.303039074256958 -43.458677674036153 0 -43.458677674036153 -19.621684654463024 0 0 0 0 -37.843352871619572 -57.107048335781656 0 -57.107048335781656 -30.127166433536331 0 0 0 0 4.6622549440289731 -17.913229610530834 0 -17.913229610530834 -18.081089836028696 0 0 0 0 -2403.4033704516114 -232.71310659105802 0 -232.71310659105802 140.04906297830166 0 0 0 0 -1232.6025676766003 -129.74213663369301 0 -129.74213663369301 -0.27645671938577887 0 0 0 0 83.892129991923866 -59.471331230080978 0 -59.471331230080978 -108.14495234164133 0 0 0 0 -1.7934528501090554 -1.9861132316375034 0 -1.9861132316375034 -3.0152259594618727 0 0 0 0 -1442.8156713639237 63.907615148509649 0 63.907615148509649 18.141200095589738 0 0 0 0 22.326517349771166 -13.858113263195264 0 -13.858113263195264 -21.650728049702593 0 0 0 0 -60.792965045307938 -2.2490406789165718 0 -2.2490406789165718 45.090466378860583 0 0 0 0 19.454038666873203 1.350778681166048 0 1.350778681166048 -14.400102907835389 0 0 0 0 3.6713238235910595 -1.3155766479178013 0 -1.3155766479178013 -0.48106411000318872 0 0 0 0 -11.488477814935322 -24.635706269174989 0 -24.635706269174989 -7.4673191452711762 0 0 0 0 1.458161543044298 -14.874259620240892 0 -14.874259620240892 6.3810296195671725 0 0 0 0 -6.2326015122008549 -7.5116219348979811 0 -7.5116219348979811 -7.5197255730596737 0 0 0 0 -915.73629158197946 -290.76989314561069 0 -290.76989314561069 -120.58101525530947 0 0 0 0 67.034709780913545 -172.06874000850439 0 -172.06874000850439 75.356999519317469 0 0 0 0 -12.692629308956391 -32.347722412709885 0 -32.347722412709885 -0.7381488676650747 0 0 0 0 -59.519527121308784 -36.299090914599219 0 -36.299090914599219 233.97325577394076 0 0 0 0 -1139.8328730791354 -367.87363415071468 0 -367.87363415071468 -103.09905933942355 0 0 0 0 -30.596550936125226 5.391863800661838 0 5.391863800661838 -1.984975645247161 0 0 0 0 31.026245666867908 -27.076956674241956 0 -27.076956674241956 2.2791289145388873 0 0 0 0 29.481611726346273 -22.953576197217444 0 -22.953576197217444 1.0726146729139145 0 0 0 0 40.735170013835159 -24.438815199985584 0 -24.438815199985584 -3.3132102202944225 0 0 0 0 10.387271632935153 -3.3069948279025994 0 -3.3069948279025994 1.6874331349408749 0 0 0 0 1.8057723594828232 -2.3187570017232044 0 -2.3187570017232044 -4.5632160855936093 0 0 0 0 12.23483806866534 -11.934161049051909 0 -11.934161049051909 17.377320649153262 0 0 0 0 220.63189142761985 -14.109091703398008 0 -14.109091703398008 3.8030340269833687 0 0 0 0 167.30748004284578 59.16425033617088 0 59.16425033617088 27.373144689961919 0 0 0 0 217.34268534587136 25.848707184504747 0 25.848707184504747 -30.920040671931929 0 0 0 0 221.27511612300441 30.509191161516355 0 30.509191161516355 -33.881683204064757 0 0 0 0 8.7239826725545413 -6.7866258226373049 0 -6.7866258226373049 3.0220352986885644 0 0 0 0 22.749030405226222 -11.867773319536354 0 -11.867773319536354 -4.5727965312325978 0 0 0 0 22.145536424170132 -11.22368615355299 0 -11.22368615355299 -1.4361825756786857 0 0 0 0 2.5351403639617711 1.1983794876384799 0 1.1983794876384799 -4.7307347472157062 0 0 0 0 7.6650854238432657 7.1690739620025852 0 7.1690739620025852 -2.1321137820195872 0 0 0 0 -19.410632122366223 3.5557083263192908 0 3.5557083263192908 -17.966278812516975 0 0 0 0 3.2480817718806065 15.79422113538385 0 15.79422113538385 -41.486558007862186 0 0 0 0 10.468566862109583 -3.5782959034695523 0 -3.5782959034695523 -16.27228734207165 0 0 0 0 -11.163943574458244 15.921219132280385 0 15.921219132280385 -8.6194272616921808 0 0 0 0 -41.828997362557857 43.149749273810812 0 43.149749273810812 -60.107113358637434 0 0 0 0 -32.683375155458634 5.1185282081351033 0 5.1185282081351033 7.2309653656266164 0 0 0 0 -10.017069735156838 30.055858844491013 0 30.055858844491013 -25.108700147466152 0 0 0 0 18.095739341209992 -29.882252384122694 0 -29.882252384122694 -12.117446202457359 0 0 0 0 1.6983757798246479 -0.42598454090862958 0 -0.42598454090862958 0.0081414355085485113 0 0 0 0 208.29101242696925 100.73733954046838 0 100.73733954046838 67.588001538977551 0 0 0 0 26.1437556599667 -38.48228360738176 0 -38.48228360738176 3.4811835611035349 0 0 0 0 315.80531729404174 169.9065187296801 0 169.9065187296801 66.722149759829335 0 0 0 0 2.0474608275930422 -1.4637713700724646 0 -1.4637713700724646 1.1979738761735916 0 0 0 0 114.22515207948891 -106.95663337643327 0 -106.95663337643327 33.090992142817413 0 0 0 0 62.356068992943619 -3.3125831914603623 0 -3.3125831914603623 -14.883685431123013 0 0 0 0 11.078039187908871 8.3450924565113382 0 8.3450924565113382 0.097320477064292407 0 0 0 0 -23.041172716799338 1.4135117477890162 0 1.4135117477890162 3.5266259957134025 0 0 0 0 -3.4058399979621754 17.124672424506571 0 17.124672424506571 -9.2765019534272142 0 0 0 0 10.467245696825557 -17.324976388321375 0 -17.324976388321375 6.5785919913141697 0 0 0 0 200.47296148179339 -30.318223514696001 0 -30.318223514696001 -8.3255071251624031 0 0 0 0 420.67083729829756 -10.63340741967113 0 -10.63340741967113 -0.11871380284811006 0 0 0 0 197.36451982529616 -34.918779123672721 0 -34.918779123672721 214.50855629494617 0 0 0 0 456.61301531952267 -6.520059736987605 0 -6.520059736987605 -41.47222464675724 0 0 0 0 209.51841668963607 -20.519059667196416 0 -20.519059667196416 -11.514321866307 0 0 0 0 82.692799604308675 -140.65533719952145 0 -140.65533719952145 21.729801473275074 0 0 0 0 22.905497082858346 -57.272745944384951 0 -57.272745944384951 74.71383431758295 0 0 0 0 30.615664619403105 -74.693322230288686 0 -74.693322230288686 -19.282986275378789 0 0 0 0 -113.22855562236236 -83.696851855555906 0 -83.696851855555906 4.3481910184054868 0 0 0 0 170.7763427325408 -42.485430861343048 0 -42.485430861343048 -72.468354585002089 0 0 0 0 174.94551766370023 9.9245242817478356 0 9.9245242817478356 -29.503681297559524 0 0 0 0 300.53124045101868 66.025798288759688 0 66.025798288759688 -31.276999368797988 0 0 0 0 200.6847035409337 38.892029628925229 0 38.892029628925229 -38.857405617593031 0 0 0 0 31.857127247130848 -57.507321879616939 0 -57.507321879616939 -31.370375048292772 0 0 0 0 222.54875364545478 -10.654410448526505 0 -10.654410448526505 -77.657281371124554 0 0 0 0 133.75631610554774 41.159609893296874 0 41.159609893296874 -67.024264913663501 0 0 0 0 41.913249709754382 -50.770766488869413 0 -50.770766488869413 -140.34381146739906 0 0 0 0 25.260411756076792 -88.37745117401937 0 -88.37745117401937 -221.52545235621074 0 0 0 0 -172.97876572465339 -100.68254076613448 0 -100.68254076613448 -56.028564722881129 0 0 0 0 -212.53007308383167 -222.55012668926793 0 -222.55012668926793 -101.71379742911085 0 0 0 0 -297.17069627902674 -72.029609604254802 0 -72.029609604254802 -99.854080810742744 0 0 0 0 35.443015019354789 -184.17616627116149 0 -184.17616627116149 -87.616979181977513 0 0 0 0 2.1467373330779083 -121.88065251753505 0 -121.88065251753505 -161.28754184856371 0 0 0 0 148.71137561015348 -94.720321911539941 0 -94.720321911539941 -159.11927588400431 0 0 0 0 12.88770590837521 -65.740204156023538 0 -65.740204156023538 -7.9714361507867579 0 0 0 0 163.80037834406812 -64.993107102022805 0 -64.993107102022805 -104.29520914730529 0 0 0 0 375.17065616400942 -17.306814701136318 0 -17.306814701136318 -86.859174376870214 0 0 0 0 220.76110143890128 56.932225213073252 0 56.932225213073252 27.098415062268032 0 0 0 0 0.79835433702531589 1.3122341075904984 0 1.3122341075904984 -5.0195081210279682 0 0 0 0 151.46710585194978 -120.8216600559781 0 -120.8216600559781 74.971038637791935 0 0 0 0 0.083543677585112164 5.4919976341770962 0 5.4919976341770962 45.230028683203273 0 0 0 0 0.26567019493415955 0.41288244149990838 0 0.41288244149990838 -2.3355667793365456 0 0 0 0 59.75963211231192 -19.11143992151392 0 -19.11143992151392 -32.631534971667861 0 0 0 0 18.436660735635087 0.44904510634660255 0 0.44904510634660255 -22.179695577171515 0 0 0 0 21.634697856368803 54.304131897017669 0 54.304131897017669 -106.18982590394444 0 0 0 0 80.441406028348865 -36.077991020705667 0 -36.077991020705667 -139.32325599716569 0 0 0 0 201.77755368714134 -6.9078908837764175 0 -6.9078908837764175 -251.72372929098492 0 0 0 0 130.93946264754049 -104.6916238795784 0 -104.6916238795784 -52.024074581073364 0 0 0 0 -38.454828206671664 109.68291100749411 0 109.68291100749411 -211.57788546622032 0 0 0 0 308.21219340266907 -171.29314348892512 0 -171.29314348892512 -136.74498506926466 0 0 0 0 0.48927345105642672 0.47979534753018527 0 0.47979534753018527 -2.4101511007198724 0 0 0 0 123.60177267487597 221.13693902586238 0 221.13693902586238 -180.59278219626867 0 0 0 0 13.129601923697919 -237.20170457214408 0 -237.20170457214408 -8.5329751395511266 0 0 0 0 93.83913393457442 -130.92296710931987 0 -130.92296710931987 87.49771972061717 0 0 0 0 -80.111170677542759 -83.312405185391981 0 -83.312405185391981 4.2513601734681288 0 0 0 0 52.531609244477295 -122.43083554393525 0 -122.43083554393525 -53.760804558303789 0 0 0 0 81.28022283460632 -59.987080834664994 0 -59.987080834664994 -63.013835151185049 0 0 0 0 210.71969487121351 -258.80418344569807 0 -258.80418344569807 63.614561244321521 0 0 0 0 502.6563589686557 147.70388217491563 0 147.70388217491563 14.647974268416874 0 0 0 0 465.67342788165115 -30.343916796970007 0 -30.343916796970007 -287.62084486027015 0 0 0 0 0.8395836998140922 -1.8006488601372155 0 -1.8006488601372155 2.019106932268528 0 0 0 0 180.75427777862205 -338.40482318208888 0 -338.40482318208888 404.63750996874296 0 0 0 0 603.61231832721387 -227.45692844931182 0 -227.45692844931182 -63.739178596239071 0 0 0 0 273.94875716110982 -135.63005496005644 0 -135.63005496005644 -69.684780225863506 0 0 0 0 -41.179401539066021 -131.2485045058711 0 -131.2485045058711 91.54763438228656 0 0 0 0 0.55037685362009015 -0.3107919778571997 0 -0.3107919778571997 -0.88526979047256305 0 0 0 0 331.54100764588293 28.068422872840529 0 28.068422872840529 -67.237831351099885 0 0 0 0 -13.254985367435438 33.012978168837435 0 33.012978168837435 68.360360262850008 0 0 0 0 276.05607227923974 -145.38422320646532 0 -145.38422320646532 -93.787078903376823 0 0 0 0 -17.596663690565038 -16.695578352203711 0 -16.695578352203711 -12.671683571243193 0 0 0 0 30.06768521019626 -203.48446976497621 0 -203.48446976497621 -53.302556109221769 0 0 0 0 31.283010059960361 -178.65210668592772 0 -178.65210668592772 -0.64521327043621568 0 0 0 0 281.41489582608483 -219.03693533854675 0 -219.03693533854675 -29.189056985924253 0 0 0 0 77.420799973137036 -144.26704795693513 0 -144.26704795693513 -47.436985297612409 0 0 0 0 182.16339168087507 -70.999816551400727 0 -70.999816551400727 -11.635036774721812 0 0 0 0 17.757530379203672 -201.8153764125309 0 -201.8153764125309 -47.426623262988869 0 0 0 0 58.379947503879521 -140.80305127714018 0 -140.80305127714018 -129.01367556262267 0 0 0 0 -94.323912700201618 -141.04377587405907 0 -141.04377587405907 -83.087999374365609 0 0 0 0 -81.955143402068643 -21.127895402249123 0 -21.127895402249123 -49.983882632941459 0 0 0 0 -347.52370458831501 -224.48534480523358 0 -224.48534480523358 -102.33701732369082 0 0 0 0 -258.21234299772732 -76.848635300439128 0 -76.848635300439128 -27.86458916637639 0 0 0 0 -104.77058536098775 -201.51506868674915 0 -201.51506868674915 -133.00647962447692 0 0 0 0 3.7550426328307367 -80.288757354748668 0 -80.288757354748668 -144.09384912392852 0 0 0 0 18.823435227901427 -113.45901084361321 0 -113.45901084361321 -116.7935258338839 0 0 0 0 196.02879999162178 -55.504048824375786 0 -55.504048824375786 -164.11414511212206 0 0 0 0 644.88667766791696 132.06670200458393 0 132.06670200458393 -133.68485399432939 0 0 0 0 1.4266518409609787 -2.1453715706313616 0 -2.1453715706313616 -0.22885904625144349 0 0 0 0 -122.60910944867101 -100.84388350645895 0 -100.84388350645895 129.02570720895892 0 0 0 0 3.378944511341551 -6.3368198241828253 0 -6.3368198241828253 -3.0522796083622552 0 0 0 0 -155.47440701095547 -184.64366843854623 0 -184.64366843854623 -65.223865167282383 0 0 0 0 105.9346524435141 -159.5568537241943 0 -159.5568537241943 -172.62351071376906 0 0 0 0 -120.94582797159956 -112.66274030199247 0 -112.66274030199247 22.282201057183556 0 0 0 0 -85.112231344424799 -321.55905947311112 0 -321.55905947311112 -139.75328497555165 0 0 0 0 68.214113026171617 -9.0418055028712843 0 -9.0418055028712843 -77.653579220692336 0 0 0 0 0.93280961517658056 -1.1796424738820193 0 -1.1796424738820193 -1.9828358317921015 0 0 0 0 107.99111003193684 52.647555269453733 0 52.647555269453733 65.645185046101687 0 0 0 0 -6.6434423857062939 -76.643684033464524 0 -76.643684033464524 17.050048820643497 0 0 0 0 2.0861813577648718 -59.677279722105595 0 -59.677279722105595 -103.34045067029365 0 0 0 0 -227.02245513815797 -161.94413404095758 0 -161.94413404095758 -70.422933326153725 0 0 0 0 -87.434167374263097 -27.793207008197442 0 -27.793207008197442 14.651804035027453 0 0 0 0 -108.14719284313105 -186.6789330349493 0 -186.6789330349493 -126.55723177761774 0 0 0 0 -176.5387454104457 -183.23239845892022 0 -183.23239845892022 -159.51894046608504 0 0 0 0 -178.37900831118532 -159.94078935635116 0 -159.94078935635116 -100.8944070266225 0 0 0 0 -565.74285162102933 -308.95184563821749 0 -308.95184563821749 -23.639148736110656 0 0 0 0 3.7149148518177562 -5.3105291511408979 0 -5.3105291511408979 0.58489509723747801 0 0 0 0 -256.78422467888595 -222.47101999254664 0 -222.47101999254664 -113.45093977800207 0 0 0 0 -220.34250893506396 -163.05104796353407 0 -163.05104796353407 -110.95741936773993 0 0 0 0 -141.2884275152519 -175.81382140963069 0 -175.81382140963069 -179.41494783243979 0 0 0 0 -151.90545336366267 -197.92093747665422 0 -197.92093747665422 -139.01002099530524 0 0 0 0 -297.61908718567429 -180.5257511205491 0 -180.5257511205491 -134.09543456204483 0 0 0 0 -196.0574416474592 -124.25001554137634 0 -124.25001554137634 -167.87576080844883 0 0 0 0 -170.31766101298854 -142.28533173909091 0 -142.28533173909091 -116.19662040405819 0 0 0 0 -180.03028589438327 -167.29030111139673 0 -167.29030111139673 -145.58754651791241 0 0 0 0 -190.59847250518214 -123.36825213927659 0 -123.36825213927659 -94.260838188609341 0 0 0 0 -148.72513214840001 -150.56220668710739 0 -150.56220668710739 -156.64910523818253 0 0 0 0 -112.64287346979836 -93.359608419224969 0 -93.359608419224969 -110.48738979725749 0 0 0 0 -122.56302081363174 -96.330557861580019 0 -96.330557861580019 -25.75651689436927 0 0 0 0 -150.79114033075894 -139.87552519680321 0 -139.87552519680321 -129.51502012125275 0 0 0 0 -70.313703954114317 -60.084620274898043 0 -60.084620274898043 -95.653230860578333 0 0 0 0 2.5774647187747419 -7.6697834815517751 0 -7.6697834815517751 3.2032419703848234 0 0 0 0 230.83772787691851 -33.195427780779937 0 -33.195427780779937 -0.11924098160670837 0 0 0 0 -95.148440245444363 -53.843030468618963 0 -53.843030468618963 -16.748263353132643 0 0 0 0 -153.65112552936785 -94.072346303167024 0 -94.072346303167024 -58.109439390587795 0 0 0 0 253.46162522765371 -15.161899915608956 0 -15.161899915608956 -38.246293094394787 0 0 0 0 2.9324752931241242 -6.2562163267759274 0 -6.2562163267759274 1.5554608586556924 0 0 0 0 255.51876675328094 -32.612465741545748 0 -32.612465741545748 -9.5534991721870028 0 0 0 0 78.646492835438039 -107.41451999203309 0 -107.41451999203309 25.912875398428696 0 0 0 0 394.83163905154106 59.396740897680502 0 59.396740897680502 -46.30336064597941 0 0 0 0 3.6715028817753428 -7.6593928647589493 0 -7.6593928647589493 0.87165182421423992 0 0 0 0 -294.12830241803749 -192.97474114448596 0 -192.97474114448596 2.0665433375070279 0 0 0 0 -228.07784984201498 -48.350853821641067 0 -48.350853821641067 -70.737193963563186 0 0 0 0 -454.42811904267001 -204.75773274120183 0 -204.75773274120183 44.588189098438306 0 0 0 0 -264.50689112538748 -21.269363862262253 0 -21.269363862262253 -143.11166082946147 0 0 0 0 239.88091499860457 -0.32507593459013151 0 -0.32507593459013151 74.857516137053608 0 0 0 0 616.81124344070668 27.746984571002031 0 27.746984571002031 -174.26343988084409 0 0 0 0 -567.196276422339 -212.65639597327572 0 -212.65639597327572 120.14167169710709 0 0 0 0 1.3601744522909627 -2.7348554510322245 0 -2.7348554510322245 0.43502338133288276 0 0 0 0 358.01831779303757 107.01045895087736 0 107.01045895087736 16.83423679236148 0 0 0 0 -198.4935296040785 -152.02909099374028 0 -152.02909099374028 102.79968468059815 0 0 0 0 -93.594945532484417 64.700716524446761 0 64.700716524446761 -2.7482291061869546 0 0 0 0 -14.121498013449965 -8.6612180522330249 0 -8.6612180522330249 53.474690748324505 0 0 0 0 -184.49692536413204 -196.41548408105336 0 -196.41548408105336 31.311832653940655 0 0 0 0 -166.10315137601401 -90.569578161731897 0 -90.569578161731897 -23.154627175114001 0 0 0 0 -220.57263200572925 -144.22879825385462 0 -144.22879825385462 30.304200293467147 0 0 0 0 -0.19765611241558645 2.3971345959928136 0 2.3971345959928136 5.8180484264442036 0 0 0 0 -155.45364085404799 -154.02054766609581 0 -154.02054766609581 85.273468297280488 0 0 0 0 -24.816575707209026 -18.137708145545503 0 -18.137708145545503 11.400392932743971 0 0 0 0 -130.0776722526607 -240.96485458628922 0 -240.96485458628922 -54.705191471526632 0 0 0 0 9.3432754480963922 -153.04633870734688 0 -153.04633870734688 -45.641529754425392 0 0 0 0 -19.892855011843494 -15.383881175608622 0 -15.383881175608622 7.6714303502812982 0 0 0 0 -26.989100782302557 -25.557510846012519 0 -25.557510846012519 11.835165925011779 0 0 0 0 -15.952496609055743 -23.546999293697581 0 -23.546999293697581 -4.8642691160566756 0 0 0 0 -192.33225618480719 -139.13552540985802 0 -139.13552540985802 -57.821432199241372 0 0 0 0 -185.88402690509065 -133.67640720360396 0 -133.67640720360396 -76.681689037824981 0 0 0 0 -194.64933672485131 -143.79473746370604 0 -143.79473746370604 -51.321873651484566 0 0 0 0 0.020545991597330726 -10.972675265050867 0 -10.972675265050867 11.739754427067844 0 0 0 0 -15.602047607793793 -26.533707926890202 0 -26.533707926890202 1.1253602103242883 0 0 0 0 -10.7105529619148 -25.09369633220831 0 -25.09369633220831 -4.3093515537912026 0 0 0 0 2.4799729406507396 -17.363308747179531 0 -17.363308747179531 -16.185221919474401 0 0 0 0 -16.796732599454117 -30.176118202503858 0 -30.176118202503858 -3.5370796917413827 0 0 0 0 -19.332471796706159 -20.489891376122614 0 -20.489891376122614 26.730384639824479 0 0 0 0 -6.1348398806258047 -22.18626955900254 0 -22.18626955900254 8.4410911855702579 0 0 0 0 -6.7918691249333065 -19.197350942263789 0 -19.197350942263789 2.2193157001821646 0 0 0 0 -17.201958346493484 -16.475520876079827 0 -16.475520876079827 5.558179043686323 0 0 0 0 -3.6070615548445186 -18.196406835295672 0 -18.196406835295672 -11.2820867084978 0 0 0 0 1.601272702231654 25.997895784768843 0 25.997895784768843 -2.7282157384761376 0 0 0 0 -13.700664922056603 -25.991986329932843 0 -25.991986329932843 -6.0909757534391247 0 0 0 0 230.77456079747208 -253.45792099062237 0 -253.45792099062237 116.06455991788243 0 0 0 0 -14.17111015168841 -22.45838860177912 0 -22.45838860177912 -4.1057943680390698 0 0 0 0 142.6464421745959 28.136546310200174 0 28.136546310200174 -150.70026825597597 0 0 0 0 -22.694467675766646 -28.28335895501732 0 -28.28335895501732 -2.7843900239895447 0 0 0 0 -26.271190228253545 -32.869265035804347 0 -32.869265035804347 11.233448738275911 0 0 0 0 -4.9243310186803342 -16.141639376398182 0 -16.141639376398182 14.568900629389788 0 0 0 0 -17.08191107998573 -28.723884110464496 0 -28.723884110464496 -6.6269370127192815 0 0 0 0 -11.869906347365031 -28.403613042011784 0 -28.403613042011784 -11.488590031432977 0 0 0 0 -11.843226721123656 -15.443016323678073 0 -15.443016323678073 -4.2265197166131951 0 0 0 0 -89.613880523549597 -30.564048714841192 0 -30.564048714841192 25.76617604227431 0 0 0 0 -1.848154688177722 -0.87360347043223641 0 -0.87360347043223641 7.0087498156188985 0 0 0 0 -19.039127787931648 -22.073409219510722 0 -22.073409219510722 0.95370117615675554 0 0 0 0 -33.272435472157667 -7.8825831938302144 0 -7.8825831938302144 2.0579580593237097 0 0 0 0 -0.60325435521466009 -11.53954316282357 0 -11.53954316282357 0.24691303403437814 0 0 0 0 323.61084496982221 -148.07640555191392 0 -148.07640555191392 -27.531116262174237 0 0 0 0 53.013173989314964 -3.2502775981338345 0 -3.2502775981338345 66.789783046442608 0 0 0 0 0.73206108235451239 -2.1498193882608945 0 -2.1498193882608945 0.46586320238267831 0 0 0 0 249.44790342103988 -11.5304941845352 0 -11.5304941845352 -30.314868386405578 0 0 0 0 -51.444718207389087 -17.390452688332516 0 -17.390452688332516 -19.027975346631138 0 0 0 0 -44.801697791824608 -25.373265303750941 0 -25.373265303750941 -16.296703338681255 0 0 0 0 -116.14737545656681 -28.009784869995201 0 -28.009784869995201 10.158023280921043 0 0 0 0 -95.565101793057693 -54.218256470992856 0 -54.218256470992856 -55.406367629184388 0 0 0 0 -122.24484073925123 -50.482833104055317 0 -50.482833104055317 -51.140703170603956 0 0 0 0 -102.98121723889199 -53.080389664501126 0 -53.080389664501126 -103.38469075669855 0 0 0 0 -152.04555996943782 -93.939478218499062 0 -93.939478218499062 -23.542269100427802 0 0 0 0 -123.4309063145447 -75.956021599064115 0 -75.956021599064115 -36.886304237833428 0 0 0 0 -43.609929609596293 -167.0616740336045 0 -167.0616740336045 -119.54879709793022 0 0 0 0 -66.307891117829058 -95.86047447877263 0 -95.86047447877263 -22.325067401252454 0 0 0 0 -56.801111346036123 -97.658278095696005 0 -97.658278095696005 -56.952779248989827 0 0 0 0 -60.453031411503616 -83.61095115720309 0 -83.61095115720309 -10.701444528167485 0 0 0 0 -74.983677981794244 -67.543873639108824 0 -67.543873639108824 -1.3053547687013634 0 0 0 0 -85.260147027511266 -54.070460827315401 0 -54.070460827315401 -15.718417764780497 0 0 0 0 -102.16649033567955 -110.17472323092807 0 -110.17472323092807 -27.550764851937856 0 0 0 0 -81.72138729623839 -81.808067297482921 0 -81.808067297482921 -4.9012783204161678 0 0 0 0 -76.706437240340165 -50.558783558073628 0 -50.558783558073628 21.707082197601267 0 0 0 0 -38.11218010456048 -41.928559471633697 0 -41.928559471633697 -1.8808207549693217 0 0 0 0 -46.242737805721845 -60.055518670509628 0 -60.055518670509628 24.534191169266705 0 0 0 0 -72.035326892771991 -55.041078059406573 0 -55.041078059406573 43.434461860146257 0 0 0 0 -17.348431559585151 -66.625867646042025 0 -66.625867646042025 -13.35919944996499 0 0 0 0 -47.351673211283924 -46.288420340002631 0 -46.288420340002631 16.786896929173963 0 0 0 0 -45.59315272783715 -70.176531093911763 0 -70.176531093911763 -28.053578355174977 0 0 0 0 -58.321702326915741 -47.046963859831784 0 -47.046963859831784 -4.4573687971878408 0 0 0 0 -54.378066408182349 -81.35500852043333 0 -81.35500852043333 -41.177285026544268 0 0 0 0 110.96557688070789 157.94874782611623 0 157.94874782611623 -197.69175452190029 0 0 0 0 -0.56664397789865006 -2.4072191506678173 0 -2.4072191506678173 -2.7482714548932918 0 0 0 0 -211.81831067390158 48.020847950525422 0 48.020847950525422 26.692023057743427 0 0 0 0 0.6849194841888675 -40.08269127478161 0 -40.08269127478161 33.574605530506233 0 0 0 0 -15.623789350080187 -27.804313052925863 0 -27.804313052925863 55.768227977976494 0 0 0 0 -2.9044287069918937 -38.298490726221644 0 -38.298490726221644 -51.765029818046969 0 0 0 0 4.4040823268223903 -33.859556550512934 0 -33.859556550512934 29.262853791762609 0 0 0 0 0.032280199184555158 -10.991884509934467 0 -10.991884509934467 -1.817577533551912 0 0 0 0 10.941802804307372 -36.71310069215906 0 -36.71310069215906 -103.03798219880628 0 0 0 0 11.308266280748285 -92.692222526144178 0 -92.692222526144178 -62.523188915445644 0 0 0 0 205.87543069173989 -192.03119495609644 0 -192.03119495609644 114.41570441953809 0 0 0 0 31.811156391406257 -115.48233671334492 0 -115.48233671334492 -6.7846424670478882 0 0 0 0 19.5743036449785 -217.25879635795354 0 -217.25879635795354 134.17574627838621 0 0 0 0 -9.3428979339603053 -13.307236433305505 0 -13.307236433305505 -2.0291040054631395 0 0 0 0 -50.700717773768702 -303.5787033342549 0 -303.5787033342549 167.67442409678733 0 0 0 0 238.03673810881446 -71.124948612730805 0 -71.124948612730805 -16.023133889903875 0 0 0 0 -74.609718104155036 -164.59101615399959 0 -164.59101615399959 71.462786558833614 0 0 0 0 12.374501307444007 -352.47855212202012 0 -352.47855212202012 -260.73450211875752 0 0 0 0 -318.57574260981346 -154.93374343361211 0 -154.93374343361211 197.59985696044168 0 0 0 0 -510.84048594505293 -135.99420325998653 0 -135.99420325998653 -12.667453136052245 0 0 0 0 11.508529269842256 -207.6755659488399 0 -207.6755659488399 256.61497255393442 0 0 0 0 -37.2886700198178 -69.789922225370901 0 -69.789922225370901 -67.607985833688872 0 0 0 0 -0.80154437038612514 -22.612588529195129 0 -22.612588529195129 -7.7887288404907116 0 0 0 0 -47.208599235600559 -30.797416747178431 0 -30.797416747178431 -43.987752817696673 0 0 0 0 42.390297644895327 -37.890831774469916 0 -37.890831774469916 -73.85108723531448 0 0 0 0 4.6423293992688208 -38.676415687714837 0 -38.676415687714837 -43.273344794365045 0 0 0 0 -51.671015472245927 -86.418390459642978 0 -86.418390459642978 -34.885348230400268 0 0 0 0 10.869048460730628 -31.696336242003042 0 -31.696336242003042 -42.422332438327203 0 0 0 0 71.399918241218984 -66.901693158659327 0 -66.901693158659327 -75.243076466842467 0 0 0 0 -6.8344483319306164 -24.153932168783285 0 -24.153932168783285 -51.92767395372357 0 0 0 0 -284.46076770754735 -283.32109349430175 0 -283.32109349430175 -151.32313015269665 0 0 0 0 1.9129985842367887 -2.0831448913933457 0 -2.0831448913933457 3.1569339956502773 0 0 0 0 -57.557386695749301 -90.246916700242764 0 -90.246916700242764 -59.947610500294104 0 0 0 0 -331.76490060758078 -258.69913508765785 0 -258.69913508765785 -157.67810030172041 0 0 0 0 -286.35112377060432 -199.37465404890099 0 -199.37465404890099 -90.942545483409049 0 0 0 0 -338.51821247126645 -172.28831047856511 0 -172.28831047856511 -33.36482608634833 0 0 0 0 -384.75364633379286 -254.33552449162562 0 -254.33552449162562 -25.759163096168777 0 0 0 0 -413.86875928188965 -212.35595655434736 0 -212.35595655434736 -47.640006918671133 0 0 0 0 -3.6743111184251944 -6.9535359765072684 0 -6.9535359765072684 2.1337452778893891 0 0 0 0 -347.20853132263437 -152.36816924715822 0 -152.36816924715822 -29.119933881927864 0 0 0 0 -292.2762449028653 -125.76931992370226 0 -125.76931992370226 -51.655045297884499 0 0 0 0 20.746229685297262 -30.022363098514681 0 -30.022363098514681 -41.922546788181194 0 0 0 0 -39.818992712942418 -68.199018186529429 0 -68.199018186529429 -63.284908188841655 0 0 0 0 124.36396250890903 35.720935079905757 0 35.720935079905757 -102.44749393304619 0 0 0 0 110.31461885804129 47.490889909786347 0 47.490889909786347 -25.889715934317792 0 0 0 0 -283.01161978290111 -265.82469096444765 0 -265.82469096444765 -155.04246823042195 0 0 0 0 0.13745055788708882 -0.10000032576777329 0 -0.10000032576777329 -1.764853110147186 0 0 0 0 -137.18692756337759 -142.46131655745376 0 -142.46131655745376 -209.28172611088667 0 0 0 0 -202.76607084646093 -239.35971556560253 0 -239.35971556560253 -221.37652698543388 0 0 0 0 -1.0858236579915683 5.7806617911046487 0 5.7806617911046487 -95.109268317267833 0 0 0 0 -0.4368009585519701 -0.59531842776878818 0 -0.59531842776878818 -1.1707423180791068 0 0 0 0 -0.042148035920561711 -0.82391185252900812 0 -0.82391185252900812 -4.6243813629452006 0 0 0 0 -265.4852417071761 -240.84628254748168 0 -240.84628254748168 -119.5147990177793 0 0 0 0 73.91437297808443 -1.3664505921406089 0 -1.3664505921406089 -2.1518871615662647 0 0 0 0 126.02205800332649 8.2007831136725144 0 8.2007831136725144 -53.319151467847405 0 0 0 0 90.896402149599453 -6.4329253659161623 0 -6.4329253659161623 -21.997659269261931 0 0 0 0 85.016581570518611 11.626198170248244 0 11.626198170248244 4.796776905299339 0 0 0 0 96.023689695921348 3.1799030260190193 0 3.1799030260190193 -17.418172821315238 0 0 0 0 7.4467903297302698 -0.18399412781025148 0 -0.18399412781025148 -4.5584107622520946 0 0 0 0 36.993141973737814 -24.706790398507408 0 -24.706790398507408 -26.675432588222506 0 0 0 0 74.549072325899033 6.0179519540361071 0 6.0179519540361071 -10.004847553886066 0 0 0 0 56.099815486424632 -15.916881615452439 0 -15.916881615452439 -14.13632095457433 0 0 0 0 76.822861707551056 5.9430063427462301 0 5.9430063427462301 -7.3256701693389914 0 0 0 0 82.501624035934583 7.9236696609841601 0 7.9236696609841601 -11.740433630649932 0 0 0 0 39.46322068005076 -26.347433488320505 0 -26.347433488320505 -24.107006168833337 0 0 0 0 -5.2682203000695154 -16.496154772274167 0 -16.496154772274167 -12.680726922655595 0 0 0 0 58.448644944041007 -5.5546554883621866 0 -5.5546554883621866 -12.384615035432944 0 0 0 0 77.050497992036981 -23.374900129376329 0 -23.374900129376329 -14.445717196969781 0 0 0 0 9.1345061624380577 -0.79814330419837987 0 -0.79814330419837987 -7.6661112715668764 0 0 0 0 104.50685265251377 -17.825383363662695 0 -17.825383363662695 -22.965852093526337 0 0 0 0 67.319498712844506 7.2204085624034633 0 7.2204085624034633 -3.1837190962905879 0 0 0 0 105.06275675396319 11.779900019584602 0 11.779900019584602 -12.30074447010702 0 0 0 0 -331.49579598376295 -136.93710309416201 0 -136.93710309416201 -0.86963134958932642 0 0 0 0 -372.55352199857589 -21.40455612378355 0 -21.40455612378355 90.889828551000392 0 0 0 0 -393.40280658523989 -131.18060062497943 0 -131.18060062497943 -2.5633367252448807 0 0 0 0 -471.99158057833847 -79.766766692566307 0 -79.766766692566307 11.508599636209965 0 0 0 0 -624.07268140330052 -189.48083930215762 0 -189.48083930215762 -1.2739358580001863 0 0 0 0 -903.86313621166846 -297.69048589996964 0 -297.69048589996964 4.0285549825712224 0 0 0 0 -600.7485401728045 -216.35196116349834 0 -216.35196116349834 7.8387212280722451 0 0 0 0 -621.95247116728569 -206.09050986422517 0 -206.09050986422517 39.928094414332008 0 0 0 0 -440.10885188168322 -178.38059341210464 0 -178.38059341210464 6.0641501215650351 0 0 0 0 -518.13544401646504 -267.38061218517942 0 -267.38061218517942 -9.3233231033518678 0 0 0 0 -462.68487408019064 -178.40177126854087 0 -178.40177126854087 10.978888681296667 0 0 0 0 -257.60742570106959 -138.9893435044869 0 -138.9893435044869 -38.449316473099316 0 0 0 0 -155.90909906825618 -21.759179208290334 0 -21.759179208290334 -50.148240618451382 0 0 0 0 -430.36683532644383 -78.374480144120753 0 -78.374480144120753 39.142229984558071 0 0 0 0 -414.22584048561839 -488.60233399671415 0 -488.60233399671415 -115.37008975600838 0 0 0 0 -393.87818564481131 -414.89799982581462 0 -414.89799982581462 -61.853126998379594 0 0 0 0 -565.55039718423359 -493.61682003203168 0 -493.61682003203168 -90.932552554408176 0 0 0 0 -457.32338258287928 -322.86976241915545 0 -322.86976241915545 -17.728358743272111 0 0 0 0 -562.25536864910828 -332.10567025967612 0 -332.10567025967612 -0.63280818498787994 0 0 0 0 -798.61781159876591 -383.58320671888919 0 -383.58320671888919 -12.975795206250041 0 0 0 0 -699.74220229459024 -399.42555321646796 0 -399.42555321646796 -33.249183387124503 0 0 0 0 -763.54030567320115 -654.23803984170991 0 -654.23803984170991 -160.02394613835349 0 0 0 0 -514.10750843566348 -503.92651843249405 0 -503.92651843249405 -89.923181524078245 0 0 0 0 -401.05294832062282 -683.97665223167496 0 -683.97665223167496 -263.79458543996589 0 0 0 0 -298.10534317731799 -603.07382470682933 0 -603.07382470682933 -273.88238190195261 0 0 0 0 56.16578477643634 -658.44056060948242 0 -658.44056060948242 -462.15063386555994 0 0 0 0 221.86225280031795 -494.82907081864505 0 -494.82907081864505 -448.90147497163343 0 0 0 0 47.77265468211408 -598.9903871925344 0 -598.9903871925344 -495.60820539862289 0 0 0 0 203.45736402076 -314.04292852447907 0 -314.04292852447907 -295.57432129748122 0 0 0 0 -22.500007619892131 -491.96500776215544 0 -491.96500776215544 -432.54560697158377 0 0 0 0 -200.17718713999784 -448.39931590567721 0 -448.39931590567721 -228.1834309762944 0 0 0 0 -212.20221440331079 -531.07603511792331 0 -531.07603511792331 -237.68356618393955 0 0 0 0 -93.312706098433409 -442.27336324575481 0 -442.27336324575481 -230.03809953381278 0 0 0 0 -284.51812528212758 -416.40500530292775 0 -416.40500530292775 -92.680409480803064 0 0 0 0 -290.04354245565628 -427.48912020702119 0 -427.48912020702119 -92.429606582816632 0 0 0 0 -241.78950188171439 -397.34683380297065 0 -397.34683380297065 -35.477537183771346 0 0 0 0 -237.20151359029114 -403.04475709295548 0 -403.04475709295548 -104.9219402609524 0 0 0 0 -30.462739672122552 -344.24839669709672 0 -344.24839669709672 -266.93815695934609 0 0 0 0 -50.552934814899345 -329.61733193762848 0 -329.61733193762848 -137.10476763922634 0 0 0 0 -179.24203683359701 -284.60115790961572 0 -284.60115790961572 131.88972207419283 0 0 0 0 -249.40516479179132 -436.06162233279792 0 -436.06162233279792 12.777084049343102 0 0 0 0 -222.90095871309313 -414.92382792609533 0 -414.92382792609533 -68.36886956331 0 0 0 0 -280.99373526654381 -435.54972525710036 0 -435.54972525710036 -55.234777213550842 0 0 0 0 -283.87497536327646 -421.81877203964359 0 -421.81877203964359 -117.0151179763925 0 0 0 0 -256.40547428865102 -410.69816455949695 0 -410.69816455949695 -46.261106594225566 0 0 0 0 -279.85152464229031 -400.71785106715106 0 -400.71785106715106 -147.68574869318036 0 0 0 0 -270.31200851563699 -377.90391143409943 0 -377.90391143409943 -101.44329637127521 0 0 0 0 -346.2446739625193 -364.04762407446765 0 -364.04762407446765 -101.37429611755215 0 0 0 0 -339.72655340601341 -417.91043351796543 0 -417.91043351796543 -67.610779978196661 0 0 0 0 -499.11504604943912 -368.26322663742758 0 -368.26322663742758 -51.547003876534291 0 0 0 0 -362.01518593892979 -354.30016697401516 0 -354.30016697401516 -50.389020544671894 0 0 0 0 -421.86594744613831 -298.1458638063832 0 -298.1458638063832 -77.166234054529923 0 0 0 0 -312.58804900309769 -297.58182199377916 0 -297.58182199377916 -79.05309515359022 0 0 0 0 -312.64638055163232 -322.38780922143815 0 -322.38780922143815 -147.27031957112195 0 0 0 0 -287.55522316057613 -302.14350750180711 0 -302.14350750180711 -160.64826210210322 0 0 0 0 -140.92690872398998 -421.64737888928812 0 -421.64737888928812 -295.52520016930066 0 0 0 0 -173.78136614146206 -293.29065412547243 0 -293.29065412547243 -229.76597373700861 0 0 0 0 -218.07448797871621 -468.81193189001715 0 -468.81193189001715 -169.42779709067963 0 0 0 0 47.501601158655831 -168.2865371165226 0 -168.2865371165226 -269.20760426374363 0 0 0 0 24.630039920255513 -312.52823766060578 0 -312.52823766060578 -504.60187835981924 0 0 0 0 -64.608871948199521 -398.51813648334428 0 -398.51813648334428 -292.9466666310509 0 0 0 0 -101.25420433390536 -67.995626140753302 0 -67.995626140753302 -33.32526587475877 0 0 0 0 0.61449729449178392 -1.172756172505828 0 -1.172756172505828 0.60938185222946117 0 0 0 0 -92.607545091945212 -80.05887389729287 0 -80.05887389729287 -193.40121159253613 0 0 0 0 -179.79142330734612 -107.18972383822074 0 -107.18972383822074 752.14965122234571 0 0 0 0 174.19404770512483 -112.88501358965368 0 -112.88501358965368 -248.47009028138564 0 0 0 0 -8.5703009849629552 -15.47652211755161 0 -15.47652211755161 0.11984604416925659 0 0 0 0 -4.2012649224852794 -152.91782550174321 0 -152.91782550174321 -221.16916261180268 0 0 0 0 -152.3351989039802 49.291801581872278 0 49.291801581872278 580.21237544247924 0 0 0 0 -190.39574667288252 -292.7964723778905 0 -292.7964723778905 338.87626508832182 0 0 0 0 -123.51222524261357 -121.836973424181 0 -121.836973424181 529.27255082576448 0 0 0 0 -72.624441922991537 -111.88715516187403 0 -111.88715516187403 -171.27748609822811 0 0 0 0 91.534281781227037 -78.151376936580164 0 -78.151376936580164 177.87557257270964 0 0 0 0 -125.38637065561488 -316.58651181444657 0 -316.58651181444657 1.1596308077641879 0 0 0 0 -6.2649765509777353 -284.25563359430453 0 -284.25563359430453 146.01864655252211 0 0 0 0 2.870586474380616 -244.56849716541183 0 -244.56849716541183 -165.32319704004476 0 0 0 0 28.655530648280546 -144.91356917996382 0 -144.91356917996382 -348.70075272893882 0 0 0 0 77.277675848938088 34.926809714469073 0 34.926809714469073 191.94868191235764 0 0 0 0 1.4434295652559683 -2.8235238955358994 0 -2.8235238955358994 0.28264371555145162 0 0 0 0 101.40151644081925 -129.2661070996437 0 -129.2661070996437 446.77320697087521 0 0 0 0 0.65729993597415159 -1.6596344806929935 0 -1.6596344806929935 0.053962076944307658 0 0 0 0 -63.472669309390767 -159.36474325840027 0 -159.36474325840027 606.04820213519633 0 0 0 0 138.94236115874037 36.238466221012516 0 36.238466221012516 693.47769156333015 0 0 0 0 127.58107896320871 -148.21929795392316 0 -148.21929795392316 530.20066957349445 0 0 0 0 10.478384996989917 -114.54323162695073 0 -114.54323162695073 -864.52732401058893 0 0 0 0 -181.90515176807094 -185.40366391703901 0 -185.40366391703901 -846.43878473925724 0 0 0 0 -538.34198387365905 305.59214868332492 0 305.59214868332492 -1281.1073718020389 0 0 0 0 -172.50946785700944 -68.507572333566713 0 -68.507572333566713 883.99976240209253 0 0 0 0 -11.061178508357131 -12.643594765824481 0 -12.643594765824481 -1.0974826324736675 0 0 0 0 -392.64963377280219 -948.21381699585982 0 -948.21381699585982 -761.12220567006807 0 0 0 0 -39.715003002347657 -657.62868445726417 0 -657.62868445726417 -1453.3819143124683 0 0 0 0 -61.030349985499925 -527.78852706946418 0 -527.78852706946418 -663.54430932935065 0 0 0 0 -55.265578502760036 -530.26225598088058 0 -530.26225598088058 -670.41939366511724 0 0 0 0 -219.93688581197057 -707.5786896114696 0 -707.5786896114696 -668.93561336246944 0 0 0 0 -74.611061940842774 -489.83842682954855 0 -489.83842682954855 -612.56239462750818 0 0 0 0 -186.11610195296089 -586.69134559139638 0 -586.69134559139638 -240.47434562502895 0 0 0 0 -296.34849950248463 -512.90943902318759 0 -512.90943902318759 -82.947331164775278 0 0 0 0 -231.7913806337765 -504.76323649087772 0 -504.76323649087772 -211.07729252554418 0 0 0 0 -392.89240072020038 -704.41515466096826 0 -704.41515466096826 -18.662942948089039 0 0 0 0 -239.56106651811569 -431.58258953685527 0 -431.58258953685527 -42.135758040960354 0 0 0 0 87.865311511763139 -7.5553195011234493 0 -7.5553195011234493 339.20890870595758 0 0 0 0 -484.12267278728359 -717.89967946614752 0 -717.89967946614752 58.360144186572143 0 0 0 0 244.10140504295487 -471.39447507819841 0 -471.39447507819841 231.9521286438985 0 0 0 0 337.6797748100289 274.05529621851315 0 274.05529621851315 -447.22193927271655 0 0 0 0 -368.77081881855702 -728.92509001015787 0 -728.92509001015787 -1155.1720667606787 0 0 0 0 -3.1421929381353095 -5.4451395995484404 0 -5.4451395995484404 -7.193391841054023 0 0 0 0 -133.40130569020403 -482.10104322095503 0 -482.10104322095503 -1615.8920897726566 0 0 0 0 508.16176088633074 -520.63364917580839 0 -520.63364917580839 -1650.4784448360733 0 0 0 0 -5.5466396435076888 -4.8832546124006697 0 -4.8832546124006697 -1.1587872489039448 0 0 0 0 579.51562214573642 -571.66254019806911 0 -571.66254019806911 -2323.1206668575724 0 0 0 0 -354.44394835892308 -210.2374471376279 0 -210.2374471376279 1112.4906999357484 0 0 0 0 -139.65158605528632 -392.10089667653392 0 -392.10089667653392 319.46135473873983 0 0 0 0 0.56243143891728664 -1.8945870995159737 0 -1.8945870995159737 0.066063166042584331 0 0 0 0 79.121776211639371 -94.908155723715026 0 -94.908155723715026 -225.51018592360924 0 0 0 0 -122.09443437802838 107.57165783422897 0 107.57165783422897 620.20428158627328 0 0 0 0 176.93952226092733 -243.9955264963537 0 -243.9955264963537 505.13303700102006 0 0 0 0 -35.452035157679347 -308.44498006731737 0 -308.44498006731737 -532.2853550470918 0 0 0 0 0.1942696719270316 -259.3412478730952 0 -259.3412478730952 -676.73873824997281 0 0 0 0 -0.17930229980825629 -0.099151876367827185 0 -0.099151876367827185 -0.2245657792916198 0 0 0 0 -72.616615136063047 -370.40888338160585 0 -370.40888338160585 -635.59122958050284 0 0 0 0 68.166084213040449 -161.07408271395798 0 -161.07408271395798 -881.29825871808498 0 0 0 0 37.393541656678281 -145.80203850213456 0 -145.80203850213456 -551.37848650124579 0 0 0 0 -0.019758555070438888 -232.52401161529087 0 -232.52401161529087 -382.10355438336228 0 0 0 0 -13.036407173989573 -107.81637879344271 0 -107.81637879344271 -305.82226343322873 0 0 0 0 20.168552719056606 5.7327775181611287 0 5.7327775181611287 48.160389889315411 0 0 0 0 -0.027348233317752602 -241.39690089113537 0 -241.39690089113537 -33.349472808760765 0 0 0 0 -0.83361535848598578 -371.35323659980531 0 -371.35323659980531 -243.5261540897427 0 0 0 0 -236.10293959123373 -431.39152169045701 0 -431.39152169045701 -186.22398039701875 0 0 0 0 -168.56323481583968 -494.59555903046748 0 -494.59555903046748 235.89213582770208 0 0 0 0 -2.7950522437913037 -4.8425341742895682 0 -4.8425341742895682 -6.3022194724660494 0 0 0 0 -286.16205248794449 -233.60412222639957 0 -233.60412222639957 441.99341268616263 0 0 0 0 -5.8512083982921865 -10.366848895954444 0 -10.366848895954444 -13.427451473690851 0 0 0 0 550.99963416992978 -504.98460735644039 0 -504.98460735644039 54.357320355393313 0 0 0 0 226.42484551718371 -271.11592667244804 0 -271.11592667244804 -301.83069331679144 0 0 0 0 187.12881968107831 -153.39035186963338 0 -153.39035186963338 -99.967662518953148 0 0 0 0 186.40717089546524 -122.57137115490696 0 -122.57137115490696 206.64503718518608 0 0 0 0 486.78032892114788 34.144108834832878 0 34.144108834832878 -433.03804004140329 0 0 0 0 413.9293978016151 -345.33323621963211 0 -345.33323621963211 -941.41639018343267 0 0 0 0 172.44277158056502 -571.01238010559246 0 -571.01238010559246 -733.27220443987972 0 0 0 0 265.95824555243598 -348.89591055843266 0 -348.89591055843266 -583.26372923035888 0 0 0 0 407.9256049230089 -157.86121741753391 0 -157.86121741753391 -351.36723475722101 0 0 0 0 216.8033493903713 -474.01826052112574 0 -474.01826052112574 -520.70063091441261 0 0 0 0 282.65142178841052 -462.07746192088962 0 -462.07746192088962 -563.99359275772258 0 0 0 0 281.84980253429603 -537.50607846049843 0 -537.50607846049843 -730.01345980370388 0 0 0 0 303.48053156671085 -476.49092061909323 0 -476.49092061909323 -562.06101144165586 0 0 0 0 37.70304430143733 -649.45994736222929 0 -649.45994736222929 -505.36038360831299 0 0 0 0 46.522042181572033 -632.16850993753815 0 -632.16850993753815 -569.42659410903434 0 0 0 0 171.83123715983675 -582.15159912961826 0 -582.15159912961826 -849.54294699837828 0 0 0 0 -268.66046932800964 -858.09715760052495 0 -858.09715760052495 -727.09394587949828 0 0 0 0 -0.66192296974755038 -2.5797416739954571 0 -2.5797416739954571 -1.181667901973924 0 0 0 0 -461.64075245286222 -732.50605284649646 0 -732.50605284649646 -430.81371469112491 0 0 0 0 -687.05149485894071 -581.92546368142757 0 -581.92546368142757 -295.17453519241099 0 0 0 0 -400.32826108004883 -541.38721553423238 0 -541.38721553423238 -578.94052758789621 0 0 0 0 1.2447941220343637 -623.5575911788892 0 -623.5575911788892 -679.17753561210702 0 0 0 0 -375.90178184668912 -661.8727596508179 0 -661.8727596508179 -785.91304600203875 0 0 0 0 -514.1602250377764 -338.92214446838261 0 -338.92214446838261 -905.0394065181008 0 0 0 0 -354.89155231438781 -301.7266146872571 0 -301.7266146872571 -948.75353818239455 0 0 0 0 -154.60453364229761 -874.19466434424976 0 -874.19466434424976 -1330.0038518390356 0 0 0 0 435.09316276916252 -248.0153758911656 0 -248.0153758911656 -1076.1224121596679 0 0 0 0 -417.49515566197806 -999.78761844692053 0 -999.78761844692053 -1118.590816685537 0 0 0 0 -29.653940354222868 -16.285187260620205 0 -16.285187260620205 911.80741770842587 0 0 0 0 -35.099703801090072 -75.624205315359177 0 -75.624205315359177 449.6775297305885 0 0 0 0 1.212045144099946 -1.7771220648469708 0 -1.7771220648469708 0.98623921464084319 0 0 0 0 0.08760699588310672 -320.20271254049749 0 -320.20271254049749 642.73330278541835 0 0 0 0 -0.70831620311946608 -157.50937755634823 0 -157.50937755634823 567.1950533405186 0 0 0 0 -0.73479390425927704 -227.2711412887561 0 -227.2711412887561 550.54009518968769 0 0 0 0 18.215412411700527 -150.2209987045544 0 -150.2209987045544 512.96368000528037 0 0 0 0 -13.991888643197427 -3.2876494554186468 0 -3.2876494554186468 0.24053853618126197 0 0 0 0 -1.9315135783399455 -34.004969560218797 0 -34.004969560218797 44.832840549832326 0 0 0 0 -11.475745301775532 -185.21773155897529 0 -185.21773155897529 570.92823420325294 0 0 0 0 -11.914144644457053 -2.9631011508809788 0 -2.9631011508809788 3.4923467843941545 0 0 0 0 -8.1439927630453894 -27.890821707714849 0 -27.890821707714849 21.964114259606504 0 0 0 0 3.7113600536404334 -10.934795032486193 0 -10.934795032486193 8.777203735874707 0 0 0 0 0.75512938563042553 -9.9974452337619368 0 -9.9974452337619368 6.9149704341043616 0 0 0 0 -13.471667960720879 -24.827956258321592 0 -24.827956258321592 -2.0832956060257857 0 0 0 0 -115.86521841543436 -495.2065605934722 0 -495.2065605934722 -567.35183298259653 0 0 0 0 -1.5839211667943545 -6.9163702839909291 0 -6.9163702839909291 9.3328278501899007 0 0 0 0 -323.82124660008776 -330.09560884188613 0 -330.09560884188613 627.73972091251562 0 0 0 0 78.907159875554498 -104.58156235877505 0 -104.58156235877505 -520.4756614559883 0 0 0 0 -45.054370844023651 -109.23383198283227 0 -109.23383198283227 188.76554219172976 0 0 0 0 305.19143846945735 -437.63526462558184 0 -437.63526462558184 -492.12129346551228 0 0 0 0 46.098113088693935 -454.61561129795882 0 -454.61561129795882 -821.19976257994404 0 0 0 0 -148.55146171194065 -52.610917885740491 0 -52.610917885740491 -777.50086902887415 0 0 0 0 -2.5944506927626492 -2.845838077651047 0 -2.845838077651047 0.99822549421645945 0 0 0 0 238.61912351305364 176.37421299733978 0 176.37421299733978 -1264.3706494771577 0 0 0 0 -119.20065583983887 -18.546790535821856 0 -18.546790535821856 3.1818104604435575 0 0 0 0 99.862353200944199 -221.27227194350962 0 -221.27227194350962 297.78096349276166 0 0 0 0 81.189719986417913 -391.04898410852638 0 -391.04898410852638 -495.90206171536011 0 0 0 0 191.2874404766826 -18.445437803025925 0 -18.445437803025925 -877.72983096901589 0 0 0 0 522.23685774960904 -250.76444034857195 0 -250.76444034857195 -1130.3447501708251 0 0 0 0 222.2072574885533 -488.92693595277706 0 -488.92693595277706 -142.03057743828322 0 0 0 0 236.69877158376039 8.7183605947557226 0 8.7183605947557226 569.18464036063597 0 0 0 0 506.38211842505552 -162.31868199104429 0 -162.31868199104429 159.02043000359117 0 0 0 0 278.41439347668893 -782.93853611158897 0 -782.93853611158897 688.34672169328769 0 0 0 0 -333.1771935375582 117.11135327703778 0 117.11135327703778 1990.1119347213908 0 0 0 0 148.05153033950228 -380.17052358977344 0 -380.17052358977344 -798.10829943161843 0 0 0 0 6.7644488891401409 -6.4826313251662881 0 -6.4826313251662881 4.2407938173408546 0 0 0 0 122.58048859576229 -465.44681252989994 0 -465.44681252989994 -152.64572910926654 0 0 0 0 0.019765579818340484 -287.40091354300239 0 -287.40091354300239 672.71523670574379 0 0 0 0 70.020045551398653 -89.279853427316993 0 -89.279853427316993 -112.75601118673831 0 0 0 0 11.37843803640817 -35.786873830360719 0 -35.786873830360719 111.44692053068866 0 0 0 0 28.565227449967551 -157.64461027132143 0 -157.64461027132143 -205.79835099411866 0 0 0 0 -62.973561160335521 -93.088316511827543 0 -93.088316511827543 316.45078564562755 0 0 0 0 0.36151793707904289 -157.48322507400462 0 -157.48322507400462 107.5343857008811 0 0 0 0 60.874279361545632 -103.08343061958567 0 -103.08343061958567 -247.46286468698963 0 0 0 0 -36.743165310632321 -202.91302396912033 0 -202.91302396912033 -209.32923482217666 0 0 0 0 -84.941214532984304 -52.621210995768706 0 -52.621210995768706 159.43892796485545 0 0 0 0 -127.99085950902736 -65.285808496362733 0 -65.285808496362733 -260.19867581860308 0 0 0 0 -164.02288028807379 -336.73654046550564 0 -336.73654046550564 -424.96949310290074 0 0 0 0 -104.31160329355043 -180.05160501913451 0 -180.05160501913451 -218.74611565144551 0 0 0 0 -42.547466486681515 -269.76679642982435 0 -269.76679642982435 -413.2100915920455 0 0 0 0 -112.40508602663613 -337.09051887351507 0 -337.09051887351507 803.04566213177554 0 0 0 0 2.8506883262234624 -339.52082837413764 0 -339.52082837413764 -643.88953477517498 0 0 0 0 23.041929268443369 -19.30924318533048 0 -19.30924318533048 9.8261045200311621 0 0 0 0 -399.30143461995613 -200.75818357920252 0 -200.75818357920252 852.76548411874501 0 0 0 0 239.92005445250288 212.83275335996336 0 212.83275335996336 208.70861944227363 0 0 0 0 86.07594546364453 -238.35956417630814 0 -238.35956417630814 461.71965800179532 0 0 0 0 -405.74226836111484 -159.43839557572483 0 -159.43839557572483 455.49175219666358 0 0 0 0 -352.47072158873152 -424.89969604006558 0 -424.89969604006558 52.645826675667195 0 0 0 0 -14.054137959707575 -1.5701974372744303 0 -1.5701974372744303 8.5248437702632778 0 0 0 0 -3.5924255424743947 0.82107623392673901 0 0.82107623392673901 2.8328320219729548 0 0 0 0 385.63171432128001 -710.9842954181895 0 -710.9842954181895 1284.3556956346583 0 0 0 0 433.8795656373768 -823.02669786808292 0 -823.02669786808292 1202.9540180328258 0 0 0 0 -5.0685476860668501 -4.1442358801144863 0 -4.1442358801144863 4.6525259752338357 0 0 0 0 -350.51768129073025 243.65956766001 0 243.65956766001 218.41396843028269 0 0 0 0 380.53827849132358 -241.69222404224274 0 -241.69222404224274 186.65582192945294 0 0 0 0 143.1355029833212 -335.60782353014838 0 -335.60782353014838 451.95795720130809 0 0 0 0 197.53456632768939 -398.63936111340172 0 -398.63936111340172 1032.9194139631618 0 0 0 0 1126.1058537187055 -528.0684031435012 0 -528.0684031435012 6.3082158103406982 0 0 0 0 47.550402724984451 -209.38856805212345 0 -209.38856805212345 509.62622147808634 0 0 0 0 161.86803240510926 -239.62889471443123 0 -239.62889471443123 382.28640794233434 0 0 0 0 363.48884211012773 254.45333802201822 0 254.45333802201822 -107.56386476780699 0 0 0 0 152.80312031691938 20.919309656723726 0 20.919309656723726 274.83784845824266 0 0 0 0 452.14312669631181 72.242759009652218 0 72.242759009652218 478.34057844558993 0 0 0 0 233.13933805149281 -162.31224639867196 0 -162.31224639867196 240.54237111516704 0 0 0 0 -175.65622900219751 -289.34466647785757 0 -289.34466647785757 1225.1697551231869 0 0 0 0 575.9795997688816 -549.51436891448884 0 -549.51436891448884 1227.4088082786184 0 0 0 0 73.049611703769187 198.69105542556736 0 198.69105542556736 164.03567518239834 0 0 0 0 -18.048157362791244 -156.44806534290728 0 -156.44806534290728 -550.06405964444639 0 0 0 0 -78.273694522526057 -232.22603950095618 0 -232.22603950095618 -390.52853135793703 0 0 0 0 -87.82278348433465 -248.01964731484259 0 -248.01964731484259 -331.9356289598727 0 0 0 0 -119.87748312833719 -300.71848998762835 0 -300.71848998762835 -360.83459349770419 0 0 0 0 279.92468790686689 -168.57319221578746 0 -168.57319221578746 -324.48816980956508 0 0 0 0 37.874929281459231 -25.820728420634843 0 -25.820728420634843 12.741806356618001 0 0 0 0 -44.902143094121129 -260.20035930852646 0 -260.20035930852646 -406.46881505709098 0 0 0 0 -102.19558249106922 -213.89025067970942 0 -213.89025067970942 -543.59058473488881 0 0 0 0 70.787708026866312 -91.169879814480737 0 -91.169879814480737 -459.7971355809932 0 0 0 0 -52.895707712988951 -245.88766228585519 0 -245.88766228585519 -430.89731064152147 0 0 0 0 -60.067379667976638 -291.19995068023854 0 -291.19995068023854 -546.97096618375508 0 0 0 0 -61.180609853065107 -69.363161197936279 0 -69.363161197936279 -57.388166603327818 0 0 0 0 -51.679862143195351 -137.28879122215949 0 -137.28879122215949 -266.14793050089793 0 0 0 0 1.5420763355505187 -234.17471842529267 0 -234.17471842529267 -392.68784782339117 0 0 0 0 45.209830189996865 -94.613931542286082 0 -94.613931542286082 -60.163184960958461 0 0 0 0 77.143031082749076 -63.462373158610717 0 -63.462373158610717 -561.46357357487796 0 0 0 0 -3.8141515784982687 -11.388501245163212 0 -11.388501245163212 4.0814771125092904 0 0 0 0 -55.517410315893358 -139.53487572812082 0 -139.53487572812082 -334.2035924328884 0 0 0 0 -112.92149019930366 -325.35961926736672 0 -325.35961926736672 -429.83569827620158 0 0 0 0 99.751690004764896 44.448594346097707 0 44.448594346097707 -1239.6709127870563 0 0 0 0 -80.808972769133106 -139.3322617553913 0 -139.3322617553913 139.08258858289719 0 0 0 0 41.83498888646136 -578.27653686910708 0 -578.27653686910708 -620.80097733842013 0 0 0 0 -365.42639454569144 -120.0180332208256 0 -120.0180332208256 -551.86737736492796 0 0 0 0 -2.2318139003669728 -1.0668895188885053 0 -1.0668895188885053 -0.57011308293462548 0 0 0 0 -85.839054348711215 93.03592232245046 0 93.03592232245046 -24.73220978185509 0 0 0 0 -82.715221381367883 -125.73673276088812 0 -125.73673276088812 77.800806915405701 0 0 0 0 46.127076887035486 -27.710564443494462 0 -27.710564443494462 7.6917381383252437 0 0 0 0 77.45215966406613 -43.731027307990189 0 -43.731027307990189 -165.83910047905056 0 0 0 0 29.73502092042645 -4.5906306605243117 0 -4.5906306605243117 -0.84728508137959579 0 0 0 0 25.174202949537857 -69.676837392623952 0 -69.676837392623952 135.41764983003486 0 0 0 0 40.238166938295763 -22.273197669919682 0 -22.273197669919682 17.616494124089513 0 0 0 0 94.714336488410481 -114.58652185971368 0 -114.58652185971368 65.537826674957614 0 0 0 0 -68.610018733343168 -38.587435814763921 0 -38.587435814763921 257.63821160808948 0 0 0 0 50.089152055057639 -124.7127617912538 0 -124.7127617912538 242.61199380261974 0 0 0 0 117.5941210902165 -249.15131473223482 0 -249.15131473223482 275.08809423173898 0 0 0 0 2.4468842325586593 -145.08438055586885 0 -145.08438055586885 322.66033482234889 0 0 0 0 99.857007659724331 -199.43323611008418 0 -199.43323611008418 184.39200221321153 0 0 0 0 22.042038989267894 -102.83581425771172 0 -102.83581425771172 166.83799736415494 0 0 0 0 38.881504649900307 -99.113234745816044 0 -99.113234745816044 130.83202686406435 0 0 0 0 57.718442300356401 -219.20538387994657 0 -219.20538387994657 211.69339461786694 0 0 0 0 67.060150795055961 -250.10044701017705 0 -250.10044701017705 222.10778194302475 0 0 0 0 86.882869545188441 -270.28835324812417 0 -270.28835324812417 232.17135199170843 0 0 0 0 43.312493214611095 -212.13086659461896 0 -212.13086659461896 216.27381363773384 0 0 0 0 155.03407184051321 -209.01405774844307 0 -209.01405774844307 131.98063469990302 0 0 0 0 42.006482067859906 -116.2694750172268 0 -116.2694750172268 83.074951488197257 0 0 0 0 82.119408519432909 -266.70791203901126 0 -266.70791203901126 302.17830186749597 0 0 0 0 271.76742666464997 -254.94960660241941 0 -254.94960660241941 132.43097250297069 0 0 0 0 -12.504076018431178 -12.596037978266835 0 -12.596037978266835 0.78658133001187025 0 0 0 0 412.74965835950934 -357.64782480282793 0 -357.64782480282793 206.30081259369035 0 0 0 0 -3.8523874015409092 -6.0706566805899911 0 -6.0706566805899911 -11.655706359393662 0 0 0 0 -26.418156106581591 -3.5197637540759388 0 -3.5197637540759388 -8.5394576388607675 0 0 0 0 -20.41218812824809 -16.404847090750991 0 -16.404847090750991 5.8140512653271799 0 0 0 0 155.10900791946915 -209.1428146708613 0 -209.1428146708613 132.19834143239004 0 0 0 0 -37.954770221980652 14.588561375835297 0 14.588561375835297 -4.5974829405731725 0 0 0 0 -12.780427134937675 -13.963040975571595 0 -13.963040975571595 -3.0436146399099826 0 0 0 0 -61.146053225442301 4.5726015883383297 0 4.5726015883383297 23.270262607582481 0 0 0 0 8.9516078116648714 -76.752533232998758 0 -76.752533232998758 75.134873712650005 0 0 0 0 -8.8625234129867749 -16.3776426291588 0 -16.3776426291588 -3.9590645137590457 0 0 0 0 -15.473846044093079 -8.7344109891305379 0 -8.7344109891305379 45.035414626348938 0 0 0 0 9.8093200500225066 -10.793211818300733 0 -10.793211818300733 5.1499315185037631 0 0 0 0 -13.871151229744072 -5.2028413176998409 0 -5.2028413176998409 -1.6292616179953949 0 0 0 0 31.698212345479988 -270.40805457458191 0 -270.40805457458191 598.66047117484686 0 0 0 0 63.604117244060035 -14.801787115600746 0 -14.801787115600746 -65.550791617422874 0 0 0 0 -12.899978913345478 -6.2632300817578432 0 -6.2632300817578432 5.5429070828128602 0 0 0 0 -43.679786286244052 -25.486426698665127 0 -25.486426698665127 99.871824222693249 0 0 0 0 1.0806774159674717 -5.0287637138608554 0 -5.0287637138608554 3.5298824131026443 0 0 0 0 -108.8859055852372 62.152292778118863 0 62.152292778118863 45.968113350103522 0 0 0 0 -6.8080666803404739 11.418448987586082 0 11.418448987586082 38.431742355339168 0 0 0 0 -93.277199576878047 -10.02663960658731 0 -10.02663960658731 172.92600196895842 0 0 0 0 -43.693161969167704 -31.205368846593188 0 -31.205368846593188 -3.9453372682473735 0 0 0 0 45.864114026568132 -90.118747398589221 0 -90.118747398589221 74.223776062700381 0 0 0 0 91.122795306404441 -179.26732959954097 0 -179.26732959954097 134.20870034334439 0 0 0 0 -60.808694997414591 -27.780329229112482 0 -27.780329229112482 7.888419503437035 0 0 0 0 -27.380656008448568 -76.771583746379292 0 -76.771583746379292 130.31609231409311 0 0 0 0 -18.985292264996936 -18.591636566516819 0 -18.591636566516819 -3.0880760681594097 0 0 0 0 -7.2852705995173892 -124.54472229542989 0 -124.54472229542989 157.86902553531763 0 0 0 0 398.30926984830876 -457.09612222175656 0 -457.09612222175656 329.52096030527628 0 0 0 0 -40.604770916372217 -92.136087719661191 0 -92.136087719661191 245.40536824004289 0 0 0 0 112.67409744516772 -289.72896611391661 0 -289.72896611391661 296.05650579832695 0 0 0 0 77.16007790637741 -290.61405802759236 0 -290.61405802759236 449.99139034311384 0 0 0 0 -35.233753613869283 -29.516530294259752 0 -29.516530294259752 -7.9402412877980479 0 0 0 0 -144.2279214632872 -191.46659068467272 0 -191.46659068467272 175.64271975909097 0 0 0 0 89.603001972936909 -380.33781256705254 0 -380.33781256705254 585.67473804362089 0 0 0 0 120.64285181066589 -215.16771161681208 0 -215.16771161681208 358.93195348447716 0 0 0 0 -46.636163883813424 -132.12135073576064 0 -132.12135073576064 900.71448127144504 0 0 0 0 -26.928843129151886 -26.906822324053611 0 -26.906822324053611 -9.2600116677606881 0 0 0 0 181.67507008075336 -117.34677106101549 0 -117.34677106101549 -292.13529814708875 0 0 0 0 52.978375926821172 -344.17282995278947 0 -344.17282995278947 634.09413524344563 0 0 0 0 -70.761564952568733 -407.05944072525199 0 -407.05944072525199 854.61399698088667 0 0 0 0 13.61124574450514 -411.46565401959106 0 -411.46565401959106 1200.3203437458833 0 0 0 0 174.94103011849802 -243.87671971432928 0 -243.87671971432928 615.87104821276989 0 0 0 0 -2.0226850730974206 3.6921252308250612 0 3.6921252308250612 10.604650752898824 0 0 0 0 151.33786269941447 -353.02817691867131 0 -353.02817691867131 -9.6280745148542337 0 0 0 0 127.38315454198164 -456.36465004842557 0 -456.36465004842557 424.13060985802622 0 0 0 0 0.29209111034746371 -1.0724490115467589 0 -1.0724490115467589 0.80361665925026671 0 0 0 0 -234.29604184104028 -397.72315300414084 0 -397.72315300414084 417.19703304449467 0 0 0 0 -96.841176507299679 -697.43684539895912 0 -697.43684539895912 259.61679597965485 0 0 0 0 -230.93096750666155 -443.71810064741567 0 -443.71810064741567 693.06299827992052 0 0 0 0 -643.41219100658782 -530.89933432380894 0 -530.89933432380894 277.09128448353022 0 0 0 0 1.0638221607276037 -2.0419185086302818 0 -2.0419185086302818 0.90431325596695444 0 0 0 0 -313.0009410792627 -69.729539906301397 0 -69.729539906301397 -167.48876334671422 0 0 0 0 0.067712802685491624 -80.655633374879471 0 -80.655633374879471 -371.63563145989974 0 0 0 0 209.67475074641879 -113.7219179372587 0 -113.7219179372587 -334.48498935529096 0 0 0 0 356.87299021500257 223.50763646160863 0 223.50763646160863 -143.04789170278855 0 0 0 0 1.5450859308941958 -3.6690994468704545 0 -3.6690994468704545 -0.59314326372280846 0 0 0 0 -303.89956867223736 -283.41277237311806 0 -283.41277237311806 -66.599773243580785 0 0 0 0 351.42388575809673 -65.324464731104854 0 -65.324464731104854 -9.7947727851060336 0 0 0 0 94.962138131679239 -27.512933603997226 0 -27.512933603997226 50.190304312306125 0 0 0 0 750.36909207879216 -212.02871817702589 0 -212.02871817702589 35.215205104785127 0 0 0 0 251.81142902951979 -308.70047864615935 0 -308.70047864615935 193.34863666158162 0 0 0 0 158.17116335919127 -254.82485052684569 0 -254.82485052684569 212.87745305436147 0 0 0 0 78.20423423761531 -165.62275947067337 0 -165.62275947067337 132.77463727133414 0 0 0 0 167.13328264335723 -233.72012254687479 0 -233.72012254687479 137.00030498454726 0 0 0 0 187.58499213972755 -119.1455549047223 0 -119.1455549047223 58.869816849773997 0 0 0 0 58.747876061392162 -32.387457225060643 0 -32.387457225060643 31.20278185064285 0 0 0 0 72.230236361737298 -47.732582561532013 0 -47.732582561532013 -4.1247814622693113 0 0 0 0 81.874455456446867 -1.2363548789493279 0 -1.2363548789493279 -30.173973436181768 0 0 0 0 92.902174217695574 -100.6551421635636 0 -100.6551421635636 80.822073837942298 0 0 0 0 51.625364312021702 -9.7805310541079962 0 -9.7805310541079962 -20.396314842295851 0 0 0 0 30.267116078146501 -40.341932730601911 0 -40.341932730601911 -50.01861591005536 0 0 0 0 54.949710303393658 -46.586143358990739 0 -46.586143358990739 -48.535795095001959 0 0 0 0 33.29714213101397 -16.928611831558555 0 -16.928611831558555 -58.972663252152415 0 0 0 0 71.124168487156567 -22.366013051345362 0 -22.366013051345362 -58.271678753200831 0 0 0 0 18.496390716243695 0.74647247349730605 0 0.74647247349730605 -29.693162639821821 0 0 0 0 52.242515186138917 -35.318910017928374 0 -35.318910017928374 -66.457187569471898 0 0 0 0 60.37686390568706 -10.959778165241914 0 -10.959778165241914 -90.28862396167915 0 0 0 0 38.158053550313696 -25.130561220053238 0 -25.130561220053238 -8.97352069188433 0 0 0 0 67.928171159437625 -98.434262044406751 0 -98.434262044406751 -167.32095706791006 0 0 0 0 70.43341554296785 -17.933981214169762 0 -17.933981214169762 -57.017246560191779 0 0 0 0 48.986352934669412 -103.9884320571382 0 -103.9884320571382 21.257990802863787 0 0 0 0 -70.69669646496186 -133.80276461410176 0 -133.80276461410176 13.912177837162744 0 0 0 0 182.08931604228565 -239.83543444017232 0 -239.83543444017232 -48.123975954284106 0 0 0 0 146.92312581290025 -36.024014620161324 0 -36.024014620161324 -158.01042723821956 0 0 0 0 11.975248502589238 9.2388236307851912 0 9.2388236307851912 -287.32780937904681 0 0 0 0 75.296126815896059 -157.99645613186067 0 -157.99645613186067 -324.41440788684849 0 0 0 0 2.8777579796162058 3.4367157445640828 0 3.4367157445640828 -10.495986519167051 0 0 0 0 15.202784303091903 -48.631542692663061 0 -48.631542692663061 33.747920810985306 0 0 0 0 -8.4007373675849522 -54.938810788496994 0 -54.938810788496994 -15.485933126583404 0 0 0 0 20.041016441282409 -36.11939220482418 0 -36.11939220482418 28.636563923260837 0 0 0 0 6.1311641581650065 -24.085555090979 0 -24.085555090979 30.020095167580536 0 0 0 0 -5.2696118724707048 -40.689859167461691 0 -40.689859167461691 33.986788005226117 0 0 0 0 -6.6114252873230726 -56.770434860514797 0 -56.770434860514797 36.13081595249605 0 0 0 0 -63.892764500633348 -47.149921440981416 0 -47.149921440981416 50.275638429426181 0 0 0 0 2.369838820573932 -52.329463540874713 0 -52.329463540874713 38.291896014168742 0 0 0 0 38.875928158660827 12.531954044378836 0 12.531954044378836 -55.927811306184594 0 0 0 0 28.833462733700529 -24.996878965260098 0 -24.996878965260098 -9.5700648798710066 0 0 0 0 4.5589379415869189 -52.918951016728897 0 -52.918951016728897 38.198783614792774 0 0 0 0 -5.2537673864571843 -46.752014720990701 0 -46.752014720990701 -28.318595332468249 0 0 0 0 -55.478006900015316 -27.686260204372047 0 -27.686260204372047 -21.810366813726432 0 0 0 0 -13.236707150805159 -38.28553878515595 0 -38.28553878515595 -30.875466790110295 0 0 0 0 -21.022459203912149 -145.01106349425936 0 -145.01106349425936 -62.403115374705521 0 0 0 0 8.4670044477547677 -4.9725867453169883 0 -4.9725867453169883 -9.5816435482998799 0 0 0 0 -135.41963104491879 -119.29991059043505 0 -119.29991059043505 -0.29853299428214086 0 0 0 0 24.561157549738709 -4.9608328300919311 0 -4.9608328300919311 -27.356347300930793 0 0 0 0 32.431703961756284 12.768102908962192 0 12.768102908962192 12.411502059199847 0 0 0 0 101.81320888526352 -27.776690300396012 0 -27.776690300396012 9.4336802694269863 0 0 0 0 -37.874104135926245 22.352633213007266 0 22.352633213007266 -101.64424255481208 0 0 0 0 32.37458214162325 -93.946489817737074 0 -93.946489817737074 86.596120893353145 0 0 0 0 4.09075945803162 -1.8809589581868948 0 -1.8809589581868948 -6.9570616067163229 0 0 0 0 182.575492862994 40.811084023188414 0 40.811084023188414 -71.570311285977368 0 0 0 0 -306.70234738383806 -193.88752868765914 0 -193.88752868765914 -171.04735315460539 0 0 0 0 -374.58291305713465 -372.03314834872572 0 -372.03314834872572 -241.53299623672137 0 0 0 0 50.313930916443496 -38.91988311130126 0 -38.91988311130126 -54.68328595118146 0 0 0 0 25.382044926060189 -19.298522652096835 0 -19.298522652096835 3.9989746192704843 0 0 0 0 37.978773603717855 -42.098456124780569 0 -42.098456124780569 -30.042420370797117 0 0 0 0 -22.165296242012118 -60.178536862891633 0 -60.178536862891633 -24.490691509114185 0 0 0 0 21.437559791011154 -44.245826732940259 0 -44.245826732940259 -34.748783437145903 0 0 0 0 -5.3059796245324833 -51.760722920548687 0 -51.760722920548687 -24.535037755791564 0 0 0 0 14.016633514111163 -46.752820403726219 0 -46.752820403726219 -23.306817861834134 0 0 0 0 -4.8520451442150261 -51.535676128769978 0 -51.535676128769978 -15.198527303226001 0 0 0 0 7.7707675511483103 -45.173791649340274 0 -45.173791649340274 -12.064857273460802 0 0 0 0 18.483199543785304 -39.768898625079601 0 -39.768898625079601 -16.925034985306411 0 0 0 0 7.0229979414289119 -43.286594833676645 0 -43.286594833676645 -12.414677921955445 0 0 0 0 13.370973223965848 -37.930721195196384 0 -37.930721195196384 -8.5454000873960467 0 0 0 0 11.74260389401752 -43.88626159659907 0 -43.88626159659907 -18.930362688555761 0 0 0 0 27.241096682664647 -35.183425704810361 0 -35.183425704810361 -21.092144615104189 0 0 0 0 17.326443939273304 -37.935766885326302 0 -37.935766885326302 -18.699714240792673 0 0 0 0 18.349477885829401 -37.725013638468226 0 -37.725013638468226 -22.316297384270001 0 0 0 0 22.577912001688674 -42.606013498716493 0 -42.606013498716493 -25.442540484378696 0 0 0 0 -290.15038125745195 -226.805468581686 0 -226.805468581686 -179.84805359299935 0 0 0 0 44.362998775795859 -9.6283701664802948 0 -9.6283701664802948 -20.27206744877185 0 0 0 0 47.272344875123963 -29.451480573041408 0 -29.451480573041408 -29.475930104188592 0 0 0 0 3.8675758145506123 -3.5135508699458384 0 -3.5135508699458384 -10.491950617932986 0 0 0 0 -16.267770579601176 -15.450134404179963 0 -15.450134404179963 -3.9370653073475737 0 0 0 0 7.3959209226104576 -13.204697162265347 0 -13.204697162265347 -12.871196829910332 0 0 0 0 25.30940949053911 -32.651091821131558 0 -32.651091821131558 -19.08371394844653 0 0 0 0 25.495038251603546 -33.249115612552487 0 -33.249115612552487 -19.632711797916272 0 0 0 0 23.082350771328493 -35.870406078263841 0 -35.870406078263841 -21.141865402460098 0 0 0 0 22.455015290164738 -32.097675700344553 0 -32.097675700344553 -12.154323400412977 0 0 0 0 18.313169540080708 -24.645000261047244 0 -24.645000261047244 -0.55311990148038603 0 0 0 0 -5.088521447611928 -15.666095237177306 0 -15.666095237177306 2.9572407108448999 0 0 0 0 -17.177800739828854 -21.330020588291063 0 -21.330020588291063 -2.3649567972825025 0 0 0 0 50.395548479660647 -8.1457208578794962 0 -8.1457208578794962 -38.898016621627903 0 0 0 0 -22.66821195582088 -17.38514545354883 0 -17.38514545354883 -4.0638549874784076 0 0 0 0 -14.961426371703055 -22.114477350455445 0 -22.114477350455445 -16.356812713009276 0 0 0 0 -1.8701263516837692 -5.5228520944477282 0 -5.5228520944477282 0.89773786738318506 0 0 0 0 -3.532196995056438 -24.375974667567789 0 -24.375974667567789 0.40603714460303308 0 0 0 0 -8.7066968820981856 -54.525598328452816 0 -54.525598328452816 -5.8886896129370143 0 0 0 0 -0.58013375221344177 -46.267802656155254 0 -46.267802656155254 2.3167868336640822 0 0 0 0 -3.8229953035584714 -15.888531362122599 0 -15.888531362122599 -10.305228664594303 0 0 0 0 -178.63604895255412 -157.60687719626094 0 -157.60687719626094 -141.71130436523526 0 0 0 0 -217.65398221686337 -154.79297422483432 0 -154.79297422483432 -74.054275233345834 0 0 0 0 -308.28450362817239 -115.71088725643131 0 -115.71088725643131 -41.23119841630978 0 0 0 0 -242.70550138651743 -191.41174255392252 0 -191.41174255392252 -127.32032779534347 0 0 0 0 -25.326458670304419 -26.445968895539409 0 -26.445968895539409 -1.9850218079618571 0 0 0 0 -1.4604136205606792 -4.6522486339629836 0 -4.6522486339629836 6.7415807478863172 0 0 0 0 0.44454824879434796 -0.3197033613358311 0 -0.3197033613358311 -0.88789428928754432 0 0 0 0 -226.76264210279078 -167.02218533169003 0 -167.02218533169003 -158.85050733004755 0 0 0 0 -191.99249894849709 -174.503755829699 0 -174.503755829699 -162.10381661270003 0 0 0 0 -223.17186938549639 -194.4101134078096 0 -194.4101134078096 -175.59102476396765 0 0 0 0 1.2844352732148678 -1.0395396393773737 0 -1.0395396393773737 -0.89328040493870731 0 0 0 0 -268.38720341786211 -238.77083453503201 0 -238.77083453503201 -185.62443472035557 0 0 0 0 -194.88893846456983 -202.12369351352891 0 -202.12369351352891 -208.44368711859897 0 0 0 0 1.3547520136742364 -1.3230792136017584 0 -1.3230792136017584 -0.60168481595538026 0 0 0 0 -197.9753458254163 -154.85733398662433 0 -154.85733398662433 -131.66987756009257 0 0 0 0 -213.98957205216175 -94.003095354467405 0 -94.003095354467405 -56.397313314322673 0 0 0 0 -180.88756616990941 -134.74984435238184 0 -134.74984435238184 -156.43001775694574 0 0 0 0 -208.55944760347481 -24.467701325770761 0 -24.467701325770761 44.352063665784954 0 0 0 0 -209.16280955148613 -67.956609467359158 0 -67.956609467359158 70.658109857182353 0 0 0 0 -95.69564492162516 -153.76624359972487 0 -153.76624359972487 -128.96013244053393 0 0 0 0 -92.879521820868831 -35.265516191184361 0 -35.265516191184361 -89.061242777679581 0 0 0 0 -127.56722620181426 -128.35315476478718 0 -128.35315476478718 -221.05279514241192 0 0 0 0 -183.65261482390633 -119.37165578522217 0 -119.37165578522217 -105.89951787122936 0 0 0 0 -195.87573275403338 -113.93617779274064 0 -113.93617779274064 -133.85033461241073 0 0 0 0 1.3690544336701365 -0.94575334543760192 0 -0.94575334543760192 -2.859195692066578 0 0 0 0 1.464904959040858 -1.9301466595463523 0 -1.9301466595463523 0.070865752106204383 0 0 0 0 -539.07929414790124 -236.52321534162911 0 -236.52321534162911 -220.39864843372777 0 0 0 0 -493.33030629071436 -652.83065602728038 0 -652.83065602728038 -274.59055508354504 0 0 0 0 38.776478634368686 -55.772676676064293 0 -55.772676676064293 -341.67102933411184 0 0 0 0 -186.38467722359928 -317.15322360957998 0 -317.15322360957998 -287.95387143822518 0 0 0 0 -156.63729788630008 -32.872881793049601 0 -32.872881793049601 87.484752734416361 0 0 0 0 -161.28121136576374 -134.52117540631252 0 -134.52117540631252 611.06740369487125 0 0 0 0 61.380378691279475 -88.18860992649752 0 -88.18860992649752 99.944643647609155 0 0 0 0 -316.83449643779386 49.451681824963998 0 49.451681824963998 148.61987154597409 0 0 0 0 -35.853238480332948 -269.15096842193088 0 -269.15096842193088 388.62880676386885 0 0 0 0 -171.64291678618247 -168.82589730032305 0 -168.82589730032305 702.33361282927581 0 0 0 0 88.315067242037912 -485.95529160696151 0 -485.95529160696151 843.77989124872511 0 0 0 0 -110.21418470403478 -349.3255712906489 0 -349.3255712906489 1410.3895603662959 0 0 0 0 148.63474685494657 -200.08889846659713 0 -200.08889846659713 577.48543728853474 0 0 0 0 -20.721702121256385 -80.636793575190495 0 -80.636793575190495 360.82472921397448 0 0 0 0 96.193870152848831 -324.63885692486565 0 -324.63885692486565 512.27897637739193 0 0 0 0 -291.32824420339239 2.6690031668440497 0 2.6690031668440497 400.5699019841195 0 0 0 0 -368.44447454066176 -134.72915064353538 0 -134.72915064353538 156.89457056897481 0 0 0 0 -81.922491260800598 -9.2786590531927686 0 -9.2786590531927686 91.543401242390246 0 0 0 0 -121.19083655849317 2.7466733619507977 0 2.7466733619507977 431.30585677307317 0 0 0 0 -128.51003830795207 -215.02581711263437 0 -215.02581711263437 -327.44567387486768 0 0 0 0 -102.71774106089288 -137.33119464422612 0 -137.33119464422612 -1659.867553736668 0 0 0 0 -576.84396138051306 -773.01042498539869 0 -773.01042498539869 -596.63288309817517 0 0 0 0 -5.4791558041481778 -3.6211984155847796 0 -3.6211984155847796 -1.612588681139191 0 0 0 0 -596.79928198168818 -328.16229450672603 0 -328.16229450672603 1169.9040965686117 0 0 0 0 -13.2870095521953 -12.583406111877917 0 -12.583406111877917 -5.4331416553811982 0 0 0 0 -64.389618225162849 -323.888094372365 0 -323.888094372365 1328.5833790936695 0 0 0 0 224.30986783913249 126.30831483940074 0 126.30831483940074 -976.94661104254612 0 0 0 0 -223.07959896834291 -44.155535427072778 0 -44.155535427072778 -217.58855610408818 0 0 0 0 171.67237540584756 85.772625783602962 0 85.772625783602962 -623.97412783842162 0 0 0 0 -19.633279935360619 -19.999797055257925 0 -19.999797055257925 -5.5024682104548033 0 0 0 0 534.04475706002268 -213.10252678898871 0 -213.10252678898871 -305.93087268079921 0 0 0 0 -169.4981421119337 -420.65132785003925 0 -420.65132785003925 461.16490098974532 0 0 0 0 -87.771741671575001 -345.93836968983373 0 -345.93836968983373 -515.74768045477003 0 0 0 0 -125.19954051413515 -474.9545399928088 0 -474.9545399928088 571.46394981998242 0 0 0 0 536.14368375412596 -748.86286214381653 0 -748.86286214381653 -55.182520210859366 0 0 0 0 487.65163216285873 -822.32835924837082 0 -822.32835924837082 -35.094294389027823 0 0 0 0 -102.27589664223342 -650.25570762171446 0 -650.25570762171446 -11.012737569964202 0 0 0 0 -91.41341325219355 -718.09008635209091 0 -718.09008635209091 -3.7863361005106526 0 0 0 0 -362.13310721945345 -154.70859464434363 0 -154.70859464434363 211.06974928130603 0 0 0 0 -1.8073152309141687 -2.6087222138713315 0 -2.6087222138713315 6.4710489788104528 0 0 0 0 814.94013170144535 -446.91331728998944 0 -446.91331728998944 -167.35166179413682 0 0 0 0 147.01821674054736 -34.443888943073262 0 -34.443888943073262 -13.391846426962729 0 0 0 0 -1.1806904072333282 -2.085446267545036 0 -2.085446267545036 1.5206298950121375 0 0 0 0 -709.19500812233309 69.033949464264424 0 69.033949464264424 -271.20035917989571 0 0 0 0 -160.86892274369893 -212.80350580437153 0 -212.80350580437153 -297.1127880756876 0 0 0 0 -451.83372395015613 -223.03503746950446 0 -223.03503746950446 -68.11485698337674 0 0 0 0 -317.24007700011134 -379.4330885906038 0 -379.4330885906038 -1330.5586695726051 0 0 0 0 3.5666832506103674 -94.538552415958748 0 -94.538552415958748 -32.246960257195497 0 0 0 0 -521.16913206025492 -274.93038108692053 0 -274.93038108692053 679.72740983820404 0 0 0 0 155.21888145659614 -429.15829980637147 0 -429.15829980637147 -167.48509986304816 0 0 0 0 -252.970783428711 -388.52150891614747 0 -388.52150891614747 -135.2902299273228 0 0 0 0 -393.3749893527056 -391.01641475600832 0 -391.01641475600832 35.898476159569327 0 0 0 0 -220.41698016536975 -399.46824630099422 0 -399.46824630099422 -148.12181314355848 0 0 0 0 -690.78641121607507 -195.44388237674593 0 -195.44388237674593 -75.116879133895509 0 0 0 0 -149.26446298644441 -696.02599994481704 0 -696.02599994481704 -11.889679573573005 0 0 0 0 -66.689333704911405 -650.60301083461354 0 -650.60301083461354 -19.866825096917182 0 0 0 0 -315.6601098892861 -567.89005059957981 0 -567.89005059957981 -34.388402132873637 0 0 0 0 -176.15620706201662 -699.20720278007252 0 -699.20720278007252 50.466550055752805 0 0 0 0 -276.57816392909081 -614.98809896913235 0 -614.98809896913235 226.30892548369258 0 0 0 0 -317.33484988614862 -420.62168730518937 0 -420.62168730518937 -309.62698048996799 0 0 0 0 -317.01843648832801 -684.07305059149644 0 -684.07305059149644 121.7285066381603 0 0 0 0 -221.61219705032272 -728.55538806108723 0 -728.55538806108723 -11.828622239288279 0 0 0 0 -347.10161855849447 -263.06749504233085 0 -263.06749504233085 -151.09621599745424 0 0 0 0 -343.79678344965942 -636.1346734543547 0 -636.1346734543547 976.08901007091254 0 0 0 0 -98.784636229444004 -503.77496037252132 0 -503.77496037252132 191.14320270201767 0 0 0 0 -121.36364844812852 -56.384523654527356 0 -56.384523654527356 823.23821374066472 0 0 0 0 -15.138498164207704 -209.41860080449783 0 -209.41860080449783 13.27530198395209 0 0 0 0 -643.98364957354079 -698.52776821937937 0 -698.52776821937937 -178.68972619148258 0 0 0 0 -570.54428811469552 -449.16338459977965 0 -449.16338459977965 492.14152992216009 0 0 0 0 -362.31990732023769 -228.84872219460965 0 -228.84872219460965 -80.082979113894226 0 0 0 0 -135.87142989516769 -180.00177458570661 0 -180.00177458570661 -46.842093180317534 0 0 0 0 -362.30097781273071 -216.27123669664752 0 -216.27123669664752 71.513890101289121 0 0 0 0 -635.53158841024083 -339.73642978107119 0 -339.73642978107119 -96.108317536699815 0 0 0 0 -209.25008371091826 -821.58427669346725 0 -821.58427669346725 372.73580723714292 0 0 0 0 -1.1761629987605033 -6.3600137061672797 0 -6.3600137061672797 14.291666153404524 0 0 0 0 -640.31077208372881 -201.68980891138904 0 -201.68980891138904 -27.449577578991239 0 0 0 0 -496.88175208767643 -156.60253477024935 0 -156.60253477024935 -97.012255023063517 0 0 0 0 -721.43356850649798 -64.361198071763397 0 -64.361198071763397 254.99045288936532 0 0 0 0 -0.3202136504570845 -1.8755770213619058 0 -1.8755770213619058 6.1404577174875232 0 0 0 0 -371.18471121255789 163.87605770521481 0 163.87605770521481 67.844557480347362 0 0 0 0 -1036.4865833428339 106.92878144559756 0 106.92878144559756 350.42987511716365 0 0 0 0 -706.67461438989994 398.54293986739583 0 398.54293986739583 152.05329118494831 0 0 0 0 -401.31172999097544 512.1452694278496 0 512.1452694278496 999.97301406655151 0 0 0 0 -1.0631458004207417 -2.6193375363085494 0 -2.6193375363085494 6.9663054590425375 0 0 0 0 -267.80341090533329 -725.33809415474047 0 -725.33809415474047 634.76649686185306 0 0 0 0 -433.12980558719232 -444.26407291004926 0 -444.26407291004926 176.12259399695995 0 0 0 0 -438.2524088425389 -506.2373898084644 0 -506.2373898084644 11.669746321748789 0 0 0 0 -1055.8711206342723 -295.040726304744 0 -295.040726304744 200.72127523841823 0 0 0 0 0.69200958164409343 -6.2960311781150793 0 -6.2960311781150793 7.1383789311749641 0 0 0 0 -874.86442109975906 -576.19219183544146 0 -576.19219183544146 189.50395070698096 0 0 0 0 -105.05141777514291 46.17953547217212 0 46.17953547217212 -17.7196462227339 0 0 0 0 -646.97266571941873 -646.88437647323906 0 -646.88437647323906 102.66600904106454 0 0 0 0 -719.66984037890506 -283.12832221483245 0 -283.12832221483245 104.22516093683709 0 0 0 0 140.29066217808577 -4.5056089880200716 0 -4.5056089880200716 -84.899970887943255 0 0 0 0 -16.531234657406458 121.40238190022637 0 121.40238190022637 -117.48662393007089 0 0 0 0 12.082523959179525 -124.91198232023817 0 -124.91198232023817 184.04754653175434 0 0 0 0 -117.49516367177421 -169.89546738120862 0 -169.89546738120862 531.93559979745532 0 0 0 0 -42.650503558717901 -270.41586340387448 0 -270.41586340387448 215.41965371677225 0 0 0 0 316.4774603787082 -348.67273041383442 0 -348.67273041383442 738.59963136572514 0 0 0 0 663.96227307895606 -316.7621285691198 0 -316.7621285691198 -271.88410167529628 0 0 0 0 137.04232631728155 -552.76929504517079 0 -552.76929504517079 656.94176336117107 0 0 0 0 -316.09698167213355 7.6915383069685959 0 7.6915383069685959 516.75527559594229 0 0 0 0 242.27012485812975 -530.56034791734248 0 -530.56034791734248 502.5399011871159 0 0 0 0 -229.85177272255532 -220.01654119479554 0 -220.01654119479554 754.7719625250395 0 0 0 0 0.49068046947882493 -2.3946032465665539 0 -2.3946032465665539 6.1758769475592317 0 0 0 0 -140.99840620545729 -40.633892379688859 0 -40.633892379688859 328.85120194261253 0 0 0 0 -287.62092768928778 -17.205543915602675 0 -17.205543915602675 423.94863992016599 0 0 0 0 -195.46281084741713 162.33744685368833 0 162.33744685368833 17.584930609433286 0 0 0 0 -152.20936906280986 -218.50579512886725 0 -218.50579512886725 -174.72106265797947 0 0 0 0 -235.48372398614083 74.369254459603098 0 74.369254459603098 -107.8397565403252 0 0 0 0 295.97831045896692 -168.51060145792454 0 -168.51060145792454 202.22467899151161 0 0 0 0 303.94867829608847 -93.726721632307544 0 -93.726721632307544 98.188477104626145 0 0 0 0 340.59864613723403 -117.09702118280575 0 -117.09702118280575 93.547027710577822 0 0 0 0 226.3394182013144 -136.96949916925405 0 -136.96949916925405 170.2012891745153 0 0 0 0 -76.053157057933277 120.64106675857767 0 120.64106675857767 -54.858256721487123 0 0 0 0 228.19045996981731 -92.479821224816988 0 -92.479821224816988 53.468373773765563 0 0 0 0 47.12814433544554 83.497207013764637 0 83.497207013764637 68.18613395229039 0 0 0 0 14.983893874017667 -104.95673822596154 0 -104.95673822596154 360.39735499642575 0 0 0 0 -160.42109279243232 7.3731478616298318 0 7.3731478616298318 288.93275634130168 0 0 0 0 70.977913764938421 -42.529500846681003 0 -42.529500846681003 222.51088835377129 0 0 0 0 158.48124358454515 -153.31587433825712 0 -153.31587433825712 286.60306274752566 0 0 0 0 161.79114244797529 -80.48238891446249 0 -80.48238891446249 233.43251381029768 0 0 0 0 -129.12936661118874 -118.30052009607653 0 -118.30052009607653 389.86235551342179 0 0 0 0 -40.033914730687684 -32.801769213760281 0 -32.801769213760281 323.00406914390783 0 0 0 0 5.2142712123677484 -112.2114850168922 0 -112.2114850168922 160.67526827674533 0 0 0 0 -38.275190271200699 -72.268490826140237 0 -72.268490826140237 663.74462194974376 0 0 0 0 -0.90897248530740171 -2.898597073609757 0 -2.898597073609757 1.4670653092389037 0 0 0 0 -2.2374565129139228 -218.19625941182278 0 -218.19625941182278 -673.40980011299916 0 0 0 0 678.9317035207132 -669.04716613844266 0 -669.04716613844266 174.33045121955683 0 0 0 0 15.100195170580605 -10.814866445307423 0 -10.814866445307423 3.2768356416386033 0 0 0 0 -97.96209459783131 -109.96060978402761 0 -109.96060978402761 -331.19782721517595 0 0 0 0 -26.210420278363017 -120.67777686785985 0 -120.67777686785985 -420.59333323410146 0 0 0 0 -103.65553769638791 -197.30473363181045 0 -197.30473363181045 -383.85137253477296 0 0 0 0 -2.1437684865904032 -5.3324978396800873 0 -5.3324978396800873 2.3574647122337007 0 0 0 0 -49.740576991949638 -188.81264680512663 0 -188.81264680512663 -502.0297851986536 0 0 0 0 -5.367401304903936 -6.1723706427970804 0 -6.1723706427970804 4.6248612353834044 0 0 0 0 8.2514300489783636 -188.92586401300241 0 -188.92586401300241 -319.42593523253299 0 0 0 0 -25.712678428433719 12.184788145662196 0 12.184788145662196 -50.134513832802895 0 0 0 0 71.084531140739273 -501.80432949451915 0 -501.80432949451915 -164.75339851168076 0 0 0 0 -33.570936408810667 -256.10464307074812 0 -256.10464307074812 -582.88354967703231 0 0 0 0 -74.156718201196782 -143.46082745437866 0 -143.46082745437866 -292.89352861537964 0 0 0 0 4.4145460593867938 -5.7135544815366082 0 -5.7135544815366082 2.2980280484117408 0 0 0 0 77.933012299763504 -454.04722818405247 0 -454.04722818405247 435.51766319669377 0 0 0 0 176.0396304117603 -110.21510711686892 0 -110.21510711686892 -15.43498473442969 0 0 0 0 -218.93104010792376 -272.89248633458243 0 -272.89248633458243 595.21595730990225 0 0 0 0 -128.50203726102336 -103.70517836420902 0 -103.70517836420902 13.934586688245872 0 0 0 0 -19.963802302265321 -315.85675785942612 0 -315.85675785942612 -12.955785201407252 0 0 0 0 254.9591390129026 -295.07731900404815 0 -295.07731900404815 -62.88740782601576 0 0 0 0 26.115954558094018 -153.15086169235695 0 -153.15086169235695 69.528469999365598 0 0 0 0 -8.2630011354049202 -58.243666289416637 0 -58.243666289416637 42.557956738654411 0 0 0 0 -57.658795941213612 -229.03543004683416 0 -229.03543004683416 13.379038558628309 0 0 0 0 -244.20658237311 157.69142775467662 0 157.69142775467662 213.21648516840673 0 0 0 0 -228.49118598574933 -247.56649597978009 0 -247.56649597978009 143.92793881305249 0 0 0 0 -373.25888938608114 94.156575437122228 0 94.156575437122228 474.17021005637707 0 0 0 0 -328.71354697977949 -36.276372482495844 0 -36.276372482495844 589.63621886689725 0 0 0 0 -191.90731648221117 22.40089562235994 0 22.40089562235994 345.40295792905636 0 0 0 0 -235.97495990854804 -28.889685093625076 0 -28.889685093625076 1059.3237387699544 0 0 0 0 74.494384395446104 -156.49695292221213 0 -156.49695292221213 256.69780727833404 0 0 0 0 -49.99762377452862 -377.97311212965587 0 -377.97311212965587 587.10234825874522 0 0 0 0 908.3145322054479 -976.82244069419221 0 -976.82244069419221 795.00000869402493 0 0 0 0 -198.07288528699064 -14.656704814986483 0 -14.656704814986483 37.559812998202688 0 0 0 0 2.3249685636818356 2.5605174044003718 0 2.5605174044003718 4.6723772142018269 0 0 0 0 -38.04949385936925 -33.349943320015853 0 -33.349943320015853 33.362169828517921 0 0 0 0 -2.161158147243242 -3.7639838687307474 0 -3.7639838687307474 4.0192840995884138 0 0 0 0 -96.467332411213647 151.85115616167903 0 151.85115616167903 -2.213501651294763 0 0 0 0 0.71152337192413029 6.7800870089455003 0 6.7800870089455003 17.490087769127456 0 0 0 0 59.521030391268141 -309.86653526139617 0 -309.86653526139617 552.37820166055917 0 0 0 0 448.87019634334138 -504.96183999044888 0 -504.96183999044888 488.11376131886209 0 0 0 0 11.673008381989348 -125.54052300271678 0 -125.54052300271678 424.07731661569687 0 0 0 0 37.297292125495005 -347.38037060213401 0 -347.38037060213401 490.48673009903541 0 0 0 0 40.590743749573448 -255.13491141590976 0 -255.13491141590976 258.20232695802042 0 0 0 0 -154.12566722993631 36.965151308320003 0 36.965151308320003 44.402758158696088 0 0 0 0 -136.46830006910386 -288.81143797868845 0 -288.81143797868845 183.89654930469283 0 0 0 0 264.72896852044505 -296.65671771439111 0 -296.65671771439111 -618.25164709565433 0 0 0 0 74.035301179479575 -574.41976238474967 0 -574.41976238474967 983.76540686245835 0 0 0 0 7.3243829900581261 -3.972923285175348 0 -3.972923285175348 1.2314385262197107 0 0 0 0 61.571639233519818 -317.09083125402617 0 -317.09083125402617 136.28746568766383 0 0 0 0 136.27416396563058 -239.0318958386033 0 -239.0318958386033 -53.964271120484682 0 0 0 0 17.81084921795599 -9.5588213982698207 0 -9.5588213982698207 2.4248930277372871 0 0 0 0 210.43523272932362 -35.510663189543266 0 -35.510663189543266 -637.35144730960837 0 0 0 0 71.23555844710063 -210.54557274963008 0 -210.54557274963008 -8.9319150211304077 0 0 0 0 -740.85407631873386 -42.462022078388145 0 -42.462022078388145 979.74942751646131 0 0 0 0 -7.5146994074748363 -377.71145077695201 0 -377.71145077695201 -175.71635527459989 0 0 0 0 31.071641437381913 -91.358145415903891 0 -91.358145415903891 -351.75977378672997 0 0 0 0 171.65126127159965 -288.04827482843552 0 -288.04827482843552 90.119433891455174 0 0 0 0 2.4639186584754498 -295.60274149801717 0 -295.60274149801717 95.750815281918221 0 0 0 0 205.64429417519568 -327.46859505497741 0 -327.46859505497741 169.66865023785795 0 0 0 0 131.73000024084104 -325.70172412571628 0 -325.70172412571628 197.94157646683925 0 0 0 0 138.55371304279106 -267.84533249377182 0 -267.84533249377182 374.95416789708361 0 0 0 0 231.82989541022835 -169.06495800110679 0 -169.06495800110679 178.76760717021716 0 0 0 0 380.07420905496838 -200.32906288282993 0 -200.32906288282993 182.63985839381155 0 0 0 0 252.69317250371114 -279.35881008597767 0 -279.35881008597767 228.88466989017252 0 0 0 0 171.26245545351412 -286.1131292784753 0 -286.1131292784753 257.29799854786597 0 0 0 0 179.01662378924811 -302.71380426632322 0 -302.71380426632322 253.03220780702668 0 0 0 0 166.81501205658424 -323.35155826120172 0 -323.35155826120172 220.94020242833267 0 0 0 0 168.35538142672158 -263.14857063942145 0 -263.14857063942145 251.68259612617157 0 0 0 0 169.55496645267704 -296.02582991455211 0 -296.02582991455211 274.50831457759523 0 0 0 0 235.24269094204647 -291.11468573629008 0 -291.11468573629008 225.96673248450611 0 0 0 0 185.42817925957934 -329.3361349805682 0 -329.3361349805682 283.25961913815627 0 0 0 0 139.41047162564064 -311.58981468628735 0 -311.58981468628735 293.9202621086074 0 0 0 0 169.56207529778476 -258.14793527034999 0 -258.14793527034999 253.55437373240147 0 0 0 0 127.08838505243875 -273.99881933903043 0 -273.99881933903043 277.49783902439231 0 0 0 0 156.13534599918057 -256.76984932353753 0 -256.76984932353753 255.03421901563115 0 0 0 0 119.99823455001751 -182.43678775992066 0 -182.43678775992066 125.5145548034161 0 0 0 0 11.014491966780042 -271.77673521787801 0 -271.77673521787801 409.38148444654325 0 0 0 0 218.28284102800535 -365.20408966045579 0 -365.20408966045579 330.30827557221346 0 0 0 0 615.62504921722575 -493.61392211546536 0 -493.61392211546536 285.69401935586757 0 0 0 0 222.59959832261211 -342.60306538545819 0 -342.60306538545819 248.76512066904434 0 0 0 0 506.34678502765018 -277.43112127763106 0 -277.43112127763106 162.16217716444953 0 0 0 0 459.22837153828004 -204.32057045081274 0 -204.32057045081274 449.57998466452955 0 0 0 0 336.57817592044012 -345.32202074957422 0 -345.32202074957422 241.20719744497546 0 0 0 0 -267.24536418024218 -98.964286681680051 0 -98.964286681680051 8.712661372012235 0 0 0 0 -138.51395941915689 -146.64172857743563 0 -146.64172857743563 -1.3289128613250796 0 0 0 0 -148.48932257299293 -123.17123902505652 0 -123.17123902505652 -25.620484372305555 0 0 0 0 -24.510924144196906 -20.957326708351388 0 -20.957326708351388 3.3969443945846933 0 0 0 0 -131.9351452654937 -2.7530387707148094 0 -2.7530387707148094 67.353080057814168 0 0 0 0 -56.890130341882468 38.341016594274492 0 38.341016594274492 59.294257338938451 0 0 0 0 43.786062188853975 54.874370555806195 0 54.874370555806195 20.175499589097853 0 0 0 0 -3.313566320631665 -5.9751589256480742 0 -5.9751589256480742 -7.5273059622838403 0 0 0 0 111.80886098901829 3.149068462295503 0 3.149068462295503 -28.189233902991646 0 0 0 0 -38.636394343331631 -574.58038842049245 0 -574.58038842049245 -413.27619485686228 0 0 0 0 159.46788623592875 -248.57976530390988 0 -248.57976530390988 252.61646117994314 0 0 0 0 163.1793897596217 -249.71807657826685 0 -249.71807657826685 250.35382911613669 0 0 0 0 304.78872892145591 -270.10445620439032 0 -270.10445620439032 203.36201893199814 0 0 0 0 215.53743297357869 -253.51630792349988 0 -253.51630792349988 249.29555483701097 0 0 0 0 232.19478445136338 -295.97038674787154 0 -295.97038674787154 197.78533936485292 0 0 0 0 231.01775637122046 -302.36294405201716 0 -302.36294405201716 192.06416629404339 0 0 0 0 487.09255862257851 261.19742627825804 0 261.19742627825804 800.43030243966132 0 0 0 0 -5.8022524924564607 -8.7573955379703889 0 -8.7573955379703889 -10.380949012509902 0 0 0 0 -4.3279564453765147 -5.1080954695930387 0 -5.1080954695930387 -5.3343649344547899 0 0 0 0 -398.39763465514989 -371.59960823772121 0 -371.59960823772121 -194.99533956424784 0 0 0 0 -192.59304017265094 -962.98439310482445 0 -962.98439310482445 -904.000214725349 0 0 0 0 300.23443549581361 -322.61308314905284 0 -322.61308314905284 198.22122916119952 0 0 0 0 279.86992801637825 -135.58988502905322 0 -135.58988502905322 -19.63816519852935 0 0 0 0 282.50991112421616 -272.9738548887799 0 -272.9738548887799 217.2560034335952 0 0 0 0 452.63332508744134 -417.44532382617797 0 -417.44532382617797 -218.3222906296287 0 0 0 0 243.49557872730657 -340.34411717625471 0 -340.34411717625471 173.54576579795093 0 0 0 0 288.13382157587694 -281.15014993937211 0 -281.15014993937211 122.82344409971847 0 0 0 0 233.1271615299338 -379.04478073700648 0 -379.04478073700648 54.04781035873475 0 0 0 0 67.882253776049765 -360.45771077856375 0 -360.45771077856375 188.96811514474484 0 0 0 0 240.53764949954348 -449.85592785914696 0 -449.85592785914696 176.87329319956825 0 0 0 0 414.97944323503907 -479.08750651698074 0 -479.08750651698074 105.67639881923424 0 0 0 0 314.91104619675752 -831.84852089092601 0 -831.84852089092601 -212.9495657283785 0 0 0 0 412.53647339822783 -296.46732247171349 0 -296.46732247171349 -461.88994115581454 0 0 0 0 8.3724870726291556 -217.22513479457734 0 -217.22513479457734 -408.02855755298083 0 0 0 0 -357.03426622922598 -517.44543746936074 0 -517.44543746936074 -233.41105265947363 0 0 0 0 -454.30060368620616 -10.178527493254933 0 -10.178527493254933 544.49484089407906 0 0 0 0 280.90172846906353 -106.40540579574599 0 -106.40540579574599 -322.4977944596485 0 0 0 0 -4.314898757146878 -4.8045136736056335 0 -4.8045136736056335 -4.8600469832880062 0 0 0 0 -606.12155455431639 -308.49194545536841 0 -308.49194545536841 210.32015070843227 0 0 0 0 182.17662881108117 764.61581401570947 0 764.61581401570947 709.98234172981506 0 0 0 0 1343.1095495238187 590.56315527904758 0 590.56315527904758 -961.8475881974955 0 0 0 0 123.48957391156 -536.14812351424325 0 -536.14812351424325 -1096.233637100459 0 0 0 0 6.2694537731731543 -139.52005563518128 0 -139.52005563518128 -327.42988965773793 0 0 0 0 338.44909223533614 85.152019690589555 0 85.152019690589555 -176.96202097524474 0 0 0 0 27.661529252261971 -51.672944424496563 0 -51.672944424496563 -101.76990287507124 0 0 0 0 -173.20714614704775 79.740309012263424 0 79.740309012263424 248.2708238078462 0 0 0 0 -177.08690773583658 166.34378052105558 0 166.34378052105558 -153.3218763326131 0 0 0 0 -180.49468788509694 -55.94653128929599 0 -55.94653128929599 17.764984632502319 0 0 0 0 -224.54037841082754 -223.42561967156121 0 -223.42561967156121 -60.995802276000177 0 0 0 0 -53.188850851605821 -194.82146982391799 0 -194.82146982391799 -56.250191253586536 0 0 0 0 -90.370226066435862 -156.09009715669717 0 -156.09009715669717 -70.831834705049346 0 0 0 0 -34.311288055105251 -175.26407629006349 0 -175.26407629006349 -70.88184187860108 0 0 0 0 -71.815036005871661 -135.83307480137955 0 -135.83307480137955 -44.168999762879693 0 0 0 0 -85.62396132768481 -151.30017113238887 0 -151.30017113238887 -40.378967103334503 0 0 0 0 -159.77188708813082 -238.82958338652955 0 -238.82958338652955 -140.11859646296307 0 0 0 0 -64.358717313465604 -162.10345310269315 0 -162.10345310269315 -165.32390717460248 0 0 0 0 -38.497436273352832 -243.86141507745964 0 -243.86141507745964 -81.638131208276235 0 0 0 0 -53.612238793743018 -200.13343840267851 0 -200.13343840267851 -69.668964331119696 0 0 0 0 -63.418019687771448 -278.96060878365188 0 -278.96060878365188 -132.66100130074267 0 0 0 0 -0.044721543348714476 -239.95282915769187 0 -239.95282915769187 -113.75663007191878 0 0 0 0 0.11260359151856392 -270.14361909640184 0 -270.14361909640184 -168.21241749096453 0 0 0 0 -64.731477514429571 -286.23552750252907 0 -286.23552750252907 -69.020056449320691 0 0 0 0 -22.844383249444945 -139.03998576291906 0 -139.03998576291906 -1.0865730520322359 0 0 0 0 -0.097361511160697578 -281.78975722975025 0 -281.78975722975025 117.57662642793957 0 0 0 0 -134.05422163147523 -348.6187689359549 0 -348.6187689359549 356.34355785182561 0 0 0 0 -74.694310540435254 -187.459284128729 0 -187.459284128729 265.35047158813404 0 0 0 0 7.5557420203622314 -495.65125427892281 0 -495.65125427892281 493.3917601197752 0 0 0 0 -313.45192667593437 -1.6610284281387067 0 -1.6610284281387067 330.70341450038313 0 0 0 0 306.51618846510974 -485.23759220186071 0 -485.23759220186071 203.20608364319014 0 0 0 0 110.62639575405183 -341.88805430322793 0 -341.88805430322793 340.32531338688386 0 0 0 0 16.913386647218431 -152.04898721866488 0 -152.04898721866488 342.37118770849702 0 0 0 0 118.03748873809673 -297.08346733329017 0 -297.08346733329017 95.536431315947084 0 0 0 0 27.173746259897598 -229.52473064662536 0 -229.52473064662536 391.85551827713061 0 0 0 0 26.918535465170862 -251.01800819736127 0 -251.01800819736127 424.99172580131744 0 0 0 0 9.9317734155356447 -212.37580939783345 0 -212.37580939783345 474.82150065849601 0 0 0 0 -0.0033873157080961391 -318.43774254070104 0 -318.43774254070104 346.56991674823439 0 0 0 0 -16.376394180937496 -258.9860689956331 0 -258.9860689956331 469.34778875886707 0 0 0 0 -27.718785400174966 -309.81131283407876 0 -309.81131283407876 407.5310052781515 0 0 0 0 655.62512132062784 -290.95054926543799 0 -290.95054926543799 -222.4315024691864 0 0 0 0 725.75915175886712 -706.23699573523936 0 -706.23699573523936 -709.23480381064928 0 0 0 0 -64.968444507216191 -444.40134129414673 0 -444.40134129414673 172.83131083614171 0 0 0 0 -70.045559163073449 -280.74285901354597 0 -280.74285901354597 133.97462192416788 0 0 0 0 1422.9002559431383 -130.9882292071452 0 -130.9882292071452 -303.83773256566064 0 0 0 0 465.85743279617236 -1061.6490699039864 0 -1061.6490699039864 1110.7590033702218 0 0 0 0 -188.87419690739716 -262.79316795860723 0 -262.79316795860723 546.85754442216421 0 0 0 0 11.591079385593096 -7.3590031707578909 0 -7.3590031707578909 7.6366620539238852 0 0 0 0 49.01471568933232 -184.79727415011121 0 -184.79727415011121 291.56668877434277 0 0 0 0 -20.657399966586535 -62.625580789643166 0 -62.625580789643166 -35.984575426333656 0 0 0 0 42.935001850125445 -17.121740877077173 0 -17.121740877077173 -89.977740494809041 0 0 0 0 -6.8320941539342446 -71.36905181165217 0 -71.36905181165217 -48.663305986784437 0 0 0 0 -46.119676451663054 -137.23832061333269 0 -137.23832061333269 -141.13409638345684 0 0 0 0 10.496020150511981 -290.73013749318568 0 -290.73013749318568 165.43011828050112 0 0 0 0 7.6569827256049621 -312.56603790227723 0 -312.56603790227723 -2.4368610084566171 0 0 0 0 1.6589778475132473 -32.794532954195162 0 -32.794532954195162 17.402863707916531 0 0 0 0 62.999076853860288 -147.00261243953992 0 -147.00261243953992 -69.003687070889555 0 0 0 0 -0.57118834742868785 -110.28281866167958 0 -110.28281866167958 -36.380029708658924 0 0 0 0 -4.8876171625828349 -45.106718613582196 0 -45.106718613582196 -23.958850955800429 0 0 0 0 10.54548015540604 -130.44855297696017 0 -130.44855297696017 -59.298858994541206 0 0 0 0 24.11856453649996 -43.040198896426332 0 -43.040198896426332 2.247819192085557 0 0 0 0 -258.27262266276648 -36.091755975778369 0 -36.091755975778369 183.29634300392058 0 0 0 0 -212.47573196796452 -157.13800772355034 0 -157.13800772355034 538.81271370606214 0 0 0 0 618.87589879856205 -529.82830401219326 0 -529.82830401219326 213.27641622557803 0 0 0 0 71.017246053644158 -104.36530751129339 0 -104.36530751129339 127.05464680024124 0 0 0 0 331.84434794972549 25.715684163666083 0 25.715684163666083 -1216.4402311768731 0 0 0 0 2.3929211604426364 0.45843313930659413 0 0.45843313930659413 -0.28346681377137628 0 0 0 0 151.62493017405609 -933.8927946295322 0 -933.8927946295322 1297.976166680387 0 0 0 0 300.11899305492716 -991.61249772091014 0 -991.61249772091014 1280.0581418209213 0 0 0 0 -96.884719383764605 -325.88394096287402 0 -325.88394096287402 2259.7213597902728 0 0 0 0 16.605684043179192 -4.0218565653233398 0 -4.0218565653233398 -1.1630054728803247 0 0 0 0 603.18505101351366 -134.2664750674445 0 -134.2664750674445 15.956111357962982 0 0 0 0 6.5631017660641859 -6.3012058825669328 0 -6.3012058825669328 0.27412802239535239 0 0 0 0 40.266298871236359 -11.403916917176502 0 -11.403916917176502 -275.13155042774088 0 0 0 0 -14.118298753492127 -165.25790916391816 0 -165.25790916391816 -195.55868558706243 0 0 0 0 -148.51285742360869 -42.921471922709316 0 -42.921471922709316 -261.47613575552532 0 0 0 0 14.829999537107231 -15.541358293167713 0 -15.541358293167713 -3.6696762177490623 0 0 0 0 21.854023328813582 -39.406045020673673 0 -39.406045020673673 -4.6768071969454468 0 0 0 0 35.70542490789358 -20.149252099756527 0 -20.149252099756527 -5.6216772056027349 0 0 0 0 63.920916177272375 -280.94816378447467 0 -280.94816378447467 783.02587341774233 0 0 0 0 145.32483045039044 -118.42692056578387 0 -118.42692056578387 1089.6923137096328 0 0 0 0 116.49993878218083 -77.178145536901866 0 -77.178145536901866 -106.75376279748662 0 0 0 0 11.60231561054934 -29.088796681437998 0 -29.088796681437998 -79.856094669821687 0 0 0 0 -29.538715455934266 -50.251233246644553 0 -50.251233246644553 -42.994025175743332 0 0 0 0 74.437003976592678 -80.093965220961763 0 -80.093965220961763 -44.160816258518935 0 0 0 0 117.54409138298797 -117.33149972021329 0 -117.33149972021329 -72.071953567196942 0 0 0 0 0.33395644812162573 -238.35278378231806 0 -238.35278378231806 82.590714296016813 0 0 0 0 50.300446792429739 -105.96077079146926 0 -105.96077079146926 60.043943366135863 0 0 0 0 -0.37714841248725861 -211.15181434304532 0 -211.15181434304532 -23.480413361683532 0 0 0 0 -2.7627301421598531 -78.221628879408854 0 -78.221628879408854 -27.413285967555566 0 0 0 0 230.13236207794466 -265.46525502316945 0 -265.46525502316945 95.5252865879811 0 0 0 0 -28.600312371503755 -32.985861144875756 0 -32.985861144875756 -39.024116945351793 0 0 0 0 15.338635587537738 -201.01985880416578 0 -201.01985880416578 151.62312589229259 0 0 0 0 -69.230776226773742 -360.54563105990383 0 -360.54563105990383 -215.390386197103 0 0 0 0 -93.886437270761235 -171.28817566488078 0 -171.28817566488078 119.72030212877871 0 0 0 0 -219.6562865153337 -358.04772676214179 0 -358.04772676214179 382.74117107982602 0 0 0 0 -387.98366627436553 -117.44771985861007 0 -117.44771985861007 111.68263778864366 0 0 0 0 -19.509943144114072 -22.3969109562073 0 -22.3969109562073 -23.540536734257685 0 0 0 0 130.10768644832388 32.996327629909501 0 32.996327629909501 -235.30254964294181 0 0 0 0 374.64755424901523 -197.10051918155204 0 -197.10051918155204 -859.31680510979641 0 0 0 0 -7.5539100502189829 -7.65542842272116 0 -7.65542842272116 -8.3500434886015142 0 0 0 0 -1122.8987128215076 297.29099070199754 0 297.29099070199754 65.217130272678332 0 0 0 0 28.45280873592128 -78.483258704349282 0 -78.483258704349282 51.226002907495968 0 0 0 0 47.741336503092271 -116.57931299358188 0 -116.57931299358188 -138.0439121254185 0 0 0 0 186.82252118992506 -301.96804475586941 0 -301.96804475586941 51.550999545461309 0 0 0 0 -119.82144384049911 -211.92707667801915 0 -211.92707667801915 -167.16582949688382 0 0 0 0 113.42370014676294 -221.97314435922272 0 -221.97314435922272 -436.03476174589196 0 0 0 0 83.240743086465841 -321.08940280028173 0 -321.08940280028173 -525.23419436398399 0 0 0 0 -108.54235404262784 -391.66929711367516 0 -391.66929711367516 -554.39865402060605 0 0 0 0 -153.44172108844487 -690.48266452100688 0 -690.48266452100688 -893.7269644233279 0 0 0 0 -118.52267488161942 -480.60105362375543 0 -480.60105362375543 -564.17793646172504 0 0 0 0 149.80019840675413 -329.79882357223414 0 -329.79882357223414 -634.95401902348749 0 0 0 0 -136.57159837590541 -244.24431592428277 0 -244.24431592428277 -374.08921804535203 0 0 0 0 -919.07316936463485 -466.79256425887888 0 -466.79256425887888 -435.16631386645531 0 0 0 0 -519.87057025932836 305.91240478369491 0 305.91240478369491 -732.96308792952186 0 0 0 0 119.16675618574754 -181.85860980957113 0 -181.85860980957113 -463.42240727738454 0 0 0 0 499.93237042842429 29.420695486558543 0 29.420695486558543 -758.92907942206875 0 0 0 0 457.18640780975556 -504.92176580901332 0 -504.92176580901332 -530.25996034993295 0 0 0 0 385.49513448516245 -192.11806595326561 0 -192.11806595326561 -1325.3992748830406 0 0 0 0 -386.21893275417005 -732.64209308874342 0 -732.64209308874342 -398.37732053088621 0 0 0 0 560.57562958019844 -368.68207278240152 0 -368.68207278240152 -357.30677445541323 0 0 0 0 1099.2594154353237 -844.12732495290038 0 -844.12732495290038 -284.86296315300751 0 0 0 0 419.30887474168003 94.986250027359802 0 94.986250027359802 312.29612266163531 0 0 0 0 257.03703190315809 -337.46917319491695 0 -337.46917319491695 15.943377792875253 0 0 0 0 321.23772458104395 -792.67330949021743 0 -792.67330949021743 625.33819741936395 0 0 0 0 616.2796814972412 -419.04499942064376 0 -419.04499942064376 -19.866439448454912 0 0 0 0 682.42111684198494 -407.58594591205974 0 -407.58594591205974 -31.664586432696524 0 0 0 0 749.25158059361479 -126.30547151021523 0 -126.30547151021523 -107.38716220135029 0 0 0 0 675.88566557721606 -460.80335784329191 0 -460.80335784329191 -341.70244621287929 0 0 0 0 748.86649604057402 -140.74820860837281 0 -140.74820860837281 -412.81287448048124 0 0 0 0 575.29913750340097 -160.03982430996939 0 -160.03982430996939 -298.56588426741655 0 0 0 0 908.44704369586725 -179.75459292274354 0 -179.75459292274354 -185.67109960632206 0 0 0 0 -16.599796098800272 -55.60180925654096 0 -55.60180925654096 -18.917355906016851 0 0 0 0 -37.349918039251861 16.100106176937288 0 16.100106176937288 -199.57651841909683 0 0 0 0 -153.54530710839026 83.894992417366666 0 83.894992417366666 -83.117474648991674 0 0 0 0 -287.42431791242416 2.3819642641992687 0 2.3819642641992687 -73.037127910597519 0 0 0 0 -276.1369843281509 -29.889805241963131 0 -29.889805241963131 -177.52921282934039 0 0 0 0 -867.22821929873317 -27.796910492595998 0 -27.796910492595998 -141.22368109202216 0 0 0 0 -204.73711778066354 -4.0798486332460016 0 -4.0798486332460016 -24.362514361298963 0 0 0 0 -1088.5677542293051 181.68344953396081 0 181.68344953396081 95.328892489535065 0 0 0 0 -189.62129299558001 -10.12910751705931 0 -10.12910751705931 -286.98624488633141 0 0 0 0 -1945.7446479711434 -557.93031269995663 0 -557.93031269995663 -203.55988081041869 0 0 0 0 -896.18132063961093 -579.44667540985574 0 -579.44667540985574 -518.39008221566473 0 0 0 0 -1146.8100730837177 -1084.2764428963928 0 -1084.2764428963928 -1352.4100639664612 0 0 0 0 -980.09945343403524 -757.28846781103857 0 -757.28846781103857 -427.72250804187206 0 0 0 0 -795.16165244299191 -66.393866114325647 0 -66.393866114325647 -172.1588559461743 0 0 0 0 -166.28932797952621 -556.82627482144744 0 -556.82627482144744 -777.02260144529282 0 0 0 0 -879.60689911201189 -623.85805460489792 0 -623.85805460489792 -283.07338795923715 0 0 0 0 -529.0167576863314 -840.02765368360633 0 -840.02765368360633 -994.51544597138309 0 0 0 0 -329.81235336041209 -427.89294634461021 0 -427.89294634461021 -253.54026344415911 0 0 0 0 -355.16391585592191 -567.42848802759761 0 -567.42848802759761 -407.11397152878999 0 0 0 0 -529.84465130617355 -436.26957267219427 0 -436.26957267219427 -16.341711190496426 0 0 0 0 -403.16316939667013 -1.272520641688061 0 -1.272520641688061 -81.845552588873034 0 0 0 0 -399.1092297131654 -388.44135156963239 0 -388.44135156963239 389.98361208480492 0 0 0 0 -318.92225405383215 -326.27639132589502 0 -326.27639132589502 24.755019443100082 0 0 0 0 -397.52308555396667 -505.00508751439133 0 -505.00508751439133 -16.50723470797675 0 0 0 0 -425.48547088969644 -298.68426947713306 0 -298.68426947713306 142.52281312658215 0 0 0 0 -37.591239438515913 -522.02950825523885 0 -522.02950825523885 158.11911308934941 0 0 0 0 256.39735552483398 -64.926858041014839 0 -64.926858041014839 -102.0179489273778 0 0 0 0 -38.439712465005869 215.96292527714104 0 215.96292527714104 0.71269483969172143 0 0 0 0 -229.46279871467414 -290.68937039672255 0 -290.68937039672255 443.09808958744088 0 0 0 0 -17.552875303064969 -59.769810017402449 0 -59.769810017402449 -26.848779457201942 0 0 0 0 -348.20437101673269 144.24170244712741 0 144.24170244712741 21.122205734402087 0 0 0 0 -268.91948966307245 -61.821593003929593 0 -61.821593003929593 -91.719773431941576 0 0 0 0 -181.99417969077331 -169.2446755257314 0 -169.2446755257314 -133.33443826362054 0 0 0 0 1.3315731580404275 -0.86640749597016509 0 -0.86640749597016509 -1.2455048398226367 0 0 0 0 -179.44340997832296 -228.27560722903399 0 -228.27560722903399 -178.31429867549286 0 0 0 0 -237.96083772548445 -328.06842065587261 0 -328.06842065587261 -135.9834117814371 0 0 0 0 -204.10472032895996 -280.6330743419494 0 -280.6330743419494 -274.16326366500152 0 0 0 0 -87.247382380587624 -325.67149614579466 0 -325.67149614579466 -324.70438778083189 0 0 0 0 -246.342785117733 -385.35599481538429 0 -385.35599481538429 -147.25964715429291 0 0 0 0 -380.41447912952754 -276.54677012022375 0 -276.54677012022375 21.681850399506402 0 0 0 0 -322.51567266149686 -276.83422375190594 0 -276.83422375190594 -77.043850788069904 0 0 0 0 -227.66115410545672 -179.31726754505837 0 -179.31726754505837 -117.37802585362078 0 0 0 0 -256.65204367009937 -219.45953605026352 0 -219.45953605026352 -167.2112126863658 0 0 0 0 -288.79090732151781 -218.03621641141376 0 -218.03621641141376 -56.38695180869945 0 0 0 0 -263.23626473688637 -153.88311825746314 0 -153.88311825746314 -118.76014383604121 0 0 0 0 -304.13495190654066 -128.09391853261286 0 -128.09391853261286 -22.835846875574134 0 0 0 0 -298.91276564590589 -112.51541022951551 0 -112.51541022951551 -31.280993978984043 0 0 0 0 -316.45985816659595 -144.91503650276081 0 -144.91503650276081 -31.981130387242956 0 0 0 0 -335.01687199751177 -186.28581647942883 0 -186.28581647942883 -39.37045741464226 0 0 0 0 -411.10505826453664 -197.92954398206712 0 -197.92954398206712 5.2186777430774782 0 0 0 0 -412.48841891356642 -135.2075436775558 0 -135.2075436775558 92.898803388745364 0 0 0 0 -397.89625462555341 -178.35715189393113 0 -178.35715189393113 17.18375756739897 0 0 0 0 -414.51783580983465 -227.6667019404872 0 -227.6667019404872 64.131544518353621 0 0 0 0 -410.48388054200768 -178.82829539166869 0 -178.82829539166869 7.0895028373888636 0 0 0 0 -436.25063899520319 -256.50429125884739 0 -256.50429125884739 -46.839735609295985 0 0 0 0 -428.36026415106244 -225.9364256205813 0 -225.9364256205813 -97.876672967019658 0 0 0 0 -504.81543272204726 -377.49817553890625 0 -377.49817553890625 -152.40233648537503 0 0 0 0 13.015431236310988 -19.391564646245577 0 -19.391564646245577 23.192371725002126 0 0 0 0 -466.1137001267889 -298.15826880052259 0 -298.15826880052259 -75.390894905085133 0 0 0 0 -439.44723932131114 -186.98094488418337 0 -186.98094488418337 10.198209259779105 0 0 0 0 -488.69174901294537 -322.04338883618539 0 -322.04338883618539 -26.783056768658525 0 0 0 0 -513.21168862506238 -223.17292557004293 0 -223.17292557004293 221.83053432616998 0 0 0 0 -521.95701869261757 -560.68702577845011 0 -560.68702577845011 11.076495501553836 0 0 0 0 -366.29017942552855 -121.14218258964729 0 -121.14218258964729 78.643397423247734 0 0 0 0 105.96582185411899 -149.47500860602622 0 -149.47500860602622 -177.20099883032708 0 0 0 0 -109.44997244000115 -181.43610502924963 0 -181.43610502924963 -76.162833498897271 0 0 0 0 118.90884018809811 -337.59181260115065 0 -337.59181260115065 9.3263047000975234 0 0 0 0 -466.45110795874916 15.125233766298379 0 15.125233766298379 78.732214696799929 0 0 0 0 509.65683178737709 -283.61128254791174 0 -283.61128254791174 -133.58403946315411 0 0 0 0 5.4000068322298134 -5.5927605924403707 0 -5.5927605924403707 4.0505242556875345 0 0 0 0 -340.83398215179113 -71.006100265696659 0 -71.006100265696659 228.47043323999515 0 0 0 0 -370.07879841714566 -255.85230287598301 0 -255.85230287598301 -88.750573883949983 0 0 0 0 -93.358008769427215 -393.44471345774173 0 -393.44471345774173 -401.30809871952079 0 0 0 0 64.482529183769657 -129.84827389560803 0 -129.84827389560803 -160.8954067435352 0 0 0 0 -465.97907769888479 -291.89399285994386 0 -291.89399285994386 -68.673331213868096 0 0 0 0 10.948432176445536 -14.372950660233407 0 -14.372950660233407 15.046339983414596 0 0 0 0 374.85932681409395 -112.709337215662 0 -112.709337215662 -416.59743751087888 0 0 0 0 -562.14504125467647 -740.5022796909816 0 -740.5022796909816 -105.87559295167557 0 0 0 0 111.34610816357053 66.614766067009498 0 66.614766067009498 -43.234801553431453 0 0 0 0 75.981265365619038 18.610539183128139 0 18.610539183128139 -72.007189189524411 0 0 0 0 66.775637600792834 -105.4610696913049 0 -105.4610696913049 -194.18705563461998 0 0 0 0 44.151548674039077 -130.8627704083959 0 -130.8627704083959 -59.861339932380133 0 0 0 0 -82.75313727062985 -41.25182672580631 0 -41.25182672580631 55.115497094281636 0 0 0 0 31.972396816050562 -18.286201019558334 0 -18.286201019558334 -10.274817688861551 0 0 0 0 -23.291600941294746 -50.493180491218595 0 -50.493180491218595 -58.509706011909103 0 0 0 0 -85.180860300622726 -81.884989407040194 0 -81.884989407040194 -4.7622759701071118 0 0 0 0 -10.9122081201931 -38.209909770615695 0 -38.209909770615695 -7.6505224704446846 0 0 0 0 -39.421971536827186 -30.96755549315921 0 -30.96755549315921 -38.45000187865071 0 0 0 0 -42.220744179221583 -30.778895889593514 0 -30.778895889593514 9.4478984663810479 0 0 0 0 -31.565951420368947 0.011789902308464661 0 0.011789902308464661 -17.207552055176393 0 0 0 0 -33.006982161189669 -25.440549314009342 0 -25.440549314009342 -6.5194628693248955 0 0 0 0 59.726745089545147 -85.341551734589757 0 -85.341551734589757 83.254011807332063 0 0 0 0 -163.88838840094832 -219.18220522937963 0 -219.18220522937963 104.96360943083005 0 0 0 0 -9.1691693257016595 -39.743676697374212 0 -39.743676697374212 150.27556405446558 0 0 0 0 -8.6985435126989614 116.29505186485858 0 116.29505186485858 95.375348886349428 0 0 0 0 -24.132869741579924 -21.900364475652673 0 -21.900364475652673 -13.856799616402746 0 0 0 0 0.27850041055370411 -2.4820963257703283 0 -2.4820963257703283 -2.9304244919590179 0 0 0 0 18.203289120898262 -21.839317592844168 0 -21.839317592844168 -55.348372271430662 0 0 0 0 6.25504920219403 2.4708688020927809 0 2.4708688020927809 -0.034919554758136684 0 0 0 0 43.488092701444657 26.821169609640833 0 26.821169609640833 -22.895613461723315 0 0 0 0 131.58234185360561 1.2882746028144538 0 1.2882746028144538 -226.35421607338503 0 0 0 0 792.33552913654057 -129.37575779332383 0 -129.37575779332383 -173.66265652360562 0 0 0 0 446.0888523718495 -205.94609964041513 0 -205.94609964041513 -169.26179514017849 0 0 0 0 415.0091357117708 -194.96876363410001 0 -194.96876363410001 117.07048354575636 0 0 0 0 9.0906317520617392 -1.0861709972535598 0 -1.0861709972535598 0.9243500253283885 0 0 0 0 434.5560363855584 90.695132571458544 0 90.695132571458544 -228.96420913514157 0 0 0 0 118.04992983293414 -134.13701148848486 0 -134.13701148848486 773.81474720423603 0 0 0 0 493.3897847531116 -253.30766418941698 0 -253.30766418941698 187.28782082551288 0 0 0 0 253.92768385830277 -431.16648772221879 0 -431.16648772221879 428.99000357732302 0 0 0 0 145.79734578454372 -343.30933357498543 0 -343.30933357498543 201.08037131903279 0 0 0 0 151.7383622376401 -314.64523114535746 0 -314.64523114535746 333.19221060252539 0 0 0 0 85.41272727282194 -116.4720991864906 0 -116.4720991864906 -3.0254804498299563 0 0 0 0 -0.34003144502165128 -2.1347187716185765 0 -2.1347187716185765 -3.3354621796351847 0 0 0 0 -12.581972320095247 -82.364117374540911 0 -82.364117374540911 -27.577545955782625 0 0 0 0 -53.649081257077341 -391.31053316444104 0 -391.31053316444104 195.91886219887101 0 0 0 0 69.876719582585793 -93.216895030503565 0 -93.216895030503565 -157.40564244721736 0 0 0 0 -352.88911214886684 31.51792955737983 0 31.51792955737983 290.84823627961441 0 0 0 0 24.27778195641524 -8.4648603282194141 0 -8.4648603282194141 -1.8062080095544149 0 0 0 0 -205.90050390177203 -116.67455939367483 0 -116.67455939367483 395.13693946275544 0 0 0 0 117.18095325334662 -169.88427453007097 0 -169.88427453007097 75.415119257955666 0 0 0 0 -481.44221320484212 -279.31247857972517 0 -279.31247857972517 -354.9637766976366 0 0 0 0 -702.58012805531689 -297.71329884995453 0 -297.71329884995453 -221.10683811768831 0 0 0 0 -397.4712294619967 -395.45773301246027 0 -395.45773301246027 -352.10295570462995 0 0 0 0 -411.31514744822653 -442.35571987548775 0 -442.35571987548775 -208.72934628800886 0 0 0 0 -415.85459635830193 -366.48047673515839 0 -366.48047673515839 -239.51035602774846 0 0 0 0 -426.24095672435578 -376.49596214139433 0 -376.49596214139433 -245.68384694695555 0 0 0 0 11.029709578072655 -18.682598505361852 0 -18.682598505361852 25.087046237216391 0 0 0 0 -971.43027195503237 -627.83790901750763 0 -627.83790901750763 65.62855550780705 0 0 0 0 -250.35722853294828 -358.95907249705783 0 -358.95907249705783 648.6489821769469 0 0 0 0 -203.14975084201433 -172.76490097470571 0 -172.76490097470571 -167.25068111818109 0 0 0 0 65.239921952481382 247.61579722537113 0 247.61579722537113 329.17832676100397 0 0 0 0 -152.93288233077328 -80.158946786465663 0 -80.158946786465663 175.77415095374317 0 0 0 0 -542.43939908052562 59.689914197086637 0 59.689914197086637 269.19411072020148 0 0 0 0 6.6853698116076643 -13.238007423532778 0 -13.238007423532778 20.149032342253712 0 0 0 0 -439.45135358169864 -257.23830460588806 0 -257.23830460588806 -225.64105611868032 0 0 0 0 -683.27930185796322 -345.47412705249019 0 -345.47412705249019 60.447683934580255 0 0 0 0 -474.92075106196717 -353.34304073399403 0 -353.34304073399403 -214.85024205148864 0 0 0 0 188.11846991050152 -513.06084517646491 0 -513.06084517646491 271.95723487566966 0 0 0 0 -172.64571567960229 -558.72248646431092 0 -558.72248646431092 922.74063803983893 0 0 0 0 2.0280854450429615 -632.23166230027687 0 -632.23166230027687 -20.623221902043468 0 0 0 0 -343.38802749574461 47.669548564390197 0 47.669548564390197 947.33103163425596 0 0 0 0 2.1958016188248735 -4.8833354910438587 0 -4.8833354910438587 8.080977407692318 0 0 0 0 -248.19125305005582 -5.9984865667697704 0 -5.9984865667697704 124.48320071891479 0 0 0 0 -302.41412515271804 -304.72292667437864 0 -304.72292667437864 445.81794108238375 0 0 0 0 -164.4519508161502 -211.13022308235134 0 -211.13022308235134 508.38885267081309 0 0 0 0 -368.80125196297922 55.627592054344859 0 55.627592054344859 367.01250138803198 0 0 0 0 -38.576588559706579 -152.87422225892146 0 -152.87422225892146 -183.30359057501414 0 0 0 0 0.70991687663668301 -2.8740059921068513 0 -2.8740059921068513 0.73210105316367025 0 0 0 0 -17.671654137772293 -344.84890681210283 0 -344.84890681210283 417.38621383590362 0 0 0 0 -40.906497359639616 -174.18876293508549 0 -174.18876293508549 414.28773527442752 0 0 0 0 -7.2341939798493513 -302.8780583263578 0 -302.8780583263578 285.66999899464304 0 0 0 0 -29.872681070777617 -133.85403167930917 0 -133.85403167930917 194.92134771241405 0 0 0 0 -80.164758910252203 -277.06476447586283 0 -277.06476447586283 418.80810268949267 0 0 0 0 -45.698215611078922 -356.93013054339337 0 -356.93013054339337 158.66198340010601 0 0 0 0 -154.1152270445491 -314.51236999780821 0 -314.51236999780821 79.265141171008281 0 0 0 0 -63.414141070494225 -275.67520972010925 0 -275.67520972010925 94.469726547288701 0 0 0 0 -90.069029053070608 -430.05752526858146 0 -430.05752526858146 324.64744981792364 0 0 0 0 63.976757000022189 -175.26394932949574 0 -175.26394932949574 184.75947903969109 0 0 0 0 69.269866405562425 -489.37323081737827 0 -489.37323081737827 992.30974895320765 0 0 0 0 63.182043518871069 -255.76813667626254 0 -255.76813667626254 543.98629310500087 0 0 0 0 1.047103077465934 -0.57272863238964078 0 -0.57272863238964078 -0.45314051257821752 0 0 0 0 274.0099699203879 -403.69807009008844 0 -403.69807009008844 299.33476066370713 0 0 0 0 125.44999521263526 -377.03699402665256 0 -377.03699402665256 294.8651275783177 0 0 0 0 217.62110358349673 -304.26614145541998 0 -304.26614145541998 256.53175685937458 0 0 0 0 241.56999052948686 -272.69561352923267 0 -272.69561352923267 292.95855391993973 0 0 0 0 130.51158574867804 -340.39516492223402 0 -340.39516492223402 313.95265539233833 0 0 0 0 208.83675449186194 -94.12441060592937 0 -94.12441060592937 114.79623874662366 0 0 0 0 -77.449267526979384 -76.143778579256832 0 -76.143778579256832 167.68229023425727 0 0 0 0 143.81956745841126 -206.02070762973153 0 -206.02070762973153 78.49853855819174 0 0 0 0 2.9411576528901548 -5.8008058008791714 0 -5.8008058008791714 0.75551429747239074 0 0 0 0 -98.733317265398 -274.0842894668699 0 -274.0842894668699 496.04238142865051 0 0 0 0 -119.42939194131395 -117.29424910081161 0 -117.29424910081161 1016.9349504440531 0 0 0 0 -110.16399172373713 -202.30596578302448 0 -202.30596578302448 404.81446649348993 0 0 0 0 18.067277189355991 -176.07353451917288 0 -176.07353451917288 409.77514570322955 0 0 0 0 -159.27432085267719 -242.27403848141125 0 -242.27403848141125 483.68501485586739 0 0 0 0 -244.49888102346904 -166.67122474247424 0 -166.67122474247424 506.75692037714271 0 0 0 0 -181.89711957702821 -286.91753592551731 0 -286.91753592551731 511.40986583352878 0 0 0 0 2.214384963631943 -3.5763111455734897 0 -3.5763111455734897 0.37995992485867586 0 0 0 0 496.81222172869093 -305.6439926250689 0 -305.6439926250689 -644.4229360398308 0 0 0 0 -147.46913399688219 -149.1480994849428 0 -149.1480994849428 1020.8279048892091 0 0 0 0 -77.183032799821376 -179.08278155290463 0 -179.08278155290463 505.72526584241734 0 0 0 0 618.30277654776546 90.099262236689583 0 90.099262236689583 502.23514788847274 0 0 0 0 9.9450416262319976 -4.5724247112614602 0 -4.5724247112614602 1.2783805730058055 0 0 0 0 130.49690149769231 -387.42892349094154 0 -387.42892349094154 2091.0843100921788 0 0 0 0 395.67903902842954 49.913209571518564 0 49.913209571518564 -531.80979139279316 0 0 0 0 -159.47247098517983 -65.590828519643765 0 -65.590828519643765 -8.7005127094180352 0 0 0 0 101.50259751581325 -86.769833470664253 0 -86.769833470664253 -7.0565202752245568 0 0 0 0 111.09986348819803 -138.82976494063178 0 -138.82976494063178 200.44776329103206 0 0 0 0 850.67363548670619 -1060.4485707374165 0 -1060.4485707374165 300.35904897481078 0 0 0 0 703.44565684756526 -231.21201828810854 0 -231.21201828810854 -275.35279615165564 0 0 0 0 44.944243859794611 -14.621802793796673 0 -14.621802793796673 -5.0096206625569542 0 0 0 0 -20.297371077514981 -259.63105703071733 0 -259.63105703071733 718.35590539223813 0 0 0 0 51.537745992909549 -341.2404690469366 0 -341.2404690469366 579.826520864146 0 0 0 0 28.291806541411219 -9.7387818057446882 0 -9.7387818057446882 1.8893406010680769 0 0 0 0 124.97783694876671 -258.08384996323753 0 -258.08384996323753 767.52207832534441 0 0 0 0 -89.076724964228561 -160.7003484845477 0 -160.7003484845477 1231.3862433845595 0 0 0 0 55.088283116980165 -32.286240981977244 0 -32.286240981977244 -81.337978025114353 0 0 0 0 51.553172022089711 -172.63896939930191 0 -172.63896939930191 -296.15520804515324 0 0 0 0 28.067999962742761 -124.3565627637409 0 -124.3565627637409 -8.1381004994550494 0 0 0 0 -15.545024371771731 -22.859041693280492 0 -22.859041693280492 -13.522958519184662 0 0 0 0 -28.288734456134989 -123.60965913264408 0 -123.60965913264408 -40.973695826042245 0 0 0 0 -21.736517649185771 -64.031709861003264 0 -64.031709861003264 124.18897774414472 0 0 0 0 49.995726610115526 69.766018195009252 0 69.766018195009252 -31.869601361106334 0 0 0 0 0.96972842267059889 -2.1027678181421496 0 -2.1027678181421496 -1.8641679456893978 0 0 0 0 -10.687313608812346 -10.261334481794268 0 -10.261334481794268 -10.755674181456063 0 0 0 0 -3.5926668797101229 -48.71676147845065 0 -48.71676147845065 -19.992152589783018 0 0 0 0 -3.9835944593323802 -51.222495057452761 0 -51.222495057452761 140.68114886024728 0 0 0 0 -77.525003495396959 -118.95597450946434 0 -118.95597450946434 116.0688269537377 0 0 0 0 10.679229301304076 -84.187181067761259 0 -84.187181067761259 79.715365496582081 0 0 0 0 46.12158808519689 -31.098480140564391 0 -31.098480140564391 19.813474368919287 0 0 0 0 1.0618087141800032 -4.1738107656153378 0 -4.1738107656153378 -5.2491867724743475 0 0 0 0 28.078038823354291 -74.320315016449968 0 -74.320315016449968 -17.920813792131639 0 0 0 0 -4.3265772208196722 -20.162302696536813 0 -20.162302696536813 97.481653370588674 0 0 0 0 -26.918226314532149 -67.02107163706512 0 -67.02107163706512 59.519186102778576 0 0 0 0 553.76055375934811 -587.0697927121596 0 -587.0697927121596 340.67264864498924 0 0 0 0 475.08578232989066 -31.429186772308753 0 -31.429186772308753 135.12339514416453 0 0 0 0 20.651746871812065 -159.42190385181675 0 -159.42190385181675 215.14968659607166 0 0 0 0 41.929174619588593 -7.8112949553865292 0 -7.8112949553865292 153.48109796992344 0 0 0 0 -49.868862390942013 -55.365926100979777 0 -55.365926100979777 175.74497283517849 0 0 0 0 2.7331378331995779 -2.4242050653086658 0 -2.4242050653086658 -4.0568645505512961 0 0 0 0 55.971485692090937 -54.055712191550356 0 -54.055712191550356 -48.56110640656334 0 0 0 0 6.9958313613533392 -31.511609554463121 0 -31.511609554463121 36.224311136230881 0 0 0 0 -4.1603588517128429 -5.9841159523209875 0 -5.9841159523209875 -6.1054821940350186 0 0 0 0 52.006478355689978 -60.834771232060575 0 -60.834771232060575 -8.3550132472910263 0 0 0 0 266.9183065861871 -8.9456875528467208 0 -8.9456875528467208 -5.4496020995397885 0 0 0 0 12.228350127465092 -50.131269841008361 0 -50.131269841008361 -26.854541972928928 0 0 0 0 98.946491439521196 -291.71015972216605 0 -291.71015972216605 338.0741345544975 0 0 0 0 148.66106260263041 -266.51698102780028 0 -266.51698102780028 347.8609884695054 0 0 0 0 166.62755889559048 -320.08379950174458 0 -320.08379950174458 266.29808143512673 0 0 0 0 27.977953094290569 71.909761394550515 0 71.909761394550515 -3.0066104898860431 0 0 0 0 43.882340378280787 121.10593371999857 0 121.10593371999857 -130.13662308308267 0 0 0 0 56.205285381100111 -70.440793052954632 0 -70.440793052954632 -42.259188408089358 0 0 0 0 -0.28234898698792676 -50.801929295350419 0 -50.801929295350419 12.112040710448127 0 0 0 0 45.805160708612675 -18.429384564842621 0 -18.429384564842621 34.699495718146864 0 0 0 0 -9.8489995567817772 -23.922461607272993 0 -23.922461607272993 -0.86417889838205109 0 0 0 0 197.74978051366998 -42.7605249954795 0 -42.7605249954795 -139.13959482738784 0 0 0 0 2.1136235497212539 -4.5956650231361493 0 -4.5956650231361493 3.4981126687161925 0 0 0 0 126.11733304986956 -195.65876076071254 0 -195.65876076071254 137.65320419801083 0 0 0 0 -55.155076497903792 -18.971797985818739 0 -18.971797985818739 27.719771097862576 0 0 0 0 -5.1599616357852938 -15.117898086656169 0 -15.117898086656169 42.987721705905642 0 0 0 0 15.717826598618558 -19.29301946439773 0 -19.29301946439773 26.128369067400854 0 0 0 0 1.7272844458744743 -1.5378535390667238 0 -1.5378535390667238 -2.3331310106953165 0 0 0 0 78.544346542450967 -94.471383304934363 0 -94.471383304934363 -37.347533550411754 0 0 0 0 95.61406779905883 -41.454857867744522 0 -41.454857867744522 -20.983949376164674 0 0 0 0 4.8433374390588142 -91.876759000578204 0 -91.876759000578204 -28.241478569908395 0 0 0 0 17.587830760646284 -20.532244286934201 0 -20.532244286934201 -58.482345587392956 0 0 0 0 -34.021601248630759 -55.838949451535882 0 -55.838949451535882 23.849491158856836 0 0 0 0 -14.943951108070905 -54.340375338540071 0 -54.340375338540071 -35.946831251987987 0 0 0 0 5.5506193660812642 -12.30359711825156 0 -12.30359711825156 -44.115466230068705 0 0 0 0 -33.199547960533891 -29.99813305963562 0 -29.99813305963562 -18.41751911420215 0 0 0 0 11.145517349578313 -37.361523573669615 0 -37.361523573669615 -17.28011767481803 0 0 0 0 -6.9472813598699972 -20.830892948450391 0 -20.830892948450391 3.1436057728505347 0 0 0 0 -49.012107710237615 -21.344187408922153 0 -21.344187408922153 52.23598351035082 0 0 0 0 0.81267484734098616 -10.404454648146839 0 -10.404454648146839 17.732713163903099 0 0 0 0 -13.618546204052109 -37.410856552816313 0 -37.410856552816313 26.864927141898249 0 0 0 0 -23.27808053679837 -43.080498463965455 0 -43.080498463965455 54.678402106762917 0 0 0 0 -32.318945902693905 -5.1084089645358812 0 -5.1084089645358812 0.9390076452777798 0 0 0 0 -6.8042024474518712 -21.164869579313745 0 -21.164869579313745 55.500695829422057 0 0 0 0 -6.9595445897830359 -19.609890238941034 0 -19.609890238941034 46.032231168197313 0 0 0 0 -45.953598248182942 330.14299611004196 0 330.14299611004196 -249.39348655456615 0 0 0 0 -129.3738834989507 -243.24928326549775 0 -243.24928326549775 545.55392719225256 0 0 0 0 -54.299648458005905 -16.111232693631127 0 -16.111232693631127 -1.4500620560526478 0 0 0 0 -69.267014475648466 -29.910456937594745 0 -29.910456937594745 81.542513661070075 0 0 0 0 -4.9210532025063003 -74.537662888203386 0 -74.537662888203386 75.202635811713435 0 0 0 0 -105.68008754720535 162.74821762203746 0 162.74821762203746 -139.0047996089661 0 0 0 0 270.80129733534704 -80.724804918918835 0 -80.724804918918835 -12.443541768778914 0 0 0 0 -17.799383415168265 -2.5080484827632823 0 -2.5080484827632823 1.5703192709026632 0 0 0 0 124.57017963688122 -46.782434795836707 0 -46.782434795836707 -5.4070038018617197 0 0 0 0 141.81623153509281 -127.55639130853467 0 -127.55639130853467 58.531424300740582 0 0 0 0 -11.31792814090295 -91.053817744929233 0 -91.053817744929233 63.962858180460671 0 0 0 0 -19.459549596864235 -34.552905664990021 0 -34.552905664990021 93.758881785967048 0 0 0 0 38.336820459577211 -38.564557094345673 0 -38.564557094345673 2.6085016015786096 0 0 0 0 -19.952433126175492 -45.508934270097654 0 -45.508934270097654 1.7812621470102386 0 0 0 0 -20.635824578365828 -43.290251661242735 0 -43.290251661242735 36.091271469671028 0 0 0 0 16.55735529343292 -37.324772331318172 0 -37.324772331318172 -33.182887694211672 0 0 0 0 -28.470808460228 -36.442860687860161 0 -36.442860687860161 36.915580790135209 0 0 0 0 51.674436030509241 -425.227522234253 0 -425.227522234253 468.02116453967312 0 0 0 0 157.65567699414851 -457.11074528779716 0 -457.11074528779716 320.30853426243732 0 0 0 0 107.41642402771549 -401.24132819857959 0 -401.24132819857959 500.88238373535125 0 0 0 0 140.67049384655911 -466.02395041647821 0 -466.02395041647821 537.7472842848772 0 0 0 0 114.54152006351433 -552.61780990861632 0 -552.61780990861632 655.37284964755918 0 0 0 0 111.19624449210667 -353.01474906841219 0 -353.01474906841219 846.83265308627642 0 0 0 0 130.83607792002579 -451.99083521009464 0 -451.99083521009464 470.5163462854714 0 0 0 0 123.09261608696579 -712.70484954915582 0 -712.70484954915582 1063.5158179161911 0 0 0 0 489.87242452446117 -1105.9109404571864 0 -1105.9109404571864 1464.198567059552 0 0 0 0 260.07472245676854 -368.14413960915425 0 -368.14413960915425 590.00491018363209 0 0 0 0 96.106010417855941 211.2189375922494 0 211.2189375922494 1246.3997437173673 0 0 0 0 1208.7643694689646 -215.92751250312409 0 -215.92751250312409 355.0039220657377 0 0 0 0 136.96338493876283 -153.7879959194745 0 -153.7879959194745 399.68557491327141 0 0 0 0 -14.589053123048835 -0.2193772988537539 0 -0.2193772988537539 5.7979248246658015 0 0 0 0 316.07476639709239 450.04215060141649 0 450.04215060141649 -818.16316406646854 0 0 0 0 527.56288280744411 -119.74356809395533 0 -119.74356809395533 -643.11978510746508 0 0 0 0 468.8141898272188 69.795159022442817 0 69.795159022442817 -195.431901890944 0 0 0 0 -279.95407282932683 1.5101169188133667 0 1.5101169188133667 -163.66458969474093 0 0 0 0 198.39109854609342 -684.55150726902968 0 -684.55150726902968 287.30332748187351 0 0 0 0 -1.3561224347368466 -3.3861168252551903 0 -3.3861168252551903 -3.1986570232567022 0 0 0 0 151.13137209853357 -236.81419994029272 0 -236.81419994029272 -901.8282013903322 0 0 0 0 286.54038785037574 -482.73490590222224 0 -482.73490590222224 50.199358862079407 0 0 0 0 -79.601186879595843 -195.10628795729428 0 -195.10628795729428 33.11189972708371 0 0 0 0 -4.2067129447672791 -17.494111883076719 0 -17.494111883076719 -10.458147217732082 0 0 0 0 -2.141168369749721 -24.713029629849871 0 -24.713029629849871 0.34955184146227225 0 0 0 0 -5.7442541381565206 -40.245397602404182 0 -40.245397602404182 -8.6437000548348806 0 0 0 0 -4.3196540056183608 -22.902333729647214 0 -22.902333729647214 -0.387087441270618 0 0 0 0 2.4387673755272772 -25.179567652064179 0 -25.179567652064179 -26.933688224465186 0 0 0 0 -20.434759044397651 -33.206630726287585 0 -33.206630726287585 25.467501865757072 0 0 0 0 -10.829845708008634 -62.128942438686749 0 -62.128942438686749 -53.646299688139152 0 0 0 0 9.4598851439423015 -5.2873603382465717 0 -5.2873603382465717 -113.39503676956247 0 0 0 0 6.8772880614033056 -16.738877046847279 0 -16.738877046847279 -32.174173033522038 0 0 0 0 10.535136401293471 -14.979112370633459 0 -14.979112370633459 -33.324433646300349 0 0 0 0 11.046458867732326 -17.016059684125594 0 -17.016059684125594 -34.076289022686524 0 0 0 0 15.047188270234983 -14.91811926322589 0 -14.91811926322589 -34.409566197801723 0 0 0 0 94.051314871952854 -69.208390690328997 0 -69.208390690328997 -117.72743561075765 0 0 0 0 66.955484956680266 -288.32165084601002 0 -288.32165084601002 323.59609359772747 0 0 0 0 118.93250465146184 -284.12125664692712 0 -284.12125664692712 252.09653358490186 0 0 0 0 109.72849593774117 -66.330362786698743 0 -66.330362786698743 165.76072796127596 0 0 0 0 73.747230454106102 -341.24461283714027 0 -341.24461283714027 518.96690170291811 0 0 0 0 1.2796438856655126 -15.307220946843579 0 -15.307220946843579 -15.452167746154306 0 0 0 0 10.053618743434527 -15.013182325748403 0 -15.013182325748403 -31.983797500851324 0 0 0 0 2.7795376553485767 -16.169892343611764 0 -16.169892343611764 -31.137261337575524 0 0 0 0 10.396721762946616 1.1563210475181029 0 1.1563210475181029 -18.964433804761207 0 0 0 0 98.251756974842564 109.59659047529061 0 109.59659047529061 -100.54971682308496 0 0 0 0 57.584263549636489 -132.03361037823106 0 -132.03361037823106 -116.40525853921463 0 0 0 0 76.742369322509717 29.317778687687223 0 29.317778687687223 -340.81287520915612 0 0 0 0 -0.35290002459929504 -0.30485571635884057 0 -0.30485571635884057 -0.14101897548024445 0 0 0 0 -42.849161075544544 -8.4404044709713162 0 -8.4404044709713162 -6.4300275923542358 0 0 0 0 19.668312730766047 -3.1458855318763028 0 -3.1458855318763028 -26.188403317528451 0 0 0 0 13.457890497538846 -4.8417625235358139 0 -4.8417625235358139 -17.781099727574425 0 0 0 0 11.599924772391205 -8.2750760407272992 0 -8.2750760407272992 -26.224515590321062 0 0 0 0 2.7948981006895508 -6.9564449873735557 0 -6.9564449873735557 -1.5627414127088499 0 0 0 0 21.18739950854706 -9.2110885035521903 0 -9.2110885035521903 -30.784125042484874 0 0 0 0 15.842065179213932 -16.003095697876631 0 -16.003095697876631 -35.16594912093683 0 0 0 0 15.979483523356976 -40.448164525758784 0 -40.448164525758784 22.587865033369098 0 0 0 0 19.423973697993659 -26.014117038431635 0 -26.014117038431635 22.972022074046837 0 0 0 0 17.212103921525255 -52.250794449867954 0 -52.250794449867954 1.0848410689377488 0 0 0 0 17.190894888937787 -47.90069048111809 0 -47.90069048111809 4.4010310722369468 0 0 0 0 22.685773401157348 -44.619040872554251 0 -44.619040872554251 5.573306625126861 0 0 0 0 26.163879710791662 -46.770841122342972 0 -46.770841122342972 2.9872423344877461 0 0 0 0 9.6119154065109935 -25.588717637232499 0 -25.588717637232499 -14.276356364405768 0 0 0 0 -13.926862685091919 -55.637348340072776 0 -55.637348340072776 251.85512737078125 0 0 0 0 21.731345052819961 -45.540998609141752 0 -45.540998609141752 4.7535238052187196 0 0 0 0 64.973977220298366 -134.51637672970901 0 -134.51637672970901 85.175239410732502 0 0 0 0 23.182979732062449 -44.740655589618655 0 -44.740655589618655 4.1995195115050592 0 0 0 0 -25.489024602354903 -59.491312773394071 0 -59.491312773394071 96.550310133661014 0 0 0 0 17.247691883094376 -26.371574865861973 0 -26.371574865861973 68.154270267020976 0 0 0 0 0.50978347812611702 -1.6532900190827426 0 -1.6532900190827426 -1.6203434322721213 0 0 0 0 20.593517769646496 -52.303722535742565 0 -52.303722535742565 28.096605829459754 0 0 0 0 43.27332266656822 -36.444660366488506 0 -36.444660366488506 12.225958939883867 0 0 0 0 47.680473511576565 -41.091528681781938 0 -41.091528681781938 -40.556749860551918 0 0 0 0 -28.835796251156353 -93.772891600502362 0 -93.772891600502362 22.732816697944827 0 0 0 0 24.837134117686219 3.3359318939064906 0 3.3359318939064906 32.080155660314631 0 0 0 0 45.721411394797542 -11.125331293295403 0 -11.125331293295403 -26.839196673247443 0 0 0 0 14.823735681013204 -15.475803154328332 0 -15.475803154328332 88.323716959928788 0 0 0 0 -11.940985645270757 -61.174625761013885 0 -61.174625761013885 59.740012914325234 0 0 0 0 39.100199562433772 -24.165152046135972 0 -24.165152046135972 46.023015002450848 0 0 0 0 40.395004171410392 -22.44538855282579 0 -22.44538855282579 10.044778128439475 0 0 0 0 22.287636350404906 -27.377789470663743 0 -27.377789470663743 28.870049486790904 0 0 0 0 7.119586168519163 -42.900960896666675 0 -42.900960896666675 -1.1199970797900676 0 0 0 0 8.2744087013081753 -34.841852909896261 0 -34.841852909896261 19.905666484550693 0 0 0 0 -2.2531245891455876 -7.5894605893889082 0 -7.5894605893889082 -3.3020920395994402 0 0 0 0 164.26678175439611 248.25993901841866 0 248.25993901841866 345.42554502315761 0 0 0 0 -0.43279446732136684 -8.001273079879045 0 -8.001273079879045 6.9848114172361662 0 0 0 0 14.018513502301834 -16.956870349309778 0 -16.956870349309778 1.6721290613878299 0 0 0 0 13.013301073808179 -20.878214561608274 0 -20.878214561608274 -2.947033699207168 0 0 0 0 14.46312904043565 -27.923378296993022 0 -27.923378296993022 1.7175941440690379 0 0 0 0 25.608003016440257 -20.556691612105894 0 -20.556691612105894 -4.0093993504945544 0 0 0 0 179.44858606875459 233.74664423399736 0 233.74664423399736 -114.2473092546079 0 0 0 0 606.64882134694199 -210.53675514797214 0 -210.53675514797214 79.106415468738305 0 0 0 0 -361.84795539619017 -703.50147942465492 0 -703.50147942465492 516.38368607167467 0 0 0 0 -0.66179825309976259 -2.7691425167228214 0 -2.7691425167228214 -0.57686350841055756 0 0 0 0 623.32014607119891 -706.24037559938006 0 -706.24037559938006 450.55653319723865 0 0 0 0 -140.01462225441537 -684.88068491728882 0 -684.88068491728882 988.25049583021882 0 0 0 0 201.41035221726816 -321.23847514787667 0 -321.23847514787667 464.91361090406417 0 0 0 0 36.12611814239699 -51.20880714921168 0 -51.20880714921168 13.933022733648613 0 0 0 0 36.7912051090143 -31.454416489956202 0 -31.454416489956202 5.9065346345032594 0 0 0 0 28.685232631047825 -50.621889543437646 0 -50.621889543437646 7.1082953290460864 0 0 0 0 27.324437307945118 -42.695363001461374 0 -42.695363001461374 5.8749715989433753 0 0 0 0 18.816174463002426 -47.005176047217901 0 -47.005176047217901 5.8888059551300103 0 0 0 0 19.471625238332535 -46.492684209787512 0 -46.492684209787512 -1.9517851587806945 0 0 0 0 7.6587322519872032 -38.653776394578927 0 -38.653776394578927 9.5873025675182362 0 0 0 0 11.17302696025672 -45.096348330035653 0 -45.096348330035653 21.000077394150139 0 0 0 0 26.54230313543485 -55.279133009087673 0 -55.279133009087673 26.62060527011181 0 0 0 0 7.6816462337246776 -48.472038528213034 0 -48.472038528213034 44.287882796350004 0 0 0 0 26.581080008590106 -44.354275534024055 0 -44.354275534024055 20.601319007863822 0 0 0 0 45.511365147660854 -60.01807845682788 0 -60.01807845682788 33.406521370103292 0 0 0 0 35.734749535553419 -53.521434305657749 0 -53.521434305657749 34.962765242351452 0 0 0 0 -73.874286352765921 11.210719240173148 0 11.210719240173148 45.662561114578352 0 0 0 0 -45.543560385644582 -155.38394021870317 0 -155.38394021870317 161.27275580408241 0 0 0 0 18.932143147626675 -60.53366708779663 0 -60.53366708779663 57.190838307532431 0 0 0 0 -0.66633982113145684 -0.9015978064880863 0 -0.9015978064880863 -1.4442790278400288 0 0 0 0 73.548912515098948 -382.67892709287173 0 -382.67892709287173 522.83875011278724 0 0 0 0 143.75760049371956 -229.26076258421494 0 -229.26076258421494 287.3878878514397 0 0 0 0 548.48335327123664 -590.00268494527609 0 -590.00268494527609 329.5109837577254 0 0 0 0 165.60634655151489 -366.17489797799226 0 -366.17489797799226 346.48208151956055 0 0 0 0 175.95742989919654 -994.94961205338745 0 -994.94961205338745 734.62794243534654 0 0 0 0 -549.11044110000876 -538.76101113599407 0 -538.76101113599407 937.20740148572781 0 0 0 0 929.35220839169415 -570.53677630684888 0 -570.53677630684888 529.46244311940973 0 0 0 0 618.06099877376846 -83.578414522784442 0 -83.578414522784442 67.958769196332469 0 0 0 0 553.27134270535726 -985.33608391199687 0 -985.33608391199687 1048.0832710069526 0 0 0 0 266.98390429023902 -19.122138946874657 0 -19.122138946874657 1220.0539121589404 0 0 0 0 649.88553976803394 -773.40144735800914 0 -773.40144735800914 383.15383142792712 0 0 0 0 731.34131925546944 -164.24698992027834 0 -164.24698992027834 85.956054265163857 0 0 0 0 1.3882645531342028 -3.685158896957609 0 -3.685158896957609 8.0186272611971461 0 0 0 0 2276.6833525440488 -401.63638924596273 0 -401.63638924596273 58.948218566538344 0 0 0 0 -1648.8894630361028 -661.13992216356905 0 -661.13992216356905 714.50194506362777 0 0 0 0 -588.25118252055836 -458.93052608451853 0 -458.93052608451853 -603.42344526393481 0 0 0 0 5.9974620410065054 -13.36122078656571 0 -13.36122078656571 16.840658316630616 0 0 0 0 -1305.4839558798594 -718.07202764939802 0 -718.07202764939802 155.63508257702188 0 0 0 0 784.60393745757392 -28.826794484102038 0 -28.826794484102038 3.4819888326028376 0 0 0 0 682.01872722741916 -185.31359325238884 0 -185.31359325238884 78.955339531359641 0 0 0 0 830.8704101372374 -286.24936299802118 0 -286.24936299802118 30.876097889113225 0 0 0 0 598.10414193028271 -134.23309684773312 0 -134.23309684773312 50.82189754788169 0 0 0 0 621.31588648926129 -325.24369871744921 0 -325.24369871744921 32.675728845116282 0 0 0 0 426.11640898502492 -265.59804501642861 0 -265.59804501642861 26.291329745991789 0 0 0 0 483.85210654899151 -240.54097739375811 0 -240.54097739375811 -1.1779433573897222 0 0 0 0 183.95443091167743 -57.665975225307477 0 -57.665975225307477 42.449586033023934 0 0 0 0 571.51887555114376 -175.08450935209339 0 -175.08450935209339 1.3085990101139942 0 0 0 0 474.75192423630341 52.859627134682682 0 52.859627134682682 4.5203062037480777 0 0 0 0 391.5373687116404 -108.48343830005479 0 -108.48343830005479 -22.938926767242037 0 0 0 0 391.34764165891056 -103.15360343960901 0 -103.15360343960901 3.4966163819403846 0 0 0 0 227.20246526669055 13.555336967331186 0 13.555336967331186 31.645977581775696 0 0 0 0 22.829699196938691 -156.91476819813124 0 -156.91476819813124 117.42901720994359 0 0 0 0 155.72864338105137 -262.53659786568187 0 -262.53659786568187 153.91817133174652 0 0 0 0 330.75757890516206 -308.7053069179226 0 -308.7053069179226 104.04682292405914 0 0 0 0 353.18459940190132 -380.22465778410901 0 -380.22465778410901 106.12318116178514 0 0 0 0 465.12954174145193 -329.8294862881819 0 -329.8294862881819 15.266195522131966 0 0 0 0 345.87213771959159 -311.93637206010897 0 -311.93637206010897 13.109412469747781 0 0 0 0 333.39512962730805 -350.62756079620033 0 -350.62756079620033 29.749472307811288 0 0 0 0 298.87843018210401 -291.25532463546631 0 -291.25532463546631 9.7904367566911787 0 0 0 0 419.88912977798327 -326.99125316330594 0 -326.99125316330594 21.122130158301161 0 0 0 0 198.37970564696661 -238.29272584765999 0 -238.29272584765999 1.4221165814587948 0 0 0 0 384.72638599610082 -244.36395979299141 0 -244.36395979299141 145.25138982660397 0 0 0 0 332.33572488698132 -371.13547187989116 0 -371.13547187989116 151.789193740614 0 0 0 0 313.94773642486007 -312.35672674669649 0 -312.35672674669649 43.401916181151137 0 0 0 0 354.54189130637269 -327.92883172519635 0 -327.92883172519635 42.609507335843773 0 0 0 0 373.2251041969098 -287.8764917831316 0 -287.8764917831316 27.894598415801056 0 0 0 0 309.78844718495594 -184.45451032756887 0 -184.45451032756887 -19.072371243532416 0 0 0 0 322.46153596811212 -277.19831732997881 0 -277.19831732997881 26.706604693907138 0 0 0 0 234.26284396308839 -39.425030076152069 0 -39.425030076152069 -21.802680576104649 0 0 0 0 232.44735098520812 -95.821974792348897 0 -95.821974792348897 23.028744404912686 0 0 0 0 182.8540664496561 -65.301748987176438 0 -65.301748987176438 4.6813974164620049 0 0 0 0 281.1087511357124 -182.60843748093799 0 -182.60843748093799 36.495873228329174 0 0 0 0 204.13550187430607 -24.143670875329519 0 -24.143670875329519 -23.0867357675329 0 0 0 0 81.636581822037215 -116.71100839511303 0 -116.71100839511303 80.870738174643023 0 0 0 0 110.18278392527479 -53.875339476083226 0 -53.875339476083226 3.6542821185774983 0 0 0 0 232.10906661720924 -250.64953995429357 0 -250.64953995429357 118.06689772797461 0 0 0 0 102.71570786148504 -166.11590175011642 0 -166.11590175011642 96.361677018986953 0 0 0 0 160.98219865636815 -117.96988621396281 0 -117.96988621396281 11.883064039616897 0 0 0 0 147.10621224870056 -145.49881172296207 0 -145.49881172296207 59.90771037043546 0 0 0 0 -22.403501315672884 -54.259698231681909 0 -54.259698231681909 135.33635529166833 0 0 0 0 66.23165398502988 -137.38310282694795 0 -137.38310282694795 53.637524467658977 0 0 0 0 51.847067154243156 -10.278412542571289 0 -10.278412542571289 0.84990169113734737 0 0 0 0 2.7945050027894025 -6.0655399547984068 0 -6.0655399547984068 -1.917258719146457 0 0 0 0 -28.690784815433346 -20.561952768438857 0 -20.561952768438857 57.856880870587815 0 0 0 0 5.6729451956562116 -23.916127945835498 0 -23.916127945835498 15.486414375977645 0 0 0 0 -6.29486230895691 -8.0762127339947583 0 -8.0762127339947583 13.134828960477691 0 0 0 0 44.286396880027496 -2.7927203377885803 0 -2.7927203377885803 -47.164667030144017 0 0 0 0 -12.169786216419652 -22.247839330518417 0 -22.247839330518417 39.092104066371576 0 0 0 0 52.694539619330499 50.263464201212173 0 50.263464201212173 4.4096379335389315 0 0 0 0 -1.2369648505276452 -7.7205859572148938 0 -7.7205859572148938 -5.5317881136491209 0 0 0 0 -28.586457523401805 17.587766797742233 0 17.587766797742233 176.41428418348414 0 0 0 0 1.6898107755265031 -1.2782696500880446 0 -1.2782696500880446 3.0802597312345315 0 0 0 0 511.90109648244197 -280.68216661086626 0 -280.68216661086626 91.413360390683067 0 0 0 0 629.63444716526783 -92.092785442022176 0 -92.092785442022176 -3.2336388059461569 0 0 0 0 172.26312146942746 -18.219726461924665 0 -18.219726461924665 -35.8446690363794 0 0 0 0 -2.6556202608444437 -56.754014351563967 0 -56.754014351563967 182.08139663806469 0 0 0 0 326.88728961042943 -273.83543651891716 0 -273.83543651891716 558.68572865410306 0 0 0 0 117.01886885694694 -105.81771376041689 0 -105.81771376041689 434.49901412497042 0 0 0 0 149.397031142571 -280.34257123929723 0 -280.34257123929723 388.41516132000589 0 0 0 0 -31.639692385801482 -120.05325078331055 0 -120.05325078331055 342.6058372801707 0 0 0 0 263.18635475226893 -337.09330940025137 0 -337.09330940025137 218.00365053458228 0 0 0 0 -155.66035182366795 -163.44109967651866 0 -163.44109967651866 -61.250762244242196 0 0 0 0 -103.78736996969928 -49.622477867301768 0 -49.622477867301768 8.6606101646793832 0 0 0 0 -35.379298780420868 -12.882172140496095 0 -12.882172140496095 -17.0951318995576 0 0 0 0 -28.440347777384886 -27.210572732880792 0 -27.210572732880792 2.3933110800999202 0 0 0 0 -13.885662450767995 -86.874032551524579 0 -86.874032551524579 -171.42494853841072 0 0 0 0 -22.308942726192981 -66.780710969967004 0 -66.780710969967004 -35.98958853293334 0 0 0 0 4.1922698132148071 -102.56049282437198 0 -102.56049282437198 -25.436938207738649 0 0 0 0 -2.2636032497944285 -6.8286283669735859 0 -6.8286283669735859 -1.311148781054797 0 0 0 0 104.76148065753523 -30.221151404095622 0 -30.221151404095622 21.047069343947442 0 0 0 0 3.4860068355205698 -13.431458705411609 0 -13.431458705411609 -3.4658009982106792 0 0 0 0 10.03545405831062 -5.5060431532636187 0 -5.5060431532636187 36.266293474544 0 0 0 0 -31.054622142522931 -19.250056558650613 0 -19.250056558650613 79.181788005169437 0 0 0 0 -23.936048383056914 -46.310411062639105 0 -46.310411062639105 2.60693452612486 0 0 0 0 -39.938104417962677 -0.27701288202342766 0 -0.27701288202342766 40.722740524648543 0 0 0 0 4.7270143818204815 -17.209787440575383 0 -17.209787440575383 46.920622767263922 0 0 0 0 2.9743987058209314 7.3426808142312439 0 7.3426808142312439 29.152336280230884 0 0 0 0 23.213232858888659 -2.2302771817558096 0 -2.2302771817558096 32.962784288292823 0 0 0 0 33.946893478303537 13.672898890767101 0 13.672898890767101 28.942550554593254 0 0 0 0 1.3823103329104924 -14.061907738844639 0 -14.061907738844639 37.386766077446737 0 0 0 0 -0.91335671559772891 -15.645235725683165 0 -15.645235725683165 14.518197858145868 0 0 0 0 -3.6810508665848829 -11.142788366252944 0 -11.142788366252944 13.12967926986812 0 0 0 0 -1.4119562596871296 -11.348511894290933 0 -11.348511894290933 17.945338595601545 0 0 0 0 32.135647774888639 -41.138570099104072 0 -41.138570099104072 34.103779608831246 0 0 0 0 1.5631214019954545 -6.5449013217154137 0 -6.5449013217154137 6.5789555151800014 0 0 0 0 7.0978228630956437 -6.3501067536844857 0 -6.3501067536844857 7.5228259999139482 0 0 0 0 8.1993134535543106 -15.503746565581977 0 -15.503746565581977 12.924117168461542 0 0 0 0 -14.421086352391285 -1.0862666943003205 0 -1.0862666943003205 0.17826630463878246 0 0 0 0 -3.222023199728028 1.7413517265547149 0 1.7413517265547149 1.6731692651194479 0 0 0 0 -3.6499300338946341 -7.4125869347922162 0 -7.4125869347922162 7.8209306019443829 0 0 0 0 -2.6175577343177636 -10.597731279030892 0 -10.597731279030892 10.062696160532376 0 0 0 0 -5.0228485895919368 -3.2924783772180781 0 -3.2924783772180781 7.7718694684810163 0 0 0 0 -66.999693071720685 -45.137168028079486 0 -45.137168028079486 32.548453431264534 0 0 0 0 104.23464604916444 -14.069587505888194 0 -14.069587505888194 -3.8014941667670428 0 0 0 0 -20.395912743173085 9.2542602857184875 0 9.2542602857184875 46.790375472977757 0 0 0 0 -37.131812173149228 -96.144419377767463 0 -96.144419377767463 -328.50777269425816 0 0 0 0 0.58373900536627588 -2.9696816810585487 0 -2.9696816810585487 -0.87753729017377324 0 0 0 0 -144.42650846388278 -213.9163213087013 0 -213.9163213087013 -70.233799660202749 0 0 0 0 -141.25093402448147 -251.99611749796759 0 -251.99611749796759 -300.45366859431851 0 0 0 0 -6.775946346906494 -6.7887856691140769 0 -6.7887856691140769 10.847039105717158 0 0 0 0 35.580833580522267 13.802951113930703 0 13.802951113930703 -162.38586517209569 0 0 0 0 -2.6074872319678555 -5.4822563066469279 0 -5.4822563066469279 10.094032629633929 0 0 0 0 2.3079468217119938 -4.0278925887952255 0 -4.0278925887952255 7.0812415799136943 0 0 0 0 2.9791391130053562 -1.4645770497356274 0 -1.4645770497356274 0.75023953318251202 0 0 0 0 13.247061458258543 -9.7304235669865378 0 -9.7304235669865378 6.5348843914260506 0 0 0 0 23.887451267606536 -49.576991915751478 0 -49.576991915751478 50.336834719483704 0 0 0 0 4.5417355006156424 -11.167925952431274 0 -11.167925952431274 12.209968294520818 0 0 0 0 -209.97898461881323 -139.2827278602781 0 -139.2827278602781 -54.331037537940574 0 0 0 0 -0.01129498236682025 -6.8477867732759101 0 -6.8477867732759101 9.9452677571682493 0 0 0 0 -120.79664576558389 -199.36178728593586 0 -199.36178728593586 -115.62627006712046 0 0 0 0 -7.3443139604642056 -203.9054458643659 0 -203.9054458643659 -93.738829405248907 0 0 0 0 -201.36630374738706 -288.40269889785804 0 -288.40269889785804 -114.45371526169038 0 0 0 0 -291.41964439691583 -433.33140877318192 0 -433.33140877318192 -222.81912061114599 0 0 0 0 -332.3005373816377 -226.34999089018311 0 -226.34999089018311 -99.134372275368378 0 0 0 0 -18.725645036316564 -384.77086499184225 0 -384.77086499184225 -305.95312736611459 0 0 0 0 -99.152979059812424 -201.80892751277406 0 -201.80892751277406 -241.17408580829397 0 0 0 0 -99.222135317680113 -337.26734289420904 0 -337.26734289420904 -330.71171741065427 0 0 0 0 -98.590668684173579 -322.87313284082211 0 -322.87313284082211 -160.35530293758438 0 0 0 0 -58.493539578386844 -150.02699693035947 0 -150.02699693035947 -327.65892514774328 0 0 0 0 -178.59839095016832 -203.3911812791049 0 -203.3911812791049 -306.24728647519441 0 0 0 0 -64.010011446896897 -253.6884739650709 0 -253.6884739650709 -306.61380334747309 0 0 0 0 -34.324585284710338 -217.67046649177496 0 -217.67046649177496 -351.91559294407398 0 0 0 0 -40.606476072610576 -272.85622995552421 0 -272.85622995552421 -310.85105194827429 0 0 0 0 -77.767751261399098 -159.89755904105056 0 -159.89755904105056 -254.45488177854236 0 0 0 0 0.71470050401897822 -4.0675834749667032 0 -4.0675834749667032 0.50620784944272534 0 0 0 0 0.046145625237841159 -8.0879625681955076 0 -8.0879625681955076 11.083640057397588 0 0 0 0 -48.240341761875243 -280.16726152234253 0 -280.16726152234253 -614.65580765275627 0 0 0 0 0.069564936951643119 -2.9211636726781229 0 -2.9211636726781229 0.20793201431354236 0 0 0 0 221.42200270590547 -191.0742491623804 0 -191.0742491623804 114.83915674828998 0 0 0 0 43.1982178657845 -21.80433165458544 0 -21.80433165458544 -30.658620353567244 0 0 0 0 4.5992733054195654 -4.2366680053000039 0 -4.2366680053000039 3.1901949995185936 0 0 0 0 43.655820388732081 -18.282744369636106 0 -18.282744369636106 -4.4208129714354527 0 0 0 0 100.3766508417757 -194.80583848378751 0 -194.80583848378751 -360.36826813945265 0 0 0 0 -523.96353364394963 -441.70848611514566 0 -441.70848611514566 -234.49664329589723 0 0 0 0 6.2162151629119187 -17.935071451692494 0 -17.935071451692494 20.98547146696626 0 0 0 0 -582.67722699495607 -381.54000423989373 0 -381.54000423989373 -289.28024726684635 0 0 0 0 -603.32623933217474 -399.20767638007692 0 -399.20767638007692 -213.84164197090649 0 0 0 0 -733.25508546544688 -416.33765035548203 0 -416.33765035548203 -115.97561694840533 0 0 0 0 7.7499857125158167 -3.0402948357562529 0 -3.0402948357562529 -0.87926044802257053 0 0 0 0 -323.60127432018635 -425.02918369667987 0 -425.02918369667987 -278.527405810456 0 0 0 0 -262.85508927608953 -491.68031422247998 0 -491.68031422247998 -299.87827348453993 0 0 0 0 -160.18887573333632 -314.68188629977385 0 -314.68188629977385 -235.613605895506 0 0 0 0 -99.922714999987875 -464.83732331734609 0 -464.83732331734609 -257.91449243178067 0 0 0 0 -324.46823808401564 -437.85992203350941 0 -437.85992203350941 -175.41838824748129 0 0 0 0 -107.30088852640438 -189.70619400080454 0 -189.70619400080454 -59.892079326364183 0 0 0 0 74.316442604773329 -460.94306054635462 0 -460.94306054635462 -235.39881721082133 0 0 0 0 -97.305071157330531 -444.66505616322559 0 -444.66505616322559 -350.1974284060546 0 0 0 0 -714.3429317027294 -474.70824268689239 0 -474.70824268689239 -171.83581930642003 0 0 0 0 -900.07813137516769 -208.95294324952874 0 -208.95294324952874 -217.27036381962535 0 0 0 0 -582.22543848385067 -227.00637095033176 0 -227.00637095033176 347.21277058024225 0 0 0 0 -71.884580771582478 -96.504515696039562 0 -96.504515696039562 511.03147390898584 0 0 0 0 558.35878682947441 -538.46037881649647 0 -538.46037881649647 89.858971707638148 0 0 0 0 322.48451005640709 -438.36833584472265 0 -438.36833584472265 752.78443594885539 0 0 0 0 -135.24112396738201 -409.58560043977582 0 -409.58560043977582 297.135262813792 0 0 0 0 -500.00097036333682 -184.4463216412928 0 -184.4463216412928 841.56099363254225 0 0 0 0 -213.5651811668431 -263.07923013138316 0 -263.07923013138316 846.04100967117029 0 0 0 0 238.72694293537461 93.451893139813663 0 93.451893139813663 -162.2826581587492 0 0 0 0 524.41020552421105 108.72935587934251 0 108.72935587934251 3.3362244186757835 0 0 0 0 0.87500006206067127 -2.5038087501888491 0 -2.5038087501888491 3.0032467926151405 0 0 0 0 -39.634012861843075 -478.81337416226336 0 -478.81337416226336 245.10556483380833 0 0 0 0 504.45839149958556 -267.91523110975629 0 -267.91523110975629 324.81998673445787 0 0 0 0 634.73563672364071 -815.16489320283608 0 -815.16489320283608 853.55639459017993 0 0 0 0 32.666458170537226 -163.86764826910263 0 -163.86764826910263 418.29542669644616 0 0 0 0 66.962032871848351 123.65990154916599 0 123.65990154916599 234.78397068457446 0 0 0 0 108.9137743240899 -25.245241500159239 0 -25.245241500159239 -112.69663965842801 0 0 0 0 -16.387444170159142 -89.858556519739636 0 -89.858556519739636 138.17341872543852 0 0 0 0 -22.469997233183676 -149.47140781697848 0 -149.47140781697848 -214.31787433350144 0 0 0 0 85.659556135164166 50.105306692819681 0 50.105306692819681 -106.76114410116577 0 0 0 0 57.040479430670075 -38.135480576230776 0 -38.135480576230776 160.47974052483869 0 0 0 0 -159.97296968922819 -127.5366013992334 0 -127.5366013992334 524.87508585552837 0 0 0 0 -97.132725678178758 -120.3832031134595 0 -120.3832031134595 178.02387118433512 0 0 0 0 54.335856181909548 -78.755576607146224 0 -78.755576607146224 100.5394139813759 0 0 0 0 -11.262552051326566 -101.993368129396 0 -101.993368129396 97.710536614712737 0 0 0 0 -19.429808819708342 2.0579994490025797 0 2.0579994490025797 -196.48506369900227 0 0 0 0 -276.74466832385951 -96.880633870766189 0 -96.880633870766189 188.25881002783333 0 0 0 0 -1.4438806304081453 1.8263937120166744 0 1.8263937120166744 -1.5106232920702864 0 0 0 0 -28.194754635378558 103.39524128252651 0 103.39524128252651 -79.417435037158157 0 0 0 0 -152.80169990419745 -228.45430138903924 0 -228.45430138903924 -224.4256829608081 0 0 0 0 37.595778054892435 -69.138579990425058 0 -69.138579990425058 -129.35064638650425 0 0 0 0 -37.010827826714376 -79.527207536013975 0 -79.527207536013975 -128.04142504415273 0 0 0 0 0.85206076862834834 3.0267664900332889 0 3.0267664900332889 -6.8191197622842692 0 0 0 0 12.362764691711618 -5.5956841081580766 0 -5.5956841081580766 -1.0769252672338236 0 0 0 0 19.247194191724702 -9.0557029896192489 0 -9.0557029896192489 -34.327242946410934 0 0 0 0 32.685196624537639 -1.5605629922097251 0 -1.5605629922097251 -31.119547660436638 0 0 0 0 19.668849894536834 -2.2050934982817125 0 -2.2050934982817125 -24.050696878678082 0 0 0 0 6.2146763015734905 2.4813478612927611 0 2.4813478612927611 -139.1943339243137 0 0 0 0 6.9065192136222322 -7.9183112991784128 0 -7.9183112991784128 -25.914023756278425 0 0 0 0 0.17211429294911795 -8.9093033987446688 0 -8.9093033987446688 -4.3365088372952414 0 0 0 0 -114.36158087023068 -57.150524417769248 0 -57.150524417769248 -31.30357788929723 0 0 0 0 6.3268024975033086 -3.3352847083016464 0 -3.3352847083016464 1.6492817485933866 0 0 0 0 1.4239535937984016 -5.2180252761763644 0 -5.2180252761763644 1.2785088357042445 0 0 0 0 -12.435040660251616 -13.225742903898166 0 -13.225742903898166 -106.68966516470141 0 0 0 0 38.07451648665301 36.769281806656124 0 36.769281806656124 -121.23097042700397 0 0 0 0 51.377425708913506 29.362402076198578 0 29.362402076198578 -117.9880147707313 0 0 0 0 51.632400158014207 58.811481775884999 0 58.811481775884999 -235.43431485084858 0 0 0 0 -173.11675360615118 -273.18152436670766 0 -273.18152436670766 -84.431555140889714 0 0 0 0 -6.4326246075597737 -176.36448672787219 0 -176.36448672787219 -184.72498435579132 0 0 0 0 -37.861374294658162 -235.70350614444664 0 -235.70350614444664 -74.118309960005718 0 0 0 0 -52.687099776983814 -200.16278580607764 0 -200.16278580607764 109.91564962430101 0 0 0 0 15.93915463153462 -223.46583456919217 0 -223.46583456919217 -170.15809861410986 0 0 0 0 43.114102735165943 -112.94284458825757 0 -112.94284458825757 -28.841529762508571 0 0 0 0 15.788662595596179 -248.66617313539632 0 -248.66617313539632 29.049367801275139 0 0 0 0 88.219127318803658 -137.59962511764297 0 -137.59962511764297 -160.15341404033867 0 0 0 0 81.710806840987061 -122.70899878534777 0 -122.70899878534777 -163.02431709737434 0 0 0 0 79.632589484106575 1.7944495167414516 0 1.7944495167414516 -87.928701068183727 0 0 0 0 139.51841330427851 -57.889779730115293 0 -57.889779730115293 0.068932845232438922 0 0 0 0 207.6363574750103 -68.861380905430678 0 -68.861380905430678 -217.84278460683061 0 0 0 0 100.60177484244559 -139.99834774041179 0 -139.99834774041179 -229.12757355765035 0 0 0 0 71.556080842123265 -116.87033215893001 0 -116.87033215893001 -219.77153732802748 0 0 0 0 43.377820443540259 -173.95238145059577 0 -173.95238145059577 -280.15367659089611 0 0 0 0 -0.73475513295693418 0.66759607269101906 0 0.66759607269101906 -0.29318540154411044 0 0 0 0 10.496169538248068 -152.92136279539579 0 -152.92136279539579 -291.25267238367536 0 0 0 0 -114.16357768619491 -250.60310055454318 0 -250.60310055454318 -229.03353093494422 0 0 0 0 28.979480937348853 -153.84110823258692 0 -153.84110823258692 -302.63666965676509 0 0 0 0 -1.1485832859494209 1.4361947142236957 0 1.4361947142236957 -1.0787091121082728 0 0 0 0 110.39572225539814 50.533276636792976 0 50.533276636792976 -92.756681917164087 0 0 0 0 -54.663841993704409 -57.378912178694861 0 -57.378912178694861 -43.841063879471449 0 0 0 0 -5.5762912583304569 -36.828789104674684 0 -36.828789104674684 49.137474894912884 0 0 0 0 78.686556575839859 9.0326277238442572 0 9.0326277238442572 -10.022966854666493 0 0 0 0 1.2796695678114389 -2.08019801881278 0 -2.08019801881278 -1.397088295567154 0 0 0 0 89.022483691023808 -79.944446143133064 0 -79.944446143133064 58.697635448235218 0 0 0 0 169.63789341057054 -83.797188521742612 0 -83.797188521742612 -51.862671301402088 0 0 0 0 1.6966495662508336 -1.6908266364579987 0 -1.6908266364579987 -4.0869533301068302 0 0 0 0 359.8608541938429 -42.424387529665637 0 -42.424387529665637 -69.901833413256099 0 0 0 0 -524.80857148141877 -510.24104945260137 0 -510.24104945260137 -303.70161295773505 0 0 0 0 0.084576288685695999 0.11928919503768753 0 0.11928919503768753 -1.2306206850866275 0 0 0 0 755.39945777225512 296.64491433572448 0 296.64491433572448 -337.52443745954406 0 0 0 0 146.76986139933524 -123.77123573563024 0 -123.77123573563024 -142.71486537568944 0 0 0 0 149.06111475015859 -76.963918758740419 0 -76.963918758740419 42.702807182463403 0 0 0 0 -254.57326607746654 -25.646442088919684 0 -25.646442088919684 48.729818407179891 0 0 0 0 -165.32089362912666 -338.82409676712314 0 -338.82409676712314 -272.76039189780568 0 0 0 0 346.3764603860327 15.033156038663037 0 15.033156038663037 -485.558120563074 0 0 0 0 -410.92019175790119 245.06021914972092 0 245.06021914972092 -284.66707683580489 0 0 0 0 72.184268025641359 -6.3965402584631192 0 -6.3965402584631192 -158.75446578947572 0 0 0 0 -1.0474821243377619 1.1526042706698547 0 1.1526042706698547 -0.18640500280327821 0 0 0 0 -158.25000042979264 -122.81960521003771 0 -122.81960521003771 -155.18642463585638 0 0 0 0 -4.6268070937167067 -12.532647538033871 0 -12.532647538033871 -281.27527955941423 0 0 0 0 -203.89209399873653 -212.83351860347898 0 -212.83351860347898 -201.77548192053564 0 0 0 0 -127.02542305582392 -122.07570557978488 0 -122.07570557978488 -222.81982929459497 0 0 0 0 -88.84396114097035 -172.31963812703043 0 -172.31963812703043 -231.92298421664373 0 0 0 0 9.3428617229183146 -52.276226432187059 0 -52.276226432187059 -153.39557514377157 0 0 0 0 3.606834511661873 -77.683205806151591 0 -77.683205806151591 -98.854286725668317 0 0 0 0 -21.598573453917197 24.86088208226181 0 24.86088208226181 -18.772170600489517 0 0 0 0 -64.636649451119865 -29.111550800395293 0 -29.111550800395293 -133.37270501288458 0 0 0 0 0.77089727511827277 -0.10916150003713554 0 -0.10916150003713554 -0.52407223389598823 0 0 0 0 70.573683144873939 -53.553728060026515 0 -53.553728060026515 -159.48981142611865 0 0 0 0 27.350366924405535 -5.314505651737818 0 -5.314505651737818 -13.277009094933419 0 0 0 0 -5.642839041796833 -13.205535211870028 0 -13.205535211870028 -12.859942190682887 0 0 0 0 4.4125604178009787 -2.2159578986909807 0 -2.2159578986909807 -4.9334643013300941 0 0 0 0 -6.8549027019071218 -32.874498199056006 0 -32.874498199056006 -108.99793406158005 0 0 0 0 -16.46894196008725 -83.462586560627187 0 -83.462586560627187 -87.071561179174068 0 0 0 0 18.877300730735442 -122.92206382822724 0 -122.92206382822724 -267.08341187824908 0 0 0 0 10.88889631481652 -58.661310150656391 0 -58.661310150656391 -151.6988379270731 0 0 0 0 106.97260121743329 -3.0068717588477512 0 -3.0068717588477512 -346.94728324688549 0 0 0 0 153.0411236455584 -169.12190945656653 0 -169.12190945656653 -258.95070784577274 0 0 0 0 171.09234751765325 -222.96307283985607 0 -222.96307283985607 -271.7618137513391 0 0 0 0 387.26175364254459 144.76296915203613 0 144.76296915203613 -153.90433223697073 0 0 0 0 440.43809414150019 -287.10077250427003 0 -287.10077250427003 -294.0677589384677 0 0 0 0 -181.22856623968255 -223.03060769220519 0 -223.03060769220519 -141.30252980132082 0 0 0 0 -126.21976766380976 -173.79891793477736 0 -173.79891793477736 -182.26814183580018 0 0 0 0 -96.758493424251355 -276.20592819197145 0 -276.20592819197145 -132.053465601678 0 0 0 0 -361.56966537385961 -198.95745646677597 0 -198.95745646677597 -146.86499143998299 0 0 0 0 800.24891505005507 -75.547090209976659 0 -75.547090209976659 -525.77981990716944 0 0 0 0 -86.336773313723825 -224.31080949857324 0 -224.31080949857324 -206.53284162693262 0 0 0 0 106.94168328577871 -357.21302869989813 0 -357.21302869989813 -167.28786997430871 0 0 0 0 -398.55942666524788 -321.90516270079479 0 -321.90516270079479 -295.34476783549144 0 0 0 0 -446.41892389343866 -421.46682476212322 0 -421.46682476212322 -167.7183647946149 0 0 0 0 -657.95472739300749 -37.711084780283272 0 -37.711084780283272 415.79093001700767 0 0 0 0 -114.53191186631011 -51.088424709264473 0 -51.088424709264473 -220.99278903921368 0 0 0 0 -454.47855095326668 -389.47043546391433 0 -389.47043546391433 -144.00872406750932 0 0 0 0 -137.76192386969069 -167.513041725709 0 -167.513041725709 -477.31105053834199 0 0 0 0 -187.8329822429514 37.206504372063591 0 37.206504372063591 -378.50844432356553 0 0 0 0 -101.82463569725223 -61.389146220026305 0 -61.389146220026305 -267.1187115348514 0 0 0 0 -270.05610515533772 -343.54603914514064 0 -343.54603914514064 -331.53613066291109 0 0 0 0 70.628363971711224 -157.76966502993912 0 -157.76966502993912 -543.90646908776762 0 0 0 0 -475.54260190487548 -147.25219961252242 0 -147.25219961252242 -223.85501678398188 0 0 0 0 -480.38030146061647 -281.50419546864487 0 -281.50419546864487 -3.5653757954514731 0 0 0 0 -0.34829840429539161 -2.108856999447692 0 -2.108856999447692 -3.3688392751080407 0 0 0 0 -8.3405126729929577 -2.2178561647531803 0 -2.2178561647531803 2.1250122821966517 0 0 0 0 -58.841147886756517 -20.479350522696222 0 -20.479350522696222 57.881487962425354 0 0 0 0 -45.914736234546581 20.9904469438261 0 20.9904469438261 26.089607762013657 0 0 0 0 -85.880880778859137 -97.817866009114368 0 -97.817866009114368 -321.16759946745196 0 0 0 0 134.20076691168561 60.975566358050173 0 60.975566358050173 -211.99590377592176 0 0 0 0 41.405167904362315 -7.6139781323363422 0 -7.6139781323363422 10.630670561515672 0 0 0 0 8.1644452348608638 -5.7009685381726598 0 -5.7009685381726598 18.742789632394306 0 0 0 0 -1.869174168646083 -4.5603252218388413 0 -4.5603252218388413 4.8306857001247545 0 0 0 0 7.6358822405838964 5.6129014904485643 0 5.6129014904485643 11.284532652460257 0 0 0 0 -9.1918839553663929 -19.482358600987709 0 -19.482358600987709 34.52085732517844 0 0 0 0 -14.036964778422771 -25.89078728090692 0 -25.89078728090692 42.028116727798079 0 0 0 0 -67.29071804713567 9.3668991904685299 0 9.3668991904685299 81.100540970724978 0 0 0 0 -121.77653985596044 -67.938499360260835 0 -67.938499360260835 59.205424535100519 0 0 0 0 -0.40446783954490684 2.4827262535298953 0 2.4827262535298953 -0.071456616495941372 0 0 0 0 -124.91244826867478 -64.606949270890254 0 -64.606949270890254 30.181535960442488 0 0 0 0 -145.11204945850568 -78.389512192722123 0 -78.389512192722123 23.054992924051476 0 0 0 0 -75.657980579482683 -67.756077940137402 0 -67.756077940137402 -52.904320290187115 0 0 0 0 -144.55877491622709 -75.560600300344305 0 -75.560600300344305 32.834780294219854 0 0 0 0 3.980623693054298 -3.7350095016154441 0 -3.7350095016154441 6.2020372589880388 0 0 0 0 -189.41805185197154 -96.980986285828294 0 -96.980986285828294 -35.352705344175774 0 0 0 0 -85.863388073081069 -222.82595730784698 0 -222.82595730784698 -305.98549475872096 0 0 0 0 28.10197518901623 7.8393355037724177 0 7.8393355037724177 -95.079505054744004 0 0 0 0 5.6697851207995811 -18.27469116484481 0 -18.27469116484481 15.057073081179286 0 0 0 0 70.112061752468435 -43.589473047244041 0 -43.589473047244041 -0.26811805703118807 0 0 0 0 61.090456551328316 -98.046887710761439 0 -98.046887710761439 7.8982989862938666 0 0 0 0 -23.835426758378162 -134.10404844138952 0 -134.10404844138952 31.805285487728622 0 0 0 0 -23.887369120014228 -76.205626573214204 0 -76.205626573214204 14.001262259884243 0 0 0 0 9.9163738633906178 -66.79629023239653 0 -66.79629023239653 16.618226153994925 0 0 0 0 -16.316714399974622 -26.552429281998371 0 -26.552429281998371 -17.924076151414411 0 0 0 0 9.4066987438504839 -44.720845362912733 0 -44.720845362912733 -0.25567124207327652 0 0 0 0 -8.2591212864463159 -108.89992593263469 0 -108.89992593263469 51.921644697689771 0 0 0 0 -150.74215490396455 -68.348362387848283 0 -68.348362387848283 56.032468420131408 0 0 0 0 -22.482995089203897 -23.721986398367541 0 -23.721986398367541 -20.817442629421301 0 0 0 0 -10.69214343337444 -55.635297254870153 0 -55.635297254870153 11.248088945463962 0 0 0 0 80.534276677459275 -38.827826987668232 0 -38.827826987668232 -132.46821641646147 0 0 0 0 -7.6073740845095017 -49.975737638381815 0 -49.975737638381815 13.062059043118836 0 0 0 0 -12.166989588407887 -52.881009982276169 0 -52.881009982276169 31.198037571212808 0 0 0 0 -15.01164295270064 -44.2296059850745 0 -44.2296059850745 13.369930019656636 0 0 0 0 -7.7796618206975836 -33.688038304548002 0 -33.688038304548002 22.058535583669027 0 0 0 0 -25.924934533410124 -26.585496376119181 0 -26.585496376119181 34.097852191125817 0 0 0 0 -12.379479451999941 -31.868962844927864 0 -31.868962844927864 22.644398233080437 0 0 0 0 -23.800578050595504 -69.303465977543965 0 -69.303465977543965 59.204990580183022 0 0 0 0 -39.877189522325352 -48.42513630870917 0 -48.42513630870917 33.012043150388763 0 0 0 0 -71.578407432840322 -85.906208143557706 0 -85.906208143557706 74.598626882660369 0 0 0 0 82.250941939702898 -306.61202031330026 0 -306.61202031330026 -82.091680879875184 0 0 0 0 94.410573629858845 218.3716185036501 0 218.3716185036501 -535.62973393053244 0 0 0 0 175.54417739246855 -317.14372996681959 0 -317.14372996681959 -63.575482161752007 0 0 0 0 -156.24999912211206 277.77264055713067 0 277.77264055713067 -35.259208954111045 0 0 0 0 520.69494056238909 -201.26591536151045 0 -201.26591536151045 -416.669219614334 0 0 0 0 -409.10827796510421 -392.31509156999937 0 -392.31509156999937 650.02191722783846 0 0 0 0 -5.2136633336090199 -4.8485367919025997 0 -4.8485367919025997 -7.6963985139812259 0 0 0 0 -483.44698266372006 -8.2318117017029806 0 -8.2318117017029806 290.04298425464458 0 0 0 0 -510.2498324620683 -514.68727629729847 0 -514.68727629729847 645.06094796383445 0 0 0 0 494.95080865736963 -306.84793726562202 0 -306.84793726562202 30.331330857501598 0 0 0 0 0.063544451737115537 -1.1542431784944114 0 -1.1542431784944114 1.7721799320418326 0 0 0 0 128.23723703365249 -131.14560128556059 0 -131.14560128556059 -560.7817313599769 0 0 0 0 -57.65208859455015 -299.60488286890541 0 -299.60488286890541 -289.84863687548705 0 0 0 0 -70.365760161381672 -36.687674379452019 0 -36.687674379452019 0.62872001957134671 0 0 0 0 -33.910415127415035 -73.65541730494806 0 -73.65541730494806 -25.630516219579931 0 0 0 0 -66.058913658183883 -99.096978402301374 0 -99.096978402301374 -45.761703650854543 0 0 0 0 221.67683109112113 187.99461316562792 0 187.99461316562792 -613.53398036723047 0 0 0 0 164.36295246924965 -101.47084680463695 0 -101.47084680463695 -224.87777624210685 0 0 0 0 -45.128222773815651 -32.741755382242445 0 -32.741755382242445 -62.672018781282532 0 0 0 0 -47.235780087670719 -204.42305454402776 0 -204.42305454402776 -496.85015146337764 0 0 0 0 -11.388883901184457 -21.033393410426193 0 -21.033393410426193 -13.809835664188263 0 0 0 0 -26.374426532285725 -156.41744227817435 0 -156.41744227817435 -77.727281658770153 0 0 0 0 -33.763710335904761 -50.51632268293497 0 -50.51632268293497 19.557145460489892 0 0 0 0 9.2724296330370635 -25.939887428495808 0 -25.939887428495808 12.52172667976447 0 0 0 0 9.9078117785606494 -29.438836849801472 0 -29.438836849801472 21.29149352070624 0 0 0 0 -11.202205999652506 -10.69833319323061 0 -10.69833319323061 -76.495745464682841 0 0 0 0 4.1634063893106941 -45.437585445802597 0 -45.437585445802597 0.76416886295373843 0 0 0 0 12.853015511820558 -41.012146480529282 0 -41.012146480529282 -24.476300722841188 0 0 0 0 55.509503848217719 -102.8479503930119 0 -102.8479503930119 10.19263825144958 0 0 0 0 15.853631187463179 -153.6154666499811 0 -153.6154666499811 107.22011138315496 0 0 0 0 129.59562507793817 -66.905029006506084 0 -66.905029006506084 -79.640554887366307 0 0 0 0 14.910072640727925 -35.474673341936423 0 -35.474673341936423 15.011705941767573 0 0 0 0 -35.264138956059469 -16.264637378826819 0 -16.264637378826819 11.064415221859463 0 0 0 0 -6.0880488169423188 -90.674039802122934 0 -90.674039802122934 65.440465358095025 0 0 0 0 -37.890164457203355 -42.431413928211896 0 -42.431413928211896 40.237704239351615 0 0 0 0 -41.530903182291695 -72.959273565985072 0 -72.959273565985072 -25.211521539432397 0 0 0 0 -8.5080130360729527 -8.738999631916613 0 -8.738999631916613 40.554081765436649 0 0 0 0 -35.459929326716519 -75.052971118504502 0 -75.052971118504502 157.44333829496054 0 0 0 0 -22.970333351171575 -13.814418926019471 0 -13.814418926019471 131.23683316104825 0 0 0 0 207.44001204944652 -60.476290498648723 0 -60.476290498648723 -122.86229317564494 0 0 0 0 78.105823145453542 -65.182602704874625 0 -65.182602704874625 57.518074101419188 0 0 0 0 1.6359851107837926 -34.51557751278964 0 -34.51557751278964 -63.614275642181461 0 0 0 0 112.51509493329468 -2.9517771371201889 0 -2.9517771371201889 -42.346515177010588 0 0 0 0 320.39631432956958 -135.84274428914796 0 -135.84274428914796 -50.848793677512731 0 0 0 0 272.15038913649914 -299.61334129372699 0 -299.61334129372699 13.006378535777912 0 0 0 0 539.05859351755498 59.00789480138701 0 59.00789480138701 28.866070874893921 0 0 0 0 1.6777326984772145 -2.1946790007773558 0 -2.1946790007773558 0.3738337796443858 0 0 0 0 -577.18852510964643 -315.34413710467379 0 -315.34413710467379 25.910741410312767 0 0 0 0 805.37488986895187 161.62146612426659 0 161.62146612426659 34.923061619447253 0 0 0 0 351.74816082845064 -90.218894836976688 0 -90.218894836976688 -40.514956400031224 0 0 0 0 321.20540139844525 -99.154873247221985 0 -99.154873247221985 48.380750811673352 0 0 0 0 506.30792095015931 -60.450383732786577 0 -60.450383732786577 -74.050116473925641 0 0 0 0 -1.8202846261760754 -0.27585639198800038 0 -0.27585639198800038 0.8818109969732717 0 0 0 0 225.88800330912636 -222.5124567237508 0 -222.5124567237508 110.04889609095699 0 0 0 0 -329.75636035097705 -402.39800618436129 0 -402.39800618436129 -49.53458423666234 0 0 0 0 -2.0453606868485537 -35.870041255907402 0 -35.870041255907402 -71.451063440370646 0 0 0 0 901.5938491667257 -46.48016592064414 0 -46.48016592064414 -187.83298347717937 0 0 0 0 715.60477024500142 -331.54717922797136 0 -331.54717922797136 -126.88795459266112 0 0 0 0 -85.465457984319073 -389.18049016480654 0 -389.18049016480654 -80.674704978762747 0 0 0 0 70.973698384812451 -161.38646840041656 0 -161.38646840041656 184.15067293739912 0 0 0 0 -14.358599510336717 35.189267080839727 0 35.189267080839727 14.43310585848667 0 0 0 0 101.37881501091033 -64.081145482232387 0 -64.081145482232387 72.76086351484264 0 0 0 0 143.53873504304647 -42.157472486038387 0 -42.157472486038387 -17.637255580317287 0 0 0 0 297.08464780825125 -157.27381445043648 0 -157.27381445043648 -95.296750027606322 0 0 0 0 339.60459673241712 -21.504442520541488 0 -21.504442520541488 -74.933083547692718 0 0 0 0 202.50192826048624 -186.18961679750282 0 -186.18961679750282 9.8240330061671557 0 0 0 0 319.09044274344342 -320.13197507348377 0 -320.13197507348377 141.65795344727303 0 0 0 0 367.70078944913985 -192.95890921046885 0 -192.95890921046885 -77.929100273053336 0 0 0 0 357.69679449037358 -132.16033151644024 0 -132.16033151644024 -179.10151360143209 0 0 0 0 201.05659263253619 -22.170600570487295 0 -22.170600570487295 -134.36237620170868 0 0 0 0 403.11614448967157 -95.29311785515165 0 -95.29311785515165 -150.52200121743954 0 0 0 0 150.85146706614614 122.9254225239365 0 122.9254225239365 -225.79490962007549 0 0 0 0 627.53200496493264 -5.2866563899028733 0 -5.2866563899028733 -356.67991649671603 0 0 0 0 569.13744421084994 -307.45098291117392 0 -307.45098291117392 -117.9084156265053 0 0 0 0 465.98747045398272 -107.1997791758065 0 -107.1997791758065 -320.14959056516454 0 0 0 0 479.40326506925339 -201.20856390382323 0 -201.20856390382323 -61.149340286334336 0 0 0 0 5.6916963968717482 -2.7017896658146103 0 -2.7017896658146103 0.89114978681313772 0 0 0 0 211.17692457586236 -348.0098087349179 0 -348.0098087349179 282.51615724421572 0 0 0 0 -60.627883111355914 -72.087562600383535 0 -72.087562600383535 55.080639595445973 0 0 0 0 -52.516168650101463 -52.172474719453021 0 -52.172474719453021 56.794103978390922 0 0 0 0 43.430738306371495 -80.749667192518245 0 -80.749667192518245 65.20572024161811 0 0 0 0 -63.202584721915628 0.44301923687453382 0 0.44301923687453382 -41.522702948372171 0 0 0 0 -50.976627248339355 -56.935023964309948 0 -56.935023964309948 195.33095168730506 0 0 0 0 -145.38861446150986 -77.308898490922729 0 -77.308898490922729 385.0906042971128 0 0 0 0 -120.22115938833804 146.56257478765406 0 146.56257478765406 -39.99693456946261 0 0 0 0 -154.87383181698533 -54.215617538458901 0 -54.215617538458901 -68.736353048439923 0 0 0 0 2.5580464314701175 -10.908596531436501 0 -10.908596531436501 -18.926640010605041 0 0 0 0 -14.941520612849672 -31.209092656280518 0 -31.209092656280518 -43.106070991532761 0 0 0 0 -14.319094690807106 -31.174679982377711 0 -31.174679982377711 -203.8574724364953 0 0 0 0 -20.642794762870714 -32.293621946668132 0 -32.293621946668132 -31.138356721975288 0 0 0 0 5.5002092435170198 -69.906194798091747 0 -69.906194798091747 -22.449378404638765 0 0 0 0 5.2761413417515541 -53.229332675249694 0 -53.229332675249694 -7.3516605694348982 0 0 0 0 -29.178092177353392 -78.527742357559873 0 -78.527742357559873 -64.70880258060788 0 0 0 0 15.849667358583247 -9.8289912540750066 0 -9.8289912540750066 -4.3545275562879056 0 0 0 0 -150.77853652508929 76.665891150525567 0 76.665891150525567 -70.520217754949954 0 0 0 0 34.567349787626881 -101.95335503476235 0 -101.95335503476235 -127.50095675868943 0 0 0 0 -114.18043138428038 -0.81804531872694497 0 -0.81804531872694497 92.983554469406954 0 0 0 0 20.128699624707224 -23.992725322332262 0 -23.992725322332262 60.950081670103827 0 0 0 0 180.437454172039 -244.05829576389078 0 -244.05829576389078 180.61458999135539 0 0 0 0 115.78805620274397 11.573602327971457 0 11.573602327971457 25.980652698344784 0 0 0 0 222.17183697013388 -4.4899821937688102 0 -4.4899821937688102 -171.47382721861504 0 0 0 0 445.01092189305746 26.138518487348847 0 26.138518487348847 -279.48666796306134 0 0 0 0 7.6433611600665472 -1.0280996875112294 0 -1.0280996875112294 0.94813944779323833 0 0 0 0 364.75620618448011 81.877445691701723 0 81.877445691701723 -131.86446804488696 0 0 0 0 174.67168396071429 -376.1533519686609 0 -376.1533519686609 17.723403911924834 0 0 0 0 -24.340920105129044 141.67286838930522 0 141.67286838930522 353.38076863831975 0 0 0 0 -105.8850313589428 -333.43583776097876 0 -333.43583776097876 168.09739268961675 0 0 0 0 9.9612505575751129 -35.43139219801742 0 -35.43139219801742 -21.416010530239873 0 0 0 0 -0.5502215354453952 -18.761743146236057 0 -18.761743146236057 -22.93620739059994 0 0 0 0 10.766872322012205 -39.075495508928725 0 -39.075495508928725 -6.9595195473739295 0 0 0 0 11.627893794637203 -38.093211246889041 0 -38.093211246889041 -6.8767375272582285 0 0 0 0 17.848121558163257 -34.837211662145819 0 -34.837211662145819 -4.3238388996096546 0 0 0 0 -6.7023552229584311 -42.538525204878169 0 -42.538525204878169 21.251768134254235 0 0 0 0 6.4063147247943562 -33.618115171090722 0 -33.618115171090722 -3.7470994257064376 0 0 0 0 -1.8065464845232526 -21.206523942516615 0 -21.206523942516615 -8.4044284990206553 0 0 0 0 38.17798297939953 8.8351965094025218 0 8.8351965094025218 19.311670643561229 0 0 0 0 3.7042002741383868 -21.996683694593635 0 -21.996683694593635 2.1546181495320198 0 0 0 0 1.0618654297340981 -33.549191924014721 0 -33.549191924014721 8.7627514908940043 0 0 0 0 -2.480910346535893 -38.366854099804868 0 -38.366854099804868 15.176193837100527 0 0 0 0 0.7465741194664588 -41.235988302375688 0 -41.235988302375688 17.271396240314516 0 0 0 0 0.46930387254906236 -41.378661131722197 0 -41.378661131722197 13.854909048743053 0 0 0 0 -4.8643884228835503 -22.009156349358193 0 -22.009156349358193 -17.887148351918967 0 0 0 0 -3.9942895984295319 -49.897947955519612 0 -49.897947955519612 -2.2619471874011197 0 0 0 0 29.905347349515068 -47.218899070941916 0 -47.218899070941916 21.811927496602038 0 0 0 0 -2.5290245972977345 -3.2955801859234857 0 -3.2955801859234857 -1.4755789044075485 0 0 0 0 -5.1478593723441008 -32.902945846661169 0 -32.902945846661169 49.736688063963811 0 0 0 0 -18.407583186694332 -13.949284121994083 0 -13.949284121994083 15.540547745989031 0 0 0 0 -24.580752300375025 -54.325345458899392 0 -54.325345458899392 50.067787064638651 0 0 0 0 -0.14520804491363037 -1.6121163673732113 0 -1.6121163673732113 -2.7662351631069075 0 0 0 0 -7.5415650693030329 -22.477782435746121 0 -22.477782435746121 27.924315571917759 0 0 0 0 -18.327148974924057 -64.527060092183092 0 -64.527060092183092 3.6433638076414354 0 0 0 0 -17.540163952027797 -89.808750988369866 0 -89.808750988369866 -57.340348519724103 0 0 0 0 -16.281644145034079 -58.532161726858249 0 -58.532161726858249 1.9828003151860685 0 0 0 0 -11.961633068520314 -46.337419695148128 0 -46.337419695148128 16.341557141101475 0 0 0 0 -22.340993138793436 -32.39452221110183 0 -32.39452221110183 -28.620517388674422 0 0 0 0 -5.7076661026731017 -46.757481346548047 0 -46.757481346548047 -21.005218786027399 0 0 0 0 4.3317867377965769 -21.372138438773945 0 -21.372138438773945 0.72270022853167148 0 0 0 0 12.480010964813957 -22.276643065463102 0 -22.276643065463102 8.1485785240868402 0 0 0 0 19.755830700174556 -40.293399770341239 0 -40.293399770341239 0.84136270233648247 0 0 0 0 2.671479187717523 -29.427622380398134 0 -29.427622380398134 -7.2809665019958629 0 0 0 0 -6.0376974586109498 -16.336292451238421 0 -16.336292451238421 -18.382464992760774 0 0 0 0 2.4948240892954345 -30.291281645370873 0 -30.291281645370873 -10.418517862562112 0 0 0 0 63.988652199370335 -97.092971086570287 0 -97.092971086570287 -50.373536020430038 0 0 0 0 104.50705506242957 -33.392874743523862 0 -33.392874743523862 -177.66148906371382 0 0 0 0 -2.8538050086164759 -0.44738454856407373 0 -0.44738454856407373 0.49702699359227154 0 0 0 0 -40.653012607428536 64.068313276744448 0 64.068313276744448 -12.259258608872187 0 0 0 0 52.155182326270733 57.677021335282916 0 57.677021335282916 -166.61146752456398 0 0 0 0 -76.904307693621377 64.068835142326861 0 64.068835142326861 37.16636055244453 0 0 0 0 -24.03256404750573 12.811751748165989 0 12.811751748165989 8.2788248902070336 0 0 0 0 -36.987838106928393 0.905022633713088 0 0.905022633713088 57.011484897313494 0 0 0 0 48.938505134876323 -11.336039690123471 0 -11.336039690123471 -78.552818079439021 0 0 0 0 -128.75156602205971 41.983286113798385 0 41.983286113798385 52.342625800982205 0 0 0 0 -5.3663825591059435 -3.7377603367318812 0 -3.7377603367318812 -5.5024265081979351 0 0 0 0 -9.810446205039085 -14.995558396925922 0 -14.995558396925922 -19.081695860601869 0 0 0 0 -2.9318270160765678 -24.708514379559347 0 -24.708514379559347 -5.3871446192447365 0 0 0 0 3.5330516444300883 -31.331750977888078 0 -31.331750977888078 -3.2873675044138508 0 0 0 0 6.5418686906668881 -36.913203007521588 0 -36.913203007521588 2.9118144987442065 0 0 0 0 4.782895038553761 -31.196214193703781 0 -31.196214193703781 -5.6606467638412141 0 0 0 0 14.80516151330994 -47.443537094512067 0 -47.443537094512067 13.415449046526192 0 0 0 0 10.768254653390613 -34.016682526569639 0 -34.016682526569639 0.37911898295715218 0 0 0 0 33.275040644017281 -48.726558205438778 0 -48.726558205438778 -6.2816899879589982 0 0 0 0 1.2161891866885242 -3.2544142428204097 0 -3.2544142428204097 -3.8599376996409092 0 0 0 0 16.619073641832983 -36.177101957194736 0 -36.177101957194736 -0.59044877137057483 0 0 0 0 10.512171279086033 -38.291984287119703 0 -38.291984287119703 1.3226612803991884 0 0 0 0 17.919468402396205 -50.075165727858689 0 -50.075165727858689 7.0260054509599286 0 0 0 0 -12.676545826920353 -16.726355221433273 0 -16.726355221433273 -15.227377078917115 0 0 0 0 -4.0468809420090111 -34.494215374123087 0 -34.494215374123087 -1.0086131443913473 0 0 0 0 7.473754598535379 -43.594728897618552 0 -43.594728897618552 10.217550751152885 0 0 0 0 8.9902405158645706 -33.377648562160175 0 -33.377648562160175 2.523201938256534 0 0 0 0 5.0048511586282984 -30.824874593472487 0 -30.824874593472487 -0.98623929315817804 0 0 0 0 4.1881100421933297 -38.61828767133693 0 -38.61828767133693 -16.445499937079148 0 0 0 0 3.090948537523218 -41.036272852234106 0 -41.036272852234106 -6.2430182690295624 0 0 0 0 16.031375215803564 -41.105699272269703 0 -41.105699272269703 -5.8631506510473628 0 0 0 0 14.171891632737243 -44.715942734217606 0 -44.715942734217606 -0.67735276180712845 0 0 0 0 -9.3401780596026285 -18.820042619038745 0 -18.820042619038745 -13.411414787268441 0 0 0 0 11.884819378936299 -46.795357373463048 0 -46.795357373463048 23.905153742798575 0 0 0 0 13.547459964484005 -37.207942088105483 0 -37.207942088105483 8.115991167465836 0 0 0 0 4.7071282086250434 -24.872238255051556 0 -24.872238255051556 8.3114349876642066 0 0 0 0 25.616143997669496 -6.9093452450115365 0 -6.9093452450115365 -80.437321708144736 0 0 0 0 14.038092589086773 -22.250935185552862 0 -22.250935185552862 -16.163218373549171 0 0 0 0 13.131827392760897 -47.143928108736873 0 -47.143928108736873 1.7308676667053078 0 0 0 0 11.033933446609808 -11.30047165220185 0 -11.30047165220185 -35.621496729450882 0 0 0 0 29.507542174927949 -50.650574257115295 0 -50.650574257115295 -31.933547570764858 0 0 0 0 -2.6800380425629555 13.361872576686437 0 13.361872576686437 66.199520223286527 0 0 0 0 3.004492964259228 -4.1094148089242495 0 -4.1094148089242495 1.7215381493351316 0 0 0 0 23.975289477479237 -131.63078974380187 0 -131.63078974380187 -108.40932373157921 0 0 0 0 19.082329734359519 -15.189772997817272 0 -15.189772997817272 17.350587693868874 0 0 0 0 -29.44146296211693 -82.064978268444975 0 -82.064978268444975 -58.421481181050694 0 0 0 0 -14.903696342982585 8.0939744822317152 0 8.0939744822317152 22.060831846509245 0 0 0 0 -65.243532785676507 -36.388868468789951 0 -36.388868468789951 33.467278919895762 0 0 0 0 -6.6219966550088429 -34.98207941503415 0 -34.98207941503415 2.2896158537785141 0 0 0 0 20.424126389032608 -32.577332200528872 0 -32.577332200528872 33.234250094799791 0 0 0 0 -27.962065304658609 -52.51612376580124 0 -52.51612376580124 56.256396185290214 0 0 0 0 -2.3469701817877038 -19.191744317262213 0 -19.191744317262213 -5.8476806965645238 0 0 0 0 23.341877819571891 -35.826726958854124 0 -35.826726958854124 10.46028508974814 0 0 0 0 6.7881695213275037 -15.92240576066721 0 -15.92240576066721 -11.741557160411013 0 0 0 0 4.3334595768528743 -18.420318450170726 0 -18.420318450170726 11.082628296099756 0 0 0 0 12.756539948491714 -20.711761855530128 0 -20.711761855530128 10.385935696674878 0 0 0 0 5.4188489716234471 -36.929908615638894 0 -36.929908615638894 10.957475217310673 0 0 0 0 -16.936203718740217 -28.625606975149367 0 -28.625606975149367 -0.099923976259560732 0 0 0 0 8.3676337664281952 -14.23296325923689 0 -14.23296325923689 10.336375616477124 0 0 0 0 8.7529619799436009 -23.66121491218032 0 -23.66121491218032 1.3986568416307357 0 0 0 0 4.5834428961788944 -45.255191510655095 0 -45.255191510655095 16.808473975936522 0 0 0 0 36.240548447116453 -43.107418779512045 0 -43.107418779512045 -1.1835843819926595 0 0 0 0 -5.8531999398848313 -14.462820078237066 0 -14.462820078237066 1.9373697361298703 0 0 0 0 2.3681536025978858 -33.241749869273917 0 -33.241749869273917 8.7783421289204853 0 0 0 0 3.0680522028411588 -24.802655602600257 0 -24.802655602600257 5.2558292931270465 0 0 0 0 7.1576203227799855 -22.679969564886751 0 -22.679969564886751 -2.7105164398072645 0 0 0 0 -6.9742471407445699 -42.949672854457276 0 -42.949672854457276 -0.2159236304555634 0 0 0 0 0.74116064305394502 -31.921300631033773 0 -31.921300631033773 4.2585668159117631 0 0 0 0 2.7630938655597799 -35.850486881303368 0 -35.850486881303368 10.514813889478319 0 0 0 0 -2.3649469919906871 -17.783468122287378 0 -17.783468122287378 -5.3716806573364462 0 0 0 0 -7.5170177698023739 -32.545212600607329 0 -32.545212600607329 9.4588321431656368 0 0 0 0 15.046488838518581 -14.457983724634859 0 -14.457983724634859 -4.7527829362543628 0 0 0 0 19.610438613583028 -24.249067094575366 0 -24.249067094575366 -15.894280496257124 0 0 0 0 1.7554960077977739 -15.242847947352857 0 -15.242847947352857 -17.531279387032555 0 0 0 0 11.577264372157515 -16.252609055951325 0 -16.252609055951325 -2.5111421432811767 0 0 0 0 23.592934696569181 -26.584063099238804 0 -26.584063099238804 -8.3291633043969284 0 0 0 0 13.492275419944654 -24.763339455864081 0 -24.763339455864081 2.8060846388855722 0 0 0 0 2.0783172190020807 -23.275878831151701 0 -23.275878831151701 -5.0830343484392984 0 0 0 0 -4.4943059576426094 -28.393085492529735 0 -28.393085492529735 -3.0777925366819545 0 0 0 0 7.1253937310975743 -31.683610861684429 0 -31.683610861684429 17.793485660709848 0 0 0 0 0.45791049220402869 -28.30151540356804 0 -28.30151540356804 4.6496275253297199 0 0 0 0 -0.67923478882839261 -23.893352909703879 0 -23.893352909703879 6.9526462937283497 0 0 0 0 16.149394193778789 -39.578214815943284 0 -39.578214815943284 -40.650950017276045 0 0 0 0 4.4382270336457186 -4.5103258298076305 0 -4.5103258298076305 2.5531004245735716 0 0 0 0 -21.287516847343795 -26.012232941502589 0 -26.012232941502589 20.005133194113114 0 0 0 0 2.3983642706000055 -15.116268928966775 0 -15.116268928966775 -8.7826219737496984 0 0 0 0 18.052954381955715 -25.862565890935002 0 -25.862565890935002 4.935063709930489 0 0 0 0 -2.5842400673427619 -44.591596285405103 0 -44.591596285405103 5.4745490010209323 0 0 0 0 17.409997658289285 -29.190681834247243 0 -29.190681834247243 5.8121161223934905 0 0 0 0 -0.10565883970605827 -22.541611254325929 0 -22.541611254325929 5.3462448787903867 0 0 0 0 11.618113079950234 -24.39766778615865 0 -24.39766778615865 4.0636825427391159 0 0 0 0 -0.05566765967205356 -30.436620363187103 0 -30.436620363187103 3.1941721916773531 0 0 0 0 -0.6144396151703404 -30.621256996895681 0 -30.621256996895681 3.474506012759548 0 0 0 0 -1.8404591277017062 -26.815982222749881 0 -26.815982222749881 2.6115358440401906 0 0 0 0 -4.836631808803304 -27.368425749643393 0 -27.368425749643393 10.940269390212052 0 0 0 0 1.8438916729326662 -18.885961941555902 0 -18.885961941555902 9.2986085682329644 0 0 0 0 -15.866327015325624 -32.401382336045572 0 -32.401382336045572 7.2849459292992833 0 0 0 0 -14.971278333013288 -37.88527668766983 0 -37.88527668766983 9.4367927364928619 0 0 0 0 -8.255749606111749 -74.306378273860901 0 -74.306378273860901 58.741799973560774 0 0 0 0 -21.870110020288379 -18.210581099047349 0 -18.210581099047349 -4.6518285223940694 0 0 0 0 22.407395479716797 -41.436533174409306 0 -41.436533174409306 -19.229523839341709 0 0 0 0 15.660074765083323 -28.580636925999443 0 -28.580636925999443 2.7100230775013188 0 0 0 0 10.352156731744433 -26.615246295660114 0 -26.615246295660114 6.6458698910846934 0 0 0 0 -19.072599204323385 -11.459187742808567 0 -11.459187742808567 -6.5200661725554099 0 0 0 0 -46.03999173909142 -46.936181135821244 0 -46.936181135821244 111.80492797849365 0 0 0 0 -15.097503860739437 -12.819168417978688 0 -12.819168417978688 31.316381861330228 0 0 0 0 -24.223278409072009 -112.90367495188093 0 -112.90367495188093 -17.754911815911328 0 0 0 0 -137.28923276766363 -118.53414044998044 0 -118.53414044998044 -41.176064279661659 0 0 0 0 -103.1516564830664 149.14167730454358 0 149.14167730454358 -85.996282111733308 0 0 0 0 -236.54516606763218 -209.60332150113163 0 -209.60332150113163 259.17866647916162 0 0 0 0 -3.973916276348465 -2.8744079153200648 0 -2.8744079153200648 -0.85181498879300221 0 0 0 0 157.57530302656232 -180.7652140147402 0 -180.7652140147402 -226.07012376461489 0 0 0 0 35.247368459900827 -69.150675315228909 0 -69.150675315228909 -53.714175605337914 0 0 0 0 56.454441402427619 -30.921718168025109 0 -30.921718168025109 -36.716044821844662 0 0 0 0 -60.47002499869086 -43.610623364059393 0 -43.610623364059393 -27.836629312962032 0 0 0 0 -1.482444651568283 -1.5341404957699964 0 -1.5341404957699964 0.5025495229832444 0 0 0 0 -25.543240210841759 -105.44814060784483 0 -105.44814060784483 -74.962442024527263 0 0 0 0 12.35143489996517 -3.9100594808724054 0 -3.9100594808724054 38.296047212189478 0 0 0 0 30.819803479769689 5.443876794791322 0 5.443876794791322 -1.5701569152288357 0 0 0 0 -287.62132200579163 60.917575943057273 0 60.917575943057273 130.69672812236604 0 0 0 0 23.733575303009275 -55.778416243078937 0 -55.778416243078937 -32.497477667810927 0 0 0 0 -2.9200734006840321 -134.75996281835637 0 -134.75996281835637 70.782023649408075 0 0 0 0 203.04480191975017 -177.53532186657685 0 -177.53532186657685 31.771660822907506 0 0 0 0 -8.5028009396057733 -27.690773373560205 0 -27.690773373560205 10.546910903706703 0 0 0 0 38.669795992279433 -15.403526018451885 0 -15.403526018451885 6.3321022282543709 0 0 0 0 6.6943934218651293 -27.039868601721992 0 -27.039868601721992 -10.07349676582362 0 0 0 0 6.9219248472494304 -3.6434522198882391 0 -3.6434522198882391 -0.23188274004878906 0 0 0 0 47.296792655997706 -18.779636158107678 0 -18.779636158107678 7.6111922243298977 0 0 0 0 10.36662688690935 -23.088782571392787 0 -23.088782571392787 4.1099376417709408 0 0 0 0 12.500663510290588 -15.749183863264433 0 -15.749183863264433 10.358493189871659 0 0 0 0 -4.3340555077993486 -28.346797764641451 0 -28.346797764641451 3.4605495690984753 0 0 0 0 -5.8635900332737947 -38.140362605331575 0 -38.140362605331575 -2.617841946862427 0 0 0 0 1.6380601964287642 -19.069975045132729 0 -19.069975045132729 4.5532939087793949 0 0 0 0 19.446507519792704 -21.830851457575591 0 -21.830851457575591 0.65135438799734402 0 0 0 0 10.530637140999326 -19.337224869735984 0 -19.337224869735984 -4.7522210767915176 0 0 0 0 -1.5310224197405473 -13.607827577799235 0 -13.607827577799235 -0.48266425346381681 0 0 0 0 19.031358348906338 -23.294610148576112 0 -23.294610148576112 0.3731070179269409 0 0 0 0 -3.6253409497076063 -17.887324600321449 0 -17.887324600321449 -2.160704363793684 0 0 0 0 -0.30985152741615174 -21.009235248659664 0 -21.009235248659664 -2.0651254647188431 0 0 0 0 12.438032104877493 -18.376910013555062 0 -18.376910013555062 1.3064477573304885 0 0 0 0 16.232165624026827 -18.648130785942236 0 -18.648130785942236 1.3463390112968803 0 0 0 0 3.1467414653224175 -18.209479400993065 0 -18.209479400993065 3.9786442023257407 0 0 0 0 5.1123956446026568 -28.565068054233734 0 -28.565068054233734 3.4575656175801726 0 0 0 0 -1.9956839872726277 -23.960517582751379 0 -23.960517582751379 5.3603659351792885 0 0 0 0 86.822592234632225 -71.615010538206207 0 -71.615010538206207 2.1306933586593004 0 0 0 0 10.014569780374586 -100.48437193967584 0 -100.48437193967584 24.95521835353702 0 0 0 0 74.8617757569682 -107.04246523825623 0 -107.04246523825623 -6.1039025105155815 0 0 0 0 31.209104390181892 -34.295586886526507 0 -34.295586886526507 3.2678405905435284 0 0 0 0 35.629488644099183 -75.901160417289702 0 -75.901160417289702 -20.492877217891873 0 0 0 0 -1.2230628550119178 -9.1041083153126063 0 -9.1041083153126063 -5.6201634348952432 0 0 0 0 -1.4250312207150273 -65.820789876496747 0 -65.820789876496747 7.6190850476632477 0 0 0 0 80.854471907863626 -22.85067330570314 0 -22.85067330570314 -21.764158800658151 0 0 0 0 113.87351491137997 -35.77358265425255 0 -35.77358265425255 -20.258188203319904 0 0 0 0 6.8906893294754319 -14.79488333793179 0 -14.79488333793179 -1.6888838650134321 0 0 0 0 41.893015580772953 -117.91968458305291 0 -117.91968458305291 -24.613036011016447 0 0 0 0 95.83973392204507 -81.547602383704316 0 -81.547602383704316 -136.35525480141405 0 0 0 0 41.923975336780131 165.29290264854933 0 165.29290264854933 -125.47116090445525 0 0 0 0 73.79442040455433 67.07785921888312 0 67.07785921888312 107.13650277870295 0 0 0 0 124.8790272269398 21.954075401759383 0 21.954075401759383 -88.436730726752558 0 0 0 0 132.59728035619719 25.572356191972403 0 25.572356191972403 -108.14251837485517 0 0 0 0 126.59961423385539 0.14626384783014146 0 0.14626384783014146 -49.067353315158016 0 0 0 0 79.378118738673948 53.455075457217966 0 53.455075457217966 -22.827901066395629 0 0 0 0 186.74460020480001 -21.526003558221987 0 -21.526003558221987 18.019564106431744 0 0 0 0 182.32923134043631 68.308392763744564 0 68.308392763744564 -8.5535405429461662 0 0 0 0 -2.3901367768990127 -11.76967494944067 0 -11.76967494944067 -7.5984023739172812 0 0 0 0 -2.6343783436516119 -3.2472127985420407 0 -3.2472127985420407 -0.64474554933295369 0 0 0 0 119.68056810027724 38.140996900521088 0 38.140996900521088 23.413996764387775 0 0 0 0 -53.086921111022093 -37.227364079577001 0 -37.227364079577001 29.154296785197857 0 0 0 0 13.212502031109752 -16.740496368155057 0 -16.740496368155057 -3.407359144836843 0 0 0 0 0.32463203324573442 -69.904899983938819 0 -69.904899983938819 62.530604184615981 0 0 0 0 100.92518768016225 -77.223036574511923 0 -77.223036574511923 -44.359923893969835 0 0 0 0 7.3934478764258529 -93.453013597629479 0 -93.453013597629479 66.012296095912461 0 0 0 0 180.10323602626158 116.53882904217244 0 116.53882904217244 -98.913027949553452 0 0 0 0 403.35035264289399 -259.64681387616145 0 -259.64681387616145 125.50235566544336 0 0 0 0 16.070258478674752 3.051656360170603 0 3.051656360170603 0.82880476762737043 0 0 0 0 409.30222212921353 -303.7949566945199 0 -303.7949566945199 -235.89489292800545 0 0 0 0 -76.488410144640511 35.414255520431652 0 35.414255520431652 102.5972396841525 0 0 0 0 -80.476831606939413 70.207503345099525 0 70.207503345099525 265.4648084007863 0 0 0 0 -10.699768400312125 -12.510366265470553 0 -12.510366265470553 -1.2279007790525593 0 0 0 0 41.519778190743807 -30.580967571313352 0 -30.580967571313352 3.6624863161687244 0 0 0 0 -9.9815118942460686 -21.11568114867805 0 -21.11568114867805 7.2777002630598417 0 0 0 0 -0.01891445853749385 -6.5210595551796553 0 -6.5210595551796553 -4.4599583802178433 0 0 0 0 22.370159237552798 -19.928784285120855 0 -19.928784285120855 3.7626030676574374 0 0 0 0 20.811137912195818 -32.135087233435478 0 -32.135087233435478 -18.417649316719018 0 0 0 0 4.5504013170834696 -6.8302646783620986 0 -6.8302646783620986 -7.3035081567339333 0 0 0 0 0.23085088470233295 -11.321146980258725 0 -11.321146980258725 -7.2009191265914803 0 0 0 0 24.300178159650159 -11.244820867559667 0 -11.244820867559667 -17.239132909743319 0 0 0 0 18.262273374228243 -7.1651821691598911 0 -7.1651821691598911 -11.868782383787902 0 0 0 0 3.8054208786013533 -67.12934303529822 0 -67.12934303529822 73.769600806461312 0 0 0 0 15.523221929859346 -12.674723463155146 0 -12.674723463155146 -16.957250078919685 0 0 0 0 -26.504403653932059 -19.230095707377558 0 -19.230095707377558 85.549897261086272 0 0 0 0 0.56890513071620763 -3.4203632363101959 0 -3.4203632363101959 -0.44356719009593654 0 0 0 0 3.0825627799836184 -12.863514717936113 0 -12.863514717936113 -13.554975948867309 0 0 0 0 -2.6943313979190862 -26.695189225298918 0 -26.695189225298918 6.4131859738436106 0 0 0 0 1.4947228281976095 -16.823024627441612 0 -16.823024627441612 14.271444889090162 0 0 0 0 -14.446778037993681 -17.267623305633606 0 -17.267623305633606 30.225487167031133 0 0 0 0 -0.28869528298965363 -15.135601803598218 0 -15.135601803598218 2.3745457579819758 0 0 0 0 -2.509624490752004 -12.261816137285114 0 -12.261816137285114 10.411152768718591 0 0 0 0 32.491475212989826 6.597840776377268 0 6.597840776377268 39.997814436100079 0 0 0 0 1.2082217363641461 -6.2261611489809745 0 -6.2261611489809745 2.0026894903672483 0 0 0 0 1.9842273039025713 -16.662066458035014 0 -16.662066458035014 13.538198169527732 0 0 0 0 -0.30517137493684388 -13.705549898322122 0 -13.705549898322122 7.3446725768824264 0 0 0 0 1.4823085528696538 -20.574667474289072 0 -20.574667474289072 16.311473386058879 0 0 0 0 2.998380654759166 -15.455247544179391 0 -15.455247544179391 7.3356635058775197 0 0 0 0 -1.1216548349919462 -15.145665343535571 0 -15.145665343535571 8.3083098368790171 0 0 0 0 4.1368478607996622 -23.328933411077969 0 -23.328933411077969 3.6553151754178543 0 0 0 0 -5.3231102745085082 -17.707030179470166 0 -17.707030179470166 13.191764101686772 0 0 0 0 -1.8167662047380873 -26.417070665516803 0 -26.417070665516803 11.36359396104308 0 0 0 0 -63.458590302208904 -30.456160815226895 0 -30.456160815226895 105.2698171723805 0 0 0 0 -61.294870181151055 50.25433651554772 0 50.25433651554772 -3.4676279364457514 0 0 0 0 -7.0353450294677984 -10.671849194248372 0 -10.671849194248372 -0.50124222907961791 0 0 0 0 -8.1362257437896233 -6.3211197143454037 0 -6.3211197143454037 3.8592663003124059 0 0 0 0 7.3756031295815774 -17.327836197630404 0 -17.327836197630404 11.951429702291534 0 0 0 0 6.7162352664806733 -14.001094270014244 0 -14.001094270014244 0.033759134096982057 0 0 0 0 -0.22577558964123057 -12.730870771206458 0 -12.730870771206458 2.4421895914293232 0 0 0 0 1.5216117563195439 -18.005871696354745 0 -18.005871696354745 9.2319217707113808 0 0 0 0 3.6657166956868821 -13.290717938471934 0 -13.290717938471934 -3.5499028613920411 0 0 0 0 57.517960194585612 -45.270652737548744 0 -45.270652737548744 -14.287702682408039 0 0 0 0 0.11706708545170841 -15.486654409186485 0 -15.486654409186485 21.807010204568542 0 0 0 0 2.5105061131325783 -18.420746460128157 0 -18.420746460128157 12.558501393448751 0 0 0 0 10.602768274457134 -14.206344498522803 0 -14.206344498522803 2.3231770241357568 0 0 0 0 -1.4485966837092832 -7.2389181823066204 0 -7.2389181823066204 5.2316075704376317 0 0 0 0 -0.25098216668266105 -15.798877053168326 0 -15.798877053168326 11.771392315426851 0 0 0 0 -5.3636118929130632 -11.347768230599399 0 -11.347768230599399 9.0325328364360686 0 0 0 0 -16.794611825676839 -44.758377982654338 0 -44.758377982654338 14.982391241610003 0 0 0 0 -14.184894179863477 -20.865348088377232 0 -20.865348088377232 26.77230515026713 0 0 0 0 -13.990271106614639 -18.223168707883058 0 -18.223168707883058 19.664932895515086 0 0 0 0 163.85577465801543 -17.365631436856347 0 -17.365631436856347 -36.75800256675376 0 0 0 0 -17.467857736930455 18.097904419242695 0 18.097904419242695 -33.814944635379788 0 0 0 0 8.5897535338935995 -77.162774454151986 0 -77.162774454151986 54.920275250522081 0 0 0 0 -39.102705407132817 7.6031524699760666 0 7.6031524699760666 62.586644410027446 0 0 0 0 -11.799752193547775 -20.150840477512965 0 -20.150840477512965 18.018408004616646 0 0 0 0 90.829498041133775 -10.488472150006601 0 -10.488472150006601 9.9099397661238982 0 0 0 0 -6.6474086329288866 -1.8365317564194896 0 -1.8365317564194896 1.7664902723713869 0 0 0 0 156.67615248735819 -11.471055376325012 0 -11.471055376325012 -3.63755166089868 0 0 0 0 -10.931279174361407 -29.005991700730419 0 -29.005991700730419 26.775002066198645 0 0 0 0 -4.8272077652545704 -31.59487647758408 0 -31.59487647758408 20.819833427580534 0 0 0 0 4.7858844670013987 -16.577870260317344 0 -16.577870260317344 16.712077536446255 0 0 0 0 -10.707179535513205 -30.308960826153339 0 -30.308960826153339 20.794741570620545 0 0 0 0 -8.1241809825442033 -29.471418545003758 0 -29.471418545003758 11.40958674553184 0 0 0 0 -6.3800125380324033 -12.438865789142234 0 -12.438865789142234 1.0531641863065104 0 0 0 0 56.277559808447222 -40.471992671860335 0 -40.471992671860335 -0.71883361628079001 0 0 0 0 0.050993796672628378 -31.546950140314266 0 -31.546950140314266 2.037402611294965 0 0 0 0 -45.306086645228788 -37.233498206245031 0 -37.233498206245031 29.785017461280631 0 0 0 0 44.212480801623315 -21.294211419247631 0 -21.294211419247631 -13.520738922150485 0 0 0 0 2.5424743712995035 -22.079672117742458 0 -22.079672117742458 3.8442544279210065 0 0 0 0 -4.827092890842323 -26.229871789412528 0 -26.229871789412528 4.8809552270581662 0 0 0 0 -4.2383619174936769 -24.736656558500776 0 -24.736656558500776 1.0624117280303835 0 0 0 0 -2.0180803483468708 -24.040073909596373 0 -24.040073909596373 6.5511451511083578 0 0 0 0 -88.954596268888054 -7.2046903697400353 0 -7.2046903697400353 17.057379182535442 0 0 0 0 3.9380689456216547 -23.259397570149208 0 -23.259397570149208 4.7091499128042447 0 0 0 0 7.857808208977076 -62.742243595962691 0 -62.742243595962691 43.156361050126179 0 0 0 0 1.2647761506450479 -42.798148444096796 0 -42.798148444096796 2.4579782641048951 0 0 0 0 117.88670310620546 -98.094467182825554 0 -98.094467182825554 31.779224775928014 0 0 0 0 85.911351522525365 -76.253519057691847 0 -76.253519057691847 120.19484109439281 0 0 0 0 0.064815076373633929 -115.37139007281758 0 -115.37139007281758 151.18100418836002 0 0 0 0 68.36178372491122 -116.87723331319921 0 -116.87723331319921 27.418079495310849 0 0 0 0 176.70633569070924 6.5153677788348432 0 6.5153677788348432 20.742158271112203 0 0 0 0 181.99524752683647 -256.9045845473529 0 -256.9045845473529 129.54234482190259 0 0 0 0 149.99097207514569 -333.26973875204658 0 -333.26973875204658 316.58540108418151 0 0 0 0 120.7562549924769 111.89718463067129 0 111.89718463067129 150.68531728508742 0 0 0 0 506.46301114714151 -312.16345406298706 0 -312.16345406298706 73.334127532481034 0 0 0 0 209.192159458893 -207.66924970116634 0 -207.66924970116634 139.23411630240253 0 0 0 0 -2.1643213689578005 -2.1752360843567686 0 -2.1752360843567686 0.555312720231111 0 0 0 0 42.777358081348211 -129.59731893061507 0 -129.59731893061507 163.88528940223478 0 0 0 0 259.12851286370278 -180.0912524823616 0 -180.0912524823616 12.310782457439018 0 0 0 0 184.72231194404594 -127.81668109469319 0 -127.81668109469319 45.785545635535982 0 0 0 0 239.33928117978212 -86.871433429291983 0 -86.871433429291983 -0.98937280066365929 0 0 0 0 132.32722551166808 -68.417310506943522 0 -68.417310506943522 4.2822028621312711 0 0 0 0 209.54480060957576 -120.34966487292377 0 -120.34966487292377 13.494602917884094 0 0 0 0 142.6241901420799 -123.1930021006242 0 -123.1930021006242 18.326697871023498 0 0 0 0 176.80298606684482 -171.00809818867378 0 -171.00809818867378 116.76218277880344 0 0 0 0 230.96516786730717 -117.13710186130834 0 -117.13710186130834 11.741699244241772 0 0 0 0 -2.4143521470065394 -2.4339125788179956 0 -2.4339125788179956 0.4972816283747683 0 0 0 0 88.60215577242343 -160.81417609645587 0 -160.81417609645587 136.29714575818002 0 0 0 0 238.62815987979775 -214.96196318950047 0 -214.96196318950047 94.620043314317627 0 0 0 0 71.713298084247072 -85.853574714521073 0 -85.853574714521073 99.322275155186617 0 0 0 0 -1.5071726179428566 -1.469053622136542 0 -1.469053622136542 0.7973841177754224 0 0 0 0 260.84347562527182 -268.26949780004497 0 -268.26949780004497 -119.99537585633334 0 0 0 0 0.11387991601441172 -45.105994072417388 0 -45.105994072417388 76.233393926907866 0 0 0 0 166.42027652798424 -196.79890521899142 0 -196.79890521899142 -78.894925765396238 0 0 0 0 72.369355898059439 -207.58865713118507 0 -207.58865713118507 -53.739672265833178 0 0 0 0 77.735019125590043 -206.23330492611217 0 -206.23330492611217 -56.425860308390838 0 0 0 0 82.381572408647116 -237.41487250675402 0 -237.41487250675402 -53.789823623045777 0 0 0 0 0.52503463453467702 -294.85348643623411 0 -294.85348643623411 -44.826919487684336 0 0 0 0 23.516679849810316 -245.7069956389829 0 -245.7069956389829 -54.567155808096061 0 0 0 0 39.646096077492984 -194.97245198022654 0 -194.97245198022654 -55.803164906945426 0 0 0 0 23.279600942165416 -206.5051840604097 0 -206.5051840604097 -63.914943690036125 0 0 0 0 -21.478679152452969 -204.78890171362849 0 -204.78890171362849 -61.046382712228365 0 0 0 0 -12.645555034854624 -205.13310872843425 0 -205.13310872843425 -70.249375796087634 0 0 0 0 -0.10249635649233824 -229.88503069505072 0 -229.88503069505072 -63.104912022198008 0 0 0 0 9.6849248513717612 -235.47349013537072 0 -235.47349013537072 -82.398393104275385 0 0 0 0 1.7097497095019207 -103.22753870796794 0 -103.22753870796794 -24.520144681421016 0 0 0 0 -76.935935578738281 -133.63325830878387 0 -133.63325830878387 -32.203594304589103 0 0 0 0 -37.128307305538328 -168.18598316867491 0 -168.18598316867491 -52.689947772660162 0 0 0 0 4.2842917361995205 -168.04360069518418 0 -168.04360069518418 -56.359833501078811 0 0 0 0 37.16220660329418 -162.13851157815157 0 -162.13851157815157 -49.573113622292567 0 0 0 0 11.79049055437099 -159.06083760541671 0 -159.06083760541671 -45.723658753283871 0 0 0 0 -11.574390919195139 -89.139640857114159 0 -89.139640857114159 -30.417625221167327 0 0 0 0 57.948674495637533 -111.47835303290071 0 -111.47835303290071 -35.555022914076176 0 0 0 0 -21.628925239358068 -131.88764606931312 0 -131.88764606931312 -40.470522584455011 0 0 0 0 58.196974658596446 -74.218822966497328 0 -74.218822966497328 -27.882536137328316 0 0 0 0 101.4160313646571 -87.056963318405678 0 -87.056963318405678 -36.863012406719918 0 0 0 0 37.094980435453181 -95.500007775975632 0 -95.500007775975632 -37.527117873609313 0 0 0 0 104.22946472856074 -82.227366181006801 0 -82.227366181006801 -29.627576013267571 0 0 0 0 64.942423710119328 -65.06054224323816 0 -65.06054224323816 -24.045534776405589 0 0 0 0 113.55686026212061 -147.42023765962722 0 -147.42023765962722 -57.559586014827801 0 0 0 0 76.24061842157414 -145.48222850712244 0 -145.48222850712244 -44.965718553145052 0 0 0 0 170.05931995115429 -105.76510403663893 0 -105.76510403663893 -27.008521490065505 0 0 0 0 169.12936305752737 -85.30689148309898 0 -85.30689148309898 -18.289411499367816 0 0 0 0 121.35007898513322 -61.047731941304846 0 -61.047731941304846 -25.133586918925175 0 0 0 0 107.28982612161781 -92.49251843312868 0 -92.49251843312868 -17.516349143868865 0 0 0 0 97.002204682867159 -59.523310264856718 0 -59.523310264856718 -7.7839909231577167 0 0 0 0 105.29129575631305 -28.947412353689288 0 -28.947412353689288 -20.526024462814348 0 0 0 0 59.67112227177131 -41.658528897163933 0 -41.658528897163933 -18.91061746058449 0 0 0 0 15.991987210916704 -17.23323067740057 0 -17.23323067740057 -11.27350665968379 0 0 0 0 79.360240976689965 -24.681263529311764 0 -24.681263529311764 -20.268422591220769 0 0 0 0 59.669845670643554 -16.089886774808065 0 -16.089886774808065 -22.064875779690965 0 0 0 0 19.864075605481048 -28.881213632413164 0 -28.881213632413164 -20.462954009628902 0 0 0 0 54.681223005070933 -34.551757274635065 0 -34.551757274635065 -30.395005473848869 0 0 0 0 35.254845230454521 -21.298407308955802 0 -21.298407308955802 -22.796875513482519 0 0 0 0 45.777033682712499 -43.238219714553452 0 -43.238219714553452 -29.407226323188752 0 0 0 0 85.137452787705115 -38.882494229783333 0 -38.882494229783333 -30.841096585616469 0 0 0 0 8.0325502636915189 -44.846206799807817 0 -44.846206799807817 -14.362728825384238 0 0 0 0 44.181061838840833 -43.397583496316656 0 -43.397583496316656 -28.942204696978706 0 0 0 0 17.907250115735224 -46.744193755928336 0 -46.744193755928336 -27.375209179156769 0 0 0 0 34.142130325110429 -34.658607678811173 0 -34.658607678811173 -19.635401920954791 0 0 0 0 44.002812452148646 -43.00867977058806 0 -43.00867977058806 -28.138046573681095 0 0 0 0 35.150514273429508 -31.464496909753151 0 -31.464496909753151 -26.925028082107929 0 0 0 0 35.609003179313731 -33.260603685037495 0 -33.260603685037495 -30.480995422079758 0 0 0 0 35.143731892269898 -31.495765862694128 0 -31.495765862694128 -25.093519429493426 0 0 0 0 11.475717284556595 -31.07161097897756 0 -31.07161097897756 -14.325506379577519 0 0 0 0 34.144116526163998 -34.683928478296934 0 -34.683928478296934 -23.081750411192616 0 0 0 0 49.110460948315449 -34.331186366975544 0 -34.331186366975544 -26.427924779819193 0 0 0 0 269.15283185508451 -7.9038980779096164 0 -7.9038980779096164 358.01782642463513 0 0 0 0 95.624376940950242 -69.323034241136497 0 -69.323034241136497 -13.491043739865859 0 0 0 0 31.727538484803517 -19.639092696791721 0 -19.639092696791721 -15.557807299078263 0 0 0 0 -13.149591155045584 -14.960839517227633 0 -14.960839517227633 -16.915810264454802 0 0 0 0 33.283379559594323 -50.006384428023779 0 -50.006384428023779 2.1015597517834976 0 0 0 0 1.5352815893857041 0.35908707818981611 0 0.35908707818981611 9.1275984239397872 0 0 0 0 32.167779297102243 -33.339970089893598 0 -33.339970089893598 -12.770677909467963 0 0 0 0 -72.921960125881014 -61.914733055071906 0 -61.914733055071906 20.689583381904697 0 0 0 0 -48.114406551365391 -61.671861904755616 0 -61.671861904755616 -8.7116415786624657 0 0 0 0 8.7166652387968497 -43.078143583453311 0 -43.078143583453311 -12.027314279394886 0 0 0 0 6.2721858802105999 -37.92266463028534 0 -37.92266463028534 -16.684947751076379 0 0 0 0 -389.00635130592855 -96.653164995732368 0 -96.653164995732368 -17.716206251854601 0 0 0 0 -0.51990010502466077 -0.79363962811017075 0 -0.79363962811017075 0.56732961982167751 0 0 0 0 -259.28524001309415 -138.75606835054532 0 -138.75606835054532 366.06630272800703 0 0 0 0 -276.63408349172096 -515.65808319915504 0 -515.65808319915504 423.3314651064793 0 0 0 0 432.73344414247549 -561.37622784908285 0 -561.37622784908285 249.69074733256275 0 0 0 0 591.65038813518913 -217.53855320416369 0 -217.53855320416369 10.196151686341182 0 0 0 0 653.02606986342289 -649.98063221183747 0 -649.98063221183747 462.23726052051825 0 0 0 0 483.06447760176525 -458.76715113290174 0 -458.76715113290174 299.39272993924715 0 0 0 0 -0.79605088092035814 -0.81258938282675786 0 -0.81258938282675786 2.6375551529254153 0 0 0 0 -388.8885511382905 -144.26643163890731 0 -144.26643163890731 360.88949831975333 0 0 0 0 1147.3890645239007 -456.00231426400751 0 -456.00231426400751 91.144586397335843 0 0 0 0 -38.110546911615529 -445.03402925462706 0 -445.03402925462706 579.96953841336472 0 0 0 0 -0.028268998002047852 -1.8709139324776842 0 -1.8709139324776842 -3.6303507986045034 0 0 0 0 -108.96394806819444 -10.257874126784372 0 -10.257874126784372 151.4973839966442 0 0 0 0 154.45598716617678 -206.55764354574876 0 -206.55764354574876 27.024606201473944 0 0 0 0 -262.59930771682411 -26.457789300828154 0 -26.457789300828154 207.06168815950878 0 0 0 0 -128.84941802415415 -114.64061436079828 0 -114.64061436079828 259.83290581949404 0 0 0 0 81.353071824996732 -100.65559556217704 0 -100.65559556217704 101.94581894020575 0 0 0 0 -165.74547627753054 -210.17205130949333 0 -210.17205130949333 75.068649392742373 0 0 0 0 -5.0231618282268755 -365.17581037485797 0 -365.17581037485797 -127.67387391347438 0 0 0 0 -19.735079004160696 -27.295739493962074 0 -27.295739493962074 -26.552806767088288 0 0 0 0 11.650015139211064 -28.667528445466886 0 -28.667528445466886 -21.737635358712396 0 0 0 0 15.215664151393867 -25.660181398490295 0 -25.660181398490295 -24.144752568666263 0 0 0 0 1.8044407703710021 -39.251502525290107 0 -39.251502525290107 -26.375583036964372 0 0 0 0 5.3633198019779229 -24.596771849939557 0 -24.596771849939557 -1.8436098270667571 0 0 0 0 378.4743973906443 -86.074853863909993 0 -86.074853863909993 -625.10751449126474 0 0 0 0 -9.3676668204824303 -7.2203350591395079 0 -7.2203350591395079 13.622071538430113 0 0 0 0 -2.4101310806658134 -6.4084810053687207 0 -6.4084810053687207 -4.5841866573053274 0 0 0 0 177.22313874397514 -488.69217541067042 0 -488.69217541067042 217.4174701193333 0 0 0 0 76.112735765666002 -208.59279808389056 0 -208.59279808389056 179.55703803708639 0 0 0 0 -2.6160880214547433 -23.488959124024987 0 -23.488959124024987 -6.5489137231295445 0 0 0 0 -1.3185727094918462 -13.19971638836688 0 -13.19971638836688 -11.101230335369017 0 0 0 0 14.618350969874882 -23.783008471947142 0 -23.783008471947142 3.0856303948767163 0 0 0 0 -3.8101675528328656 -12.580272466126814 0 -12.580272466126814 -5.5027505741603813 0 0 0 0 18.425427882189979 -18.180600082859428 0 -18.180600082859428 -2.3643747794605048 0 0 0 0 -4.6162613487455566 -19.81145637843467 0 -19.81145637843467 -9.5854910334026506 0 0 0 0 18.127594795092591 -22.569353248642528 0 -22.569353248642528 -18.498432623724511 0 0 0 0 24.84847911343968 -30.394850368297739 0 -30.394850368297739 -27.604896026831057 0 0 0 0 -33.844855615863707 -36.582946955938439 0 -36.582946955938439 -13.350830286540258 0 0 0 0 -7.6267628700952628 -24.032077993681014 0 -24.032077993681014 -18.153085266293601 0 0 0 0 17.076483252409162 -20.176690178176614 0 -20.176690178176614 -12.223842478510051 0 0 0 0 -13.152570055288379 -24.356282225066934 0 -24.356282225066934 -9.3898024038971926 0 0 0 0 5.2909698706910078 -15.435616166723918 0 -15.435616166723918 -8.9497722094826173 0 0 0 0 0.5908087421750281 -12.487490624007066 0 -12.487490624007066 1.9094369672824847 0 0 0 0 -14.918893729476622 -19.601407306651126 0 -19.601407306651126 -6.0012036620473737 0 0 0 0 -12.837622482795268 -25.368179241909274 0 -25.368179241909274 -13.252101189881159 0 0 0 0 -19.935695926949847 -26.988371400214419 0 -26.988371400214419 -11.212095067835435 0 0 0 0 -14.676594154960185 -35.916369303330953 0 -35.916369303330953 -18.284256901627487 0 0 0 0 -31.054379214555411 -18.48169107579281 0 -18.48169107579281 29.794456248520873 0 0 0 0 -45.359046642892281 83.356187290718651 0 83.356187290718651 145.54214987505475 0 0 0 0 -0.95934326200097075 -11.090746254638624 0 -11.090746254638624 9.0782439541976885 0 0 0 0 -9.3576575274782954 -40.134125829417826 0 -40.134125829417826 -20.28675229802252 0 0 0 0 -59.311049472016748 47.371851037036322 0 47.371851037036322 -66.355724897485743 0 0 0 0 -118.37381853105035 -53.297205675689838 0 -53.297205675689838 -85.731908715772079 0 0 0 0 -21.614188632403966 -52.256848907426274 0 -52.256848907426274 -280.6742984600296 0 0 0 0 -40.786833276506513 -74.877414006168237 0 -74.877414006168237 9.4810900232059794 0 0 0 0 90.440139382488269 -55.444789077206224 0 -55.444789077206224 -42.80381921784101 0 0 0 0 -81.245773411021219 -154.72354179337071 0 -154.72354179337071 27.226976662810557 0 0 0 0 70.903192859746923 -32.129866452994975 0 -32.129866452994975 -248.18725793019257 0 0 0 0 15.588664227928803 -19.425654812555234 0 -19.425654812555234 12.778826375618189 0 0 0 0 3.4695096215120103 -2.6234935627200286 0 -2.6234935627200286 -14.677534355089382 0 0 0 0 -26.698290448795888 -29.706074226879537 0 -29.706074226879537 -9.0451836196234581 0 0 0 0 19.973865698106238 -44.42825960166374 0 -44.42825960166374 -49.355905027422523 0 0 0 0 -49.342330901235982 -5.3245441120853911 0 -5.3245441120853911 -3.8527717082452 0 0 0 0 -3.4607106475127978 -6.3431523273178669 0 -6.3431523273178669 -0.54446153228944638 0 0 0 0 10.987108890627177 -20.116518270169479 0 -20.116518270169479 -6.0692546303160864 0 0 0 0 23.662120096101717 7.7094547806955234 0 7.7094547806955234 -20.979697177872367 0 0 0 0 77.940347537049092 -22.1289363170672 0 -22.1289363170672 -7.0354857052443549 0 0 0 0 100.84645600362273 -69.75263725151035 0 -69.75263725151035 17.760015292634307 0 0 0 0 80.939624852027919 -33.819362869014412 0 -33.819362869014412 107.98907538470303 0 0 0 0 -34.35488757415078 47.70363255619236 0 47.70363255619236 157.85020392755723 0 0 0 0 2.2292906839829811 -0.44151014675173883 0 -0.44151014675173883 -1.1821526189862386 0 0 0 0 89.04980863360106 -26.690111532890114 0 -26.690111532890114 -28.164060964800228 0 0 0 0 146.14665312196303 -54.538191786547941 0 -54.538191786547941 -8.9406156778991317 0 0 0 0 111.64929576296709 -28.370043274048385 0 -28.370043274048385 27.792711714680991 0 0 0 0 96.428380319528515 -50.484351410460476 0 -50.484351410460476 -3.3599428628108399 0 0 0 0 81.493202242112602 -32.06302811176738 0 -32.06302811176738 30.575214871114213 0 0 0 0 83.490749132928613 0.85116278291934577 0 0.85116278291934577 30.814415054408528 0 0 0 0 176.12378217053265 5.4192709139613271 0 5.4192709139613271 14.497217211210227 0 0 0 0 86.98707116094738 -92.315067485111285 0 -92.315067485111285 -91.38809262241648 0 0 0 0 174.40157729385828 70.105236260935271 0 70.105236260935271 -25.943505747838572 0 0 0 0 13.123905279997047 -10.749720654957592 0 -10.749720654957592 9.2259388266892728 0 0 0 0 -168.73834616577369 -76.906447106091946 0 -76.906447106091946 203.37908859320532 0 0 0 0 -43.513696531243113 -40.354899039733482 0 -40.354899039733482 50.25227550357522 0 0 0 0 -101.52957117360347 -85.977117306229047 0 -85.977117306229047 34.931552742885287 0 0 0 0 4.7960708993588241 -3.6459692020307699 0 -3.6459692020307699 3.1327059707482263 0 0 0 0 506.13174142728235 78.149383709757785 0 78.149383709757785 -61.799722849362297 0 0 0 0 -6.9859614061642787 74.784906971120108 0 74.784906971120108 237.71614294701158 0 0 0 0 -20.608533382437599 -335.39262226127448 0 -335.39262226127448 226.55754434353619 0 0 0 0 76.495103712622949 -480.08212615370667 0 -480.08212615370667 -904.92394578107087 0 0 0 0 107.22772081773292 -30.265872759664035 0 -30.265872759664035 -386.31105951747668 0 0 0 0 -0.97894557307190055 0.28796033514601049 0 0.28796033514601049 -6.1722369716110279 0 0 0 0 -938.23848579788319 -735.78667888101404 0 -735.78667888101404 -431.03362620577559 0 0 0 0 154.04618459746416 87.749832723560303 0 87.749832723560303 -94.887256790859283 0 0 0 0 -368.92120916942804 -820.81276765676785 0 -820.81276765676785 -1077.2346629457443 0 0 0 0 -203.79031657302585 -10.795963057153358 0 -10.795963057153358 -6.7093589931500901 0 0 0 0 -316.83600153379666 -331.08256044054497 0 -331.08256044054497 -326.29024085694073 0 0 0 0 -36.507527316424785 -92.0092419574367 0 -92.0092419574367 12.943369005992281 0 0 0 0 -936.37760291506856 -912.63612059671004 0 -912.63612059671004 -850.33542013267879 0 0 0 0 -820.68842195038815 -208.31976820560294 0 -208.31976820560294 -956.54131749989028 0 0 0 0 8.4586481243459275 -751.02507437002851 0 -751.02507437002851 -1641.2751721120567 0 0 0 0 -95.783331737875415 -416.42276018977554 0 -416.42276018977554 -761.87003523291969 0 0 0 0 -319.91930677562777 -715.29732144593686 0 -715.29732144593686 -963.4930359140244 0 0 0 0 -379.62900034458653 -759.46609171718933 0 -759.46609171718933 -757.32566533336831 0 0 0 0 -290.74497210416303 -632.53006270104765 0 -632.53006270104765 -728.92750360610603 0 0 0 0 -540.78456215073675 -390.55908974768386 0 -390.55908974768386 -378.21101831315036 0 0 0 0 -322.29657909005618 -609.62396745176648 0 -609.62396745176648 -633.98536166192662 0 0 0 0 -16.221467342868266 -11.25513919531857 0 -11.25513919531857 13.519784389945046 0 0 0 0 -24.43583987808961 -38.463237179757925 0 -38.463237179757925 -31.745982712289333 0 0 0 0 -313.21972064799229 -125.06620934489683 0 -125.06620934489683 -30.017882037750496 0 0 0 0 -26.384022829384776 -28.024477677896357 0 -28.024477677896357 -32.554531716557449 0 0 0 0 -15.564241768261013 -13.665115061712575 0 -13.665115061712575 10.078880113019018 0 0 0 0 -28.711138079639568 -32.587331930758182 0 -32.587331930758182 -20.36101131754549 0 0 0 0 -4.0113755849401684 -0.58326937661060541 0 -0.58326937661060541 4.5886774239625074 0 0 0 0 -26.571919262001757 -7.633531658116226 0 -7.633531658116226 -1097.2152504876483 0 0 0 0 -297.48075704470466 -671.90386604023081 0 -671.90386604023081 -822.8435599700988 0 0 0 0 -56.27169042013702 -415.75406284248902 0 -415.75406284248902 -1123.7732433227056 0 0 0 0 -13.781298479934776 -247.72134817844744 0 -247.72134817844744 -1051.977948979883 0 0 0 0 -261.46572703138372 -481.60973695053463 0 -481.60973695053463 -1002.0163662241341 0 0 0 0 -253.24381259436086 -439.05319770377628 0 -439.05319770377628 -1647.9897470753003 0 0 0 0 -883.93268407488358 -1129.9680210430149 0 -1129.9680210430149 -961.20284790818141 0 0 0 0 -502.7310056824208 -825.45502627192923 0 -825.45502627192923 -402.79995253670722 0 0 0 0 -421.97056634157343 -577.29386359204295 0 -577.29386359204295 -391.21762158991442 0 0 0 0 -388.30439321526865 -512.84940519475163 0 -512.84940519475163 -860.47866372864519 0 0 0 0 -307.5372039042195 -786.46369651621944 0 -786.46369651621944 -820.53021419229594 0 0 0 0 -345.23240070385509 -676.92623634847962 0 -676.92623634847962 -462.17314423176504 0 0 0 0 -309.30594735138948 -717.65422645058561 0 -717.65422645058561 -569.16563645588849 0 0 0 0 -426.37977577273341 -704.12502514731023 0 -704.12502514731023 -68.704155598414218 0 0 0 0 -365.69549123223987 -767.63555806123986 0 -767.63555806123986 -394.7814620361155 0 0 0 0 -366.53314298761688 -602.73023008820473 0 -602.73023008820473 -231.31618613779824 0 0 0 0 -456.57643651651597 -678.18623028020011 0 -678.18623028020011 -270.99172855429151 0 0 0 0 -437.73024794467347 -624.84194165492204 0 -624.84194165492204 -234.91602858429451 0 0 0 0 -285.17143839983328 -637.38937081525182 0 -637.38937081525182 -240.95290801515148 0 0 0 0 -407.42068828268748 -615.8666657771771 0 -615.8666657771771 130.87280480212121 0 0 0 0 -151.85690544156387 -500.19215756745984 0 -500.19215756745984 -176.1617705631952 0 0 0 0 104.9236374537868 -119.78890625807321 0 -119.78890625807321 -155.50351331718048 0 0 0 0 -403.00689347755542 -448.23359809834892 0 -448.23359809834892 66.381069092547477 0 0 0 0 -0.63360952440234541 187.81880582482501 0 187.81880582482501 75.321306787011963 0 0 0 0 -2.766461391762931 -0.20350179179377648 0 -0.20350179179377648 2.9383385153899573 0 0 0 0 -462.45922868502385 -145.29548577409969 0 -145.29548577409969 -124.33837895567103 0 0 0 0 -3.1037202454389217 -4.852359918095047 0 -4.852359918095047 -10.353873562346191 0 0 0 0 111.8394744235593 -81.016623711239674 0 -81.016623711239674 -789.69683577033175 0 0 0 0 -1126.4311391206429 -341.64324856297617 0 -341.64324856297617 -169.84689061028621 0 0 0 0 -162.1160139181502 -406.68588734733464 0 -406.68588734733464 -611.74793731532009 0 0 0 0 83.050345302399364 231.16503762826687 0 231.16503762826687 -257.44019395059877 0 0 0 0 42.972818495527463 234.43773720248259 0 234.43773720248259 -69.086121552860277 0 0 0 0 60.457207405939698 -134.29460102865596 0 -134.29460102865596 -737.5379083039179 0 0 0 0 -170.40288027670613 1.0124570469142782 0 1.0124570469142782 95.017796287789679 0 0 0 0 -6.1710103999591226 -16.560399204385654 0 -16.560399204385654 -23.16179294708985 0 0 0 0 58.464173523141653 -177.90909648089746 0 -177.90909648089746 132.55149697337401 0 0 0 0 79.276572812755148 -78.887778241617781 0 -78.887778241617781 -88.836367427838695 0 0 0 0 -90.328736244293395 -137.02542552230261 0 -137.02542552230261 273.20829932008508 0 0 0 0 -57.103631618563668 121.5725577626672 0 121.5725577626672 248.63903976152505 0 0 0 0 -52.099549423845019 -31.722306826553904 0 -31.722306826553904 -171.60464344373213 0 0 0 0 -85.491039982851362 -28.190585960614953 0 -28.190585960614953 106.14641159271559 0 0 0 0 -34.356387785810512 -30.729782253887606 0 -30.729782253887606 65.364766091342972 0 0 0 0 1.5496289033747956 -16.432047315222817 0 -16.432047315222817 4.7831037396867551 0 0 0 0 46.105927263626654 -62.29041008002514 0 -62.29041008002514 81.841802352331797 0 0 0 0 4.3434298161510299 -1.4865981458713051 0 -1.4865981458713051 -1.642661643420209 0 0 0 0 115.77712771624283 407.48664804099644 0 407.48664804099644 -90.631446557862546 0 0 0 0 -23.440540329960641 70.307524905138052 0 70.307524905138052 -307.56268143548596 0 0 0 0 -1636.2219591384055 280.00776196643801 0 280.00776196643801 -278.91507326905491 0 0 0 0 -452.71207251554006 -161.462229408854 0 -161.462229408854 -255.65086070291818 0 0 0 0 365.90973786491668 314.80688041590133 0 314.80688041590133 -155.81981129686574 0 0 0 0 182.63791429152479 -34.093811239286197 0 -34.093811239286197 -155.16472074214704 0 0 0 0 181.21225096445414 -50.260583487373765 0 -50.260583487373765 -9.4501861411931714 0 0 0 0 415.59095716135926 199.21274478720102 0 199.21274478720102 76.512655034706313 0 0 0 0 325.22672516657622 -262.44056222441509 0 -262.44056222441509 144.8964411907686 0 0 0 0 -306.70425945773604 -223.95407086406135 0 -223.95407086406135 25.259357716682189 0 0 0 0 -240.25455314259307 -105.72432467703123 0 -105.72432467703123 -217.03274490997001 0 0 0 0 -210.74346201505978 -196.77752201639893 0 -196.77752201639893 -41.458273306909689 0 0 0 0 -138.8084083875583 138.58414762550751 0 138.58414762550751 -174.12681179346464 0 0 0 0 -1.0322657478600377 -16.285593724535879 0 -16.285593724535879 -2.7341355986557017 0 0 0 0 -3.7118473389418796 -33.457078579926929 0 -33.457078579926929 -19.484669735657235 0 0 0 0 -431.72670192261285 218.00577927524245 0 218.00577927524245 -152.56935042086934 0 0 0 0 -6.6157612777948884 -18.774308810641649 0 -18.774308810641649 2.1311465598256243 0 0 0 0 -2.2802203470611637 -2.2813286141542264 0 -2.2813286141542264 -0.80943846518222262 0 0 0 0 249.19560708326026 -825.40057642114687 0 -825.40057642114687 529.86635651486995 0 0 0 0 206.59080943874142 -481.71950963270001 0 -481.71950963270001 64.297665547893075 0 0 0 0 23.426426033613097 -312.46642658407268 0 -312.46642658407268 131.17902500435775 0 0 0 0 713.62020277050033 -410.98914672340516 0 -410.98914672340516 111.04156230331529 0 0 0 0 -76.424065784238337 77.490411640369416 0 77.490411640369416 103.21994373014149 0 0 0 0 268.83445731880784 -215.76780899195501 0 -215.76780899195501 -110.96599654632155 0 0 0 0 778.63730635328102 92.065615221201597 0 92.065615221201597 8.4082858672261409 0 0 0 0 354.62768308800241 173.09659103017657 0 173.09659103017657 151.29241103234062 0 0 0 0 672.27323191150208 -57.53694027247866 0 -57.53694027247866 123.57305133114154 0 0 0 0 1037.6210719104565 140.65122797939793 0 140.65122797939793 146.32087526297926 0 0 0 0 466.45996825408656 -19.691211158013516 0 -19.691211158013516 561.130528527965 0 0 0 0 1218.7118582270996 -671.99148050396457 0 -671.99148050396457 608.41449507858215 0 0 0 0 447.25299493810599 -126.55669326621819 0 -126.55669326621819 366.11717837300466 0 0 0 0 -386.03204565779743 -486.6164749483271 0 -486.6164749483271 -58.811007434343537 0 0 0 0 4.2853547266067977 -6.6550580841461056 0 -6.6550580841461056 5.4521447804109222 0 0 0 0 589.38728967731367 -728.7757270591535 0 -728.7757270591535 411.6698169510455 0 0 0 0 -532.05242205945979 -887.17468423927312 0 -887.17468423927312 1002.0294493370602 0 0 0 0 705.96826008597418 -583.2167112467572 0 -583.2167112467572 198.06395383356744 0 0 0 0 300.44384003912273 -118.76811820296098 0 -118.76811820296098 -31.756022590238899 0 0 0 0 75.232742955715366 -158.81123763904225 0 -158.81123763904225 914.68853484766078 0 0 0 0 7.8777725640073299 -11.98696293767302 0 -11.98696293767302 2.1355823773222067 0 0 0 0 15.411032555712154 -20.622273292216505 0 -20.622273292216505 7.9614347300812369 0 0 0 0 -6.8319300121254685 -29.277992532548083 0 -29.277992532548083 -17.201003553332207 0 0 0 0 -594.9296845261124 160.91036684801634 0 160.91036684801634 103.1253240664546 0 0 0 0 55.83030059831799 -35.499851947937032 0 -35.499851947937032 -60.058066075277338 0 0 0 0 -244.92818646424348 -76.686722807890277 0 -76.686722807890277 141.66901856339382 0 0 0 0 574.43145442119567 -304.52547288536766 0 -304.52547288536766 -28.005119244585558 0 0 0 0 -106.35796027638935 195.52855479032769 0 195.52855479032769 317.69580417295947 0 0 0 0 288.97361545841704 -550.75702760140302 0 -550.75702760140302 243.92655726202429 0 0 0 0 417.52819525193627 -508.54690045019561 0 -508.54690045019561 136.63821008668583 0 0 0 0 397.8347064856207 -622.63515807174099 0 -622.63515807174099 223.7154761917127 0 0 0 0 297.73594780627172 -558.48335269450581 0 -558.48335269450581 189.35308334920774 0 0 0 0 545.70720426113985 -1040.8335559669792 0 -1040.8335559669792 1096.6408916401606 0 0 0 0 1463.3601459812708 -1543.3213919637774 0 -1543.3213919637774 1146.691069284785 0 0 0 0 1531.388036613514 481.44602148440714 0 481.44602148440714 -1470.3649125178617 0 0 0 0 1621.9283145769441 -1079.1918155723097 0 -1079.1918155723097 -14.025670011820694 0 0 0 0 -514.22798272891669 669.11956677309126 0 669.11956677309126 -272.97110067078938 0 0 0 0 602.09605828302301 -187.03904944036913 0 -187.03904944036913 -569.13482188971238 0 0 0 0 372.15299328853507 -166.20495209001547 0 -166.20495209001547 -112.81269442276698 0 0 0 0 507.26411177993577 -463.69046649003485 0 -463.69046649003485 38.153690263374983 0 0 0 0 655.39622116477312 -585.99369632735829 0 -585.99369632735829 138.66757744415554 0 0 0 0 -502.5520753878809 -330.52071574710158 0 -330.52071574710158 -298.05589375477621 0 0 0 0 -245.32483096666692 -204.29932195584547 0 -204.29932195584547 -461.22974307408845 0 0 0 0 0.047521073215747833 -6.1361627470794389 0 -6.1361627470794389 12.563310484968998 0 0 0 0 3.0558600240309062 -7.7507222363831616 0 -7.7507222363831616 13.240360543447942 0 0 0 0 -957.69216320083069 -187.1310703288209 0 -187.1310703288209 82.388675154402335 0 0 0 0 -226.95165384069105 -17.156286154417472 0 -17.156286154417472 -303.22870831186219 0 0 0 0 -598.9114805151039 -99.147830431139482 0 -99.147830431139482 6.8289068138271887 0 0 0 0 -394.01871081030731 -427.50888225212714 0 -427.50888225212714 -492.49050930259955 0 0 0 0 -303.94905418655981 -127.30345285547617 0 -127.30345285547617 -72.310438141277018 0 0 0 0 -303.96297045180836 -175.17609816979393 0 -175.17609816979393 -47.847865693988979 0 0 0 0 -108.07816306315362 -56.149960761649709 0 -56.149960761649709 23.88650354646893 0 0 0 0 -360.00884876563941 -251.64859642432782 0 -251.64859642432782 101.24290056797668 0 0 0 0 -215.8994374379181 -99.966470057941137 0 -99.966470057941137 247.96695328480337 0 0 0 0 -370.57041519442464 -211.50197383768889 0 -211.50197383768889 -28.422801229572542 0 0 0 0 -525.20504770279149 -692.59197689373445 0 -692.59197689373445 -70.591634853828509 0 0 0 0 -297.77775986064808 -21.404203603217638 0 -21.404203603217638 732.8965543769018 0 0 0 0 17.371592857940414 175.82490518827262 0 175.82490518827262 365.895257299371 0 0 0 0 0.28452771920254349 -2.6717573507861516 0 -2.6717573507861516 4.7249594191213102 0 0 0 0 -342.02838337764842 -528.47961644129759 0 -528.47961644129759 932.72324532765583 0 0 0 0 -340.45996170970648 -284.3483913450039 0 -284.3483913450039 440.51875289599184 0 0 0 0 -166.11171903274953 -679.0074669187029 0 -679.0074669187029 147.1770493303261 0 0 0 0 -262.4289638663904 -520.92289487579956 0 -520.92289487579956 388.36361735664559 0 0 0 0 -376.50276578473859 -404.92155357836828 0 -404.92155357836828 9.4565998398697957 0 0 0 0 -431.27931849174274 -453.28616306355309 0 -453.28616306355309 13.15401063011177 0 0 0 0 -391.43618447358131 -463.0585891869539 0 -463.0585891869539 183.04766277633735 0 0 0 0 -404.62187140024071 -410.3059618685146 0 -410.3059618685146 -334.7561601104544 0 0 0 0 -412.86784640521728 -391.86268670023475 0 -391.86268670023475 -715.89572564795253 0 0 0 0 -438.58999712406512 -372.77833151489335 0 -372.77833151489335 -196.96134388494599 0 0 0 0 -519.00234646210129 -232.16097398799164 0 -232.16097398799164 -140.39287361767106 0 0 0 0 -521.40833689150168 -174.71733973631206 0 -174.71733973631206 -62.467547685298314 0 0 0 0 -441.32106323094195 -217.36172230041836 0 -217.36172230041836 -224.61546608628157 0 0 0 0 -445.34489811952517 -229.62129165636964 0 -229.62129165636964 12.890925978655105 0 0 0 0 -339.95833078538453 -122.38968523983038 0 -122.38968523983038 -47.953267694221722 0 0 0 0 -460.20377134577211 -177.12733722034648 0 -177.12733722034648 -50.23073221760842 0 0 0 0 -460.71505287586479 -173.15486006066499 0 -173.15486006066499 -79.328275304213889 0 0 0 0 -501.56570946691136 -166.3915679261824 0 -166.3915679261824 -41.723140302818592 0 0 0 0 -532.21637709211063 -176.21209413008614 0 -176.21209413008614 -26.17347293564012 0 0 0 0 -491.44399546295608 -193.3985692576108 0 -193.3985692576108 -75.817818463652657 0 0 0 0 -303.67081870038299 -174.6038744431327 0 -174.6038744431327 -108.89222504810368 0 0 0 0 -458.39844172716403 -261.48954115657148 0 -261.48954115657148 -143.34032693793159 0 0 0 0 -366.55649907881525 -223.19051835782727 0 -223.19051835782727 -28.229592562600487 0 0 0 0 -376.2012027584351 -154.98315638219515 0 -154.98315638219515 -46.4575273734132 0 0 0 0 -496.23961976986902 -176.39208621218563 0 -176.39208621218563 -1.5200001320686169 0 0 0 0 -491.89822564579845 -184.96367105174039 0 -184.96367105174039 -40.845101858736825 0 0 0 0 -392.16262710027513 -258.90853907251119 0 -258.90853907251119 -135.50744260256567 0 0 0 0 -493.23623289063835 -161.09585950141229 0 -161.09585950141229 -59.38274498660769 0 0 0 0 -210.2962349432637 -169.16743552127821 0 -169.16743552127821 -92.227948309295357 0 0 0 0 -392.01709232034227 -202.35946475674569 0 -202.35946475674569 -168.60116477012434 0 0 0 0 -203.73317615763881 -366.38917389327639 0 -366.38917389327639 -323.8907866331358 0 0 0 0 -26.416984620047515 -249.26564085354426 0 -249.26564085354426 -366.25125602386242 0 0 0 0 -596.4477575046476 -277.38760014767843 0 -277.38760014767843 -181.44289980254831 0 0 0 0 -514.85312500744476 -128.58877321288745 0 -128.58877321288745 -350.29371525226071 0 0 0 0 127.41868018954483 -59.744180240836613 0 -59.744180240836613 -532.48295854376818 0 0 0 0 -298.01370125815811 -425.36170561531128 0 -425.36170561531128 -480.31743304671897 0 0 0 0 51.139752707862499 -41.657884738900066 0 -41.657884738900066 -57.804151320781784 0 0 0 0 -10.959335910405571 3.3044123174337301 0 3.3044123174337301 33.533602927331003 0 0 0 0 114.46768710319157 10.949957440116748 0 10.949957440116748 -35.503598871241593 0 0 0 0 -0.1703390557968163 2.338050989650867 0 2.338050989650867 -14.884362409216493 0 0 0 0 -964.30207229451844 -748.43841742643929 0 -748.43841742643929 -486.68060492890004 0 0 0 0 75.097327424882678 143.71219127878919 0 143.71219127878919 -115.57088682561835 0 0 0 0 -0.37837333783186011 0.028131396765417094 0 0.028131396765417094 -5.7138972889993829 0 0 0 0 -428.90699788633356 -589.1426500296792 0 -589.1426500296792 -380.59496880678216 0 0 0 0 -421.21050643068884 -404.42697106836465 0 -404.42697106836465 -293.1799618092939 0 0 0 0 -361.90281640286412 -627.04737438911116 0 -627.04737438911116 -365.65868050152477 0 0 0 0 -352.12766395672043 -639.71733972229231 0 -639.71733972229231 -410.32169190771401 0 0 0 0 -294.82320382804755 -642.71922578492217 0 -642.71922578492217 -410.20985425127873 0 0 0 0 -321.11304612719505 -575.39455789027011 0 -575.39455789027011 -420.7149328583132 0 0 0 0 -203.26166562945582 -500.88402986002689 0 -500.88402986002689 -518.90641035227509 0 0 0 0 -159.00458305765642 -456.27587663900749 0 -456.27587663900749 -475.66834408512727 0 0 0 0 -177.28147398836154 -527.91048798035217 0 -527.91048798035217 -662.43982559030474 0 0 0 0 -355.07215362916031 -374.34800978112116 0 -374.34800978112116 -311.97383715019146 0 0 0 0 -288.44079700740622 -293.64519450236889 0 -293.64519450236889 -221.64886162685616 0 0 0 0 -3.6056869803006606 -4.9649358164900192 0 -4.9649358164900192 -27.297398433152015 0 0 0 0 40.75285895487832 -36.550709124937384 0 -36.550709124937384 -59.456315275732777 0 0 0 0 -19.645257645570382 -58.822495192185443 0 -58.822495192185443 -150.93606016447347 0 0 0 0 -70.027688185975421 -41.298302119654636 0 -41.298302119654636 -148.27792134983747 0 0 0 0 -37.857577894537826 -273.8591256775353 0 -273.8591256775353 -540.29856112691868 0 0 0 0 -148.48194187012268 -188.65357174013798 0 -188.65357174013798 -315.71586890240542 0 0 0 0 50.03230855698348 -235.93403961200511 0 -235.93403961200511 -534.88337973277987 0 0 0 0 -21.998596539895516 54.39850862785579 0 54.39850862785579 -85.088037769145103 0 0 0 0 176.51337656136457 -42.208242775094732 0 -42.208242775094732 -637.84653849332426 0 0 0 0 -48.32601595952292 66.278979262954635 0 66.278979262954635 38.021744871555711 0 0 0 0 -1.1875643674551952 -2.2075361191704381 0 -2.2075361191704381 -2.6314640611548503 0 0 0 0 -14.125625002896413 -24.376534758239359 0 -24.376534758239359 -27.663043414915592 0 0 0 0 -7.9027983747655526 -32.179946651367118 0 -32.179946651367118 13.97473027257729 0 0 0 0 -16.231455544902246 -21.852672609712215 0 -21.852672609712215 -15.895712917133384 0 0 0 0 -28.278392457170412 -36.078133334171071 0 -36.078133334171071 -24.238618534298439 0 0 0 0 9.721311880988651 -24.223435349511419 0 -24.223435349511419 -29.924738513391276 0 0 0 0 -10.630306567702064 -23.251168194266484 0 -23.251168194266484 -27.648767725091602 0 0 0 0 -7.0485471358551877 -38.48295805410271 0 -38.48295805410271 -24.217550229699555 0 0 0 0 -29.8123716085247 -37.148323001243625 0 -37.148323001243625 -18.25749428223935 0 0 0 0 -76.475523862762202 -91.839182195992635 0 -91.839182195992635 -31.73377219536917 0 0 0 0 -13.387085505840673 -38.664198969174144 0 -38.664198969174144 -28.847749208738477 0 0 0 0 -68.834565404395107 -64.132878623706347 0 -64.132878623706347 -29.750972471661953 0 0 0 0 96.718826264506788 -47.501958467965778 0 -47.501958467965778 -64.064987316202348 0 0 0 0 95.022526664586621 -51.919297897379238 0 -51.919297897379238 -63.596759048598585 0 0 0 0 94.559484729768883 -51.05785627686555 0 -51.05785627686555 -61.114842707997013 0 0 0 0 119.28066722794028 -32.088858707641066 0 -32.088858707641066 -140.15905610037407 0 0 0 0 98.604245157781406 -44.035002673273084 0 -44.035002673273084 -57.692833283888376 0 0 0 0 96.619959775183816 -27.27410575657359 0 -27.27410575657359 59.319332792372734 0 0 0 0 121.5848107011625 -198.31209801257182 0 -198.31209801257182 24.339289146517331 0 0 0 0 184.67772152097314 -104.60175341166769 0 -104.60175341166769 -226.81073205923531 0 0 0 0 130.82859345724864 -102.62434962213229 0 -102.62434962213229 -16.711430177057991 0 0 0 0 72.802043154822968 86.379599680976412 0 86.379599680976412 1.775165245849621 0 0 0 0 93.281993639920984 57.704683309887741 0 57.704683309887741 -176.91539616007742 0 0 0 0 79.176845628768206 -2.1496996178429981 0 -2.1496996178429981 -33.516819142948009 0 0 0 0 103.07635131174993 7.4035436861354356 0 7.4035436861354356 -82.642800781854021 0 0 0 0 -9.8741713374402025 -112.98733197492584 0 -112.98733197492584 79.08791465946706 0 0 0 0 -21.809350941737648 -95.881075544604755 0 -95.881075544604755 66.459101173735689 0 0 0 0 -4.2868755151284859 -83.160571869615524 0 -83.160571869615524 45.040997703799803 0 0 0 0 -15.438854086045467 -67.852998823258531 0 -67.852998823258531 33.00977219142078 0 0 0 0 -15.999575699381239 -45.274573314560257 0 -45.274573314560257 11.084960492604296 0 0 0 0 -7.2514598490233766 -59.600945856764156 0 -59.600945856764156 31.009989438272896 0 0 0 0 -33.057844183029374 -36.915180130396038 0 -36.915180130396038 20.655495882981995 0 0 0 0 -31.462366115272744 -33.194278426279197 0 -33.194278426279197 13.548549909206486 0 0 0 0 -22.702683918236289 -35.74748963364982 0 -35.74748963364982 12.639779820608965 0 0 0 0 -71.9505185293674 -48.048047775908344 0 -48.048047775908344 31.969215467509002 0 0 0 0 -27.583136832639866 -63.319128490602452 0 -63.319128490602452 33.664281383069465 0 0 0 0 -37.251204381042044 -60.467150980901351 0 -60.467150980901351 44.229802820177611 0 0 0 0 -87.632791533178533 -61.88640693753041 0 -61.88640693753041 59.782161968488253 0 0 0 0 -25.337594857934164 -102.31704683972202 0 -102.31704683972202 68.521013691313783 0 0 0 0 74.098649995328742 -69.79740896113799 0 -69.79740896113799 55.853486980493471 0 0 0 0 -27.358875105164771 -82.992782661734964 0 -82.992782661734964 135.86959607901372 0 0 0 0 -23.265405457874294 -135.93702910023785 0 -135.93702910023785 131.95950370224091 0 0 0 0 -52.229539412954182 -78.205432809498234 0 -78.205432809498234 76.77861282966478 0 0 0 0 -8.6930886506015668 -116.25775311389589 0 -116.25775311389589 71.645385898766108 0 0 0 0 14.333446181721229 -157.64286937082943 0 -157.64286937082943 96.614965527085587 0 0 0 0 76.221264736326702 -321.61087607613445 0 -321.61087607613445 268.62648895613893 0 0 0 0 5.6709012222250408 -0.97753554005761778 0 -0.97753554005761778 -19.989441369816888 0 0 0 0 -2.4933065294610657 -39.661973492509823 0 -39.661973492509823 -68.468076943104364 0 0 0 0 117.63524066520949 -71.283602663021725 0 -71.283602663021725 -245.46998433000795 0 0 0 0 331.55123194126281 -410.17365983270133 0 -410.17365983270133 -85.325051941574202 0 0 0 0 45.099333731515799 -114.25425207435183 0 -114.25425207435183 48.23970358070801 0 0 0 0 13.113388745128759 -79.904819142444467 0 -79.904819142444467 24.02424307182082 0 0 0 0 48.945294920122251 -125.37868402694039 0 -125.37868402694039 49.00382024407736 0 0 0 0 15.727175122002095 -31.231757980718932 0 -31.231757980718932 13.819739063608573 0 0 0 0 43.144521320791682 -140.45734314090078 0 -140.45734314090078 57.906487662708969 0 0 0 0 14.926988497696584 -114.94624735240359 0 -114.94624735240359 58.453831600429112 0 0 0 0 15.699140083492239 -94.925297670612736 0 -94.925297670612736 42.601085179077927 0 0 0 0 17.597321277695301 -114.6129314666432 0 -114.6129314666432 53.636098028684501 0 0 0 0 1.0878870627348078 -130.98192515796836 0 -130.98192515796836 87.055987202540564 0 0 0 0 2.2277910758784856 -67.556828307544492 0 -67.556828307544492 27.261902158679732 0 0 0 0 1.0285475438213325 -71.096485060043051 0 -71.096485060043051 20.164705893184873 0 0 0 0 15.288212417945033 -93.916765176400077 0 -93.916765176400077 43.696820577257313 0 0 0 0 14.644947007007431 -94.149377438981901 0 -94.149377438981901 44.910058587971434 0 0 0 0 15.880720021639718 -94.093088732515753 0 -94.093088732515753 39.689752790116472 0 0 0 0 33.971426439238712 -101.5155885330314 0 -101.5155885330314 44.336435840406921 0 0 0 0 -81.933246913335097 -92.317020675653112 0 -92.317020675653112 -33.690163390176167 0 0 0 0 43.784789373581589 -37.999651714780157 0 -37.999651714780157 -42.100634715316119 0 0 0 0 -3.5140730769926449 -7.1465030339040823 0 -7.1465030339040823 -4.0948433573213237 0 0 0 0 -48.451910399715416 -57.461278407103237 0 -57.461278407103237 -37.65079943724777 0 0 0 0 12.07589971528796 -121.78834968185402 0 -121.78834968185402 -69.167695277290477 0 0 0 0 -23.841255414285115 -46.815749559566029 0 -46.815749559566029 -16.720128690078354 0 0 0 0 -11.664418937958544 -48.317913199731265 0 -48.317913199731265 -16.613162529069086 0 0 0 0 12.008773091998592 -71.609144541767819 0 -71.609144541767819 -30.084459637433611 0 0 0 0 -60.461521349629038 -60.134249190818082 0 -60.134249190818082 -7.3940403262313339 0 0 0 0 -95.632800923107425 -80.844288130730092 0 -80.844288130730092 -16.481221698652917 0 0 0 0 -25.733276311235386 -74.211170676797337 0 -74.211170676797337 -22.800067754651536 0 0 0 0 20.106887036887258 -24.307501914311494 0 -24.307501914311494 30.736343903333914 0 0 0 0 -72.357783530125744 -89.225229323818894 0 -89.225229323818894 -37.628278382874669 0 0 0 0 -11.335156929480377 -28.093567400498443 0 -28.093567400498443 5.6465658227025415 0 0 0 0 -11.205075640820723 -30.385158020824747 0 -30.385158020824747 5.5136985555291176 0 0 0 0 -8.9356944837709307 -49.753970604589995 0 -49.753970604589995 -1.0280368966414244 0 0 0 0 -15.314552192641713 -34.819111932196392 0 -34.819111932196392 0.73070234027545666 0 0 0 0 -12.766119933192385 -41.145939645597537 0 -41.145939645597537 16.159869551516749 0 0 0 0 -26.90645642580057 -20.315499541371537 0 -20.315499541371537 3.080021359715829 0 0 0 0 -17.134781845714315 -26.778795108799386 0 -26.778795108799386 5.1642182312498335 0 0 0 0 -26.780564018015866 -31.625449883926194 0 -31.625449883926194 14.295503019200623 0 0 0 0 -24.65244106377213 -20.699398380748789 0 -20.699398380748789 -8.7765235025362927 0 0 0 0 -11.824462945121923 -26.255078917401988 0 -26.255078917401988 -6.377736132897553 0 0 0 0 -5.1929562339209951 -36.493474762997721 0 -36.493474762997721 -10.524398623754678 0 0 0 0 -17.556073406223732 -23.798852854830329 0 -23.798852854830329 -32.471862017569947 0 0 0 0 -6.5773288332275115 -38.640539197040198 0 -38.640539197040198 -13.841440742377017 0 0 0 0 -33.94546712677402 -28.134150413919997 0 -28.134150413919997 -27.069135130652285 0 0 0 0 13.045988905265403 -53.222941639036435 0 -53.222941639036435 4.3393582624166811 0 0 0 0 13.507220464907732 -47.026356994696471 0 -47.026356994696471 16.574620005034376 0 0 0 0 -9.2721550972937621 -34.065639086587908 0 -34.065639086587908 9.6397914287845197 0 0 0 0 -1.7216030203126138 -73.32419426810884 0 -73.32419426810884 43.462772626047808 0 0 0 0 8.1572621858140337 -80.507093239487403 0 -80.507093239487403 33.996538875275292 0 0 0 0 10.464790026846458 -122.95022097896072 0 -122.95022097896072 51.02259261902509 0 0 0 0 -10.51744739174319 -100.71727571501469 0 -100.71727571501469 27.558746265523951 0 0 0 0 -19.035400486856815 -75.378076132801652 0 -75.378076132801652 44.866411571412755 0 0 0 0 -8.9001531043904833 -92.748438944852751 0 -92.748438944852751 66.184797442969284 0 0 0 0 -1.6215236323769204 -42.148931283807542 0 -42.148931283807542 -33.040879603089707 0 0 0 0 -2.3617043744161492 -46.29377051530173 0 -46.29377051530173 -48.255241546794423 0 0 0 0 16.82299674472597 -67.477288976002455 0 -67.477288976002455 -8.1491351216204748 0 0 0 0 14.28016144882713 -71.263162829449357 0 -71.263162829449357 -12.772907116624992 0 0 0 0 28.490763666784915 -80.250841468287035 0 -80.250841468287035 -13.097962870306219 0 0 0 0 34.084427488545771 -102.76632975850953 0 -102.76632975850953 12.2397909396459 0 0 0 0 23.956352850349504 -110.25799900271522 0 -110.25799900271522 6.9174936648487346 0 0 0 0 48.440143526779138 -136.79236349777057 0 -136.79236349777057 35.646013852383476 0 0 0 0 77.849900636138045 -106.40402072411962 0 -106.40402072411962 -20.282579063084995 0 0 0 0 35.0471836731449 -82.887845816112531 0 -82.887845816112531 -35.941633075662139 0 0 0 0 2.4070387005558587 -41.735802074679668 0 -41.735802074679668 -36.328818092515576 0 0 0 0 36.756391649338184 -80.938347296105349 0 -80.938347296105349 -33.980657396204151 0 0 0 0 -43.434332181088394 -79.270422453722858 0 -79.270422453722858 -57.34598073770394 0 0 0 0 -100.55532879880775 -84.565789299023891 0 -84.565789299023891 -77.19173121926724 0 0 0 0 -57.867868301371345 -26.596100117596507 0 -26.596100117596507 -36.316345271341561 0 0 0 0 -18.435090129911259 -67.181775728426146 0 -67.181775728426146 -59.49578711585491 0 0 0 0 -206.94327112622705 -68.487923589400452 0 -68.487923589400452 -65.270729830644996 0 0 0 0 -125.05163819949667 -58.848990841914201 0 -58.848990841914201 -95.247895885164326 0 0 0 0 -139.4235421301637 -33.59039165919603 0 -33.59039165919603 -48.34727017316618 0 0 0 0 -106.38785716092389 -71.826408322908719 0 -71.826408322908719 -94.351173619972542 0 0 0 0 -35.887680449959589 -25.169954949597013 0 -25.169954949597013 -45.797889056846543 0 0 0 0 -88.709728046771488 -27.893532887348556 0 -27.893532887348556 -56.157575903896941 0 0 0 0 -54.319217975076754 -52.742433354367677 0 -52.742433354367677 -55.937076512331259 0 0 0 0 -75.132821202256309 -24.108745768586232 0 -24.108745768586232 -22.433354793291073 0 0 0 0 -49.348680117007461 -23.214499508823792 0 -23.214499508823792 -14.878343484990182 0 0 0 0 -34.548561305738986 -23.666365095203219 0 -23.666365095203219 -60.10626034328925 0 0 0 0 -67.508430016445345 -47.211038262263173 0 -47.211038262263173 -60.899117149441736 0 0 0 0 -48.86822349546128 -51.426394388465269 0 -51.426394388465269 -10.369439444104501 0 0 0 0 -131.9683374275337 -66.219384953841654 0 -66.219384953841654 -8.4182612530712504 0 0 0 0 -45.394002918183105 -18.012190213632493 0 -18.012190213632493 -17.412408733478514 0 0 0 0 -45.547206166855176 -21.615356422480545 0 -21.615356422480545 4.6361773174212431 0 0 0 0 -20.937203378434788 -26.007615185446411 0 -26.007615185446411 -17.037193575451965 0 0 0 0 -40.240620355791179 -37.409746579694911 0 -37.409746579694911 -20.905723694871995 0 0 0 0 -36.606742945121368 -146.58803431294291 0 -146.58803431294291 5.8532294733668095 0 0 0 0 -115.92625032129581 -108.87516050468912 0 -108.87516050468912 -11.715329720191221 0 0 0 0 -139.52451792314241 -48.266005776120437 0 -48.266005776120437 -40.59105006424943 0 0 0 0 -169.3264841818891 -171.5487979726604 0 -171.5487979726604 -59.499312814801669 0 0 0 0 -258.37087764072749 -123.88442784189328 0 -123.88442784189328 -60.236327461600013 0 0 0 0 -456.8730683458416 -84.365904664000482 0 -84.365904664000482 -67.067242275988974 0 0 0 0 -291.8132323082682 -81.323717002287594 0 -81.323717002287594 -149.56550923761461 0 0 0 0 -287.37266071460908 -172.74179461833046 0 -172.74179461833046 -68.639212450005289 0 0 0 0 -158.34940765569627 -99.869772837682831 0 -99.869772837682831 -86.290192966025643 0 0 0 0 -244.96570365668595 -67.095005720269 0 -67.095005720269 -81.921135601078277 0 0 0 0 -219.42729413176858 -132.62829931703527 0 -132.62829931703527 -122.10123730378473 0 0 0 0 3.7583561327208983 -4.0335283824566233 0 -4.0335283824566233 0.057726090423557253 0 0 0 0 2.1760237153158286 -2.5644878458302287 0 -2.5644878458302287 -0.17843510032575693 0 0 0 0 -379.42050542355355 -298.71051315720979 0 -298.71051315720979 -147.41486770153972 0 0 0 0 0.60179792494091089 2.6593211173749296 0 2.6593211173749296 -0.33802563425706467 0 0 0 0 -310.32701205751073 -73.895326658244812 0 -73.895326658244812 30.773405428582919 0 0 0 0 -388.96834717258025 -157.03517601567546 0 -157.03517601567546 54.17577382775562 0 0 0 0 -1.8992921678873245 -101.74686238844879 0 -101.74686238844879 17.941394761939591 0 0 0 0 -88.760343530502723 -88.460100469537792 0 -88.460100469537792 122.41971279779682 0 0 0 0 -38.946783924144256 -60.818013392150533 0 -60.818013392150533 10.178368659690022 0 0 0 0 -143.61588360045425 -65.579394370161026 0 -65.579394370161026 39.197214843370602 0 0 0 0 -97.663120041921502 -126.32777084577538 0 -126.32777084577538 -19.681459121788066 0 0 0 0 -204.73006620699016 -175.19046808299026 0 -175.19046808299026 -92.603821668734781 0 0 0 0 -19.859396755695343 -260.39764424777604 0 -260.39764424777604 93.603580058901571 0 0 0 0 -40.808491492585745 -56.13091182775679 0 -56.13091182775679 137.1559194814472 0 0 0 0 23.924283627828117 -219.74388045725937 0 -219.74388045725937 38.458433943415002 0 0 0 0 25.95834187190485 -240.69119669485372 0 -240.69119669485372 -246.44131560631104 0 0 0 0 -97.462389604734199 -101.75742424416785 0 -101.75742424416785 -188.97363424672949 0 0 0 0 9.7102502490124607 -10.608468019570864 0 -10.608468019570864 -0.57702313890203527 0 0 0 0 10.767261789318042 -7.8913074648083743 0 -7.8913074648083743 3.9986483329104843 0 0 0 0 27.474466062300053 4.3943786755389738 0 4.3943786755389738 -60.615828784917539 0 0 0 0 -78.996247363120347 -345.15825066405978 0 -345.15825066405978 -125.61531013136846 0 0 0 0 4.5133103172293154 -2.2543529422762063 0 -2.2543529422762063 -5.1642377220609035 0 0 0 0 -255.23615162575152 -315.28329493227648 0 -315.28329493227648 -160.43910778455029 0 0 0 0 7.8555499125910728 -6.6114473492982295 0 -6.6114473492982295 1.0107387629780362 0 0 0 0 9.8178831740406167 -9.3587719202675999 0 -9.3587719202675999 -2.3932087184548436 0 0 0 0 4.3307895462426877 -2.2611567471111833 0 -2.2611567471111833 -2.2455421879246558 0 0 0 0 4.518930616119178 -7.3039945232630998 0 -7.3039945232630998 -2.355881779712945 0 0 0 0 46.435174982154422 -12.127249674533232 0 -12.127249674533232 -22.744472688991664 0 0 0 0 13.001177136634013 -6.7959737579759061 0 -6.7959737579759061 1.6066651172605475 0 0 0 0 -55.130419592129329 -15.02977560689942 0 -15.02977560689942 -51.482160417348496 0 0 0 0 -258.07081495282364 -75.503216061197236 0 -75.503216061197236 6.173440136735735 0 0 0 0 -156.58342860799894 31.573327082594915 0 31.573327082594915 5.6078752033590717 0 0 0 0 -80.565999814916722 -108.00115489841301 0 -108.00115489841301 -92.137200006996864 0 0 0 0 -76.791847895307001 -125.90477962629666 0 -125.90477962629666 -161.4724272057083 0 0 0 0 -74.80946568386571 -123.86454666534701 0 -123.86454666534701 -160.75158400233522 0 0 0 0 -68.196945279189094 -138.31144405719897 0 -138.31144405719897 -145.97302331101309 0 0 0 0 11.306440324506902 -7.1746039618866977 0 -7.1746039618866977 0.079968265378113301 0 0 0 0 3.8187454468097712 -15.717618531875019 0 -15.717618531875019 -4.1298519664305786 0 0 0 0 -93.580702445633506 -144.92179247309832 0 -144.92179247309832 -155.94900004224655 0 0 0 0 -115.03048974114063 -93.82242784729533 0 -93.82242784729533 -146.54280766512056 0 0 0 0 -65.333088404011505 -122.52280346750558 0 -122.52280346750558 -176.16574236172346 0 0 0 0 -77.274664530346854 -128.14446581703305 0 -128.14446581703305 -116.33967368899903 0 0 0 0 -91.506388802234142 -124.74953547609766 0 -124.74953547609766 -116.56133704952663 0 0 0 0 -51.836189084820944 -161.04589012847646 0 -161.04589012847646 -204.59165525988101 0 0 0 0 -88.258483975403578 -124.4396109153995 0 -124.4396109153995 -146.148489803134 0 0 0 0 -90.611698401953618 -115.14262352160586 0 -115.14262352160586 -61.785796219628537 0 0 0 0 -59.804783544233942 -92.756532336954479 0 -92.756532336954479 -128.01093894023506 0 0 0 0 -70.445367832515331 -119.80229887824862 0 -119.80229887824862 -157.1128431780744 0 0 0 0 -64.009323213336756 -117.6740258766331 0 -117.6740258766331 -158.85323752945988 0 0 0 0 1.575641918197789 -1.7143984506594343 0 -1.7143984506594343 1.0841970894696615 0 0 0 0 -53.093275657534832 -58.987811950442847 0 -58.987811950442847 -213.1675388764852 0 0 0 0 -285.49673528784479 -190.96448843427061 0 -190.96448843427061 -137.51440949268908 0 0 0 0 -80.921496532057063 -10.211926085918094 0 -10.211926085918094 -192.34964725228201 0 0 0 0 -136.43045470339712 4.6344336007605307 0 4.6344336007605307 -67.832228780185687 0 0 0 0 -98.508125651700539 -81.074350319038786 0 -81.074350319038786 -14.462774603438447 0 0 0 0 -99.933163191795757 -78.09528821575077 0 -78.09528821575077 48.079165815244778 0 0 0 0 -96.771132280351594 -87.270415312166733 0 -87.270415312166733 45.613521855742874 0 0 0 0 -131.64983668850618 -32.371644521357666 0 -32.371644521357666 -13.007300659199245 0 0 0 0 -124.77415937845944 -55.688806294841925 0 -55.688806294841925 43.813538148519001 0 0 0 0 -111.97887546246056 -69.280503344933095 0 -69.280503344933095 12.528954320056073 0 0 0 0 -123.90017348172842 -67.977470220139367 0 -67.977470220139367 39.009419325106137 0 0 0 0 -115.79308168264106 -37.23619271251664 0 -37.23619271251664 -48.523391333903419 0 0 0 0 -50.81245326611679 -122.35283163226268 0 -122.35283163226268 84.263891216323827 0 0 0 0 97.581342854173272 1.66272603507241 0 1.66272603507241 -100.82140523101407 0 0 0 0 1.8775367790215967 -0.69323580805633966 0 -0.69323580805633966 -1.4549397498322776 0 0 0 0 -29.153075101203285 -341.21544239968352 0 -341.21544239968352 -176.44813276239438 0 0 0 0 25.013025303298491 -30.029429735077429 0 -30.029429735077429 -130.07046583434385 0 0 0 0 -15.582400686864275 -92.70300555684662 0 -92.70300555684662 -146.84043074639339 0 0 0 0 -42.300260864634765 -8.9909684706581174 0 -8.9909684706581174 -35.095443537593383 0 0 0 0 263.28323624820041 -210.99684474796231 0 -210.99684474796231 -116.32149322704936 0 0 0 0 -84.378052026106161 -174.25305799266789 0 -174.25305799266789 -136.54273195171118 0 0 0 0 205.87809869032935 -160.08849468269182 0 -160.08849468269182 -160.98914838883502 0 0 0 0 33.265277457612683 -167.97521005912859 0 -167.97521005912859 -57.61714376344753 0 0 0 0 -31.059301541536115 -74.3013646886684 0 -74.3013646886684 215.6474352839723 0 0 0 0 -7.6242255550023401 -244.03121376489071 0 -244.03121376489071 370.46239968782174 0 0 0 0 198.86819141326123 -337.39055312355413 0 -337.39055312355413 103.45921718986938 0 0 0 0 -8.6259314538256149 54.779277601246577 0 54.779277601246577 257.07643744591041 0 0 0 0 44.293702970113372 -194.87486674461252 0 -194.87486674461252 125.24964668304165 0 0 0 0 5.744257207843475 -139.3114896640509 0 -139.3114896640509 91.417133968803682 0 0 0 0 -19.307803418909316 -152.84422892643488 0 -152.84422892643488 104.65017030804302 0 0 0 0 27.869218455933151 -168.00167047703872 0 -168.00167047703872 84.020662641181843 0 0 0 0 -15.010785336693516 -143.98991370362637 0 -143.98991370362637 102.90450237668119 0 0 0 0 60.226766581807169 -141.15604608712601 0 -141.15604608712601 32.738757891158457 0 0 0 0 83.286051777540706 -171.46138344599967 0 -171.46138344599967 60.491510090971133 0 0 0 0 260.33653952210443 -198.43241053687234 0 -198.43241053687234 63.737520011069137 0 0 0 0 121.69032468984369 -73.753682030495838 0 -73.753682030495838 57.781746072345413 0 0 0 0 296.01333296450321 59.680590200296137 0 59.680590200296137 140.47634914405353 0 0 0 0 94.993450381734874 -65.671442753031442 0 -65.671442753031442 58.753485732362606 0 0 0 0 66.075048773156595 -108.87026611196052 0 -108.87026611196052 0.62811293131380808 0 0 0 0 163.91618827283673 -111.0435554242722 0 -111.0435554242722 -2.4379612071206793 0 0 0 0 36.57809152486152 -82.409031016271911 0 -82.409031016271911 18.327248694404261 0 0 0 0 25.220742925914237 -41.416181375541782 0 -41.416181375541782 4.8851300547685241 0 0 0 0 69.559109918999638 -59.91997500456182 0 -59.91997500456182 -21.674426984391175 0 0 0 0 26.826051596639445 -50.408299387650914 0 -50.408299387650914 108.97661869041622 0 0 0 0 97.29191684894613 -70.065313372033415 0 -70.065313372033415 17.161036302757566 0 0 0 0 50.392763589712558 -38.386008652902092 0 -38.386008652902092 231.22063290505321 0 0 0 0 25.704478327344987 -99.396026507114584 0 -99.396026507114584 90.897265418432653 0 0 0 0 -66.604551749143866 -81.546999641359434 0 -81.546999641359434 69.97993435918761 0 0 0 0 -108.39434256358072 -74.87464064377491 0 -74.87464064377491 71.11772725766059 0 0 0 0 -90.652016958440072 -81.718664353058557 0 -81.718664353058557 54.226908528929926 0 0 0 0 -102.05317424578243 -87.091445026129804 0 -87.091445026129804 80.209872571271262 0 0 0 0 -68.139015964523423 -121.65458158119873 0 -121.65458158119873 97.002190904982854 0 0 0 0 -98.510430974711198 -80.008348882634891 0 -80.008348882634891 64.461891190047027 0 0 0 0 -90.27905809711956 -99.918778334849776 0 -99.918778334849776 82.32578916309285 0 0 0 0 -79.958356178220129 -106.83109887907631 0 -106.83109887907631 80.673081555076351 0 0 0 0 -57.56411182222655 -131.61885870294645 0 -131.61885870294645 104.15520209845272 0 0 0 0 -18.734817658521933 -150.26061171650508 0 -150.26061171650508 98.49292445125684 0 0 0 0 -51.436840443551773 -125.30690353109094 0 -125.30690353109094 89.19850773003418 0 0 0 0 -65.674692666478222 -100.38038536676322 0 -100.38038536676322 79.164996343551138 0 0 0 0 -67.606726398909814 -122.18408254622045 0 -122.18408254622045 97.603591326696915 0 0 0 0 -79.233297666389262 -104.58759131676925 0 -104.58759131676925 85.177655743813375 0 0 0 0 -42.446287964994553 -122.01034587851609 0 -122.01034587851609 82.853915399799007 0 0 0 0 -3.5042521660070634 -129.64620403283334 0 -129.64620403283334 49.5459717843205 0 0 0 0 -36.043139813902599 -130.0280912310327 0 -130.0280912310327 86.160032306521316 0 0 0 0 -39.684819838075782 -95.519930323567678 0 -95.519930323567678 69.213661066885834 0 0 0 0 -43.706500692203917 -100.98210451585146 0 -100.98210451585146 77.412226106491289 0 0 0 0 -81.916880233271513 -93.497124615132634 0 -93.497124615132634 85.337195802458155 0 0 0 0 -57.822291714386665 -68.144797536988335 0 -68.144797536988335 79.224193497761007 0 0 0 0 -46.87941713427881 -64.938472373324203 0 -64.938472373324203 78.901035767783469 0 0 0 0 -40.999999341307557 -37.74266615480883 0 -37.74266615480883 72.615523969494461 0 0 0 0 -81.55067204083025 -60.684707085296395 0 -60.684707085296395 77.500713826484571 0 0 0 0 -36.8446783483123 -43.050074523487638 0 -43.050074523487638 78.228117403748911 0 0 0 0 -2.739762095578044 10.819748516749314 0 10.819748516749314 90.632964187236212 0 0 0 0 -55.253197551246558 -12.172233338766091 0 -12.172233338766091 66.314947510174534 0 0 0 0 -58.576893190293049 -53.377778734786261 0 -53.377778734786261 41.798034421175544 0 0 0 0 -89.712846841386636 -47.709979417340946 0 -47.709979417340946 43.852584085077979 0 0 0 0 -74.081504151134141 -67.421047628698943 0 -67.421047628698943 61.707871096950839 0 0 0 0 -80.594922263189801 -43.526339194329921 0 -43.526339194329921 74.294230139920728 0 0 0 0 23.968497747606307 59.93994112026121 0 59.93994112026121 119.55718925975816 0 0 0 0 -35.465623847252573 -24.34164111049904 0 -24.34164111049904 71.875618754740572 0 0 0 0 -10.471455670922296 21.444015497652799 0 21.444015497652799 95.139095928512688 0 0 0 0 -15.620296188066277 7.4032578140868281 0 7.4032578140868281 143.10851931994694 0 0 0 0 -17.706081405929581 -25.006434476257709 0 -25.006434476257709 66.121040138772514 0 0 0 0 10.523320244805291 21.323934480266871 0 21.323934480266871 60.594205699162558 0 0 0 0 -16.440724699146813 -41.114545420030481 0 -41.114545420030481 71.152751846802857 0 0 0 0 -46.27066782417387 -12.337369729597413 0 -12.337369729597413 43.691650213244429 0 0 0 0 -50.956847169771208 -62.275669525537523 0 -62.275669525537523 10.128928410042136 0 0 0 0 -70.471431783022126 -44.404812448112352 0 -44.404812448112352 -6.1835696963025839 0 0 0 0 -30.424446356793851 -2.0739268638226349 0 -2.0739268638226349 35.306959234760143 0 0 0 0 -34.831057193878223 -66.251740781299304 0 -66.251740781299304 -4.4801759422407486 0 0 0 0 -76.001206123735756 -52.523825814481825 0 -52.523825814481825 -79.399400350841461 0 0 0 0 -82.69083588696958 -73.090513216418913 0 -73.090513216418913 -62.476389172188647 0 0 0 0 -111.60388293019037 -30.558631431554431 0 -30.558631431554431 -10.465088882192504 0 0 0 0 -94.074455029433011 -68.468350534451019 0 -68.468350534451019 27.392022375319357 0 0 0 0 -87.410606659306723 -28.774676145137619 0 -28.774676145137619 21.819691015451099 0 0 0 0 -85.018519945937442 -73.599834871569328 0 -73.599834871569328 -8.6916527038447384 0 0 0 0 -59.697430769869243 -60.304437602029793 0 -60.304437602029793 23.479255796803045 0 0 0 0 -67.916598624906328 -39.934997122738423 0 -39.934997122738423 -6.3305706892933813 0 0 0 0 -86.119059910299256 -101.13635760674515 0 -101.13635760674515 -47.649973186988063 0 0 0 0 -83.97678945408552 -95.074262146845285 0 -95.074262146845285 -57.088307230187638 0 0 0 0 -94.063683178130304 -138.13016984720161 0 -138.13016984720161 -119.81036377683631 0 0 0 0 -52.689925643251627 -122.47787064554723 0 -122.47787064554723 -202.06671399406514 0 0 0 0 -77.332263926713495 -82.163031038173358 0 -82.163031038173358 -72.470097784709651 0 0 0 0 -90.704634364927188 -29.044024052534951 0 -29.044024052534951 -95.915656576340552 0 0 0 0 -79.864060055260779 -103.27331500401488 0 -103.27331500401488 -152.45876835074887 0 0 0 0 4.7551128945741681 -4.663738506158726 0 -4.663738506158726 3.5380330213882942 0 0 0 0 -150.7682814786167 -117.51176130566091 0 -117.51176130566091 -100.06780773655919 0 0 0 0 3.2674940890999409 -1.4314967141678476 0 -1.4314967141678476 -1.8544926294495809 0 0 0 0 -116.57339348325331 -178.81604181395232 0 -178.81604181395232 -141.73923321810435 0 0 0 0 -184.43810312007963 -136.27903604600579 0 -136.27903604600579 -72.798121483661816 0 0 0 0 -119.57510926187297 -144.838991653628 0 -144.838991653628 -86.870568570280739 0 0 0 0 -110.44816914008425 -80.622015517252294 0 -80.622015517252294 -60.090856271606754 0 0 0 0 -99.065329814038705 -98.827489432653238 0 -98.827489432653238 -33.253128431111691 0 0 0 0 -134.27340740026557 -113.15046308991441 0 -113.15046308991441 -75.151734392107755 0 0 0 0 -57.334117636160954 -36.689190694596618 0 -36.689190694596618 -40.219404385476082 0 0 0 0 -98.85368718933023 -91.784001526328211 0 -91.784001526328211 -48.949101826083279 0 0 0 0 -114.3066958451891 -148.02810689042599 0 -148.02810689042599 -92.443513034275384 0 0 0 0 -43.932744577148696 -85.766984058929665 0 -85.766984058929665 -101.48516954684601 0 0 0 0 -127.88049660634715 -58.184646345340298 0 -58.184646345340298 -149.83459860633593 0 0 0 0 -178.76537493501837 -74.912481333755295 0 -74.912481333755295 -107.3063846717414 0 0 0 0 -70.677420042353333 -129.60160870249456 0 -129.60160870249456 -201.20111059056217 0 0 0 0 -89.271601340449706 -79.989773277560744 0 -79.989773277560744 -139.1991980336461 0 0 0 0 -154.36386564841087 -202.4992413103846 0 -202.4992413103846 -166.88227373480186 0 0 0 0 -140.03719791686308 -205.26738493305311 0 -205.26738493305311 -150.75675479007987 0 0 0 0 7.8893444187280437 -6.9918776471220188 0 -6.9918776471220188 5.1762564119517691 0 0 0 0 3.0862537754345709 -1.4508102551723532 0 -1.4508102551723532 -1.659835792480493 0 0 0 0 -56.283552091661477 -100.58756401242681 0 -100.58756401242681 -125.06958738976573 0 0 0 0 -51.265238796026097 -100.19470751414337 0 -100.19470751414337 -144.76534456524678 0 0 0 0 -117.6227087284642 -170.46770665217264 0 -170.46770665217264 -149.74582240787277 0 0 0 0 -187.07799749231526 -176.9697057489384 0 -176.9697057489384 -127.2318525856972 0 0 0 0 -95.303297303093132 -127.46062727585377 0 -127.46062727585377 -137.97831394816103 0 0 0 0 -131.69733575083956 -139.0693657101001 0 -139.0693657101001 -137.68306580185185 0 0 0 0 -134.74093165522936 -155.59361557825832 0 -155.59361557825832 -121.6640614343487 0 0 0 0 -91.910073272119917 -114.35109224412918 0 -114.35109224412918 -154.14598199951433 0 0 0 0 -158.40782387971558 -115.32806131242251 0 -115.32806131242251 -132.50532751475112 0 0 0 0 -136.76214917477046 -114.47952738952154 0 -114.47952738952154 -152.26706104342156 0 0 0 0 -79.992394846885873 -131.69502767523772 0 -131.69502767523772 -152.88440370251192 0 0 0 0 -17.038306492584525 -3.2646838409236807 0 -3.2646838409236807 -8.9139855209541565 0 0 0 0 -68.887314228111791 -90.506363255226461 0 -90.506363255226461 -54.542817024739634 0 0 0 0 68.792456358052732 64.103723162432289 0 64.103723162432289 47.724539939707029 0 0 0 0 -44.698556169809308 -24.354658580425166 0 -24.354658580425166 50.342334673085134 0 0 0 0 5.5552647970835096 -35.064632106907084 0 -35.064632106907084 -8.6064515792531893 0 0 0 0 -39.43203506640566 -27.1774184550668 0 -27.1774184550668 2.9666292007823358 0 0 0 0 -75.563582345610484 -107.06078440942656 0 -107.06078440942656 -73.018770328482788 0 0 0 0 -16.556147435432649 -24.671090534271571 0 -24.671090534271571 -41.186537830450106 0 0 0 0 -114.24503196121077 -165.59981230594349 0 -165.59981230594349 -116.73854714643028 0 0 0 0 -105.07124634284992 -117.12458714003878 0 -117.12458714003878 -93.413292954617646 0 0 0 0 -80.796660248481203 -58.920232703610964 0 -58.920232703610964 -118.48910811785197 0 0 0 0 -148.8395414097904 -62.021399149762146 0 -62.021399149762146 -158.63092998772481 0 0 0 0 -205.02925939981651 -129.0851321590053 0 -129.0851321590053 -77.850566609351517 0 0 0 0 -117.88971611391753 -144.61581192551967 0 -144.61581192551967 -92.592718872409023 0 0 0 0 -63.473120167858724 -83.598700625258061 0 -83.598700625258061 -35.716180286912277 0 0 0 0 -99.51952924131183 -54.509674350863406 0 -54.509674350863406 -58.506480610900326 0 0 0 0 -71.159338368467616 -33.750189560641616 0 -33.750189560641616 28.789957996981684 0 0 0 0 -76.99518258763419 -92.373464017466176 0 -92.373464017466176 -68.095156922405295 0 0 0 0 -65.480606331751915 -45.453081237334118 0 -45.453081237334118 -11.01068331534043 0 0 0 0 -66.114421993682299 -99.395582838625842 0 -99.395582838625842 -63.590237430194975 0 0 0 0 -14.722548667254159 -58.168973460400593 0 -58.168973460400593 -15.636884446677868 0 0 0 0 2.2917807885605725 20.010868925899558 0 20.010868925899558 7.060913493975022 0 0 0 0 28.084072332396318 -29.386510586047734 0 -29.386510586047734 91.828103460677085 0 0 0 0 136.73464676027652 63.840645508453235 0 63.840645508453235 33.396908569764491 0 0 0 0 -29.222563538194663 -9.4858268811603921 0 -9.4858268811603921 39.90130987502198 0 0 0 0 -63.971528657191811 72.021850543033452 0 72.021850543033452 26.529064398866467 0 0 0 0 106.48109015900991 124.94743914872379 0 124.94743914872379 106.40220703567502 0 0 0 0 -1.926936599847977 63.515250071097398 0 63.515250071097398 148.37192552964916 0 0 0 0 20.111675638347421 -18.468563509398106 0 -18.468563509398106 16.638321508445607 0 0 0 0 -26.546378340911815 5.1408430040676194 0 5.1408430040676194 48.134257664358302 0 0 0 0 62.749010163548519 1.1605464775129803 0 1.1605464775129803 18.022863309110107 0 0 0 0 164.43968508619582 -268.5485497454838 0 -268.5485497454838 -344.69953495296795 0 0 0 0 92.966602746237186 -30.286028418224305 0 -30.286028418224305 88.420123079911718 0 0 0 0 20.767471919698124 -13.596841276407982 0 -13.596841276407982 8.9583742061751614 0 0 0 0 -3.6408043031697161 -156.3404841856518 0 -156.3404841856518 -156.70550733445089 0 0 0 0 -42.304521575359104 -190.64030315228047 0 -190.64030315228047 -138.74102394148667 0 0 0 0 -68.309405800318928 -128.36838022834127 0 -128.36838022834127 75.934639329157108 0 0 0 0 -67.744316309868736 -26.713100322949231 0 -26.713100322949231 -68.883690653634403 0 0 0 0 -85.08675921529175 -80.311719818876327 0 -80.311719818876327 108.18629040944688 0 0 0 0 -68.958033615679597 -105.60884395266203 0 -105.60884395266203 126.06037796847886 0 0 0 0 160.79017115111492 -198.87655308146805 0 -198.87655308146805 102.09157725734349 0 0 0 0 -49.724826921509703 -179.54854646080332 0 -179.54854646080332 161.80122255895549 0 0 0 0 -104.71656464206171 -98.546344554850521 0 -98.546344554850521 138.90650180331431 0 0 0 0 6.7224504406203494 -4.1607811648842166 0 -4.1607811648842166 2.4335782997501028 0 0 0 0 -220.59772545973829 218.78460015285054 0 218.78460015285054 195.97930997612366 0 0 0 0 23.887956708647437 -25.014876222375573 0 -25.014876222375573 24.918294092063121 0 0 0 0 477.84656975262624 -617.48632929887935 0 -617.48632929887935 -475.26343876937244 0 0 0 0 56.880562615115196 11.607408865969774 0 11.607408865969774 62.976359479500388 0 0 0 0 -10.785105629416648 -50.683646646262787 0 -50.683646646262787 62.371025079675746 0 0 0 0 -8.1714488520919986 -55.415580186862826 0 -55.415580186862826 70.801328484056285 0 0 0 0 36.397420532812248 -26.772435994464104 0 -26.772435994464104 68.925832165892643 0 0 0 0 7.5304593036735241 -34.684972648093662 0 -34.684972648093662 58.78483424499791 0 0 0 0 -403.75068745521276 -269.53554817551503 0 -269.53554817551503 -4.6974385915691528 0 0 0 0 22.927784716245299 -26.900860367358796 0 -26.900860367358796 28.777295686174277 0 0 0 0 -427.80658059717098 258.25385032452778 0 258.25385032452778 432.67977475183216 0 0 0 0 359.02520588791594 34.071837461572159 0 34.071837461572159 -20.419439399200201 0 0 0 0 -50.597902160108788 34.588228313919899 0 34.588228313919899 -4.1285023450100198 0 0 0 0 -93.654283134892466 -24.172711162622363 0 -24.172711162622363 -5.3274144854403858 0 0 0 0 -84.834865195057318 -26.160264523099954 0 -26.160264523099954 -9.2423761605205073 0 0 0 0 -41.98784521658672 -13.556199305074188 0 -13.556199305074188 -4.830276895340603 0 0 0 0 -32.005759271829447 -22.117633424717496 0 -22.117633424717496 -23.572505616830313 0 0 0 0 -63.690186692443604 -22.610031069667514 0 -22.610031069667514 -5.513071854111331 0 0 0 0 -33.367495443002554 -23.248977881505198 0 -23.248977881505198 -9.5140388960753626 0 0 0 0 -16.86340282441688 -29.418932126227446 0 -29.418932126227446 -45.658721575495292 0 0 0 0 -23.046019900122701 -11.66221452735158 0 -11.66221452735158 -18.11365875795309 0 0 0 0 -32.793329163119779 -12.224879045871603 0 -12.224879045871603 -13.217356823432056 0 0 0 0 9.0062655076108058 -83.788397751089633 0 -83.788397751089633 0.90971195183192322 0 0 0 0 -332.13694161350577 -676.2018470947196 0 -676.2018470947196 -925.79460608731415 0 0 0 0 -12.515742980088646 -11.211440254484375 0 -11.211440254484375 11.301534549025046 0 0 0 0 -39.109645860444289 -35.665971332666231 0 -35.665971332666231 37.950655090211512 0 0 0 0 -46.171524139077519 -99.279228514817987 0 -99.279228514817987 125.52358430460845 0 0 0 0 127.27676534621423 -66.187538376470911 0 -66.187538376470911 -2.576599726196946 0 0 0 0 -45.806258563956362 -98.047293358917159 0 -98.047293358917159 52.955707271843494 0 0 0 0 -7.1050683725905799 -9.711663274998088 0 -9.711663274998088 8.5490572470129376 0 0 0 0 -51.617302902450319 -40.070418829531263 0 -40.070418829531263 277.25099297946872 0 0 0 0 -41.187869197263353 -22.721636801598379 0 -22.721636801598379 163.56080647324052 0 0 0 0 -344.01193803592105 -611.78339870281775 0 -611.78339870281775 -1179.0727124203022 0 0 0 0 -626.00471201653772 -613.71927581574232 0 -613.71927581574232 -1028.3506545046712 0 0 0 0 -611.45193942419064 -747.49222050562094 0 -747.49222050562094 -1242.5740233522388 0 0 0 0 -389.70853702279419 -823.14680616793976 0 -823.14680616793976 -847.38831293761996 0 0 0 0 322.22164789414637 -709.37796438380019 0 -709.37796438380019 -511.80450466448201 0 0 0 0 249.27776396115951 -465.9207835065672 0 -465.9207835065672 -957.27327269242653 0 0 0 0 -89.508887467352906 -977.84550048556503 0 -977.84550048556503 -940.83686123589689 0 0 0 0 80.453592730973469 -743.49284771173188 0 -743.49284771173188 -634.57477229336655 0 0 0 0 -122.2943482027913 -1613.1331055221799 0 -1613.1331055221799 -1670.7323827841369 0 0 0 0 -69.950610427986248 -683.91364007542552 0 -683.91364007542552 -1690.9659889922286 0 0 0 0 -113.99006305119838 -182.81456560364404 0 -182.81456560364404 1114.6774027056854 0 0 0 0 -2.0034358635436718 -4.3746579473466785 0 -4.3746579473466785 2.7162225241931566 0 0 0 0 149.37831463856946 -670.55241170597787 0 -670.55241170597787 -127.45319834444672 0 0 0 0 -347.48109566306175 -1063.3444665333568 0 -1063.3444665333568 -741.51094610825749 0 0 0 0 -9.7564762764159241 -354.71396885282047 0 -354.71396885282047 -831.85826954813456 0 0 0 0 1.7148767525139874 -2.1024326879876956 0 -2.1024326879876956 -0.82820001968959645 0 0 0 0 142.75732180457271 -606.1403909526216 0 -606.1403909526216 -493.72073996804829 0 0 0 0 -137.08578670949646 -332.20614963036041 0 -332.20614963036041 -552.92161309458061 0 0 0 0 60.714457006948578 -268.78474252664228 0 -268.78474252664228 -76.441191889927723 0 0 0 0 44.074877034800011 -181.75341723998463 0 -181.75341723998463 -495.12270364497857 0 0 0 0 201.53641843514924 -174.95663057460479 0 -174.95663057460479 -339.38494180493763 0 0 0 0 220.36908925273474 -288.83551191740492 0 -288.83551191740492 -117.24444067646618 0 0 0 0 11.291682354472869 -118.17570164951576 0 -118.17570164951576 -26.226722751760462 0 0 0 0 47.832497183531814 -172.37085280205702 0 -172.37085280205702 0.51022210404698853 0 0 0 0 49.81508896768355 -226.52220619496802 0 -226.52220619496802 283.53398492006818 0 0 0 0 34.373057940782928 -120.47044353788169 0 -120.47044353788169 192.21822372776478 0 0 0 0 50.38997325085802 -52.49047420676834 0 -52.49047420676834 213.22573916536567 0 0 0 0 -19.41934100718936 -72.972188319840825 0 -72.972188319840825 150.47035745439825 0 0 0 0 -71.042116865304706 -115.67819127368148 0 -115.67819127368148 189.78110092336556 0 0 0 0 -34.588432394513802 -87.031901999229376 0 -87.031901999229376 12.718733927162248 0 0 0 0 -28.319753650066559 -157.78465167261493 0 -157.78465167261493 138.42112946078009 0 0 0 0 17.315414225151471 -156.91682505582867 0 -156.91682505582867 -32.303963160465173 0 0 0 0 38.690106492085761 -86.091064264508532 0 -86.091064264508532 -146.34145852975234 0 0 0 0 -30.047998621177612 -104.26928923028618 0 -104.26928923028618 -72.985288384665182 0 0 0 0 -80.399886375736969 -145.76677124978414 0 -145.76677124978414 -76.480163587110383 0 0 0 0 135.98105876917543 -166.90531505791841 0 -166.90531505791841 -126.2517261307803 0 0 0 0 50.059653212851117 -92.814026963477772 0 -92.814026963477772 -155.92462829078067 0 0 0 0 23.28960233910766 -59.537904891124072 0 -59.537904891124072 -156.48935333996633 0 0 0 0 33.751539159333333 -84.223414811176553 0 -84.223414811176553 -146.15475298195213 0 0 0 0 34.51810902799636 -26.542625981474302 0 -26.542625981474302 13.659856492551363 0 0 0 0 93.176019467238802 -71.37053930228285 0 -71.37053930228285 -156.20984789608883 0 0 0 0 82.313827356678303 -41.897161051652802 0 -41.897161051652802 -52.59074772900567 0 0 0 0 110.68667855398235 -84.291625903744716 0 -84.291625903744716 -174.87682677734301 0 0 0 0 99.064840584509511 149.00903938631018 0 149.00903938631018 121.08670974980123 0 0 0 0 13.369938381096077 -10.14491517026466 0 -10.14491517026466 7.6384180824726684 0 0 0 0 88.396609447816445 -130.8931245548556 0 -130.8931245548556 -143.76527102525142 0 0 0 0 29.377460985080688 46.749908000798314 0 46.749908000798314 143.36763929577683 0 0 0 0 88.162094151623023 -115.94558508057526 0 -115.94558508057526 -127.75372781169426 0 0 0 0 83.450404485694889 -121.50386516759681 0 -121.50386516759681 -111.5089456034184 0 0 0 0 9.441208508949785 -105.88084543695368 0 -105.88084543695368 -17.423786777537316 0 0 0 0 -63.117908707266906 -172.98851448464848 0 -172.98851448464848 -32.802992336362877 0 0 0 0 10.142067511546813 -11.531594018374776 0 -11.531594018374776 2.5669679148362263 0 0 0 0 81.282922361221608 69.740040741577559 0 69.740040741577559 -287.48354062793805 0 0 0 0 -154.98491171424394 -41.807500341368723 0 -41.807500341368723 35.01307598094354 0 0 0 0 188.22816408501239 216.78808657796981 0 216.78808657796981 -44.983343835560845 0 0 0 0 116.93558070270137 142.14280767858054 0 142.14280767858054 215.36278713366482 0 0 0 0 5.8711989913459064 -2.7125908612387359 0 -2.7125908612387359 0.82590837562550234 0 0 0 0 155.55938218538722 84.081654061445079 0 84.081654061445079 67.630937624766375 0 0 0 0 84.620764295788831 101.16072507655917 0 101.16072507655917 114.01315213130147 0 0 0 0 22.032879492224311 47.967669224253768 0 47.967669224253768 89.514270670100814 0 0 0 0 58.71971965872217 21.929525942927285 0 21.929525942927285 88.877053488293313 0 0 0 0 132.23309899023297 30.228960343538347 0 30.228960343538347 69.111356783192605 0 0 0 0 -96.416616508984589 -271.85360864827089 0 -271.85360864827089 -110.46745736634693 0 0 0 0 57.190535415671349 -30.659863418076007 0 -30.659863418076007 12.474058905979511 0 0 0 0 22.459091894837911 -166.67895204380875 0 -166.67895204380875 -66.81292709301124 0 0 0 0 427.84066801537119 -131.40761998130984 0 -131.40761998130984 -319.70413084059692 0 0 0 0 -91.711318120222131 -84.662800698468345 0 -84.662800698468345 384.86527504944388 0 0 0 0 -13.834170047928637 -74.45461295036057 0 -74.45461295036057 4.9570548299125221 0 0 0 0 42.890840711944293 -220.98304690372424 0 -220.98304690372424 -281.47476633399856 0 0 0 0 50.503147508290567 -25.9474174400947 0 -25.9474174400947 5.0762156120415725 0 0 0 0 26.021639080179739 -70.59954973119693 0 -70.59954973119693 120.79649670609251 0 0 0 0 -5.0780467819349724 -20.666335024941873 0 -20.666335024941873 47.466371376658572 0 0 0 0 7.9711813311481023 -5.3804779696774574 0 -5.3804779696774574 -2.1047203813153947 0 0 0 0 -12.363743612699494 -8.9038088353992109 0 -8.9038088353992109 -3.3248233779742193 0 0 0 0 -17.804977674284601 32.522082712926931 0 32.522082712926931 -321.88101111984361 0 0 0 0 79.507462977220712 -20.906212357673212 0 -20.906212357673212 -16.771063914495244 0 0 0 0 7.81548547440525 69.634901536423058 0 69.634901536423058 -269.42774947408179 0 0 0 0 28.682802126772003 -45.058290753438996 0 -45.058290753438996 -119.83782074997907 0 0 0 0 2.6616288649528315 -21.853395920929131 0 -21.853395920929131 -6.910165376915284 0 0 0 0 23.764348753116792 -5.4595942698761064 0 -5.4595942698761064 -153.07456871722752 0 0 0 0 78.550835174626627 -16.275601226511753 0 -16.275601226511753 -244.73785607168611 0 0 0 0 83.777981014718534 -19.054224966570473 0 -19.054224966570473 -265.99439175696989 0 0 0 0 106.43761026624998 -91.036043837913894 0 -91.036043837913894 -186.31536721637985 0 0 0 0 118.78552877018956 -98.015209258027426 0 -98.015209258027426 -218.98067093125428 0 0 0 0 34.415478250039087 -6.8521946702437617 0 -6.8521946702437617 -566.01377202788353 0 0 0 0 46.031869726517471 -61.738821999824722 0 -61.738821999824722 -307.23370447202251 0 0 0 0 -53.919419490732253 69.401360957054749 0 69.401360957054749 -351.08912666305423 0 0 0 0 -69.214370335757849 -50.133578064083849 0 -50.133578064083849 -1201.1102846760477 0 0 0 0 -4.5926900954999894 -2.9087513086718459 0 -2.9087513086718459 -2.7336031480080791 0 0 0 0 -195.53345582558904 -189.61001917995463 0 -189.61001917995463 64.511745881605748 0 0 0 0 -432.39978288770726 -620.04978624824207 0 -620.04978624824207 -546.34435273525378 0 0 0 0 1.3789835580784882 -2.7778612867611372 0 -2.7778612867611372 1.1824496319321955 0 0 0 0 -239.51659101532277 -141.22824568410033 0 -141.22824568410033 -126.69021720617093 0 0 0 0 32.545908519459772 44.733514394174563 0 44.733514394174563 -21.019445620124316 0 0 0 0 94.469707783355261 -37.627201682556915 0 -37.627201682556915 116.8830665985588 0 0 0 0 212.86766307395737 -133.22147279867568 0 -133.22147279867568 12.508621794591818 0 0 0 0 106.88182597763716 50.731091231582241 0 50.731091231582241 -12.564031538746349 0 0 0 0 -200.99200433147053 -41.873350086912978 0 -41.873350086912978 376.46644798136913 0 0 0 0 -26.415185359706811 -179.3129823431118 0 -179.3129823431118 222.64079368424609 0 0 0 0 -293.69006588709271 -53.116697770868541 0 -53.116697770868541 165.68293717963388 0 0 0 0 -213.03651830239687 -238.4394971307629 0 -238.4394971307629 102.54124252093334 0 0 0 0 -60.99813397464095 -64.37321461326701 0 -64.37321461326701 -228.20136593840834 0 0 0 0 -446.24985475520953 -178.96371125336009 0 -178.96371125336009 207.35643530741072 0 0 0 0 56.873199343652232 -42.035068814682745 0 -42.035068814682745 30.291457636791165 0 0 0 0 73.912825888139196 -5.0307075293821981 0 -5.0307075293821981 25.934896688500885 0 0 0 0 258.38950219361868 82.754907956987154 0 82.754907956987154 -10.240626286373299 0 0 0 0 0.93676409661934201 -0.7619636152687761 0 -0.7619636152687761 -1.1055178086190836 0 0 0 0 18.679500848720181 -30.957178814904466 0 -30.957178814904466 5.2531624654002371 0 0 0 0 45.555337806348689 -10.016796216710645 0 -10.016796216710645 65.208807536149834 0 0 0 0 128.59280955410213 -72.649681341887117 0 -72.649681341887117 -134.89364953815675 0 0 0 0 -62.966635093944205 29.160233254491686 0 29.160233254491686 3.2134779736770724 0 0 0 0 0.16733576714614173 -125.85090341598061 0 -125.85090341598061 143.44443466970642 0 0 0 0 1.0251490886924159 -0.19975680160746023 0 -0.19975680160746023 -0.99504861102411724 0 0 0 0 -32.515368098880572 -174.44115998948109 0 -174.44115998948109 -3.7545024996550183 0 0 0 0 3.8278817217651522 -13.966443823839654 0 -13.966443823839654 12.866779719272472 0 0 0 0 83.904133452881069 -62.515369164810181 0 -62.515369164810181 41.692689726194658 0 0 0 0 -42.595749933618208 74.93946800067306 0 74.93946800067306 438.34101453100448 0 0 0 0 -0.44842775347481734 -0.43387150617138914 0 -0.43387150617138914 -0.1129951213627578 0 0 0 0 -90.904227575898403 -306.0338638283165 0 -306.0338638283165 -596.15672164415537 0 0 0 0 0.023975115094799548 -323.27512118341292 0 -323.27512118341292 -695.39006610913202 0 0 0 0 -10.18761775951134 -146.68661887952203 0 -146.68661887952203 -316.82166654555658 0 0 0 0 -20.323580635002145 -277.21193388570009 0 -277.21193388570009 -621.07861252975363 0 0 0 0 -59.461079975233588 -156.30668276074539 0 -156.30668276074539 -985.36174694113197 0 0 0 0 52.263192613099818 -291.96255181481138 0 -291.96255181481138 -684.64115724638395 0 0 0 0 34.056705802318902 -224.28099354467804 0 -224.28099354467804 -725.08822821966533 0 0 0 0 0.05018083011964336 -260.58549730594768 0 -260.58549730594768 -568.87028121806725 0 0 0 0 17.450355525070336 -220.6812767283709 0 -220.6812767283709 -678.58002777950969 0 0 0 0 0.18316958804643946 -203.79166425158473 0 -203.79166425158473 -586.79883986973073 0 0 0 0 21.278103017823014 -168.81086162993779 0 -168.81086162993779 -634.86707485101942 0 0 0 0 28.127942454784716 -178.55122667664932 0 -178.55122667664932 -709.0148269497131 0 0 0 0 -215.88296846139565 -317.26786332663323 0 -317.26786332663323 -709.8903090621061 0 0 0 0 156.64905013609678 -150.23351781972815 0 -150.23351781972815 -687.1627293505851 0 0 0 0 1.2660355707311624 -0.099583695774256853 0 -0.099583695774256853 -1.7084439567418173 0 0 0 0 -418.32147162419278 -553.22869778123095 0 -553.22869778123095 -762.68025576623768 0 0 0 0 -467.76975926425803 -327.60992035799154 0 -327.60992035799154 -437.13225132084199 0 0 0 0 -550.96472581957642 -489.37485174133417 0 -489.37485174133417 -502.30913379969206 0 0 0 0 -327.01453307333577 -387.95375514164061 0 -387.95375514164061 -639.39061371239768 0 0 0 0 -272.64725403426928 -236.40370604354302 0 -236.40370604354302 -519.99490942072407 0 0 0 0 2.5090365693700107 -2.2529871398997781 0 -2.2529871398997781 -0.80814295140951131 0 0 0 0 27.049006881177775 -473.08477572657648 0 -473.08477572657648 -902.85935194822559 0 0 0 0 -34.178256617866282 -188.66736536116969 0 -188.66736536116969 -826.47030564433965 0 0 0 0 -111.65677336257795 -226.38204873096493 0 -226.38204873096493 -474.80074970118585 0 0 0 0 -101.99675266903068 -590.78255031355366 0 -590.78255031355366 -611.80675047394107 0 0 0 0 525.43942734925622 -374.98522703335811 0 -374.98522703335811 -559.51859100756519 0 0 0 0 326.89222058792075 -186.04917054193629 0 -186.04917054193629 -355.84332488760629 0 0 0 0 -0.77449019802146779 -0.85785598956812237 0 -0.85785598956812237 0.22027161871876899 0 0 0 0 202.47004025331989 -336.96171582473107 0 -336.96171582473107 -439.55714910850747 0 0 0 0 11.486104002695356 -188.10301199359037 0 -188.10301199359037 -174.51587667879085 0 0 0 0 -0.10423299429385224 -177.4778035420286 0 -177.4778035420286 -13.641921278523569 0 0 0 0 90.415699666282308 -55.997574755865571 0 -55.997574755865571 -351.4732101039599 0 0 0 0 -63.759555018292303 -188.58683014205781 0 -188.58683014205781 -421.13429866777733 0 0 0 0 2.1836896782333497 14.839496768134268 0 14.839496768134268 -8.5530078325436989 0 0 0 0 9.7342619871888019 -10.175224207070642 0 -10.175224207070642 36.546096676323941 0 0 0 0 23.89241339713044 -25.551718504531891 0 -25.551718504531891 1.6178386251940537 0 0 0 0 0.052820073000475531 -41.181705491799221 0 -41.181705491799221 52.83586109101816 0 0 0 0 39.077527784662379 -63.912596380734612 0 -63.912596380734612 55.195574293262325 0 0 0 0 33.172672575310571 -88.786659364439402 0 -88.786659364439402 82.011847363224661 0 0 0 0 -94.773518115638581 -33.229743323743605 0 -33.229743323743605 123.99864474667265 0 0 0 0 34.222255074590066 -42.845908561974284 0 -42.845908561974284 -23.008922992565203 0 0 0 0 2.3421142665164325 -0.38267109884235673 0 -0.38267109884235673 -0.3745099541851431 0 0 0 0 -28.394010382224224 -65.978875043614607 0 -65.978875043614607 -78.704501996475301 0 0 0 0 -56.823700594555703 -59.657673251282176 0 -59.657673251282176 20.150640786458098 0 0 0 0 27.230354815357714 -93.120303059760772 0 -93.120303059760772 -58.52998308278984 0 0 0 0 -36.38694947192198 -99.850857452727723 0 -99.850857452727723 13.284395484752167 0 0 0 0 -32.598092825712229 -128.065636710935 0 -128.065636710935 -91.282986016787163 0 0 0 0 -70.632929399489512 -70.08869079156284 0 -70.08869079156284 -60.790923813059635 0 0 0 0 4.2852517877417711 -2.1471427747113978 0 -2.1471427747113978 -0.10878788840720688 0 0 0 0 -20.14377240579779 -16.462860397383338 0 -16.462860397383338 9.7289419939188519 0 0 0 0 -11.000365414627595 -49.02005310471759 0 -49.02005310471759 -0.055563686124514788 0 0 0 0 -3.5442584706916875 -0.05771537816018224 0 -0.05771537816018224 0.53764374671739823 0 0 0 0 -38.344020625161647 -65.514499278964649 0 -65.514499278964649 46.535303731827298 0 0 0 0 -12.141815424547531 -2.2892128345847595 0 -2.2892128345847595 67.402194394278922 0 0 0 0 -5.9414229747417266 17.098925509846595 0 17.098925509846595 127.99860871382407 0 0 0 0 -27.770314633307862 -97.227464372570466 0 -97.227464372570466 88.884825255265241 0 0 0 0 -31.265371194906038 -71.585295350735578 0 -71.585295350735578 153.82643269952678 0 0 0 0 -28.08690924529219 -77.454194577625458 0 -77.454194577625458 65.742737971788188 0 0 0 0 -36.39309688728099 -90.50731709873935 0 -90.50731709873935 31.105496164593205 0 0 0 0 -39.280723624258826 -93.116496258249754 0 -93.116496258249754 94.120797791310906 0 0 0 0 -49.752298846375197 -105.8448690524383 0 -105.8448690524383 90.484299312642179 0 0 0 0 4.8032459869791637 -128.1858105776173 0 -128.1858105776173 -17.386210928281798 0 0 0 0 -39.806334195520321 -22.022082794988819 0 -22.022082794988819 -63.622971194266029 0 0 0 0 -1.0706353712050714 0.90758413943007099 0 0.90758413943007099 -0.24359636751434532 0 0 0 0 55.758320334221935 -84.046924916543503 0 -84.046924916543503 -246.5099320335903 0 0 0 0 -0.12059868763026316 -175.98743049518816 0 -175.98743049518816 -77.850732100996538 0 0 0 0 39.555538482862175 -119.19963014905079 0 -119.19963014905079 49.60986098632111 0 0 0 0 -38.24157452577856 -80.694405250740601 0 -80.694405250740601 36.931980241577548 0 0 0 0 -55.238949354752549 -5.1745835061556136 0 -5.1745835061556136 423.68367812223005 0 0 0 0 0.16507545451895567 -169.99777373932375 0 -169.99777373932375 233.19702321743534 0 0 0 0 -62.707640545748291 -104.19844063090022 0 -104.19844063090022 207.39779621333582 0 0 0 0 -39.914228436595295 -96.593536429310916 0 -96.593536429310916 87.247302982468682 0 0 0 0 0.35298793272522744 -31.34066312359937 0 -31.34066312359937 159.74330178290256 0 0 0 0 -25.475839453083609 -13.583469210902877 0 -13.583469210902877 63.877840593628207 0 0 0 0 -13.368697698657343 32.670665220395676 0 32.670665220395676 239.90876943118928 0 0 0 0 0.71143018169873073 -1.6968107820980052 0 -1.6968107820980052 -2.0310602571371135 0 0 0 0 39.03466089219728 108.7005790637013 0 108.7005790637013 331.08070373042756 0 0 0 0 1.2297358713752118 -0.96249524197369318 0 -0.96249524197369318 -0.19039786418993287 0 0 0 0 -0.31383815517256153 -96.117353785983141 0 -96.117353785983141 -91.473271076314632 0 0 0 0 -63.361617146430945 -61.956432672373921 0 -61.956432672373921 -67.729742773462021 0 0 0 0 -103.40655878567486 -80.879187519547486 0 -80.879187519547486 -59.477619616291122 0 0 0 0 -114.34223974998349 -121.56310298037533 0 -121.56310298037533 -73.836015444412624 0 0 0 0 8.365324949954811 -5.0921004423344129 0 -5.0921004423344129 -32.626589919265825 0 0 0 0 2.3624877114358753 -1.5696323006101736 0 -1.5696323006101736 -6.8151362019719812 0 0 0 0 0.2944200996599875 -3.5503389725583183 0 -3.5503389725583183 3.9790044126544046 0 0 0 0 -70.536450387935474 -109.74467621610165 0 -109.74467621610165 -95.762569347247336 0 0 0 0 -0.10861784027407018 -98.221659729136363 0 -98.221659729136363 -105.77132984281343 0 0 0 0 1.3902582264120156 -0.15097123642301113 0 -0.15097123642301113 -1.3534023992775985 0 0 0 0 53.868774421177804 -38.8222768918151 0 -38.8222768918151 15.875926611048669 0 0 0 0 -68.951218031455937 -116.69820044042535 0 -116.69820044042535 16.034657769618207 0 0 0 0 26.861747909133555 -141.6218376555662 0 -141.6218376555662 -102.79463713458244 0 0 0 0 2.6977390668781283 -3.8710273378601983 0 -3.8710273378601983 3.0383870868255514 0 0 0 0 -22.660865923578967 -44.766291702151648 0 -44.766291702151648 -126.66314843765576 0 0 0 0 -15.034878771431977 -70.025681116365377 0 -70.025681116365377 -54.429462676402181 0 0 0 0 74.546917907558964 -34.603826846760057 0 -34.603826846760057 -61.397211344577954 0 0 0 0 77.738974835476256 30.297304124176662 0 30.297304124176662 -45.908316326589556 0 0 0 0 1.9128364315205317 -1.1206567631576192 0 -1.1206567631576192 -3.3270229574140657 0 0 0 0 82.336232885660138 -25.106947188218328 0 -25.106947188218328 -54.763307972243638 0 0 0 0 -217.45732848679472 -154.49000127293766 0 -154.49000127293766 -98.803523858185144 0 0 0 0 34.015426809433848 21.338884560107545 0 21.338884560107545 -57.406112350188778 0 0 0 0 -21.147203364002053 -34.801888563692046 0 -34.801888563692046 40.669807693062467 0 0 0 0 7.0381540494126966 -44.500618888019744 0 -44.500618888019744 -33.662971228139213 0 0 0 0 -35.810376118359272 -111.38923787523163 0 -111.38923787523163 -81.951417891177698 0 0 0 0 -9.4682429920309943 -6.4003514837278423 0 -6.4003514837278423 11.593952439084454 0 0 0 0 -46.901702425679105 -8.9216746659631099 0 -8.9216746659631099 25.714661744741534 0 0 0 0 -42.39292315629973 -61.969595209823638 0 -61.969595209823638 46.632851668771764 0 0 0 0 -28.593375705084817 -35.023112784918681 0 -35.023112784918681 20.707835309847624 0 0 0 0 -44.272566025079868 -56.877585227388408 0 -56.877585227388408 63.307532239517968 0 0 0 0 -21.863598131421895 -10.241214858355306 0 -10.241214858355306 18.50605847442057 0 0 0 0 -22.96474007236975 -5.6521948485569737 0 -5.6521948485569737 71.354252124554478 0 0 0 0 -47.860668119057664 -65.431375552212558 0 -65.431375552212558 154.66579320261008 0 0 0 0 -47.626173887497771 -64.920691112773511 0 -64.920691112773511 51.859421538974857 0 0 0 0 -57.89080374830337 -31.739546733588213 0 -31.739546733588213 36.124554283374891 0 0 0 0 -16.530762865671932 -69.812731103952956 0 -69.812731103952956 21.387765829047567 0 0 0 0 0.37891282407342286 -2.1868995933012556 0 -2.1868995933012556 1.1440947678952682 0 0 0 0 -48.977297580073355 -1.6398516559511336 0 -1.6398516559511336 -20.766086509910565 0 0 0 0 38.443535260241333 -338.6941963664849 0 -338.6941963664849 359.6223037249074 0 0 0 0 248.72961008927086 104.06980032073989 0 104.06980032073989 -115.38760599297166 0 0 0 0 341.30204552512805 -277.71419586142474 0 -277.71419586142474 40.052033058676898 0 0 0 0 209.53262794918919 -64.01117252007316 0 -64.01117252007316 -86.695908097259235 0 0 0 0 -118.37236013918846 1.2973134768762975 0 1.2973134768762975 127.49122556582734 0 0 0 0 -37.117405653262836 -30.138780529111443 0 -30.138780529111443 23.253000320886116 0 0 0 0 79.935651278883597 -140.91251971922429 0 -140.91251971922429 35.200562927537248 0 0 0 0 187.00945206122196 -48.881543453658196 0 -48.881543453658196 -48.139097195668 0 0 0 0 144.85425391018362 -26.165500683657228 0 -26.165500683657228 -35.796603417997176 0 0 0 0 529.45737064950663 106.50647317388211 0 106.50647317388211 4.6585591650473361 0 0 0 0 186.54736096509987 20.566052362347364 0 20.566052362347364 -16.675074627451977 0 0 0 0 9.2760480408196599 15.726716309586664 0 15.726716309586664 96.594204627028375 0 0 0 0 -47.067763428392936 -149.17107598979783 0 -149.17107598979783 -46.62162015697686 0 0 0 0 -11.299072591449658 -26.110285253293114 0 -26.110285253293114 -51.609467955116997 0 0 0 0 44.4411401786856 -66.767545047587191 0 -66.767545047587191 -23.398615266305569 0 0 0 0 34.980176711178501 -26.622664411977894 0 -26.622664411977894 142.01504087707963 0 0 0 0 111.52807629772724 -3.6841205951350275 0 -3.6841205951350275 -9.4264138386570266 0 0 0 0 155.32692112390214 -129.39100037149547 0 -129.39100037149547 269.40694090601846 0 0 0 0 75.633104687811283 -121.48548908390876 0 -121.48548908390876 31.284631802631338 0 0 0 0 221.12023590083845 -66.034117000785045 0 -66.034117000785045 -133.53109875005629 0 0 0 0 266.62699221845105 15.976505138643915 0 15.976505138643915 -133.1897520774728 0 0 0 0 -167.02430535478925 -162.91353769776106 0 -162.91353769776106 -43.775606330496885 0 0 0 0 -83.88122656125779 -253.66940625525331 0 -253.66940625525331 -207.97074175126909 0 0 0 0 9.0221504547026825 -7.2474098911301592 0 -7.2474098911301592 4.3975265583974164 0 0 0 0 52.481217225569708 -54.726383580757101 0 -54.726383580757101 -136.95927222513274 0 0 0 0 -87.867690138244598 -48.63323813719262 0 -48.63323813719262 -177.22219683374715 0 0 0 0 282.62629658718652 -107.57633166850792 0 -107.57633166850792 -165.40727695427631 0 0 0 0 4.5334727956599323 -2.943668248938792 0 -2.943668248938792 1.1080638877804887 0 0 0 0 54.632863526838264 46.957815616859079 0 46.957815616859079 -142.49647941059811 0 0 0 0 31.652177703275811 -401.99977727624719 0 -401.99977727624719 190.13086507520666 0 0 0 0 -138.97708625696396 -235.30688873234249 0 -235.30688873234249 177.99831789294331 0 0 0 0 293.63359160007894 -370.79416658822447 0 -370.79416658822447 36.841946828113578 0 0 0 0 43.322520886440543 -170.82676155308536 0 -170.82676155308536 -4.8045622988211107 0 0 0 0 -35.175650010559366 -337.59273585682513 0 -337.59273585682513 129.00988083920674 0 0 0 0 65.012627152280402 -349.12928524087692 0 -349.12928524087692 87.225638151117892 0 0 0 0 21.658831009364803 -358.01433371390885 0 -358.01433371390885 98.252888929622713 0 0 0 0 76.176144762330296 -393.47498943813844 0 -393.47498943813844 252.61224535030487 0 0 0 0 -18.696983529778663 -190.53288986375264 0 -190.53288986375264 113.3652650249569 0 0 0 0 36.508846972294123 -293.57617103809025 0 -293.57617103809025 262.81315898679168 0 0 0 0 162.25265764835058 -154.76463081201655 0 -154.76463081201655 309.64452970177808 0 0 0 0 -314.32871852905009 -252.83453278200977 0 -252.83453278200977 19.783661088797089 0 0 0 0 -72.701672163490002 -255.95124984947324 0 -255.95124984947324 62.166087234858423 0 0 0 0 -200.09416875115858 -153.38629400042191 0 -153.38629400042191 77.761910330518731 0 0 0 0 -102.47718888230884 -280.1529423113243 0 -280.1529423113243 207.81496800360765 0 0 0 0 -83.549393706918636 -263.04513908954686 0 -263.04513908954686 88.312364322833673 0 0 0 0 -228.04795217589708 -133.20309542998439 0 -133.20309542998439 35.282629173765599 0 0 0 0 -87.543635637026455 -218.83579552384617 0 -218.83579552384617 72.165441454868414 0 0 0 0 10.368838283873629 -246.5385689236648 0 -246.5385689236648 -11.281728103094792 0 0 0 0 -259.32114183343219 14.228699927216439 0 14.228699927216439 60.226880274720315 0 0 0 0 -11.11088004866496 1.075022092759923 0 1.075022092759923 1.2337712728349857 0 0 0 0 -101.3708335628362 30.699038899081643 0 30.699038899081643 0.76357354477477202 0 0 0 0 -94.436443595331752 -41.153297911938353 0 -41.153297911938353 -3.5466492288251175 0 0 0 0 -24.300542258328278 -3.6360577026800911 0 -3.6360577026800911 119.85813074008911 0 0 0 0 -5.5331917018484091 -116.1465922486459 0 -116.1465922486459 101.25823665314965 0 0 0 0 -27.660778176026987 -32.424425556636841 0 -32.424425556636841 26.067320849581478 0 0 0 0 0.34463910877821036 -58.253002620975167 0 -58.253002620975167 125.78439895238807 0 0 0 0 1.7716037576565498 -1.191891623504107 0 -1.191891623504107 -0.49557871134688014 0 0 0 0 80.830752907502756 -38.129083896979864 0 -38.129083896979864 13.512457250621082 0 0 0 0 -19.759958845032088 17.155190643608876 0 17.155190643608876 258.8780882762585 0 0 0 0 -1.3964822820739471 0.10994261205841838 0 0.10994261205841838 0.5893328138348064 0 0 0 0 4.7429462566869915 -115.3985261512571 0 -115.3985261512571 226.34536441160162 0 0 0 0 301.94443708063045 9.9305081703314499 0 9.9305081703314499 64.532947272928141 0 0 0 0 -1.6979310985988065 -37.781535060728991 0 -37.781535060728991 24.040178696185833 0 0 0 0 -19.534989521249372 -160.11137279433024 0 -160.11137279433024 -212.43880722040194 0 0 0 0 -34.060642052707408 -56.084884967309335 0 -56.084884967309335 14.318522092224157 0 0 0 0 -225.9857602670636 -107.72974600412272 0 -107.72974600412272 94.690255634755886 0 0 0 0 -373.12508111961506 69.25586425531219 0 69.25586425531219 -0.64546416742700785 0 0 0 0 -25.599571672952152 -206.51199706670741 0 -206.51199706670741 257.78867171232014 0 0 0 0 10.323972614601026 -5.0616416103829778 0 -5.0616416103829778 2.2634380873129061 0 0 0 0 -475.09005333299865 -23.175349833072687 0 -23.175349833072687 66.516859772262251 0 0 0 0 -130.22753763113724 95.711236975634165 0 95.711236975634165 16.184437218995299 0 0 0 0 -438.3319411481425 -268.12275238359507 0 -268.12275238359507 -57.58009350216139 0 0 0 0 -12.460911163256917 -2.4406696611340415 0 -2.4406696611340415 5.7020952287506645 0 0 0 0 36.818824637302896 -95.748434038177948 0 -95.748434038177948 -364.72141487128727 0 0 0 0 -58.73532888491718 -225.07861355083332 0 -225.07861355083332 -14.638427133875666 0 0 0 0 41.421505869711353 -31.298807200179247 0 -31.298807200179247 13.313051016555789 0 0 0 0 -17.64307106789056 46.016203771332584 0 46.016203771332584 85.948693711462511 0 0 0 0 55.435355223446095 -54.475248433995148 0 -54.475248433995148 19.642253983860428 0 0 0 0 -193.15161722981429 -53.59986436323743 0 -53.59986436323743 -26.35637454937023 0 0 0 0 -378.30820521723581 -105.91603114682221 0 -105.91603114682221 49.110725411417661 0 0 0 0 10.643120051277322 -4.4508100530010921 0 -4.4508100530010921 -3.4755464640165883 0 0 0 0 -317.95835447990612 -118.45750200115071 0 -118.45750200115071 -50.526364386579417 0 0 0 0 -146.77898374177312 -17.627476231438777 0 -17.627476231438777 49.771595680633254 0 0 0 0 11.998385710692673 79.114381816300011 0 79.114381816300011 38.212223667207581 0 0 0 0 -213.30027890110068 -5.3481649983514217 0 -5.3481649983514217 86.484144324560475 0 0 0 0 0.14194106785858596 0.91377801344238208 0 0.91377801344238208 0.68508575674222527 0 0 0 0 240.15126835914998 30.568443914420641 0 30.568443914420641 -48.629032270073367 0 0 0 0 39.341559599983157 15.425247541217686 0 15.425247541217686 -117.56787234575131 0 0 0 0 103.98566298357764 153.62988180657339 0 153.62988180657339 -20.02420260568033 0 0 0 0 68.619869442922209 94.96096239998019 0 94.96096239998019 40.764685006841319 0 0 0 0 39.840727412039996 128.50581173684623 0 128.50581173684623 212.11420662886667 0 0 0 0 67.898600173095474 98.379107847180421 0 98.379107847180421 85.734703420654114 0 0 0 0 115.38623602559892 -63.360949817508299 0 -63.360949817508299 221.46720068532159 0 0 0 0 -29.572793808991264 -98.07369272653159 0 -98.07369272653159 34.82205379975494 0 0 0 0 37.47874654221232 15.904261141244206 0 15.904261141244206 223.39974836788315 0 0 0 0 -151.79413270261284 -39.105332172319322 0 -39.105332172319322 109.93808039539636 0 0 0 0 -152.3097374046265 -64.620989486709732 0 -64.620989486709732 -171.03619977934795 0 0 0 0 -146.47215834506278 -2.7778553489151818 0 -2.7778553489151818 -19.638298169607879 0 0 0 0 -548.46325388235709 -29.906703803231721 0 -29.906703803231721 47.600305639862199 0 0 0 0 204.44938274311971 -560.39020605239966 0 -560.39020605239966 536.78777843053103 0 0 0 0 176.08421616521082 -355.9125848068943 0 -355.9125848068943 -12.916747879062314 0 0 0 0 -103.82040372949268 -326.54335537196312 0 -326.54335537196312 667.61975214676636 0 0 0 0 194.92418767962226 -510.52375666558146 0 -510.52375666558146 294.60929712999496 0 0 0 0 -47.922439266782021 -285.3893038721726 0 -285.3893038721726 667.71400283733237 0 0 0 0 280.90747691854995 -264.66890637543111 0 -264.66890637543111 126.94601310249709 0 0 0 0 1.521609782631856 -2.5530871325379749 0 -2.5530871325379749 4.5162927023039003 0 0 0 0 60.513235627138101 -7.420323403556722 0 -7.420323403556722 365.48950662762218 0 0 0 0 202.98275054308033 -296.30258929269803 0 -296.30258929269803 715.8372132901568 0 0 0 0 77.148414264476742 -41.697896782039606 0 -41.697896782039606 418.45706600735139 0 0 0 0 71.609100301797298 158.98330382836139 0 158.98330382836139 76.625875060432008 0 0 0 0 280.23774760677043 -46.43258255155888 0 -46.43258255155888 -105.84579431288148 0 0 0 0 228.82764834084082 17.901811852978426 0 17.901811852978426 -216.57519110704743 0 0 0 0 0.419342134289721 -1.0180341245491888 0 -1.0180341245491888 0.11839890288480248 0 0 0 0 19.003900969390088 -253.288229729249 0 -253.288229729249 697.86740970036772 0 0 0 0 304.15491082172503 -305.72369586406649 0 -305.72369586406649 264.40937232629949 0 0 0 0 59.689619495358784 4.5774599440628663 0 4.5774599440628663 421.18610159958553 0 0 0 0 117.7130671695777 -158.90732354093052 0 -158.90732354093052 326.85659544079681 0 0 0 0 -65.20587201215676 -129.70496114471462 0 -129.70496114471462 549.96593571114681 0 0 0 0 -0.25417868269225607 -3.5289391316278937 0 -3.5289391316278937 -0.22774164844787492 0 0 0 0 42.6355634480351 1.3434740897791926 0 1.3434740897791926 367.49872550844339 0 0 0 0 81.240371092920213 -379.82340276466311 0 -379.82340276466311 494.51433149804507 0 0 0 0 63.636565646764211 172.66047886451997 0 172.66047886451997 -128.35167790948799 0 0 0 0 -12.524039649924404 0.053555980650756396 0 0.053555980650756396 2.5784798799111641 0 0 0 0 -34.765004406581284 -41.987733946720255 0 -41.987733946720255 -67.10524090292347 0 0 0 0 164.63357838147294 -36.490346251531264 0 -36.490346251531264 17.931310728512472 0 0 0 0 -18.304373401760415 -1.804998178990715 0 -1.804998178990715 4.9713618987210708 0 0 0 0 -116.31731092182235 -95.453867691470805 0 -95.453867691470805 655.69951038215368 0 0 0 0 -53.333132115763874 164.33783968085845 0 164.33783968085845 336.30344531910669 0 0 0 0 -89.900920159185262 13.25243276098081 0 13.25243276098081 0.91019820083602099 0 0 0 0 -73.494403650372988 -77.00959937719017 0 -77.00959937719017 57.959855639332091 0 0 0 0 -109.53152386486181 25.847227048099739 0 25.847227048099739 101.27537414945255 0 0 0 0 -70.106803293343546 -101.79854132553373 0 -101.79854132553373 211.84589187324218 0 0 0 0 98.395760465984495 119.41225162069986 0 119.41225162069986 125.41449298487714 0 0 0 0 20.955384548840811 -122.14774256809869 0 -122.14774256809869 -11.06744047558459 0 0 0 0 -35.405165741334713 -109.80575175863851 0 -109.80575175863851 -21.119049027812252 0 0 0 0 -77.942307244658878 -46.872702018914424 0 -46.872702018914424 6.1337693625755492 0 0 0 0 4.8816081947661587 -52.740427377553715 0 -52.740427377553715 -17.234137965871014 0 0 0 0 -15.600669079452928 -73.652896058931219 0 -73.652896058931219 -7.8996589377638884 0 0 0 0 -75.951205135336295 -36.557936747654821 0 -36.557936747654821 25.218889236661198 0 0 0 0 15.72535316407982 -15.48583360670991 0 -15.48583360670991 8.2030533458857064 0 0 0 0 -49.872333252245653 -339.54814937217816 0 -339.54814937217816 1048.9456165144511 0 0 0 0 4.4556204815605014 -2.6086241902811622 0 -2.6086241902811622 1.7093438411547552 0 0 0 0 674.78033128980314 -412.42696576231174 0 -412.42696576231174 812.81188764225226 0 0 0 0 48.883706478343811 -20.721891243294522 0 -20.721891243294522 -140.34108624095461 0 0 0 0 362.5744166842851 -598.49771603287081 0 -598.49771603287081 714.16010140255412 0 0 0 0 463.29936647266004 -421.41267396019975 0 -421.41267396019975 402.98030131662563 0 0 0 0 4.6268335387467232 -161.81411379907513 0 -161.81411379907513 10.996172924757047 0 0 0 0 385.5915512241736 -243.66781990896743 0 -243.66781990896743 -22.842056011315435 0 0 0 0 -91.000607784710155 -124.85539980834801 0 -124.85539980834801 1.2180752283550191 0 0 0 0 -58.822005797752354 -74.794316916551907 0 -74.794316916551907 -17.083631763500307 0 0 0 0 -54.866278941379278 -56.228381494987843 0 -56.228381494987843 -39.9389952089914 0 0 0 0 -33.950693226795011 -109.54219626457541 0 -109.54219626457541 -166.05493390873744 0 0 0 0 -79.991656243277248 -122.37023169779059 0 -122.37023169779059 -93.925639793953451 0 0 0 0 -32.326079808839495 -74.786261065463805 0 -74.786261065463805 -123.5640984704587 0 0 0 0 -34.099989613307116 -113.62473653250709 0 -113.62473653250709 -136.91064117846781 0 0 0 0 -122.42019903658729 -227.28216084990527 0 -227.28216084990527 -185.89243311346763 0 0 0 0 -168.61728779441091 -100.24829628610587 0 -100.24829628610587 -47.601743174214789 0 0 0 0 -183.38829983175674 -227.17133209789245 0 -227.17133209789245 -159.93164694839652 0 0 0 0 1.6791763959008676 -0.71844589187468166 0 -0.71844589187468166 -1.256516323179369 0 0 0 0 -67.466878273713519 -175.1422642817306 0 -175.1422642817306 -215.46602405652447 0 0 0 0 47.250535882312761 -129.98085853684461 0 -129.98085853684461 -217.95537185476132 0 0 0 0 -68.603228034342465 -31.831004666388253 0 -31.831004666388253 -32.949149526750261 0 0 0 0 9.7571367075339595 -8.1998482973341282 0 -8.1998482973341282 5.6557581245273241 0 0 0 0 -148.87724684932618 -252.04056840316116 0 -252.04056840316116 -177.01383206094033 0 0 0 0 -79.582386657901225 -142.58056522592597 0 -142.58056522592597 -247.6072638772057 0 0 0 0 -72.642860873151221 -132.54153543648135 0 -132.54153543648135 -99.38154517536168 0 0 0 0 -103.95146602955447 -105.88477150966264 0 -105.88477150966264 -63.833483613314456 0 0 0 0 -130.19132649704261 -108.85009215426908 0 -108.85009215426908 -9.9639266747326474 0 0 0 0 -93.843844680268376 -55.321962823141803 0 -55.321962823141803 -211.58340741003582 0 0 0 0 -237.1297494372011 -175.34168334691822 0 -175.34168334691822 -64.842796458273369 0 0 0 0 -113.8634436009379 -141.80668893011534 0 -141.80668893011534 -110.31613955264038 0 0 0 0 -81.837649239228995 -126.36129020896624 0 -126.36129020896624 -135.52394228520279 0 0 0 0 -84.682387686872971 -111.87103034964821 0 -111.87103034964821 -82.804851615946973 0 0 0 0 -86.955116920518776 -103.03789324252102 0 -103.03789324252102 -99.470064146895311 0 0 0 0 -99.82101545574551 -140.12333123602002 0 -140.12333123602002 -111.83037466141468 0 0 0 0 -88.93877294511185 -113.72391166022317 0 -113.72391166022317 -85.997312183855684 0 0 0 0 -99.61060893087415 -134.61901571066846 0 -134.61901571066846 -123.00927539373515 0 0 0 0 -118.39704937327042 -157.45326035295147 0 -157.45326035295147 -127.75945785194926 0 0 0 0 -120.42049774993939 -152.05211761340252 0 -152.05211761340252 -137.95094518104452 0 0 0 0 -127.86968792424886 -159.49783225276042 0 -159.49783225276042 -217.82348173282662 0 0 0 0 -133.3417731972113 -172.71419356350088 0 -172.71419356350088 -146.95792577657267 0 0 0 0 -185.19869333114548 -94.801895460377636 0 -94.801895460377636 -182.4263089090382 0 0 0 0 -229.4671821116317 -139.23713373384453 0 -139.23713373384453 -106.53231316922756 0 0 0 0 -124.16629090503557 -112.14856284848065 0 -112.14856284848065 -172.85304484302469 0 0 0 0 -149.61520459910389 -139.0424490293808 0 -139.0424490293808 -127.71267179434653 0 0 0 0 -103.48348511798395 -110.59130052966793 0 -110.59130052966793 -139.79529607214681 0 0 0 0 -154.2185450193756 -127.48819462701067 0 -127.48819462701067 -78.600606015425001 0 0 0 0 -157.19725172550534 -169.3257776392129 0 -169.3257776392129 -113.01436571677186 0 0 0 0 -74.703743772370217 -120.24882130274636 0 -120.24882130274636 -62.933940964376234 0 0 0 0 -4.8459110380026686 -72.952563495296999 0 -72.952563495296999 -101.98553547741903 0 0 0 0 -114.58813295866275 -81.894008981969819 0 -81.894008981969819 -99.817833430293831 0 0 0 0 -17.547239879000699 -54.778384707831719 0 -54.778384707831719 -41.901798781431353 0 0 0 0 -40.239296145316075 -14.955441197526852 0 -14.955441197526852 -27.391396115024691 0 0 0 0 16.564358155721365 -14.066340249101881 0 -14.066340249101881 5.7665682643143441 0 0 0 0 -64.379721918818177 -85.766451354845231 0 -85.766451354845231 -114.64337766826065 0 0 0 0 -76.349308618120631 -100.75413536925225 0 -100.75413536925225 -37.936661020936299 0 0 0 0 17.176513903608459 -14.722171851248429 0 -14.722171851248429 6.6600559747427184 0 0 0 0 -46.72196853719197 -29.128467931253454 0 -29.128467931253454 -5.4844965636584675 0 0 0 0 -28.03251375120135 -62.038360114984471 0 -62.038360114984471 -54.628451458767813 0 0 0 0 -18.838904465050291 -59.015685006368585 0 -59.015685006368585 -52.646208642145211 0 0 0 0 -22.062247551508335 -51.978736849145207 0 -51.978736849145207 -42.78077764120917 0 0 0 0 -19.472428465207486 -54.347495030713162 0 -54.347495030713162 -58.782732586732891 0 0 0 0 -22.116694047348574 -58.349990401045943 0 -58.349990401045943 -45.688107320936979 0 0 0 0 -20.517530270444695 -57.256607196366531 0 -57.256607196366531 -51.490396445966326 0 0 0 0 -19.71965460318097 -56.232099591103179 0 -56.232099591103179 -50.683529291651212 0 0 0 0 -14.122914099491027 -51.797757742371687 0 -51.797757742371687 -43.815683767468727 0 0 0 0 -22.473975908280408 -57.282713242357204 0 -57.282713242357204 -41.765474412211915 0 0 0 0 -23.196422493640057 -54.87108714770693 0 -54.87108714770693 -28.196229363937164 0 0 0 0 -12.968670713620668 -37.134402255993336 0 -37.134402255993336 -18.8348441774815 0 0 0 0 -15.775542709345245 -22.88094935324807 0 -22.88094935324807 -51.757780598607496 0 0 0 0 3.2307562655660149 -31.135977375324728 0 -31.135977375324728 -26.465472297162705 0 0 0 0 17.136531589808314 -14.03331524811423 0 -14.03331524811423 4.9461148145839502 0 0 0 0 -17.626346668832412 -52.423613407208904 0 -52.423613407208904 -31.678079977064044 0 0 0 0 -20.474618097458006 -46.397576597335501 0 -46.397576597335501 -42.785922146380472 0 0 0 0 -19.918326590297511 -39.264334347601107 0 -39.264334347601107 -24.598906745071872 0 0 0 0 -7.035747810601606 -48.151616929837473 0 -48.151616929837473 -20.06160790532158 0 0 0 0 -11.511323226306558 -21.889788761894124 0 -21.889788761894124 -7.925656069724937 0 0 0 0 8.9919465389221784 -7.3882160268719872 0 -7.3882160268719872 3.629657088299922 0 0 0 0 -13.042882820882369 -38.361361986404518 0 -38.361361986404518 -9.6431113476282917 0 0 0 0 20.416914935514797 -53.650849405967165 0 -53.650849405967165 -76.652185602550162 0 0 0 0 -60.233423300895083 -128.38825308714149 0 -128.38825308714149 -37.409746154837194 0 0 0 0 -80.730290620944288 -142.63430275663995 0 -142.63430275663995 -122.18166499157087 0 0 0 0 -79.392486241777078 -114.22709397063954 0 -114.22709397063954 -93.590237643387809 0 0 0 0 -50.863369823870016 -121.64393558286247 0 -121.64393558286247 -92.961329933765228 0 0 0 0 -77.238526802320848 -88.154224646328657 0 -88.154224646328657 -10.648883087764261 0 0 0 0 -55.712453000902315 -101.76144632613432 0 -101.76144632613432 -99.813623017456848 0 0 0 0 -61.387009357160423 -76.573793084768113 0 -76.573793084768113 -51.419352845303365 0 0 0 0 -5.4306952953231331 -2.5479630432364928 0 -2.5479630432364928 4.1879511957860416 0 0 0 0 -91.337158649777848 -55.159422830363383 0 -55.159422830363383 -65.387608844794158 0 0 0 0 -108.44062992204545 -2.4696467100343398 0 -2.4696467100343398 22.047693674263428 0 0 0 0 -0.28513403679789917 -43.35637381028846 0 -43.35637381028846 -35.953256177213916 0 0 0 0 -60.819917293607432 -52.627671124009794 0 -52.627671124009794 -22.978821658445668 0 0 0 0 -66.436795812653145 -21.457716816687025 0 -21.457716816687025 -28.336045942967758 0 0 0 0 -20.285098643398896 -47.658846658650191 0 -47.658846658650191 -34.26132500548556 0 0 0 0 -32.460341500525828 -49.730766927892546 0 -49.730766927892546 -30.410678752432432 0 0 0 0 -38.626444138291845 -35.460911996706272 0 -35.460911996706272 -54.209195342984458 0 0 0 0 -41.0827573339011 -10.703722354777256 0 -10.703722354777256 -88.225453336635837 0 0 0 0 11.683851563593635 43.835167307999654 0 43.835167307999654 -34.930584382902452 0 0 0 0 -38.126061027156538 -24.205861371192441 0 -24.205861371192441 -28.852564155826258 0 0 0 0 -31.135783298774641 -44.85543670006291 0 -44.85543670006291 -66.173560638148047 0 0 0 0 -25.770600590130925 -51.771541828180489 0 -51.771541828180489 -50.036023666995106 0 0 0 0 -28.806110715377145 -52.419570130815373 0 -52.419570130815373 -47.014177188350004 0 0 0 0 -20.423028577431978 -57.185405960553908 0 -57.185405960553908 -49.576955752241247 0 0 0 0 -21.551711019252252 -47.702490046980529 0 -47.702490046980529 -46.628270372995757 0 0 0 0 -19.781777510285337 -57.029602990141257 0 -57.029602990141257 -49.700426896946738 0 0 0 0 -17.255234054537141 -54.680765955810784 0 -54.680765955810784 -51.684659809543518 0 0 0 0 -42.172718196736241 -62.602031763181003 0 -62.602031763181003 -57.087593947228015 0 0 0 0 -15.260680911516829 -41.0514801975296 0 -41.0514801975296 -39.794922119855983 0 0 0 0 -30.401325526518121 -48.565874738744242 0 -48.565874738744242 -41.145169763505692 0 0 0 0 -2.7390384047924812 0.98026817329532179 0 0.98026817329532179 -0.31018318030885439 0 0 0 0 -15.057264693779871 -39.627784638789308 0 -39.627784638789308 -41.441606107204279 0 0 0 0 9.1036196062249246 -6.2645120222752944 0 -6.2645120222752944 1.0220460006676433 0 0 0 0 -5.8519048626476433 -22.546242057222116 0 -22.546242057222116 32.04501055700166 0 0 0 0 9.6032793050116538 -1.0568312022268742 0 -1.0568312022268742 -0.66288755953453915 0 0 0 0 3.1504548038938083 -104.26340237726254 0 -104.26340237726254 278.65859940079827 0 0 0 0 33.915556909778388 -97.009908835432725 0 -97.009908835432725 267.35183210403738 0 0 0 0 -10.313758180112927 -100.23095489596744 0 -100.23095489596744 267.37114960851613 0 0 0 0 11.874067458371428 -96.784724511971945 0 -96.784724511971945 245.83188534120563 0 0 0 0 -30.619200742316025 -98.679326421042788 0 -98.679326421042788 245.7519184072321 0 0 0 0 -0.79171269579819636 -87.648132446978707 0 -87.648132446978707 280.77104557066195 0 0 0 0 13.285317381683853 -73.025284539144195 0 -73.025284539144195 236.66926519208027 0 0 0 0 -4.0993978566257283 -109.50964250147808 0 -109.50964250147808 248.51615929565742 0 0 0 0 19.683057380298123 53.128731612394404 0 53.128731612394404 383.24123762601084 0 0 0 0 8.6056577989779868 -4.4415980231684031 0 -4.4415980231684031 1.446592077920144 0 0 0 0 -48.369225671380264 -61.372969920324977 0 -61.372969920324977 371.34622034159474 0 0 0 0 -12.579634427444944 13.935840818934594 0 13.935840818934594 396.46811318861 0 0 0 0 1.1090687651303597 -24.608132392815605 0 -24.608132392815605 275.06263782714086 0 0 0 0 5.9203107334760716 -84.005063935284852 0 -84.005063935284852 242.25857267585525 0 0 0 0 -5.757995579384442 -73.515363383092335 0 -73.515363383092335 273.89470107850502 0 0 0 0 82.685531245253514 -46.534112366120098 0 -46.534112366120098 251.79673395806458 0 0 0 0 58.099601443798747 -59.590068445912038 0 -59.590068445912038 271.29964587577706 0 0 0 0 31.800942302201292 -40.427560344338417 0 -40.427560344338417 269.75125432602363 0 0 0 0 87.094201062223874 -30.183277762902435 0 -30.183277762902435 262.7102855957346 0 0 0 0 87.094201062340289 -30.183277762203943 0 -30.183277762203943 262.71028559841216 0 0 0 0 -0.26276589366898406 -12.644459125833237 0 -12.644459125833237 -58.465928761143005 0 0 0 0 -11.068494101484248 -54.269541225316061 0 -54.269541225316061 -72.744690349058146 0 0 0 0 -7.0139635979885497 -50.907207027377808 0 -50.907207027377808 -66.79863210493204 0 0 0 0 -16.566567669004144 -38.04465003601581 0 -38.04465003601581 -33.772897224320332 0 0 0 0 1.0539412914949935 -33.516826042086905 0 -33.516826042086905 -42.648897331528133 0 0 0 0 87.094201062340289 -30.183277762698708 0 -30.183277762698708 262.71028559582192 0 0 0 0 3.2863269338457641 -0.64096286670815061 0 -0.64096286670815061 -3.1073627114709268 0 0 0 0 2.0886428906521672 -2.3615141498223267 0 -2.3615141498223267 -0.040325325338429252 0 0 0 0 -11.702717941458104 -23.921278289024485 0 -23.921278289024485 -4.7165711835841648 0 0 0 0 -3.78498835224309 -39.922486843948718 0 -39.922486843948718 -50.609629410042544 0 0 0 0 -19.444072187947313 -55.352413001837704 0 -55.352413001837704 -51.712279870735074 0 0 0 0 -23.159723232733086 -51.649186422568164 0 -51.649186422568164 -57.742400440090023 0 0 0 0 -19.487711668734846 -53.952860213543318 0 -53.952860213543318 -56.589681807970919 0 0 0 0 -23.100704938264244 -56.530396286569157 0 -56.530396286569157 -58.418703287657991 0 0 0 0 4.2740011991454594 -73.750952271435381 0 -73.750952271435381 -149.50573963017814 0 0 0 0 2.6245179569150139 -0.82493665754219592 0 -0.82493665754219592 0.68500168240584003 0 0 0 0 -141.91803890340816 90.23426782120805 0 90.23426782120805 708.2241433213585 0 0 0 0 76.515305313408135 98.761335480379785 0 98.761335480379785 313.72980480546539 0 0 0 0 29.833987841728231 -83.725214917547419 0 -83.725214917547419 276.62102753717045 0 0 0 0 -80.204823163163383 -49.393695056220167 0 -49.393695056220167 211.31466083759733 0 0 0 0 -33.636708500816894 -11.845188044935639 0 -11.845188044935639 227.47287088614394 0 0 0 0 -65.345161410288711 -99.507033058791421 0 -99.507033058791421 229.507650937172 0 0 0 0 -45.539015001354528 62.833184910640739 0 62.833184910640739 28.955819424314541 0 0 0 0 -18.677829132509942 -53.121507496415688 0 -53.121507496415688 103.40037067768571 0 0 0 0 -52.597976378252497 31.782586426357739 0 31.782586426357739 4.5158753000177967 0 0 0 0 -53.445691242978114 -37.522381917490009 0 -37.522381917490009 119.29388244639267 0 0 0 0 -97.944901636859868 35.078111966395227 0 35.078111966395227 66.385867238088395 0 0 0 0 -49.70037401278023 -132.60636105803496 0 -132.60636105803496 450.10993460493046 0 0 0 0 -0.86732071420556167 47.13291697484965 0 47.13291697484965 85.60199136340816 0 0 0 0 -201.54135313277948 -73.491205553560576 0 -73.491205553560576 42.392358847573632 0 0 0 0 9.9104634577015531 -101.0413604447931 0 -101.0413604447931 -198.89253239893878 0 0 0 0 -141.44883060012944 155.29937299662561 0 155.29937299662561 92.660148743205355 0 0 0 0 183.09786950770376 -417.20184452669491 0 -417.20184452669491 842.42362747183506 0 0 0 0 -3.3716091775045243 -0.47904480864723098 0 -0.47904480864723098 0.78877618495892676 0 0 0 0 -2.9620415832010565 -4.3839988230411819 0 -4.3839988230411819 -0.18629475875459889 0 0 0 0 11.773517807225289 135.80235767453269 0 135.80235767453269 -309.41035348308287 0 0 0 0 -42.169408984234906 257.5632853437055 0 257.5632853437055 -268.64949591763798 0 0 0 0 -117.68716537732689 -131.00951891791192 0 -131.00951891791192 400.11115191489807 0 0 0 0 299.16018406038347 -390.07608774185064 0 -390.07608774185064 835.9105289112922 0 0 0 0 -77.625808513788797 156.03107379284484 0 156.03107379284484 -105.92106144031277 0 0 0 0 -216.02760940016015 130.15442185326538 0 130.15442185326538 30.146110675588716 0 0 0 0 -76.974193505317089 32.136248693988819 0 32.136248693988819 43.919215499685379 0 0 0 0 -30.179134412988788 76.510637826126185 0 76.510637826126185 -50.443699531417224 0 0 0 0 -99.213918066423503 84.31645942380419 0 84.31645942380419 14.243150561898801 0 0 0 0 -242.60757628487772 283.95022279054683 0 283.95022279054683 -25.38890615026321 0 0 0 0 -249.37432544191688 415.81977874915174 0 415.81977874915174 -220.20937023853185 0 0 0 0 -196.11643304669269 154.559005340976 0 154.559005340976 209.38710126839578 0 0 0 0 -204.66848609016233 -63.720832142575091 0 -63.720832142575091 410.77766293264358 0 0 0 0 -292.11703092346033 139.15408623479834 0 139.15408623479834 169.72586722625419 0 0 0 0 -119.18745352988481 22.787592571112327 0 22.787592571112327 116.17158903848031 0 0 0 0 -112.59564107422921 18.226125968911219 0 18.226125968911219 99.423044976036181 0 0 0 0 -61.089285111705976 -70.451182166474609 0 -70.451182166474609 146.04970632055483 0 0 0 0 -75.306186857997091 -58.358899562301303 0 -58.358899562301303 209.64019191170519 0 0 0 0 -119.62123877734666 -316.59134921668465 0 -316.59134921668465 -31.703126432650606 0 0 0 0 -132.80423725630135 -186.19509087122242 0 -186.19509087122242 116.61150763929618 0 0 0 0 -214.0403361573517 -169.57549682162789 0 -169.57549682162789 164.04903938590633 0 0 0 0 -28.573648837991641 -93.89280885039625 0 -93.89280885039625 148.04663931988762 0 0 0 0 -15.983334440697945 -67.850336397852516 0 -67.850336397852516 166.35814671109256 0 0 0 0 29.039231067130459 -121.52376920183451 0 -121.52376920183451 130.22200008059917 0 0 0 0 11.147281271154498 -103.24012066033174 0 -103.24012066033174 192.39860196910013 0 0 0 0 -52.431985541286849 -119.69070627079964 0 -119.69070627079964 192.57520846875559 0 0 0 0 -4.5738823586798389 -64.998846222642896 0 -64.998846222642896 219.19742598218727 0 0 0 0 -27.48652687529102 -87.074381005950272 0 -87.074381005950272 209.75879110149253 0 0 0 0 -8.9252486770565156 -77.365637339076784 0 -77.365637339076784 170.89435981513816 0 0 0 0 -37.754669979491155 -46.275046741742699 0 -46.275046741742699 196.44463275179442 0 0 0 0 -26.680965020947042 -85.1235821822047 0 -85.1235821822047 228.44167209589068 0 0 0 0 -41.122854777117027 -19.164319173294643 0 -19.164319173294643 135.37243887684599 0 0 0 0 -46.641385835027904 -70.127395142611931 0 -70.127395142611931 168.23745964637783 0 0 0 0 -75.796083283159533 -39.784265892500116 0 -39.784265892500116 132.14988756937964 0 0 0 0 -40.403900911333039 -37.690440293825304 0 -37.690440293825304 123.68005170328252 0 0 0 0 -21.162464939145138 -83.502825104740623 0 -83.502825104740623 149.60766585957026 0 0 0 0 -54.575109730400072 -61.485203010613986 0 -61.485203010613986 168.53947336817509 0 0 0 0 27.553801515867235 -168.33153220189706 0 -168.33153220189706 -399.29887868877267 0 0 0 0 -1.1026905001599516 -325.39863497445185 0 -325.39863497445185 -288.67343978185818 0 0 0 0 -189.80122637728709 -226.33308576312447 0 -226.33308576312447 -159.50977595076984 0 0 0 0 -9.6955680554692663 -107.60951490432399 0 -107.60951490432399 -116.75306750801246 0 0 0 0 -56.628538446948369 -300.68324718019358 0 -300.68324718019358 -256.9556351841893 0 0 0 0 -2.1248472148240296 -2.2887980842445899 0 -2.2887980842445899 -0.4402914842725778 0 0 0 0 14.892754862019501 -205.91098659299314 0 -205.91098659299314 -321.91323260323406 0 0 0 0 -51.294013428629114 -269.34868740078082 0 -269.34868740078082 -187.42424680731347 0 0 0 0 39.509398715621501 -248.88146494713874 0 -248.88146494713874 -225.47861594547976 0 0 0 0 68.398327295741183 -93.815772147063399 0 -93.815772147063399 -183.7359277937212 0 0 0 0 16.298151126382436 53.168167995452677 0 53.168167995452677 307.67847230201005 0 0 0 0 112.00479421254931 15.800373320271319 0 15.800373320271319 19.313477888907073 0 0 0 0 -41.221221611078363 -163.1208822063636 0 -163.1208822063636 81.059823277915712 0 0 0 0 -20.61869299605678 -243.90361629965628 0 -243.90361629965628 -98.394769145692408 0 0 0 0 32.529755566778476 -95.490732725746057 0 -95.490732725746057 65.43438534724919 0 0 0 0 -17.842554183444008 -208.87815906829201 0 -208.87815906829201 -64.700897591832472 0 0 0 0 132.53863131063372 -52.824328382359454 0 -52.824328382359454 179.66160754684824 0 0 0 0 -74.183499133447185 -175.52453345304821 0 -175.52453345304821 352.01301599352882 0 0 0 0 60.083547216840088 -216.01965853783622 0 -216.01965853783622 172.61728252340981 0 0 0 0 -89.110604941641213 -146.51990696881694 0 -146.51990696881694 158.03027986269899 0 0 0 0 -52.531641856407077 -171.95177962420712 0 -171.95177962420712 149.66358721377037 0 0 0 0 27.137800167456589 -146.2689997619018 0 -146.2689997619018 -83.237549956851581 0 0 0 0 -227.37667687342037 -212.72462751691273 0 -212.72462751691273 -92.215441510229994 0 0 0 0 -101.09846734564053 -378.88766159648367 0 -378.88766159648367 -405.17486894347167 0 0 0 0 -72.341967336789821 -230.40727299736318 0 -230.40727299736318 -101.66630990914564 0 0 0 0 -2.9376767098085423 -2.233400770362266 0 -2.233400770362266 -2.77017926442781 0 0 0 0 26.35643642868672 -67.101219936461348 0 -67.101219936461348 -263.04554400568304 0 0 0 0 62.950796567696671 -83.058454466234252 0 -83.058454466234252 -807.24809434354211 0 0 0 0 2.1310244191899983 -51.547922947489042 0 -51.547922947489042 -182.02451440202276 0 0 0 0 -171.19825593468522 -226.21306386702327 0 -226.21306386702327 -101.83761049348686 0 0 0 0 -78.71258749779372 -83.54969118030931 0 -83.54969118030931 80.737928096299584 0 0 0 0 37.200505240434723 18.196353156810801 0 18.196353156810801 2.0700480479499674 0 0 0 0 0.74215719211497344 -60.038489249120175 0 -60.038489249120175 37.470276770443888 0 0 0 0 -8.7502969976412714 -58.672339598331746 0 -58.672339598331746 -106.12459705943365 0 0 0 0 -4.8846390301344087 -9.9160463511928754 0 -9.9160463511928754 -2.8650983383056854 0 0 0 0 66.206578483259364 -42.376804866235034 0 -42.376804866235034 -1.4616358348721405 0 0 0 0 -26.656309293284721 -35.2001170339081 0 -35.2001170339081 -123.3307522128016 0 0 0 0 -25.62233421097153 -147.01134858485239 0 -147.01134858485239 -212.29827846824628 0 0 0 0 -34.989517597561644 -100.35714048220143 0 -100.35714048220143 -104.63478127871349 0 0 0 0 1.7580976394747267 -44.997898595789593 0 -44.997898595789593 7.2843034780626112 0 0 0 0 3.968224772890153 -9.4788818695301416 0 -9.4788818695301416 -53.832308551041933 0 0 0 0 11.837397038660008 -12.585652756531442 0 -12.585652756531442 6.7237405244541861 0 0 0 0 -8.3069997263111901 -14.20658846393269 0 -14.20658846393269 -7.0432445673369557 0 0 0 0 15.190545908308195 -45.317581102848635 0 -45.317581102848635 24.729777679454855 0 0 0 0 -0.27751621667608362 -6.3080452189660292 0 -6.3080452189660292 -0.29473744067767882 0 0 0 0 -23.999989973321135 -45.234448771559983 0 -45.234448771559983 75.294477238756372 0 0 0 0 20.431172870914452 -14.672681322910648 0 -14.672681322910648 40.268777654513542 0 0 0 0 11.47547172994804 -19.77224352117862 0 -19.77224352117862 -0.66067652035849278 0 0 0 0 9.2617629822307208 -14.376239609180629 0 -14.376239609180629 22.096017834370286 0 0 0 0 1.2340747457055841 -29.24845884395836 0 -29.24845884395836 -4.0897650803817669 0 0 0 0 -7.9708542731095804 -31.753639125148766 0 -31.753639125148766 8.1520049139471666 0 0 0 0 4.311234752661619 -3.4700378503452782 0 -3.4700378503452782 1.7248179959944139 0 0 0 0 0.24029765035083983 -21.9534879679195 0 -21.9534879679195 5.8183831621809077 0 0 0 0 3.9114827273561303 -14.918479724704131 0 -14.918479724704131 10.916572227924703 0 0 0 0 -0.35903050022989191 -26.274215681303303 0 -26.274215681303303 -1.4716377974109491 0 0 0 0 387.28437072321685 -303.47668495439939 0 -303.47668495439939 203.03017495419044 0 0 0 0 0.86387338523033463 -2.2613224407684811 0 -2.2613224407684811 2.3447397985636371 0 0 0 0 59.626448688186429 -133.13036534793537 0 -133.13036534793537 261.99152309333294 0 0 0 0 -31.764501996436593 -139.97652662233668 0 -139.97652662233668 607.10943903194857 0 0 0 0 1.4167536048073543 -0.69955341007133498 0 -0.69955341007133498 -2.0639286803518786 0 0 0 0 6.6720013324156753 -159.17242059238924 0 -159.17242059238924 296.44940896060143 0 0 0 0 -6.0189185802773864 -90.675002944128209 0 -90.675002944128209 137.50061123348132 0 0 0 0 44.754695579926192 -88.965806876760325 0 -88.965806876760325 91.131877652143885 0 0 0 0 49.358613130135382 -147.28962789856791 0 -147.28962789856791 179.49118016591819 0 0 0 0 93.385890899626247 -176.30488124022304 0 -176.30488124022304 80.241432061993692 0 0 0 0 132.79805016505998 -236.90506745822131 0 -236.90506745822131 172.41106864412359 0 0 0 0 184.58987825097302 -139.96270639888826 0 -139.96270639888826 83.714895857920055 0 0 0 0 127.82921498233191 -173.07625600293977 0 -173.07625600293977 0.049932022509892704 0 0 0 0 46.250662048940285 -158.85363445475559 0 -158.85363445475559 81.268775544886012 0 0 0 0 102.16294833918801 -156.64000233305705 0 -156.64000233305705 72.96172840340023 0 0 0 0 110.48060362172691 -110.04299137871567 0 -110.04299137871567 3.2032699660194339 0 0 0 0 0.82845627952099044 0.54787854441974559 0 0.54787854441974559 -0.24233136422759571 0 0 0 0 256.39869897170138 -220.55851187553708 0 -220.55851187553708 0.14933531660441127 0 0 0 0 440.03713643798619 -173.52325954077605 0 -173.52325954077605 -52.404826105819666 0 0 0 0 52.292490649102547 -151.67934452963163 0 -151.67934452963163 114.53710466826305 0 0 0 0 219.24902259217561 -173.92236315650007 0 -173.92236315650007 48.570438100421597 0 0 0 0 0.60498717286177417 0.41741784490122313 0 0.41741784490122313 -0.18628594500276563 0 0 0 0 204.09175671729463 -216.50599134090589 0 -216.50599134090589 -40.267442934169594 0 0 0 0 122.36041573503826 -210.36053170422019 0 -210.36053170422019 54.844009212902165 0 0 0 0 186.03863510532756 -235.98279319169524 0 -235.98279319169524 42.530250704701757 0 0 0 0 96.673469900415512 -342.01521733543632 0 -342.01521733543632 363.08913831276004 0 0 0 0 249.25342782315784 -377.59674184141113 0 -377.59674184141113 360.72221948156175 0 0 0 0 383.88278770110264 -300.59240770623546 0 -300.59240770623546 396.24649020179641 0 0 0 0 151.05314768153039 -393.81448976717729 0 -393.81448976717729 476.99070329589995 0 0 0 0 134.30919738254579 -309.01664252302362 0 -309.01664252302362 367.73087076564116 0 0 0 0 253.22877916332982 -355.28707184861742 0 -355.28707184861742 479.83729467741432 0 0 0 0 18.01734477078935 -12.45891992470024 0 -12.45891992470024 2.0534954801551066 0 0 0 0 2.2494291352337541 -10.301541270632399 0 -10.301541270632399 -3.8400777192668585 0 0 0 0 -35.269796518063231 -15.292831181675865 0 -15.292831181675865 7.0469991033824044 0 0 0 0 193.45741711795472 -214.51139064515064 0 -214.51139064515064 427.18401243233529 0 0 0 0 -3.1721217433014886 -8.7306559420425458 0 -8.7306559420425458 -5.0318170333264334 0 0 0 0 79.756252862349356 -563.65287165082009 0 -563.65287165082009 937.40738301555393 0 0 0 0 301.19901661021504 -409.63881003676943 0 -409.63881003676943 330.24222746910141 0 0 0 0 -4.735948537105287 -27.926652021360496 0 -27.926652021360496 640.59079588457098 0 0 0 0 -256.03091098502773 -381.71580702736719 0 -381.71580702736719 143.53651958633418 0 0 0 0 -661.65958237618179 -62.223141750651848 0 -62.223141750651848 671.35713323570963 0 0 0 0 -648.15136256594269 -365.37127356402925 0 -365.37127356402925 -163.39252376381774 0 0 0 0 -166.00936281249597 -12.586367727286415 0 -12.586367727286415 90.856370872919797 0 0 0 0 160.23776241931409 -240.67158341221511 0 -240.67158341221511 -31.994292834649968 0 0 0 0 -223.6898811591509 -245.22964224693123 0 -245.22964224693123 328.42399896105053 0 0 0 0 -130.11438536884816 -92.593258740093006 0 -92.593258740093006 18.491262498766446 0 0 0 0 130.02692119255062 -202.22140183870761 0 -202.22140183870761 -89.481449544924544 0 0 0 0 -215.86249012432381 -187.32660640628819 0 -187.32660640628819 -41.118003059178591 0 0 0 0 -410.93629397288896 166.16250525038322 0 166.16250525038322 -233.81457263056654 0 0 0 0 -906.96650680304447 55.031469650999497 0 55.031469650999497 51.927401437431399 0 0 0 0 -788.6475630009445 -190.41182864442817 0 -190.41182864442817 0.040392009297647746 0 0 0 0 -399.76228951106168 -74.955071243784914 0 -74.955071243784914 -43.620059130185837 0 0 0 0 -327.54008712822542 44.861275801838929 0 44.861275801838929 -68.961058854574276 0 0 0 0 23.387939016169184 -222.39719714200055 0 -222.39719714200055 -0.20073080379006569 0 0 0 0 -242.05927238426739 -119.23081742136856 0 -119.23081742136856 26.996287564983504 0 0 0 0 -56.862071319889083 -17.353154252832269 0 -17.353154252832269 119.30654006310942 0 0 0 0 -82.392906539597334 -264.86299831055635 0 -264.86299831055635 0.94669844278541859 0 0 0 0 -0.56746441416680504 -0.50796018371274698 0 -0.50796018371274698 -0.11959967026331242 0 0 0 0 -1090.5016605471683 -20.758841129561915 0 -20.758841129561915 168.45533833741501 0 0 0 0 394.28323714637736 -83.688281735790952 0 -83.688281735790952 -67.952049366533174 0 0 0 0 -4.2157515624949333 -2.9093306990673611 0 -2.9093306990673611 1.5406296543591793 0 0 0 0 -361.38527049570985 -256.08854792972124 0 -256.08854792972124 -170.93407741347619 0 0 0 0 -916.39880014141818 20.374749295981019 0 20.374749295981019 114.54499563462014 0 0 0 0 14.401775595628351 -122.49666711272585 0 -122.49666711272585 -84.834727809604374 0 0 0 0 14.100624941409478 -106.82952657785063 0 -106.82952657785063 70.225417331621429 0 0 0 0 164.69394349978757 -96.702595659800863 0 -96.702595659800863 5.1782246247530566 0 0 0 0 -12.517831528886745 -83.62457044887924 0 -83.62457044887924 67.328873831720557 0 0 0 0 30.891078870423371 -85.090785359672736 0 -85.090785359672736 65.53965837675787 0 0 0 0 -1051.8410101568161 537.25527734662228 0 537.25527734662228 -156.30027043240261 0 0 0 0 -2.8772329145162701 -2.425214769275982 0 -2.425214769275982 -0.1122725755588192 0 0 0 0 -3.1456444957882894 -1.3432353062885554 0 -1.3432353062885554 4.2994368343036058 0 0 0 0 -319.93219293231959 -485.318439704497 0 -485.318439704497 595.46696558085023 0 0 0 0 -401.21102883755884 -158.30620665981587 0 -158.30620665981587 373.7792616470324 0 0 0 0 -457.16143455447309 -25.786046446613909 0 -25.786046446613909 64.302753379306523 0 0 0 0 -44.76009431406419 -7.0310987384727923 0 -7.0310987384727923 25.134469193886616 0 0 0 0 -46.525770839423785 -10.039692906080745 0 -10.039692906080745 20.193994704444776 0 0 0 0 -13.991574145685348 -9.7964622682286659 0 -9.7964622682286659 -3.8827533986120244 0 0 0 0 -18.313718904191774 -2.6019480376962747 0 -2.6019480376962747 7.0788105714891572 0 0 0 0 -31.894237536296714 -21.194594020005752 0 -21.194594020005752 -17.099673965902184 0 0 0 0 -53.434035285034042 9.365119618440076 0 9.365119618440076 -21.291147733372327 0 0 0 0 0.10183810940980109 -0.9022864856338515 0 -0.9022864856338515 0.87649242367146485 0 0 0 0 -115.12881075894984 -5.6648350907562417 0 -5.6648350907562417 33.585571191382769 0 0 0 0 189.61371308747221 -97.484265409106229 0 -97.484265409106229 -282.71052813248025 0 0 0 0 -153.01053644291096 139.89707216082388 0 139.89707216082388 -236.6303599151579 0 0 0 0 -356.31201797550602 -302.10444142050619 0 -302.10444142050619 5.8169335820202832 0 0 0 0 -2.8414908740696205 -3.489297070793441 0 -3.489297070793441 -1.5274857249300311 0 0 0 0 121.12517219127767 -171.18458986997939 0 -171.18458986997939 -1035.6275989107125 0 0 0 0 -467.55025472464877 -412.92602899723533 0 -412.92602899723533 1291.2322603616121 0 0 0 0 56.12694878162074 -138.80649026743049 0 -138.80649026743049 -608.81825403924449 0 0 0 0 25.568173292587744 -239.88827756031606 0 -239.88827756031606 -555.54168809773364 0 0 0 0 -7.0004762817261508 -113.58901140856688 0 -113.58901140856688 -363.76511183273033 0 0 0 0 -84.696441507909185 -140.80548302822535 0 -140.80548302822535 -221.17490440986876 0 0 0 0 -330.8225738175438 -523.55342297761172 0 -523.55342297761172 -599.63019551017351 0 0 0 0 -24.561432128884462 -11.664068590628631 0 -11.664068590628631 -9.6642572499549715 0 0 0 0 0.49220709922428796 -171.30988902619902 0 -171.30988902619902 -210.64916542720312 0 0 0 0 -40.657107332684973 -29.427129835126834 0 -29.427129835126834 6.0570469977064931 0 0 0 0 -64.035957740672529 -25.934094603282574 0 -25.934094603282574 -295.17683242921339 0 0 0 0 -14.316186498974275 -200.85037851853485 0 -200.85037851853485 -61.647557601601875 0 0 0 0 16.789272227470065 -36.936039441337925 0 -36.936039441337925 66.451263860679319 0 0 0 0 -15.228753345005316 -34.280528210676948 0 -34.280528210676948 262.52178662766528 0 0 0 0 -4.2014929269207641 10.355783683284244 0 10.355783683284244 427.49768870425032 0 0 0 0 9.9390906133212411 -146.05539373323882 0 -146.05539373323882 198.79842169002222 0 0 0 0 3.0488455055037775 9.5137929677966895 0 9.5137929677966895 154.82455419562757 0 0 0 0 76.183478103805101 -150.27430037893646 0 -150.27430037893646 79.00859196845704 0 0 0 0 151.98006426957727 -138.01141117229054 0 -138.01141117229054 219.42242132210959 0 0 0 0 37.519170918643795 92.057600666164944 0 92.057600666164944 33.001636993383727 0 0 0 0 61.854695662848826 13.602177269865933 0 13.602177269865933 196.31453037464325 0 0 0 0 123.50165812647174 -6.0982907351281028 0 -6.0982907351281028 73.339563143745181 0 0 0 0 -32.498713349403261 139.52875697738273 0 139.52875697738273 71.483081779093482 0 0 0 0 -130.20169748198805 14.187650245481564 0 14.187650245481564 63.176808889737003 0 0 0 0 13.045206541579319 55.932918450997249 0 55.932918450997249 -7.3287762226100313 0 0 0 0 -30.526677845098675 -46.563545485267241 0 -46.563545485267241 -58.854036125729181 0 0 0 0 11.839148185905742 48.948876523347053 0 48.948876523347053 12.379852477875829 0 0 0 0 -127.44281662531284 -170.44569243471415 0 -170.44569243471415 -181.03238486480041 0 0 0 0 -78.751264794213057 28.866570410948043 0 28.866570410948043 32.02200700269168 0 0 0 0 53.766948764754488 -62.690712164698198 0 -62.690712164698198 18.891161101870239 0 0 0 0 20.228564798359002 38.435833875335447 0 38.435833875335447 33.032398449537141 0 0 0 0 -21.221883439247904 48.38511079413729 0 48.38511079413729 32.21112952898693 0 0 0 0 6.1392564210946148 30.832611587111387 0 30.832611587111387 -20.658910517566255 0 0 0 0 134.13747713924749 7.5892448745289585 0 7.5892448745289585 -17.204342334045577 0 0 0 0 2.0045187917784162 -4.8679355914006326 0 -4.8679355914006326 11.495014141890223 0 0 0 0 1.0263173646266903 -1.4912235338898086 0 -1.4912235338898086 2.5096990311236738 0 0 0 0 -15.68951290808036 -28.356529682536348 0 -28.356529682536348 0.98443852440686896 0 0 0 0 10.335316459171736 68.445880820803723 0 68.445880820803723 -19.083091829270415 0 0 0 0 -2.126052965701092 -47.336652596197382 0 -47.336652596197382 -4.0949047174253792 0 0 0 0 -126.50142344068809 -18.730779436637022 0 -18.730779436637022 16.393786563545291 0 0 0 0 -535.45947776506 -117.66654186451706 0 -117.66654186451706 14.325000898472354 0 0 0 0 0.21758099821538773 1.0110429301402775 0 1.0110429301402775 -1.1191726950480216 0 0 0 0 -43.628149597119773 -60.265241887769662 0 -60.265241887769662 -160.13268998351123 0 0 0 0 1.8865942568954779 -48.159920184272778 0 -48.159920184272778 19.71246440828719 0 0 0 0 202.78895591620881 -92.053765564537926 0 -92.053765564537926 -80.247864415679942 0 0 0 0 -25.840314224769827 -190.70883341239823 0 -190.70883341239823 -109.56340801406077 0 0 0 0 -0.74421434362849936 -1.3033083150411073 0 -1.3033083150411073 -1.5020761512138847 0 0 0 0 -67.365567433807882 42.904738822726358 0 42.904738822726358 -19.414007154658975 0 0 0 0 -36.620012556171787 -162.86482815404361 0 -162.86482815404361 -54.760291375459929 0 0 0 0 23.238438012907864 -142.37539340244621 0 -142.37539340244621 -62.800336442058324 0 0 0 0 -79.814467849482753 47.930452261089158 0 47.930452261089158 75.859479205697426 0 0 0 0 -259.25553443696481 -75.792957529978594 0 -75.792957529978594 -29.355635073596204 0 0 0 0 57.683086700693821 -42.652581842528889 0 -42.652581842528889 -29.226402083486192 0 0 0 0 -10.107997497594624 -7.2699094884701481 0 -7.2699094884701481 54.776771062015541 0 0 0 0 -3.3485259410081198 9.9911537982770824 0 9.9911537982770824 25.974189243119326 0 0 0 0 -3.6958251225496213 -3.0409837328201519 0 -3.0409837328201519 1.881845476079512 0 0 0 0 -12.997878352364552 15.669655486498392 0 15.669655486498392 42.099276014138013 0 0 0 0 -92.318873391221132 -39.309251681464957 0 -39.309251681464957 121.94643486031418 0 0 0 0 -12.905211455249216 -20.928899426530428 0 -20.928899426530428 18.363661714138289 0 0 0 0 18.710432169173146 -2.7293755731807323 0 -2.7293755731807323 26.415899509018345 0 0 0 0 -21.400268419674831 -56.164263994563953 0 -56.164263994563953 19.804291062027914 0 0 0 0 -13.91942358068016 -21.297616636293093 0 -21.297616636293093 -2.0313604662349256 0 0 0 0 -40.195093920563522 -62.840969251468778 0 -62.840969251468778 34.410713109042263 0 0 0 0 66.01998368347995 -34.71317749980517 0 -34.71317749980517 -93.976515081274556 0 0 0 0 -41.941844417902757 -79.348783738390921 0 -79.348783738390921 120.10483380707592 0 0 0 0 -12.478445302704131 -21.314063399816945 0 -21.314063399816945 -0.55872194066291136 0 0 0 0 -18.500712849810952 10.356682865936818 0 10.356682865936818 76.826112180940981 0 0 0 0 150.31395262765727 -1.6586077117026434 0 -1.6586077117026434 -81.117575892269087 0 0 0 0 -43.933239966092515 -31.680735373964126 0 -31.680735373964126 24.171045776216488 0 0 0 0 -97.480105910348357 63.032353420130676 0 63.032353420130676 -39.407141977266292 0 0 0 0 -151.09006102466083 -38.584871340775862 0 -38.584871340775862 28.741686613226193 0 0 0 0 -171.81619052507449 69.690392949618399 0 69.690392949618399 -93.47661534420331 0 0 0 0 -24.655433625448495 17.856203628703952 0 17.856203628703952 -10.28188632718593 0 0 0 0 -17.703614188376378 -6.848724497409421 0 -6.848724497409421 -20.993292699946323 0 0 0 0 -38.417160099139437 0.69663634791504592 0 0.69663634791504592 19.486094016305287 0 0 0 0 -6.8637829373619752 -12.737221544601198 0 -12.737221544601198 16.03328451733978 0 0 0 0 -4.2736037827271502 -7.4735409686109051 0 -7.4735409686109051 7.160710676042072 0 0 0 0 -22.573938328467193 3.4998192512284731 0 3.4998192512284731 -42.189103407334187 0 0 0 0 -7.4741129751150339 -9.3266354307310166 0 -9.3266354307310166 1.5805881283863226 0 0 0 0 -7.9683703212750885 -7.5324315975976788 0 -7.5324315975976788 12.387337385044972 0 0 0 0 -8.9157776882393591 -10.076630858434328 0 -10.076630858434328 14.699615804769564 0 0 0 0 -8.5430562123701748 -13.32383232767188 0 -13.32383232767188 15.27332145391847 0 0 0 0 5.6148063924047165 -5.5864614693127805 0 -5.5864614693127805 26.374059942318127 0 0 0 0 5.9813846196630038 -11.388732228544541 0 -11.388732228544541 -136.99401059775846 0 0 0 0 1.6008069073167164 -4.9513942757119622 0 -4.9513942757119622 -5.3240080299249826 0 0 0 0 -11.198077988002822 -16.660557654304196 0 -16.660557654304196 8.217553506353255 0 0 0 0 -20.628936854627682 -18.530996076124211 0 -18.530996076124211 116.32968818815243 0 0 0 0 -2.1863388143765405 -2.2062709323742471 0 -2.2062709323742471 11.500917186314169 0 0 0 0 -1.730553559336073 -1.6944995942167225 0 -1.6944995942167225 6.476103014682792 0 0 0 0 0.58300257212249562 -18.731583264525398 0 -18.731583264525398 9.0358795138599817 0 0 0 0 -4.4654173099279149 -6.6524816115513374 0 -6.6524816115513374 9.4065013139016429 0 0 0 0 -4.1957750901783584 -10.860671757996897 0 -10.860671757996897 14.807598234920079 0 0 0 0 -8.0366618483067498 -9.7886790095115437 0 -9.7886790095115437 11.140894579366716 0 0 0 0 15.369338756978323 4.1354708188882796 0 4.1354708188882796 -18.917917054357531 0 0 0 0 -7.9985050904506352 -5.0784971791108546 0 -5.0784971791108546 9.9669605134040467 0 0 0 0 -0.69245161975989511 -5.0984785150415348 0 -5.0984785150415348 9.783465475352557 0 0 0 0 1.6077813699386354 -2.1890975380351136 0 -2.1890975380351136 1.8521735622371693 0 0 0 0 -62.723177738540926 -32.803006148945315 0 -32.803006148945315 47.966263601403625 0 0 0 0 9.7499869144085096 -0.61876621516421437 0 -0.61876621516421437 -13.006272685423028 0 0 0 0 -5.9154605480580358 -11.631509950006148 0 -11.631509950006148 16.363094850094058 0 0 0 0 -4.3506422872887924 -11.710205344454153 0 -11.710205344454153 13.302266952072387 0 0 0 0 -2.3279142507899593 -8.7500699220244798 0 -8.7500699220244798 -0.30092253457479057 0 0 0 0 -13.277685369616883 -10.206668181523874 0 -10.206668181523874 8.0060007384884955 0 0 0 0 -0.80098021330195479 -9.4974450551089831 0 -9.4974450551089831 14.640816993378394 0 0 0 0 -1.4495632340403972 -10.622866154815711 0 -10.622866154815711 6.1985895019388408 0 0 0 0 -5.6492703512221851 -10.890489639070566 0 -10.890489639070566 -3.1724761963447889 0 0 0 0 -8.3852775718621828 -13.577466416129603 0 -13.577466416129603 0.41700145158753799 0 0 0 0 18.588991231808905 -11.096936888177879 0 -11.096936888177879 -19.818357378440851 0 0 0 0 -15.233774581248781 -58.543013683875984 0 -58.543013683875984 -5.2003876625458361 0 0 0 0 -15.693498312476862 -12.546811322331322 0 -12.546811322331322 -6.2329360418679869 0 0 0 0 -15.084596346539911 -37.318614046031144 0 -37.318614046031144 68.993238979805028 0 0 0 0 -14.492644743233313 -36.034538368917993 0 -36.034538368917993 27.858513582352316 0 0 0 0 -4.3517093437728622 -3.7133954393782318 0 -3.7133954393782318 -0.12737472201661149 0 0 0 0 -29.938987653818913 -46.313434168099775 0 -46.313434168099775 82.945340971949918 0 0 0 0 -37.649508023001545 -35.539442941248126 0 -35.539442941248126 83.174923065198527 0 0 0 0 -15.231660346602439 -44.387285333526961 0 -44.387285333526961 66.187133693105352 0 0 0 0 -39.786460662079662 -84.557540276389773 0 -84.557540276389773 164.68388146130019 0 0 0 0 -72.380933796055615 28.154833538266757 0 28.154833538266757 62.201588194453507 0 0 0 0 -51.794322242480121 -13.979073375681764 0 -13.979073375681764 74.025084402834182 0 0 0 0 -56.060216419471544 -32.918861434911378 0 -32.918861434911378 114.89884086351231 0 0 0 0 -41.595711560868949 -37.196991778295342 0 -37.196991778295342 90.217525723615836 0 0 0 0 -28.503751457137696 -44.156393002194818 0 -44.156393002194818 89.846462807327043 0 0 0 0 1.7280380461706955 -41.545784573041601 0 -41.545784573041601 39.464893959753681 0 0 0 0 -20.777792448607215 -50.582709197286022 0 -50.582709197286022 85.739513586726389 0 0 0 0 -1.3728748779067246 -28.614630800020677 0 -28.614630800020677 40.23372362338705 0 0 0 0 -58.226928095813491 -51.599990290022106 0 -51.599990290022106 82.054253779861028 0 0 0 0 -32.18826521243318 -34.877824662078638 0 -34.877824662078638 67.005628701634123 0 0 0 0 -38.677909955171344 -35.106736620302399 0 -35.106736620302399 61.774328440718818 0 0 0 0 -48.627228907804238 -21.01131637958315 0 -21.01131637958315 65.646484519975274 0 0 0 0 -1.9049198441862245 -71.880953829459031 0 -71.880953829459031 75.065752350717958 0 0 0 0 -104.54055767283717 -76.625534737140697 0 -76.625534737140697 83.964984723548696 0 0 0 0 -137.95854341291124 -69.092568769308855 0 -69.092568769308855 82.609211271254026 0 0 0 0 137.98793420894071 -54.598876758758706 0 -54.598876758758706 -194.23367042977588 0 0 0 0 -56.883045702259551 2.2576027705654269 0 2.2576027705654269 25.444531787135929 0 0 0 0 -1.8246879613798797 -0.99517959586985683 0 -0.99517959586985683 -0.66732725448908781 0 0 0 0 -134.04452506497364 -27.97881722819011 0 -27.97881722819011 62.509713427658426 0 0 0 0 24.380738971223764 -66.617607040709117 0 -66.617607040709117 -11.726731338399986 0 0 0 0 -7.8228600751172053 -18.102038783195894 0 -18.102038783195894 33.869423286494566 0 0 0 0 -0.31423417303419399 -1.3585951404842405 0 -1.3585951404842405 -0.92432642189145753 0 0 0 0 -58.443947948399 30.298976629695971 0 30.298976629695971 92.230484928721125 0 0 0 0 0.0220584332710132 -3.1498869306233246 0 -3.1498869306233246 0.003148343508655671 0 0 0 0 -0.65798938136968843 -0.94032582523016117 0 -0.94032582523016117 -0.10971965493891389 0 0 0 0 -152.84145733786136 95.522525559365022 0 95.522525559365022 58.864911593380384 0 0 0 0 73.617979259826825 -124.24130451580277 0 -124.24130451580277 0.067404011188161847 0 0 0 0 -255.56738289591885 46.54327899152122 0 46.54327899152122 100.37757240481369 0 0 0 0 -0.26797276927651126 -1.4333894388816475 0 -1.4333894388816475 -0.86452857910569492 0 0 0 0 25.976640869071161 -26.692054199082577 0 -26.692054199082577 76.568903762701666 0 0 0 0 26.126421370731435 -4.184342593114323 0 -4.184342593114323 -1.5742664053082489 0 0 0 0 22.68154203612044 -2.7018190843730423 0 -2.7018190843730423 -2.4178922653383097 0 0 0 0 11.300615159708286 -7.7409838856956412 0 -7.7409838856956412 0.0068912488786736503 0 0 0 0 -1.303394114389576 -4.910607356250253 0 -4.910607356250253 2.1572394437182858 0 0 0 0 0.50807264703325927 -4.4123230247350875 0 -4.4123230247350875 1.7191604353065486 0 0 0 0 -68.34129268470133 -37.808453859186557 0 -37.808453859186557 74.770214123441292 0 0 0 0 41.688228222861653 -13.425460992821172 0 -13.425460992821172 -61.041262501239544 0 0 0 0 -103.1675485570704 -69.121469386369427 0 -69.121469386369427 46.616043988906313 0 0 0 0 30.424330138106598 -14.481603201777034 0 -14.481603201777034 -0.88090846974228043 0 0 0 0 -4.3155473612335413 -5.1482660049208278 0 -5.1482660049208278 0.40347361449146035 0 0 0 0 4.3908297645779335 -16.098568012271208 0 -16.098568012271208 9.0943062235013485 0 0 0 0 -16.811054830772264 -46.403455965508329 0 -46.403455965508329 32.0907742560521 0 0 0 0 -40.773136100739066 -45.321773826337449 0 -45.321773826337449 35.682653163357827 0 0 0 0 -34.607658900486953 -5.4130015176786515 0 -5.4130015176786515 3.6994891469650781 0 0 0 0 -15.621938934335049 5.6973734075545508 0 5.6973734075545508 -0.37728861015057191 0 0 0 0 -14.516603273958026 22.13774008033397 0 22.13774008033397 49.756113425341027 0 0 0 0 73.520933912452165 -47.380693722127035 0 -47.380693722127035 21.534487702552724 0 0 0 0 -5.0546474571185911 -0.56458205688446839 0 -0.56458205688446839 2.7481538308669542 0 0 0 0 42.036771752242203 -90.853594043292105 0 -90.853594043292105 83.717123338225065 0 0 0 0 -14.220507802390784 34.455053545461851 0 34.455053545461851 159.32673797875759 0 0 0 0 -43.333766713709338 -5.3372965541202575 0 -5.3372965541202575 114.80635138566868 0 0 0 0 -43.411569015820305 -8.131568662916834 0 -8.131568662916834 40.25993688627932 0 0 0 0 239.6503283367274 -149.93052171676754 0 -149.93052171676754 0.47982899318594718 0 0 0 0 -39.225614619186672 -37.399225711742474 0 -37.399225711742474 68.082958276121644 0 0 0 0 -44.151665646786569 -23.470643254495371 0 -23.470643254495371 32.639039403700735 0 0 0 0 -44.374989228221239 -25.864508184877195 0 -25.864508184877195 17.942899696579843 0 0 0 0 -8.9491123521008227 -5.4466020450633579 0 -5.4466020450633579 9.7221041395169721 0 0 0 0 -24.512445580439817 -18.581380299674493 0 -18.581380299674493 10.491323879003176 0 0 0 0 -12.926858664020983 -1.6762170588608569 0 -1.6762170588608569 8.2740745113696903 0 0 0 0 -3.0927884931117546 -3.0272743335223495 0 -3.0272743335223495 4.9360341748885403 0 0 0 0 -32.346226969748386 -32.939961976990162 0 -32.939961976990162 -4.4739121697712108 0 0 0 0 -35.21164904213947 -10.771822216469445 0 -10.771822216469445 29.366603250182379 0 0 0 0 -63.654760428500595 38.794712265720591 0 38.794712265720591 31.519699299504282 0 0 0 0 111.60213274577109 -272.54771320882355 0 -272.54771320882355 240.32474443075444 0 0 0 0 -1.7916809751410909 1.1398206861359341 0 1.1398206861359341 2.7988899540469276 0 0 0 0 -9.9229079980441668 -6.3177353398877472 0 -6.3177353398877472 3.5133749315389267 0 0 0 0 -50.327583229194715 22.842486571928021 0 22.842486571928021 -23.822633948759176 0 0 0 0 -6.7441464876678907 0.46636963062043435 0 0.46636963062043435 0.063184054353399688 0 0 0 0 -31.905748438239243 9.305922993877175 0 9.305922993877175 61.93037992909376 0 0 0 0 -38.405839678714983 -4.1421902946822229 0 -4.1421902946822229 22.856451552532235 0 0 0 0 -30.395378290559165 5.5925475351505156 0 5.5925475351505156 53.186490770691307 0 0 0 0 -43.787094333623827 -6.4935826298496977 0 -6.4935826298496977 41.133923305231292 0 0 0 0 -30.67435045718139 -2.1781567067570506 0 -2.1781567067570506 3.1549391354050442 0 0 0 0 -64.735871733064414 -6.3333183089525846 0 -6.3333183089525846 149.63158757861675 0 0 0 0 -12.597222428761597 -122.5704345351478 0 -122.5704345351478 93.086894223237323 0 0 0 0 -40.055554923535965 -29.280309785601276 0 -29.280309785601276 83.99480717021288 0 0 0 0 -76.264610886093578 33.732609104015864 0 33.732609104015864 65.425136432554609 0 0 0 0 151.33508112347408 27.430368274319335 0 27.430368274319335 -120.45109034178313 0 0 0 0 -73.61744014533906 -199.18621127361257 0 -199.18621127361257 298.89618335866544 0 0 0 0 86.08283544160804 -153.26394090420217 0 -153.26394090420217 -350.26027108263952 0 0 0 0 18.041421129764018 -1.929927842952992 0 -1.929927842952992 -0.61368655133255245 0 0 0 0 -5.4242284931497124 -87.312482343559168 0 -87.312482343559168 -91.803190357219137 0 0 0 0 460.16061399891623 -351.55042570692603 0 -351.55042570692603 38.918042774534115 0 0 0 0 -0.90344798280784744 -959.0991903702934 0 -959.0991903702934 793.30848574267293 0 0 0 0 376.3425058459834 -289.52826313398964 0 -289.52826313398964 77.53628503289292 0 0 0 0 1256.7886091549626 -1477.7245229660311 0 -1477.7245229660311 531.41192028416845 0 0 0 0 223.32159352691087 118.63422511802491 0 118.63422511802491 -547.72031649899691 0 0 0 0 6.9572782555083563 -1.1351406706232012 0 -1.1351406706232012 -0.15951600029289814 0 0 0 0 -92.245326536911307 60.359982773446973 0 60.359982773446973 -39.829824416716292 0 0 0 0 292.23063829432795 -106.19954848955604 0 -106.19954848955604 -288.8690013549749 0 0 0 0 65.043866128806258 -106.43750507409277 0 -106.43750507409277 -39.611400087513921 0 0 0 0 54.054593293760263 -166.96642627282017 0 -166.96642627282017 182.66820165406534 0 0 0 0 107.78699310260708 -247.44241930482531 0 -247.44241930482531 429.11182409762114 0 0 0 0 -73.474192253197543 -36.118733016206534 0 -36.118733016206534 551.55025389373259 0 0 0 0 103.49421089079988 -108.3070050618262 0 -108.3070050618262 276.16306173861631 0 0 0 0 98.70758908418793 -131.45293127482364 0 -131.45293127482364 237.64158277968818 0 0 0 0 109.96493816151633 -148.30762978389248 0 -148.30762978389248 184.46815239217904 0 0 0 0 85.199907744827215 -166.63804971009085 0 -166.63804971009085 232.45834339666908 0 0 0 0 76.857936899679771 -141.7533485788299 0 -141.7533485788299 290.558732459358 0 0 0 0 -11.233823563856276 -4.9513778770869976 0 -4.9513778770869976 12.127835342791514 0 0 0 0 -3.6517638654731854 -3.1159047166365781 0 -3.1159047166365781 7.8364308108139085 0 0 0 0 -2.6031537789318975 -0.49994429489871095 0 -0.49994429489871095 2.5159117598956442 0 0 0 0 -6.2338420115530937 -1.4020637796974569 0 -1.4020637796974569 6.1228882732801964 0 0 0 0 2.8594907085939667 -3.8435445549954679 0 -3.8435445549954679 2.2136643835349048 0 0 0 0 -8.4739655312732793 -5.9902356586141394 0 -5.9902356586141394 11.584479741995068 0 0 0 0 -6.5522765991772758 -12.045703640760621 0 -12.045703640760621 17.277337386545696 0 0 0 0 0.001439052946807351 -22.201909904331842 0 -22.201909904331842 2.4873601776707801 0 0 0 0 -0.59176736856599632 0.75325999288025969 0 0.75325999288025969 1.6691745478597682 0 0 0 0 1.3606362760332047 0.45474993298515187 0 0.45474993298515187 0.14632339990271248 0 0 0 0 3.8489372411277145 -12.843338965783914 0 -12.843338965783914 -22.712302364652714 0 0 0 0 -0.00092331888581309053 -4.3505175021045508 0 -4.3505175021045508 2.6542317354324041 0 0 0 0 3.0146731377244578 -14.000898204234545 0 -14.000898204234545 8.2437942431679403 0 0 0 0 0.31689055981405545 -9.6662972782396537 0 -9.6662972782396537 35.337938469710934 0 0 0 0 -0.21941216030245414 -16.469294379421626 0 -16.469294379421626 6.7465016248752363 0 0 0 0 -7.4995390972263465 -5.1346785973978513 0 -5.1346785973978513 7.0004425779407029 0 0 0 0 0.053957508425639844 -0.60615009988832469 0 -0.60615009988832469 3.042839263108295 0 0 0 0 -0.028023987571941689 -10.849869073128502 0 -10.849869073128502 6.3758885068673408 0 0 0 0 -0.49618152040291363 -0.19137189491853945 0 -0.19137189491853945 0.53672429513640907 0 0 0 0 0.017899824160849676 -6.8904115740406269 0 -6.8904115740406269 4.2268918044037491 0 0 0 0 0.4215872211991325 -1.9917861235014271 0 -1.9917861235014271 2.2184873707975896 0 0 0 0 -10.132254042982822 -72.204912600984244 0 -72.204912600984244 -185.34556951780542 0 0 0 0 8.60290651592247 -8.3673015555248806 0 -8.3673015555248806 1.6656230695134155 0 0 0 0 7.085453997766308 -15.671217745033573 0 -15.671217745033573 -0.32918214649748734 0 0 0 0 -11.667973708390491 -82.105228602258194 0 -82.105228602258194 -64.398655764525756 0 0 0 0 2.3287175791257475 -17.017151761806559 0 -17.017151761806559 -6.9640290824941786 0 0 0 0 -4.0677156751262373 -16.101785430775635 0 -16.101785430775635 13.91772198848048 0 0 0 0 -6.4444406034017447 -16.710846615671471 0 -16.710846615671471 13.996735023436486 0 0 0 0 0.68017205409347525 -10.009059978269747 0 -10.009059978269747 1.632554435310003 0 0 0 0 -4.2894055068554735 -14.667283570748623 0 -14.667283570748623 56.656893589621177 0 0 0 0 -6.7060820288352048 -7.6793387178348951 0 -7.6793387178348951 22.148147882921876 0 0 0 0 -14.733621730322426 -23.725200083454858 0 -23.725200083454858 0.3345484145030504 0 0 0 0 -11.377453738277836 -14.087761918312026 0 -14.087761918312026 16.721318001014879 0 0 0 0 -26.621816418148228 -14.81931498769336 0 -14.81931498769336 66.296939990927058 0 0 0 0 -17.415402196442301 -7.5943935085233534 0 -7.5943935085233534 58.743934902828187 0 0 0 0 -7.584800876546069 -41.313269363388827 0 -41.313269363388827 30.99443936158832 0 0 0 0 -49.052247519779485 -9.9862522286712192 0 -9.9862522286712192 67.328809900966007 0 0 0 0 5.0250496419794217 -38.536750154180481 0 -38.536750154180481 31.89760049999677 0 0 0 0 -16.675935998515342 -63.430080964473746 0 -63.430080964473746 38.496872161719239 0 0 0 0 24.348483892223157 -58.32356431801054 0 -58.32356431801054 -28.797883081206237 0 0 0 0 37.185503107699333 -34.141267562074063 0 -34.141267562074063 -103.02986011937901 0 0 0 0 70.425993112497736 -15.024612547677975 0 -15.024612547677975 -13.458941344979394 0 0 0 0 32.886326671753238 -19.191365071924054 0 -19.191365071924054 3.9788863403830987 0 0 0 0 64.77739577464672 -84.495450373524363 0 -84.495450373524363 -136.01687930400294 0 0 0 0 -177.24347577973822 -104.85896435289033 0 -104.85896435289033 8.2150731957026437 0 0 0 0 41.731170001954439 -21.95917726787869 0 -21.95917726787869 8.1746560188624926 0 0 0 0 32.872631605201605 -2.1369819964702401 0 -2.1369819964702401 19.257854944888095 0 0 0 0 -160.12627977679585 -23.088678926556895 0 -23.088678926556895 25.937539551177906 0 0 0 0 -5.1680656049866229 -47.595655779849039 0 -47.595655779849039 14.239726979215732 0 0 0 0 -46.522715634790075 -148.719101889179 0 -148.719101889179 -70.244135970719071 0 0 0 0 -80.132012810790911 -107.98752589059586 0 -107.98752589059586 44.548823312608874 0 0 0 0 -29.905190607922123 -110.21516088309181 0 -110.21516088309181 -31.591573411496938 0 0 0 0 10.311492602129874 -174.6431779437371 0 -174.6431779437371 78.356506107104906 0 0 0 0 -106.68556094579981 -155.09673346220006 0 -155.09673346220006 -5.6317294418986421 0 0 0 0 -120.73528852457093 -41.805499617872556 0 -41.805499617872556 -48.810583326507185 0 0 0 0 -0.0061330762582656462 -59.762541275194963 0 -59.762541275194963 147.15631191772627 0 0 0 0 89.016752203977376 -53.456274112128085 0 -53.456274112128085 -76.678347480425145 0 0 0 0 0.096126425657568015 -121.37143761574694 0 -121.37143761574694 -99.211948690914141 0 0 0 0 4.255586510989815 -98.016791829464637 0 -98.016791829464637 -57.633215653784646 0 0 0 0 -176.71721312940645 -143.89764295301575 0 -143.89764295301575 -78.1805413620541 0 0 0 0 8.6892278885020033 -2.5720339617485735 0 -2.5720339617485735 -0.31717090874067821 0 0 0 0 23.397425646154261 -169.08333968222496 0 -169.08333968222496 -144.84124486817745 0 0 0 0 -110.02714483328418 -132.93965468584065 0 -132.93965468584065 -30.003395072162675 0 0 0 0 169.7099659891428 109.64965575147835 0 109.64965575147835 -173.60194601450348 0 0 0 0 4.3989518088928534 -25.547333971816876 0 -25.547333971816876 -20.699355424034792 0 0 0 0 -4.8031060138819157 -27.7137849231367 0 -27.7137849231367 -18.121672394103371 0 0 0 0 -40.143841341242478 -40.478718484622732 0 -40.478718484622732 -39.052314761007437 0 0 0 0 0.31548107536129066 -24.066284299402799 0 -24.066284299402799 -15.522127269065393 0 0 0 0 -2.3560453854515799 -28.497729689399421 0 -28.497729689399421 -18.97767445219506 0 0 0 0 -94.647202331525477 -47.460231985078281 0 -47.460231985078281 -17.811455378076062 0 0 0 0 -71.97590425680437 -37.791300874757326 0 -37.791300874757326 -29.27876995614497 0 0 0 0 -64.020745445520788 -74.312721131212129 0 -74.312721131212129 -36.067785311679472 0 0 0 0 8.9991449975637892 -1.4230064780462008 0 -1.4230064780462008 -6.1521823520199632 0 0 0 0 -120.83708659352487 -45.554132041826961 0 -45.554132041826961 -1.9441305749351159 0 0 0 0 -80.887920311452035 -70.794486393439001 0 -70.794486393439001 -42.175788305306924 0 0 0 0 -33.79350559464001 -64.9595542123825 0 -64.9595542123825 -100.28409880463369 0 0 0 0 -38.512738568289933 -53.560354050678143 0 -53.560354050678143 -14.831040160177508 0 0 0 0 -2.0665738411026204 -33.283463925499937 0 -33.283463925499937 -17.711157995908266 0 0 0 0 -41.48332114781806 -59.420526743342634 0 -59.420526743342634 -16.640386446200864 0 0 0 0 -95.561670533086726 -60.555738841987477 0 -60.555738841987477 0.79307361469545867 0 0 0 0 -63.470166552186129 -23.771787141973618 0 -23.771787141973618 1.2632584047878481 0 0 0 0 -5.6005491512427898 -3.1172435096854691 0 -3.1172435096854691 -0.68282026747627356 0 0 0 0 11.540341308122152 -38.860230249782035 0 -38.860230249782035 -15.951079102960648 0 0 0 0 -34.498603545736842 -51.68406415838399 0 -51.68406415838399 -50.695003353073844 0 0 0 0 -71.115899586937303 -58.753323449003801 0 -58.753323449003801 -14.501136319508078 0 0 0 0 -78.359876343280121 -48.837026704040909 0 -48.837026704040909 2.7887572507024743 0 0 0 0 -39.445022961124778 -35.597882784371905 0 -35.597882784371905 -51.76914354326118 0 0 0 0 -7.5036820480407531 -38.740770237973585 0 -38.740770237973585 -3.705923310090327 0 0 0 0 -46.89626287059582 -43.492123432133667 0 -43.492123432133667 -33.636713967040123 0 0 0 0 18.089623733774715 -45.23975240746222 0 -45.23975240746222 7.2070239484601188 0 0 0 0 19.911740290439411 -55.641309900071064 0 -55.641309900071064 -10.572662160077016 0 0 0 0 7.4791634159655587 78.71382987204197 0 78.71382987204197 19.541012847126694 0 0 0 0 16.360553801507194 -58.455057116058015 0 -58.455057116058015 -1.0281659319734899 0 0 0 0 -70.212719545801519 -243.01652751371148 0 -243.01652751371148 44.61451560538444 0 0 0 0 -10.598180896403754 -28.221268102082277 0 -28.221268102082277 -27.873546127022877 0 0 0 0 -37.695886509925913 40.045098429371137 0 40.045098429371137 -36.21450514130629 0 0 0 0 0.26779871785383591 -2.8257551510897656 0 -2.8257551510897656 -0.17859145549809341 0 0 0 0 -33.052089129327214 17.402533573229448 0 17.402533573229448 -82.68960295047691 0 0 0 0 -45.465787436838582 10.970402416394791 0 10.970402416394791 -0.76131259571411647 0 0 0 0 149.80689783079379 -77.803920295171338 0 -77.803920295171338 -11.204127406541375 0 0 0 0 92.609766413310354 43.571425424253903 0 43.571425424253903 -68.530567377943953 0 0 0 0 9.7133556163753383 -126.72701618121573 0 -126.72701618121573 -28.577400510154803 0 0 0 0 -60.771130431199708 39.063025357867446 0 39.063025357867446 2.9086745876193163 0 0 0 0 -94.020830420031416 -86.654472029949829 0 -86.654472029949829 -128.13942685872462 0 0 0 0 -146.08186234168784 11.524642090099633 0 11.524642090099633 -1.0457104325687396 0 0 0 0 -135.23278749623046 -85.073607183955801 0 -85.073607183955801 4.8445935095296591 0 0 0 0 152.44897179979853 -29.95856116370669 0 -29.95856116370669 -66.203498902439605 0 0 0 0 5.8886556917000235 -29.217204633278016 0 -29.217204633278016 -60.968245313095395 0 0 0 0 6.9168468572715938 -36.371980735224497 0 -36.371980735224497 -11.265996408419596 0 0 0 0 -74.831460869098009 -45.643881962794694 0 -45.643881962794694 26.919691299344777 0 0 0 0 -14.092371156571971 -12.666693389555803 0 -12.666693389555803 -2.6555455508969317 0 0 0 0 13.122428290959059 -23.438788577809422 0 -23.438788577809422 -2.9122434156303711 0 0 0 0 -67.02629540057751 -36.732452722471862 0 -36.732452722471862 2.7828775069224321 0 0 0 0 66.41824747708506 14.919343685207423 0 14.919343685207423 -2.3881540718830365 0 0 0 0 16.121802816154471 -10.412671776732388 0 -10.412671776732388 -8.166906630609617 0 0 0 0 3.7045372383290669 -19.008438590335572 0 -19.008438590335572 -10.049530560267158 0 0 0 0 11.781236406426785 -23.691530391294624 0 -23.691530391294624 -14.072317119196455 0 0 0 0 9.0683226964591412 -3.0928007504394941 0 -3.0928007504394941 -2.530468833016343 0 0 0 0 -8.0694928951161273 -28.929011336311305 0 -28.929011336311305 -14.699848864795058 0 0 0 0 47.41546569330967 5.1328884454487707 0 5.1328884454487707 5.5805957291540835 0 0 0 0 -3.2888143447444236 -29.095564747854951 0 -29.095564747854951 -16.104785690738936 0 0 0 0 -95.396682551281174 -55.094104384089405 0 -55.094104384089405 -22.707831128886028 0 0 0 0 -59.876803120220302 -20.341233358722093 0 -20.341233358722093 20.90177829930326 0 0 0 0 -1.4004895477910395 -27.018586506870633 0 -27.018586506870633 -17.151682617062761 0 0 0 0 2.7324746419129844 -25.300609718623583 0 -25.300609718623583 -16.730160441011776 0 0 0 0 -81.950394968789624 -30.213754358646838 0 -30.213754358646838 -11.042793216809514 0 0 0 0 -6.0287557501087576 -24.972241875133477 0 -24.972241875133477 -14.575985603732988 0 0 0 0 -27.398695011349012 4.2119345303716429 0 4.2119345303716429 18.994612359423257 0 0 0 0 -61.868357159218704 -5.7773512050553109 0 -5.7773512050553109 12.595742249301111 0 0 0 0 -56.566546566440138 7.3551469279518642 0 7.3551469279518642 -8.1437593161608675 0 0 0 0 -20.570651822465834 -12.057761779535213 0 -12.057761779535213 -0.5573493191623129 0 0 0 0 -11.936761964925816 -6.04202963061711 0 -6.04202963061711 3.0248754000483302 0 0 0 0 -9.0004448634258161 -13.706292929131358 0 -13.706292929131358 -3.7679803288160372 0 0 0 0 -37.713320572421082 -8.4164133368972216 0 -8.4164133368972216 -0.46943243592977524 0 0 0 0 -4.2004885337806961 -11.965105550566506 0 -11.965105550566506 0.80118620628411463 0 0 0 0 -76.423158291513573 -1.8030958263479988 0 -1.8030958263479988 16.111138767117154 0 0 0 0 -56.022249260762464 -10.647663290706987 0 -10.647663290706987 13.332563773935362 0 0 0 0 -55.638029863998327 -7.0970149696677254 0 -7.0970149696677254 19.370091684828367 0 0 0 0 -62.413123824377408 -13.089731664651481 0 -13.089731664651481 34.55621244885333 0 0 0 0 -39.957886492533589 -46.744416853165603 0 -46.744416853165603 35.974158434780634 0 0 0 0 -24.645333220844048 -21.74615760484064 0 -21.74615760484064 -15.197907758998511 0 0 0 0 -46.582388400539458 -23.681312670792977 0 -23.681312670792977 -5.3097428531509649 0 0 0 0 -5.9514358136252667 -67.715877846820149 0 -67.715877846820149 44.417149822913416 0 0 0 0 6.3554475367877785 -45.803731386000436 0 -45.803731386000436 44.100160811680325 0 0 0 0 -19.781265023613443 -16.990279081320576 0 -16.990279081320576 -13.082342961726525 0 0 0 0 -15.191138774756951 -97.093518862859128 0 -97.093518862859128 52.793411540507805 0 0 0 0 -39.160168542097381 -94.805211756416611 0 -94.805211756416611 42.21824002865651 0 0 0 0 6.8402540782153665 -76.264097389801464 0 -76.264097389801464 49.691447326324123 0 0 0 0 1.0417134530889598 -62.849441276646758 0 -62.849441276646758 -57.51187424867021 0 0 0 0 -34.876425896476263 -53.423594425025613 0 -53.423594425025613 62.594851471982111 0 0 0 0 -25.404420379409203 -129.16009662855322 0 -129.16009662855322 -17.323935616137533 0 0 0 0 -39.508909598162973 -23.309974400646752 0 -23.309974400646752 -15.723025916897313 0 0 0 0 -9.073803312495258 -0.2848202029867295 0 -0.2848202029867295 7.4501120689499061 0 0 0 0 -93.302892460094881 -49.108239490247797 0 -49.108239490247797 -21.338193619132653 0 0 0 0 -89.099477808187658 -42.216200605405902 0 -42.216200605405902 -43.777563764648221 0 0 0 0 -147.83629360109626 -76.708988632366527 0 -76.708988632366527 -30.060003857957781 0 0 0 0 -87.875974125010544 -53.355739631882898 0 -53.355739631882898 -4.5334321051777806 0 0 0 0 -88.545819513412425 -56.64307214069413 0 -56.64307214069413 -20.61994960004813 0 0 0 0 -87.647767059475882 -55.514384552268893 0 -55.514384552268893 -48.396704529393901 0 0 0 0 -23.231503734574396 2.9913742322129337 0 2.9913742322129337 18.693102779525489 0 0 0 0 -94.285893967429729 -48.329843399202218 0 -48.329843399202218 -21.778087106969906 0 0 0 0 46.417553240024063 -57.302740278497367 0 -57.302740278497367 1.4857684876114945 0 0 0 0 15.854687099786133 -99.647637725553977 0 -99.647637725553977 21.935287312211585 0 0 0 0 93.446035884675439 -120.29515308659757 0 -120.29515308659757 26.897775283925512 0 0 0 0 135.64726181399965 -57.028107089496189 0 -57.028107089496189 -1.5808189742228933 0 0 0 0 -20.938531007614074 -91.467769979462901 0 -91.467769979462901 114.42299779279347 0 0 0 0 -5.8721594059191133 -5.2740946973410061 0 -5.2740946973410061 -2.5151317449881674 0 0 0 0 151.22423425446323 -58.624398055228085 0 -58.624398055228085 -78.0711263821795 0 0 0 0 -4.9067145428252843 -218.34983526797805 0 -218.34983526797805 108.09110109206085 0 0 0 0 -64.152928963698287 -121.70274484837864 0 -121.70274484837864 -41.385468063141161 0 0 0 0 -119.9833634732081 -36.20760784174081 0 -36.20760784174081 5.6822503461735323 0 0 0 0 -117.57009696061868 -65.103175863485376 0 -65.103175863485376 92.890705428690126 0 0 0 0 -100.51671556623114 -50.958159831381636 0 -50.958159831381636 -1.9017538225343742 0 0 0 0 -109.38830969438277 -64.048201111072558 0 -64.048201111072558 54.230968937990838 0 0 0 0 -89.530139432521537 -64.940349713317119 0 -64.940349713317119 8.308317194954725 0 0 0 0 -73.607385528448503 -103.00737185755133 0 -103.00737185755133 -37.130918752729485 0 0 0 0 -69.930982166661124 -117.38854720693053 0 -117.38854720693053 18.010125146141945 0 0 0 0 11.625591550814441 -11.657097259742478 0 -11.657097259742478 1.5952219652915929 0 0 0 0 -24.004823812555514 -24.759780032587514 0 -24.759780032587514 5.1957224782263438 0 0 0 0 -19.360558920539006 -152.91544772289672 0 -152.91544772289672 -137.5948718642212 0 0 0 0 -37.661128090398051 -190.1536943298488 0 -190.1536943298488 -26.353745229449487 0 0 0 0 -60.320057642002212 -22.753102582559222 0 -22.753102582559222 -80.837479449850662 0 0 0 0 49.123733528749653 -94.509141904571152 0 -94.509141904571152 -285.87459709522773 0 0 0 0 -10.591141245949984 8.1724980216504264 0 8.1724980216504264 37.127924078373326 0 0 0 0 -68.864522392050276 -24.632461660821718 0 -24.632461660821718 -8.1184951774575893 0 0 0 0 19.864383496218352 -29.852515175483859 0 -29.852515175483859 -9.3030313095623569 0 0 0 0 3.2443616602313341 -35.403904879508445 0 -35.403904879508445 -12.147191039301106 0 0 0 0 -41.690006358154278 -52.80469767528848 0 -52.80469767528848 -2.8265828128351131 0 0 0 0 -33.577138365746578 -50.42286790421349 0 -50.42286790421349 -10.75615883388673 0 0 0 0 -31.66970871405556 -62.215475257838989 0 -62.215475257838989 -13.966497114693993 0 0 0 0 -17.464165320918028 -44.382810546298515 0 -44.382810546298515 -175.57954259210965 0 0 0 0 -41.582213087838682 -99.347205980351646 0 -99.347205980351646 -73.123681277726973 0 0 0 0 0.38204755440165172 -30.358879610383156 0 -30.358879610383156 12.833656830243854 0 0 0 0 11.573739747526959 -5.0270255413945009 0 -5.0270255413945009 2.5167909703744762 0 0 0 0 6.6804528874294888 -3.1757504453153445 0 -3.1757504453153445 1.1031552239220908 0 0 0 0 5.074857985109702 -83.283567861919437 0 -83.283567861919437 -242.05291441685767 0 0 0 0 -6.6888423559094008 -47.864373091763809 0 -47.864373091763809 20.221844526246059 0 0 0 0 2.6994823532409669 6.1437007268864363 0 6.1437007268864363 74.28106498103989 0 0 0 0 -1.188972639864005 -29.559194111474426 0 -29.559194111474426 6.4535881762494682 0 0 0 0 12.056194927736669 -27.693027675256417 0 -27.693027675256417 -1.2657701919524698 0 0 0 0 -11.751218325906166 -38.275889947181895 0 -38.275889947181895 1.6262434634918463 0 0 0 0 8.5479868625277504 -16.242562676772195 0 -16.242562676772195 -32.597310728117009 0 0 0 0 -6.9198098993260828 -60.207704289117828 0 -60.207704289117828 -54.532012785690313 0 0 0 0 -70.856318758764246 -15.319440596100321 0 -15.319440596100321 12.077693101022305 0 0 0 0 5.9241409361963235 -4.4177255283250751 0 -4.4177255283250751 0.13433073493403214 0 0 0 0 -4.1156151575023614 -41.80108208693855 0 -41.80108208693855 -53.506872379904962 0 0 0 0 -2.3825977242458976 -20.50777335807652 0 -20.50777335807652 0.93057885643065674 0 0 0 0 -10.87918448659002 -46.479422321908714 0 -46.479422321908714 -15.910355800384423 0 0 0 0 -22.66905397890514 -41.084121656938805 0 -41.084121656938805 3.5634558350866428 0 0 0 0 -55.527836710089105 -66.829277268978331 0 -66.829277268978331 -15.083510613927501 0 0 0 0 -15.555524073209199 -37.615893367657918 0 -37.615893367657918 9.3188365619535034 0 0 0 0 -21.038525700410901 -42.999986993914717 0 -42.999986993914717 4.2579437521344516 0 0 0 0 -33.518459397508195 -30.563059269071346 0 -30.563059269071346 11.338445567453164 0 0 0 0 5.8149730584428481 -14.716779748245083 0 -14.716779748245083 10.757703010158352 0 0 0 0 -18.449559165818755 -19.941937062336365 0 -19.941937062336365 6.5959012778730539 0 0 0 0 6.0131314437727497 -26.357145821365521 0 -26.357145821365521 2.6249637482178514 0 0 0 0 -1.1013944351913327 -14.895538016047297 0 -14.895538016047297 -5.9976836458954139 0 0 0 0 2.7979841367512108 -30.226152958793136 0 -30.226152958793136 2.824571129582182 0 0 0 0 7.2234048152865853 -10.604520261749229 0 -10.604520261749229 -19.205174921662405 0 0 0 0 29.539810606620449 -29.974132020142861 0 -29.974132020142861 -2.401003292950918 0 0 0 0 27.121364227634331 -29.139553971865098 0 -29.139553971865098 4.3491775122238323 0 0 0 0 18.164728054887064 -35.266270471808525 0 -35.266270471808525 3.0392789678771805 0 0 0 0 -2.3420464403379313 -18.082249580138509 0 -18.082249580138509 4.4093158302010096 0 0 0 0 22.183309048039519 -36.177745963555935 0 -36.177745963555935 34.46882070324682 0 0 0 0 -0.44824049136452215 -2.0013212546734138 0 -2.0013212546734138 0.5576004766520839 0 0 0 0 232.65544649475169 -183.73058425017643 0 -183.73058425017643 -206.31199904000096 0 0 0 0 28.626729199255351 -34.543104783495437 0 -34.543104783495437 34.880549443529162 0 0 0 0 10.246229264294925 -26.530871813796693 0 -26.530871813796693 0.59251514325660537 0 0 0 0 2.6877666064937511 -18.583272896189328 0 -18.583272896189328 1.1407241099402796 0 0 0 0 8.2053641020283976 -21.662876682990827 0 -21.662876682990827 -0.62014954429423597 0 0 0 0 0.34357604521495233 -12.160560649074 0 -12.160560649074 -9.7448575832469828 0 0 0 0 21.911877723551697 -31.118806450119791 0 -31.118806450119791 7.9698881270523998 0 0 0 0 -1.4503544221206539 -33.949565527444065 0 -33.949565527444065 7.7943872230898705 0 0 0 0 -12.057887640075933 -41.310090429378761 0 -41.310090429378761 -8.4782484330862644 0 0 0 0 10.953962725945528 -25.619212079275236 0 -25.619212079275236 -2.8632901896664578 0 0 0 0 9.1165661394362871 -13.234907345945743 0 -13.234907345945743 -9.9913958916006855 0 0 0 0 -37.423147565762974 -42.173938598815766 0 -42.173938598815766 -1.8739646161557175 0 0 0 0 9.501286720352379 -21.290831627321822 0 -21.290831627321822 -13.83545096152482 0 0 0 0 32.470651513332996 -9.2550758126853907 0 -9.2550758126853907 32.846875420022116 0 0 0 0 18.146013729630795 -28.154868821653508 0 -28.154868821653508 -23.822395042225253 0 0 0 0 -267.51579265815235 -78.475078782848868 0 -78.475078782848868 68.933973730661819 0 0 0 0 16.349527385973488 -41.629269762288459 0 -41.629269762288459 -18.617593635804951 0 0 0 0 21.737076101025195 -46.36740608274431 0 -46.36740608274431 0.20829651856547571 0 0 0 0 14.274512549601241 -37.514246096821807 0 -37.514246096821807 4.284225115996378 0 0 0 0 27.326931501032959 -32.155059783384786 0 -32.155059783384786 -51.491595125760796 0 0 0 0 -0.70510929784541077 -39.804814587840156 0 -39.804814587840156 -12.415464654186508 0 0 0 0 14.075760768446344 -47.488277459488017 0 -47.488277459488017 -1.1106817962281639 0 0 0 0 9.482205676184094 -42.91151324933162 0 -42.91151324933162 -17.443298296233479 0 0 0 0 23.460460323422922 -29.711486762842469 0 -29.711486762842469 -43.726497540067612 0 0 0 0 20.24718910180372 -15.178367217691246 0 -15.178367217691246 -24.038086586886564 0 0 0 0 -7.9957484439683491 -10.447093574591079 0 -10.447093574591079 4.4166434641085885 0 0 0 0 1.1190421054961917 -29.744803659108584 0 -29.744803659108584 16.835093631769269 0 0 0 0 10.185513463058314 -8.4224777052562558 0 -8.4224777052562558 -5.1479569125210176 0 0 0 0 30.602725807344996 46.517090318525334 0 46.517090318525334 -56.621106153186702 0 0 0 0 2.5232248872443961 -15.332475970300948 0 -15.332475970300948 -51.584714360324142 0 0 0 0 -166.17643155362748 -37.468786013399949 0 -37.468786013399949 102.01202123484836 0 0 0 0 1.1177276405304184 -2.2426050661835006 0 -2.2426050661835006 0.89978894936074028 0 0 0 0 -13.147744942227281 -14.904960478992237 0 -14.904960478992237 -17.751173193866663 0 0 0 0 15.031003167234303 -95.181930508966616 0 -95.181930508966616 95.224794547158126 0 0 0 0 -7.1143149004471269 -3.4924231646079988 0 -3.4924231646079988 8.3391690019938807 0 0 0 0 40.511429811154812 -45.118678182865551 0 -45.118678182865551 41.084618804132333 0 0 0 0 5.3189337085350417 -28.509345108943307 0 -28.509345108943307 11.695459425922309 0 0 0 0 78.83371378904485 5.0786436229755054 0 5.0786436229755054 -179.99854569188756 0 0 0 0 18.388573736014223 -32.261029199047698 0 -32.261029199047698 11.532871543484362 0 0 0 0 11.446174555971744 -16.917395208513426 0 -16.917395208513426 -14.525930782590212 0 0 0 0 -7.4203261654344743 -10.622788889616174 0 -10.622788889616174 2.6307256838447159 0 0 0 0 53.097047923060018 -54.277346045026206 0 -54.277346045026206 38.716390991727167 0 0 0 0 -0.7317551083527789 -9.2780481173683 0 -9.2780481173683 -4.5850128467397298 0 0 0 0 52.548255448858981 -8.5022176495695021 0 -8.5022176495695021 -10.004048591814353 0 0 0 0 41.727680427189625 -27.557152172536007 0 -27.557152172536007 -6.9203281241522063 0 0 0 0 24.300294917306928 -8.1904100380079399 0 -8.1904100380079399 -9.7217129625496455 0 0 0 0 20.818119264433335 -29.006789095277782 0 -29.006789095277782 -6.8826169160020072 0 0 0 0 -13.278394891982316 38.296864494281181 0 38.296864494281181 133.11756975753815 0 0 0 0 50.279874355255743 -57.490535564284073 0 -57.490535564284073 37.073394176113652 0 0 0 0 0.9014498425548112 -7.3074700592621014 0 -7.3074700592621014 -4.533075419228382 0 0 0 0 57.060672639116092 -95.594451849268808 0 -95.594451849268808 -191.97187470234348 0 0 0 0 10.756285911784495 -15.775337952090368 0 -15.775337952090368 -12.003269292222726 0 0 0 0 11.612023897364452 -32.017312703581865 0 -32.017312703581865 14.293738926193328 0 0 0 0 10.105225370942208 -1.1439615998315276 0 -1.1439615998315276 -46.120133465750769 0 0 0 0 32.46574993590184 -36.262225898302859 0 -36.262225898302859 23.993158118522842 0 0 0 0 13.80454906392697 -16.876876374620224 0 -16.876876374620224 -31.562778648120002 0 0 0 0 6.8282754357913689 -11.521043434567133 0 -11.521043434567133 2.5930210498156328 0 0 0 0 24.351662111085034 -15.744093311731234 0 -15.744093311731234 -19.904085830173038 0 0 0 0 11.743788856561423 -8.6663067121667154 0 -8.6663067121667154 -47.89610687057575 0 0 0 0 2.3171200604556361 -4.0901647582268197 0 -4.0901647582268197 -29.792644087239751 0 0 0 0 0.18377984646161849 -11.963547273441968 0 -11.963547273441968 -10.846429418538932 0 0 0 0 18.41753125271498 -37.406599211743014 0 -37.406599211743014 49.040460258700477 0 0 0 0 -18.729718656555633 -0.70514719837228768 0 -0.70514719837228768 -49.718986612100707 0 0 0 0 1.1315796826317808 -2.804833988315103 0 -2.804833988315103 -3.2570811982430925 0 0 0 0 14.163231256548897 -23.918542947812966 0 -23.918542947812966 35.582550336908753 0 0 0 0 22.872381973054871 -38.113551157290203 0 -38.113551157290203 -5.9312048260690062 0 0 0 0 7.2632326561287996 -18.793326396436221 0 -18.793326396436221 3.0467290309200337 0 0 0 0 0.99305820836161729 -19.808312209521318 0 -19.808312209521318 -8.6834197415628296 0 0 0 0 20.002878729697841 -43.154689384806261 0 -43.154689384806261 12.850207335515734 0 0 0 0 -0.15488062557783167 -18.476191764425337 0 -18.476191764425337 1.5679600976240877 0 0 0 0 -0.97775232990352379 -2.2304853087919412 0 -2.2304853087919412 -2.320948133208308 0 0 0 0 8.0263391908765698 -43.079774001769692 0 -43.079774001769692 31.678934612660669 0 0 0 0 5.9452425126510207 -32.18968442237383 0 -32.18968442237383 9.4363486239944905 0 0 0 0 6.8855657572598545 -17.492735628477341 0 -17.492735628477341 -1.2554496698707851 0 0 0 0 3.2162030103427242 -14.929080521695141 0 -14.929080521695141 -15.785348222714674 0 0 0 0 3.7568711731928914 -15.947783460008907 0 -15.947783460008907 -2.5246005945883567 0 0 0 0 8.331852951808024 -13.243443579725332 0 -13.243443579725332 -2.4253575922719506 0 0 0 0 3.5259143094735919 -24.714833857127815 0 -24.714833857127815 12.711869959464821 0 0 0 0 9.4145626209574402 -37.45397123053408 0 -37.45397123053408 -0.21522805205813711 0 0 0 0 10.846370641358845 -16.724695791424626 0 -16.724695791424626 -0.88058654839498018 0 0 0 0 10.173014861960837 -33.107112869300181 0 -33.107112869300181 -7.9384395629604114 0 0 0 0 7.2385510555905057 -36.608531278085138 0 -36.608531278085138 -12.107460136365262 0 0 0 0 3.7832867570323288 -28.5326567462198 0 -28.5326567462198 -13.011551258281543 0 0 0 0 6.4415768182152533 -28.56066799551445 0 -28.56066799551445 -25.591402060112159 0 0 0 0 -2.6549018975056242 -25.101771738467505 0 -25.101771738467505 10.973731046076864 0 0 0 0 -0.64161300429259427 -22.904282031042385 0 -22.904282031042385 13.01358102975064 0 0 0 0 -4.9593573581275052 -16.517380090690274 0 -16.517380090690274 -12.539388342416885 0 0 0 0 -11.467308638936714 -10.371795338983915 0 -10.371795338983915 -2.0961133700237724 0 0 0 0 -3.6458033449033564 -1.3801958240317873 0 -1.3801958240317873 3.8678516160065612 0 0 0 0 8.2145283507124986 -15.920365617166681 0 -15.920365617166681 -9.4108579487874522 0 0 0 0 0.037672267746529542 -18.036319182974694 0 -18.036319182974694 15.52210317394929 0 0 0 0 11.037374308347353 -24.738844361774682 0 -24.738844361774682 -5.1183389168654685 0 0 0 0 3.3610061527852508 -19.027503956161134 0 -19.027503956161134 -19.128841512440182 0 0 0 0 5.7877757624810329 -20.965104791474005 0 -20.965104791474005 -5.2333174042360042 0 0 0 0 1.913775187181983 -4.8404554276724099 0 -4.8404554276724099 0.21225798397351525 0 0 0 0 -51.226408048241865 -17.010594482315355 0 -17.010594482315355 12.537706062576035 0 0 0 0 38.267708442072035 3.6800965696538697 0 3.6800965696538697 -19.725032892274612 0 0 0 0 17.800513306734501 -35.172396745656442 0 -35.172396745656442 -5.4748665980005171 0 0 0 0 17.500582218519412 -32.905730040067283 0 -32.905730040067283 -14.924451953149401 0 0 0 0 7.2944011377868918 -19.304994621829891 0 -19.304994621829891 -12.721870688523779 0 0 0 0 0.53229982025749223 -18.314590533216858 0 -18.314590533216858 -7.0753580721695499 0 0 0 0 5.5992658453760669 -18.26080051658937 0 -18.26080051658937 1.8853388381394325 0 0 0 0 9.0905505054290217 -17.135568601152372 0 -17.135568601152372 -3.7865311132106498 0 0 0 0 0.0013358289401281809 -23.317634308660377 0 -23.317634308660377 -9.3720620443671692 0 0 0 0 2.9582869744538414 -4.0750615305488367 0 -4.0750615305488367 -2.5539473796731933 0 0 0 0 -83.606535490529495 -13.224709950853139 0 -13.224709950853139 12.095867707583238 0 0 0 0 -159.54750098026125 -33.571898524067365 0 -33.571898524067365 25.843883363122586 0 0 0 0 -145.11932469077874 -75.41366921646113 0 -75.41366921646113 34.337568521568755 0 0 0 0 7.831594627830782 -93.671467151747493 0 -93.671467151747493 17.876668599565164 0 0 0 0 -14.945915441690886 -192.05043414267493 0 -192.05043414267493 59.841264614908141 0 0 0 0 30.213693227793556 -17.412550691282377 0 -17.412550691282377 -42.608210610686911 0 0 0 0 -55.753275480514276 -28.265985111327609 0 -28.265985111327609 -16.211022254117779 0 0 0 0 -4.6158688848445308 -40.676210753623309 0 -40.676210753623309 -46.965571011525753 0 0 0 0 -33.014386983595614 -23.850862103863619 0 -23.850862103863619 12.007273186623934 0 0 0 0 -35.218986490013776 -45.150537249635818 0 -45.150537249635818 15.853890262111236 0 0 0 0 -46.3808878314303 -37.618432951680006 0 -37.618432951680006 -7.4949977412106819 0 0 0 0 -1.6973408552148612 -19.227082587662153 0 -19.227082587662153 -0.76049730264639948 0 0 0 0 -38.580402613577462 -11.089958228656542 0 -11.089958228656542 -4.6948927310295403 0 0 0 0 -40.591688039290602 -45.11451393324387 0 -45.11451393324387 -11.241680095430638 0 0 0 0 -38.448724102388951 -21.895356639884994 0 -21.895356639884994 -35.823717372288229 0 0 0 0 -54.961039187837741 -5.3492513461169438 0 -5.3492513461169438 -37.893024714776402 0 0 0 0 -32.691130426941527 16.485501224153268 0 16.485501224153268 89.676962188794278 0 0 0 0 -43.389394707468455 -23.939846157794818 0 -23.939846157794818 41.839239694589196 0 0 0 0 -43.770028443264891 16.554001214262826 0 16.554001214262826 35.716368144378066 0 0 0 0 -26.782189815174206 -45.418393759668106 0 -45.418393759668106 -9.5068720823182957 0 0 0 0 -15.774223789238022 -26.056876597805967 0 -26.056876597805967 -35.196512651156809 0 0 0 0 -19.708199329412309 -76.330405391152453 0 -76.330405391152453 120.14400733136426 0 0 0 0 -357.92447324800014 -165.95868032556609 0 -165.95868032556609 194.55604879517705 0 0 0 0 -13.264847822385491 -148.71175828765263 0 -148.71175828765263 -24.129575339234634 0 0 0 0 15.926664352380612 -78.953102400741045 0 -78.953102400741045 -167.93217589458072 0 0 0 0 -39.770201331215503 76.034341554441198 0 76.034341554441198 261.69232187396847 0 0 0 0 1.3185315607762078 0.4723065284990895 0 0.4723065284990895 0.36325586099811602 0 0 0 0 194.15794502603967 -93.251032579377352 0 -93.251032579377352 -66.27502917595848 0 0 0 0 23.450591270724544 -45.580049103562487 0 -45.580049103562487 -75.584211668174248 0 0 0 0 64.245448610410676 -6.451167891449586 0 -6.451167891449586 -113.69473605346411 0 0 0 0 -2.1807776322972501 -1.7713130562931525 0 -1.7713130562931525 0.91563579353060476 0 0 0 0 197.07830001461843 -60.396824899122294 0 -60.396824899122294 -103.48845065621572 0 0 0 0 -41.122151335792296 -74.898583058928125 0 -74.898583058928125 66.046435434021987 0 0 0 0 5.7814514906876866 -140.62871684746278 0 -140.62871684746278 -24.604485398966062 0 0 0 0 201.86479025935478 -113.43787441062159 0 -113.43787441062159 -44.744092825894768 0 0 0 0 -45.832932176468603 -93.966505058029725 0 -93.966505058029725 23.648046951231663 0 0 0 0 17.677475260468782 -83.681207096469734 0 -83.681207096469734 -37.289153522564447 0 0 0 0 15.860553902923129 -67.547673963686975 0 -67.547673963686975 -54.989183560413949 0 0 0 0 8.7277499755873578 -61.851784984202823 0 -61.851784984202823 -66.747002946445718 0 0 0 0 -32.660513343726052 -51.775929616025678 0 -51.775929616025678 37.23306211073259 0 0 0 0 -31.838135132751631 -45.716211465263768 0 -45.716211465263768 -22.041282204903837 0 0 0 0 -23.638405984864221 -66.070863675398869 0 -66.070863675398869 12.932858857817337 0 0 0 0 32.101447514990497 -19.327090389414792 0 -19.327090389414792 5.3376846305961578 0 0 0 0 31.33341472374741 -60.729673849145911 0 -60.729673849145911 -25.850215656761975 0 0 0 0 30.909178730125859 -69.547599602447008 0 -69.547599602447008 -31.378403812050237 0 0 0 0 48.27744181673188 -3.4890398535717395 0 -3.4890398535717395 -80.617560801536456 0 0 0 0 7.3300775872630766 -21.613886071187153 0 -21.613886071187153 -47.499374340652139 0 0 0 0 38.311353281344054 -1.3091134155547479 0 -1.3091134155547479 -10.030242266533605 0 0 0 0 16.518027020538547 -9.5694813635204099 0 -9.5694813635204099 -3.6667366141482702 0 0 0 0 -40.378837378855678 -9.3420551339404483 0 -9.3420551339404483 0.58588796097319573 0 0 0 0 10.850417765786176 -13.836984597009042 0 -13.836984597009042 4.6982944934913888 0 0 0 0 -22.140358002909124 -40.138635629748023 0 -40.138635629748023 55.770588481893355 0 0 0 0 -13.171193985461287 -35.516841683998791 0 -35.516841683998791 -7.6470211538107833 0 0 0 0 -0.94642803594469171 -1.5876223274523582 0 -1.5876223274523582 0.3925050623248012 0 0 0 0 45.484449989962741 -0.43638293946423801 0 -0.43638293946423801 -10.623507428288576 0 0 0 0 -40.368899776556646 -25.445453879441629 0 -25.445453879441629 -13.365396758451425 0 0 0 0 66.056317730282899 -6.3142902698018588 0 -6.3142902698018588 29.393149321120291 0 0 0 0 -65.830679941944254 -42.848653174442006 0 -42.848653174442006 -17.027205234611756 0 0 0 0 -26.682288858777611 -17.06835584504006 0 -17.06835584504006 -36.885698442798457 0 0 0 0 -4.0509452982402365 -0.46747779732629624 0 -0.46747779732629624 2.0038380135180915 0 0 0 0 -15.55151966433958 -21.152060275454254 0 -21.152060275454254 3.7717154054460664 0 0 0 0 -79.18197684214465 -118.56900011972175 0 -118.56900011972175 -146.03538929138722 0 0 0 0 21.267084493512357 -35.276390203140068 0 -35.276390203140068 -173.20291060964155 0 0 0 0 379.23484084394659 -17.365124295560236 0 -17.365124295560236 -104.81689476900647 0 0 0 0 -3.4014868560661853 15.801791371715808 0 15.801791371715808 -104.09406862258038 0 0 0 0 -189.23112165670955 -356.03804751294547 0 -356.03804751294547 18.751673180246144 0 0 0 0 6.3270428100011031 -4.0011317060249283 0 -4.0011317060249283 -0.083501958147209621 0 0 0 0 168.71855119389511 -1.304581722986768 0 -1.304581722986768 15.961013128631748 0 0 0 0 580.20150548887614 57.572405807211908 0 57.572405807211908 18.055365049909597 0 0 0 0 3.0459165434643509 -1.7696849718618708 0 -1.7696849718618708 -0.45714556205493295 0 0 0 0 174.54062620897821 -228.39267093630406 0 -228.39267093630406 173.35738955644683 0 0 0 0 80.895568928026478 -74.512521994063718 0 -74.512521994063718 43.588669100699917 0 0 0 0 -19.312087015161524 -43.845133631028148 0 -43.845133631028148 225.79450094037384 0 0 0 0 149.90040676786157 -111.57462605832188 0 -111.57462605832188 71.046126014347465 0 0 0 0 -23.345208224724502 -96.562068254977248 0 -96.562068254977248 97.481759795708058 0 0 0 0 153.11889540019911 -43.021460667812789 0 -43.021460667812789 -33.268489721598598 0 0 0 0 223.75526676416303 -21.566194110263496 0 -21.566194110263496 -27.21415409585461 0 0 0 0 140.99606857528488 -86.734661788483209 0 -86.734661788483209 -48.490712060542137 0 0 0 0 45.158549548257724 -86.228781168363639 0 -86.228781168363639 -47.218906000132847 0 0 0 0 115.49943771524704 -38.296392084266699 0 -38.296392084266699 -52.816842647491285 0 0 0 0 104.45355711803677 -27.254131661764404 0 -27.254131661764404 -63.744048284817836 0 0 0 0 116.99301067298711 -23.275357397868902 0 -23.275357397868902 -43.634442902308365 0 0 0 0 133.54229073221995 12.38536811724498 0 12.38536811724498 -79.011192077574378 0 0 0 0 149.79036285426264 -8.8134094120068767 0 -8.8134094120068767 -53.520034236538777 0 0 0 0 161.01169247973212 15.75755614397076 0 15.75755614397076 -37.245747941895388 0 0 0 0 185.0288739461248 -10.879004839431218 0 -10.879004839431218 -13.72528349597269 0 0 0 0 201.02690988823451 70.333774935374322 0 70.333774935374322 5.2990995617947192 0 0 0 0 159.07479858167153 6.0195997632663421 0 6.0195997632663421 -103.08137447227637 0 0 0 0 88.559352014759497 10.506126061010946 0 10.506126061010946 -16.546121803945425 0 0 0 0 240.12210041638173 -0.25755804969230667 0 -0.25755804969230667 -107.32709926858479 0 0 0 0 7.5860771365122304 -5.1360128568419476 0 -5.1360128568419476 0.67264586085504163 0 0 0 0 75.385620830762491 -11.787411404264276 0 -11.787411404264276 -29.064480550089684 0 0 0 0 0.53153387317797751 -48.911187055735354 0 -48.911187055735354 -23.953255517422349 0 0 0 0 -24.565915631748794 -46.072095954310498 0 -46.072095954310498 -68.442108212264429 0 0 0 0 -238.97452018060721 -55.823784938838799 0 -55.823784938838799 -17.729836545604485 0 0 0 0 13.104147040845419 -70.575808250039699 0 -70.575808250039699 262.95080922880152 0 0 0 0 -79.210565891213264 -414.27137720365317 0 -414.27137720365317 549.78390687162755 0 0 0 0 368.47335295625999 144.11888748908132 0 144.11888748908132 -123.32197453775734 0 0 0 0 581.02187298198987 -78.312006810039748 0 -78.312006810039748 -293.56072780739487 0 0 0 0 121.81324700829282 -154.49477123018369 0 -154.49477123018369 -217.53958338913799 0 0 0 0 146.42156955529572 64.551108561106957 0 64.551108561106957 -145.27022091944673 0 0 0 0 -145.60902175751107 -166.92778874133364 0 -166.92778874133364 484.73350187508868 0 0 0 0 7.9931644115720673 -0.011171433111186957 0 -0.011171433111186957 0.3992178066525085 0 0 0 0 13.645444232286621 0.024257001355536545 0 0.024257001355536545 -2.5906729639880339 0 0 0 0 800.27689236417427 113.04649698477442 0 113.04649698477442 -207.88098305892345 0 0 0 0 130.6684063194989 135.12507589213783 0 135.12507589213783 -27.417354558330317 0 0 0 0 107.64679712886209 4.2481835825710732 0 4.2481835825710732 -76.662353162748332 0 0 0 0 -19.557026383190532 -35.465190832806911 0 -35.465190832806911 -76.062219579784141 0 0 0 0 106.97932539590693 6.6045562426988909 0 6.6045562426988909 -80.269193245976567 0 0 0 0 -4.6325085528151249 -41.503707599036716 0 -41.503707599036716 -78.471182690987916 0 0 0 0 12.165897323277022 -32.542688025561802 0 -32.542688025561802 -63.517008863581395 0 0 0 0 62.755942661537119 -73.810024972382962 0 -73.810024972382962 -63.821293982044153 0 0 0 0 59.227719707570941 -29.85101848379054 0 -29.85101848379054 -145.57398324579117 0 0 0 0 23.670301712699171 -1.5327896520963264 0 -1.5327896520963264 -1.393136481638277 0 0 0 0 89.049434407628723 -154.75180087268018 0 -154.75180087268018 34.053483573639824 0 0 0 0 -59.74974642318557 -33.539305596175836 0 -33.539305596175836 40.200149811425945 0 0 0 0 162.62207653553196 -135.5342928809041 0 -135.5342928809041 26.51118746506836 0 0 0 0 66.164300445658228 -52.383485034995829 0 -52.383485034995829 156.37474921782268 0 0 0 0 43.208163995112045 177.38383184527265 0 177.38383184527265 -278.41023991157272 0 0 0 0 204.27124050509519 -154.05408726915266 0 -154.05408726915266 -128.31406390668781 0 0 0 0 161.13916365235491 -137.59618244760713 0 -137.59618244760713 -126.4598085855032 0 0 0 0 12.898825443967212 -0.956449008708816 0 -0.956449008708816 -3.0333511740817514 0 0 0 0 88.797170875554002 -184.51971956594389 0 -184.51971956594389 142.06975180526206 0 0 0 0 80.750134722842631 -31.88869883452935 0 -31.88869883452935 -152.21686120450977 0 0 0 0 55.13884361552482 -162.2796138992635 0 -162.2796138992635 129.15790418443066 0 0 0 0 112.12337666209896 -126.13528413198947 0 -126.13528413198947 113.04998450793937 0 0 0 0 110.74521748360166 -224.80482865739032 0 -224.80482865739032 -37.233009611445596 0 0 0 0 6.6048965151203447 -220.99286466030753 0 -220.99286466030753 37.288848350530316 0 0 0 0 38.105997759135789 -184.02125287302624 0 -184.02125287302624 37.004755343215948 0 0 0 0 72.793678829511919 -184.81248094562761 0 -184.81248094562761 38.822285846923251 0 0 0 0 -15.181979259781656 -167.44937654692694 0 -167.44937654692694 137.42333602921281 0 0 0 0 97.307831213682221 -114.08307664331915 0 -114.08307664331915 152.52917883545888 0 0 0 0 6.4314483643593121 -43.611771450177002 0 -43.611771450177002 72.103206613828661 0 0 0 0 136.32556445831688 -5.6704767254377657 0 -5.6704767254377657 -288.2276711343975 0 0 0 0 4.338660193689833 -1.3191606294047205 0 -1.3191606294047205 -0.35235114642328647 0 0 0 0 30.988642319323844 -84.944941925856256 0 -84.944941925856256 191.11299682669483 0 0 0 0 1.7825037414256855 -0.97752218548039593 0 -0.97752218548039593 -0.10978995660712876 0 0 0 0 99.458474168539396 64.944238259005942 0 64.944238259005942 -233.12748611884786 0 0 0 0 49.128798976591497 1.0977858939113503 0 1.0977858939113503 -47.065862438001204 0 0 0 0 85.884723072260385 -69.089769233985862 0 -69.089769233985862 -25.423680831787351 0 0 0 0 41.197949008626892 -49.852028320825411 0 -49.852028320825411 -37.466331157549575 0 0 0 0 28.132534777050751 -61.74015407229308 0 -61.74015407229308 28.298169356210565 0 0 0 0 26.530420986526224 -27.440458425127872 0 -27.440458425127872 22.442830455300282 0 0 0 0 3.0252223148308985 -40.794679549569992 0 -40.794679549569992 -0.84230587532147183 0 0 0 0 -6.1291994121820608 -3.4588299410315813 0 -3.4588299410315813 13.947930041375002 0 0 0 0 12.834429822778475 -75.218633283573581 0 -75.218633283573581 -65.795160153924598 0 0 0 0 26.897902076171953 -9.9925166889296833 0 -9.9925166889296833 1.5236860702260628 0 0 0 0 149.56453126056294 -83.160028019025049 0 -83.160028019025049 -228.61622559190073 0 0 0 0 5.1412091279477892 -5.8345486761125045 0 -5.8345486761125045 0.37116995772541284 0 0 0 0 121.74438931249642 28.664872489340269 0 28.664872489340269 -305.75592392453837 0 0 0 0 54.081815504709084 -152.62115936413466 0 -152.62115936413466 4.8047575043656252 0 0 0 0 -61.463201318256324 20.459899237524951 0 20.459899237524951 -50.746741747687338 0 0 0 0 -61.463201318372739 20.459899237408536 0 20.459899237408536 -50.746741747774649 0 0 0 0 -61.46320131828179 20.459899237514946 0 20.459899237514946 -50.746741747483611 0 0 0 0 130.26041341667155 -14.790524235633939 0 -14.790524235633939 98.036464616288868 0 0 0 0 -50.267302715461483 -109.32532832566903 0 -109.32532832566903 55.908693350327667 0 0 0 0 62.581232065254881 -281.54707114537086 0 -281.54707114537086 361.74613026006591 0 0 0 0 -55.499539750857366 -119.15873273574107 0 -119.15873273574107 131.85267221095273 0 0 0 0 8.3787370602453137 -0.89945634909895489 0 -0.89945634909895489 -2.1459087665485441 0 0 0 0 2.8880044600206176 -0.30919321813932754 0 -0.30919321813932754 -0.62335901859409404 0 0 0 0 136.2890669844237 -317.79067563561875 0 -317.79067563561875 429.56719736550804 0 0 0 0 199.12793097916438 42.052226613523089 0 42.052226613523089 72.567511966768507 0 0 0 0 -26.854022207268827 73.872173358029613 0 73.872173358029613 -1.5712354315473931 0 0 0 0 53.715623471409344 -45.36316824055757 0 -45.36316824055757 31.780805943559244 0 0 0 0 31.017739572198479 17.703805381048369 0 17.703805381048369 11.322327244844928 0 0 0 0 24.879086306749741 -56.868182402969978 0 -56.868182402969978 14.937325525108463 0 0 0 0 -22.575297944413251 -81.138015241807807 0 -81.138015241807807 14.121582638304972 0 0 0 0 70.539898311228171 -30.042942018701069 0 -30.042942018701069 -38.574058676276763 0 0 0 0 40.151724744908279 3.4438558697111148 0 3.4438558697111148 -56.996061700406244 0 0 0 0 53.411172530877593 -117.1619776695461 0 -117.1619776695461 141.75781954509148 0 0 0 0 175.59862204527417 -49.599497944327595 0 -49.599497944327595 -45.807485270539473 0 0 0 0 14.562002371450944 215.2874171968615 0 215.2874171968615 -298.709392581477 0 0 0 0 131.18178772042302 40.987519528465782 0 40.987519528465782 -132.86828333154699 0 0 0 0 -108.22594582651618 90.417854921079197 0 90.417854921079197 -0.13473530800547451 0 0 0 0 18.283183588331383 -36.250741847834377 0 -36.250741847834377 11.491743020560534 0 0 0 0 96.062994791520396 4.9754630774077668 0 4.9754630774077668 25.261178345517692 0 0 0 0 51.747019837504922 29.858564719696005 0 29.858564719696005 3.1638799566499074 0 0 0 0 15.782195027076966 66.923169119027307 0 66.923169119027307 -33.253439474654442 0 0 0 0 48.039662626048084 -17.173453588497068 0 -17.173453588497068 -16.887368336465443 0 0 0 0 51.903176464666103 -13.281707449961687 0 -13.281707449961687 -15.186208917039039 0 0 0 0 120.72834078905362 -65.192680766827834 0 -65.192680766827834 -34.822023865750452 0 0 0 0 86.892363912898873 -81.683959243251593 0 -81.683959243251593 57.003333740727612 0 0 0 0 180.44140776163476 -84.002240463050839 0 -84.002240463050839 -18.821936549065867 0 0 0 0 207.62138123116938 -84.500810356134025 0 -84.500810356134025 -54.240976903660339 0 0 0 0 206.85560295978485 -86.329495456665427 0 -86.329495456665427 -50.497808896114293 0 0 0 0 117.76745526832383 -72.562459409691655 0 -72.562459409691655 -17.114007636613678 0 0 0 0 129.19573539762496 -66.165039621246251 0 -66.165039621246251 -51.450521964379732 0 0 0 0 63.080861687914876 -38.456639699015795 0 -38.456639699015795 -42.362766743492102 0 0 0 0 128.18564154053092 -69.524758789852058 0 -69.524758789852058 -59.550391977765685 0 0 0 0 0.36730199771409389 -38.934319816347852 0 -38.934319816347852 -65.703962930031594 0 0 0 0 -2.7632996246393304 -82.207253881395445 0 -82.207253881395445 -75.218472961947555 0 0 0 0 55.476748937883713 -59.299121128003208 0 -59.299121128003208 -78.926727554957324 0 0 0 0 -206.47466543629707 -99.014022131203092 0 -99.014022131203092 -15.988037265691673 0 0 0 0 2.41057940208134 -0.94197612568113342 0 -0.94197612568113342 -1.4525146082101799 0 0 0 0 48.428173114012679 3.3476629427414082 0 3.3476629427414082 -24.539175393758342 0 0 0 0 -67.68412152036035 -124.27111534354481 0 -124.27111534354481 -142.47691431625572 0 0 0 0 -44.884256779638463 2.4854128445599599 0 2.4854128445599599 -93.798937575615128 0 0 0 0 -64.821480321346598 -115.12804309556623 0 -115.12804309556623 -52.410002687072847 0 0 0 0 -6.9359710820463079 -43.167554282412311 0 -43.167554282412311 -39.338540621963602 0 0 0 0 32.331698381822207 8.4614674693420966 0 8.4614674693420966 -58.714551923170802 0 0 0 0 6.0944887640507659 -78.744676623602572 0 -78.744676623602572 -116.55469229983282 0 0 0 0 -96.663157759246133 -83.194121404382713 0 -83.194121404382713 -46.588498953224189 0 0 0 0 56.700049188359117 -196.68834693581084 0 -196.68834693581084 -163.05034057162993 0 0 0 0 35.395132353765803 -195.91328519781018 0 -195.91328519781018 -26.783574479803065 0 0 0 0 246.5648867502623 -352.96257909206543 0 -352.96257909206543 44.977883222920354 0 0 0 0 -57.116886371532019 -155.70358422243589 0 -155.70358422243589 132.80524197812065 0 0 0 0 544.3133097691607 -234.15540481164317 0 -234.15540481164317 46.336513092439418 0 0 0 0 3.3652382066088933 -2.4895199641760222 0 -2.4895199641760222 2.0421183035111881 0 0 0 0 566.31713800512989 148.37182992375358 0 148.37182992375358 19.285282619151985 0 0 0 0 502.21531263633005 -134.91605495564909 0 -134.91605495564909 -129.18540497390495 0 0 0 0 112.18114083412001 -47.316151453180282 0 -47.316151453180282 -130.96699048654409 0 0 0 0 224.64398661990708 133.96937676588277 0 133.96937676588277 86.196051099537726 0 0 0 0 78.425125561787809 -54.930370909360136 0 -54.930370909360136 176.96745791821013 0 0 0 0 194.48966118774115 -179.61044288119228 0 -179.61044288119228 285.64211276077185 0 0 0 0 177.40975619382334 -101.96841496111574 0 -101.96841496111574 9.6892036227072822 0 0 0 0 304.008311512418 -186.14318807436575 0 -186.14318807436575 61.330120801867452 0 0 0 0 344.28646248583209 -82.281213274989568 0 -82.281213274989568 -30.165282056339493 0 0 0 0 276.63662915374061 -86.232070634766387 0 -86.232070634766387 -29.170446653224644 0 0 0 0 281.47344110667837 -113.06495364685179 0 -113.06495364685179 -47.006981226542848 0 0 0 0 270.87851693301883 -89.029035531028967 0 -89.029035531028967 -83.258662890264532 0 0 0 0 246.10335393176501 -97.915557627136877 0 -97.915557627136877 -64.241341433324123 0 0 0 0 270.86125269954209 -75.779922783869551 0 -75.779922783869551 -73.388179805340769 0 0 0 0 290.8124750538791 8.0175958074742084 0 8.0175958074742084 -47.49873511462647 0 0 0 0 314.79163987948414 -84.623055725634913 0 -84.623055725634913 -73.036283285036916 0 0 0 0 131.12785233530485 33.939329108256061 0 33.939329108256061 -2.3895679881115939 0 0 0 0 126.37435043210724 -14.939554825361029 0 -14.939554825361029 -19.285670036028023 0 0 0 0 151.31157966146566 -23.218724462338287 0 -23.218724462338287 -41.178418127317855 0 0 0 0 149.62259494933096 -28.134887398711726 0 -28.134887398711726 -11.90100424222328 0 0 0 0 61.538204971580853 12.882395364660624 0 12.882395364660624 -3.0437351215477975 0 0 0 0 -2.4811450988181605 -37.024224655229773 0 -37.024224655229773 25.755865120612725 0 0 0 0 -10.607385655806866 -53.43225372282177 0 -53.43225372282177 -101.9520047051501 0 0 0 0 9.2718087994522591 -6.8961638561467566 0 -6.8961638561467566 5.3940501147445445 0 0 0 0 -8.9638457050598959 -9.1510256019373912 0 -9.1510256019373912 -9.1305630541442611 0 0 0 0 59.10466680673926 -161.92043610080145 0 -161.92043610080145 39.061655698187678 0 0 0 0 50.296463585938909 -103.99707035775646 0 -103.99707035775646 107.02885321797658 0 0 0 0 49.807417437539698 -102.04581388899715 0 -102.04581388899715 124.96838580742769 0 0 0 0 -106.01626558278076 14.967883534605789 0 14.967883534605789 120.07442799494675 0 0 0 0 11.179721391286876 -23.188166450403514 0 -23.188166450403514 3.0437171149733331 0 0 0 0 75.481817214014882 -29.639728176483914 0 -29.639728176483914 -51.221177364241157 0 0 0 0 20.467119589931826 -6.3755885228711122 0 -6.3755885228711122 30.067078055186357 0 0 0 0 53.548352901972976 -44.349826307105104 0 -44.349826307105104 48.153048010848579 0 0 0 0 138.62100650739012 -51.30813315375417 0 -51.30813315375417 15.482405034956173 0 0 0 0 73.971543922947603 -57.916661911411211 0 -57.916661911411211 55.921885804404155 0 0 0 0 92.18722878954577 -22.308877936946374 0 -22.308877936946374 -1.3818748229386983 0 0 0 0 150.36215742150489 -70.657714101990678 0 -70.657714101990678 -17.839464256394422 0 0 0 0 117.14225169622296 -108.91223139460817 0 -108.91223139460817 -19.578772326625767 0 0 0 0 56.004655797263695 63.08707802202116 0 63.08707802202116 -145.59236989402416 0 0 0 0 114.0732671294536 -99.519709465756023 0 -99.519709465756023 50.9797244030824 0 0 0 0 -1.4658925817879833 -0.40606715889103384 0 -0.40606715889103384 -0.52115749681763646 0 0 0 0 172.38807642499523 -94.530901731624908 0 -94.530901731624908 -168.73254010149867 0 0 0 0 15.877401569236099 -88.263699598908715 0 -88.263699598908715 161.52464413933194 0 0 0 0 164.76810305089748 -49.359813433155068 0 -49.359813433155068 -46.228464756535686 0 0 0 0 246.90126355925349 -88.931706948122155 0 -88.931706948122155 -65.299335140371113 0 0 0 0 221.58756121679471 -127.22055096196709 0 -127.22055096196709 -90.97488811338917 0 0 0 0 265.24863460814959 -95.67363090764411 0 -95.67363090764411 -75.467481690215209 0 0 0 0 233.32781930085821 -89.433795969795938 0 -89.433795969795938 -75.609890010702657 0 0 0 0 228.01666985542761 -50.795376203841442 0 -50.795376203841442 -33.675773925733665 0 0 0 0 291.38522847886725 -73.674157138092596 0 -73.674157138092596 -88.902512989749084 0 0 0 0 241.52754600858134 -73.697203303185233 0 -73.697203303185233 -84.894418807256443 0 0 0 0 272.6938275844368 -104.69867321566198 0 -104.69867321566198 -69.210274638455303 0 0 0 0 256.95159920449441 -100.08910554632166 0 -100.08910554632166 -56.171613874023024 0 0 0 0 285.45210093866262 -113.76016262338817 0 -113.76016262338817 -53.114699044237568 0 0 0 0 367.24990729504407 -200.74245128338362 0 -200.74245128338362 39.305825637675298 0 0 0 0 217.16237235760855 -162.75720616167746 0 -162.75720616167746 149.75674331020491 0 0 0 0 543.39206401647607 -1053.7116864892068 0 -1053.7116864892068 3.256000198671245 0 0 0 0 145.2002446921324 -300.71872139916104 0 -300.71872139916104 182.49576211471867 0 0 0 0 -1.3503223296669589 -2.5331770458662817 0 -2.5331770458662817 -2.3142009291399006 0 0 0 0 63.684859932578547 -53.835008996114993 0 -53.835008996114993 0.10661238698230591 0 0 0 0 147.13741961566848 -181.39522396666689 0 -181.39522396666689 156.53483649126429 0 0 0 0 178.48575662721851 -117.53524096975889 0 -117.53524096975889 97.425999933948333 0 0 0 0 227.42489992125957 -144.64893702121481 0 -144.64893702121481 82.774386212608078 0 0 0 0 -5.4442030920215103 -6.4884143331058084 0 -6.4884143331058084 -6.0118567851771303 0 0 0 0 71.079986867127445 -98.555986430903431 0 -98.555986430903431 64.81054535441217 0 0 0 0 80.789995477825869 -90.031656181341532 0 -90.031656181341532 64.489639466082735 0 0 0 0 99.573775385229965 -107.12529078857187 0 -107.12529078857187 0.050519917662313674 0 0 0 0 100.69167552576755 -141.95272377770971 0 -141.95272377770971 55.538331241485139 0 0 0 0 60.276862583908951 -109.17662019963609 0 -109.17662019963609 86.043155659401236 0 0 0 0 65.739319037489622 -98.628159595273246 0 -98.628159595273246 106.19821970183693 0 0 0 0 50.377255420823758 -115.78907823357963 0 -115.78907823357963 107.25751024667989 0 0 0 0 -11.934549025787419 -17.131719339644405 0 -17.131719339644405 -5.3851177532633301 0 0 0 0 26.582833538082923 0.049766953834478045 0 0.049766953834478045 -4.0160906889213948 0 0 0 0 16.562360960151636 -15.537786248234625 0 -15.537786248234625 6.0248246910778107 0 0 0 0 -35.44651965050798 -39.546992955907626 0 -39.546992955907626 -0.81705198251620459 0 0 0 0 4.5528113248115574 -9.1719651088962664 0 -9.1719651088962664 2.0208300989521604 0 0 0 0 13.705628149055403 2.2635886038262214 0 2.2635886038262214 -5.2989343051380047 0 0 0 0 -123.74429371538281 -22.991412603347271 0 -22.991412603347271 -11.583959752286319 0 0 0 0 -6.166618619041401 -63.8463615321416 0 -63.8463615321416 -38.122250110129244 0 0 0 0 -92.545389315853754 -75.998221991620085 0 -75.998221991620085 -34.439030589157483 0 0 0 0 -54.600238007489679 -20.111474798315612 0 -20.111474798315612 -15.649930990446592 0 0 0 0 -7.4292073974675077 -68.21257058041283 0 -68.21257058041283 -34.314796067483258 0 0 0 0 61.930086268421292 -42.605599806604005 0 -42.605599806604005 -62.034157109905209 0 0 0 0 130.98761265715802 -51.74225888084402 0 -51.74225888084402 -50.104270254669245 0 0 0 0 61.584138671303663 -36.408041734852304 0 -36.408041734852304 -27.054231546702795 0 0 0 0 64.22285059465321 -56.615428046035504 0 -56.615428046035504 -45.380823075174703 0 0 0 0 122.02637264280202 -72.152938630886638 0 -72.152938630886638 -57.106918622555895 0 0 0 0 210.45320273594916 -86.517576546295459 0 -86.517576546295459 -65.413418873729825 0 0 0 0 211.0110942561987 -65.580926296908729 0 -65.580926296908729 -69.467390343161242 0 0 0 0 216.14088501312654 -34.107064141222509 0 -34.107064141222509 -56.582836761532235 0 0 0 0 204.29444361699279 -52.416356646503118 0 -52.416356646503118 -58.407010833310778 0 0 0 0 44.202910801684993 -56.517062377311959 0 -56.517062377311959 -18.979366683372064 0 0 0 0 114.01432609088624 -0.53248747667203133 0 -0.53248747667203133 -8.7794420837672078 0 0 0 0 42.118957726241206 -36.736184480971133 0 -36.736184480971133 2.7526439551784279 0 0 0 0 411.07142289565263 -32.802172820967826 0 -32.802172820967826 -86.505419380351668 0 0 0 0 189.48866469165114 48.696014157176251 0 48.696014157176251 -24.185060747622629 0 0 0 0 6.0366060167220326 -2.8085030121789032 0 -2.8085030121789032 1.6896247914956746 0 0 0 0 774.69488749093375 85.403348332164569 0 85.403348332164569 -23.241815819234034 0 0 0 0 18.904211129360192 -96.68324850902718 0 -96.68324850902718 -0.080721928501859469 0 0 0 0 5.5270055029177456 -4.1202810670620238 0 -4.1202810670620238 -0.0087749364101910032 0 0 0 0 -0.16817342044879524 -0.67897665987864997 0 -0.67897665987864997 1.2524540627772751 0 0 0 0 38.339917369625482 63.733972674428628 0 63.733972674428628 -28.725273409800138 0 0 0 0 44.984865016210733 -39.706530030496651 0 -39.706530030496651 -22.317024842224782 0 0 0 0 21.68568564031375 -21.242574922081985 0 -21.242574922081985 -19.299714157947164 0 0 0 0 15.272833521551732 -8.7569783439459954 0 -8.7569783439459954 2.9313483592306397 0 0 0 0 7.5859313683607539 -7.0926358050102607 0 -7.0926358050102607 2.8328711262012121 0 0 0 0 48.004500934235693 -13.227984108511009 0 -13.227984108511009 -9.1290010390148382 0 0 0 0 14.872361396682436 -13.720085915469326 0 -13.720085915469326 -9.1106898700527381 0 0 0 0 -1.1905421950358317 -1.1273957631301954 0 -1.1273957631301954 0.27684360322629686 0 0 0 0 5.607892871740269 1.0373405544195791 0 1.0373405544195791 -6.5524126286555884 0 0 0 0 36.043227778038272 -11.647706934540111 0 -11.647706934540111 -21.177705599435285 0 0 0 0 1.4987534489502927 1.1917770752721886 0 1.1917770752721886 0.058571175240700768 0 0 0 0 -35.369224913032667 -49.255280169054913 0 -49.255280169054913 0.098856194483232684 0 0 0 0 -36.666440244559453 -35.660343769723113 0 -35.660343769723113 0.51000543212285265 0 0 0 0 15.397368678664861 -55.965423647725402 0 -55.965423647725402 -0.21563556795936162 0 0 0 0 0.31730347945937609 0.0492503488661864 0 0.0492503488661864 0.098973247953693999 0 0 0 0 -3.9004813551268853 -17.315498216726155 0 -17.315498216726155 -19.215153798271785 0 0 0 0 -8.2548028196324594 -6.3431575170106953 0 -6.3431575170106953 -0.0024414641164441711 0 0 0 0 -1.8790682929832805 -3.2655284787000198 0 -3.2655284787000198 -2.3533267532416318 0 0 0 0 -9.2957939006094445 -13.898118693586262 0 -13.898118693586262 -16.458199088157215 0 0 0 0 0.87479987342453569 -30.089454823994856 0 -30.089454823994856 -5.9882461326342309 0 0 0 0 -12.786363929473737 -23.512428663703759 0 -23.512428663703759 -9.0087103655059764 0 0 0 0 -6.6456003677927367 -16.179780118484281 0 -16.179780118484281 -18.998146406043077 0 0 0 0 -3.4226890264501435 -20.722411657159682 0 -20.722411657159682 -19.414670333637332 0 0 0 0 6.4726103504835919 -30.549229790005484 0 -30.549229790005484 -11.529710014350712 0 0 0 0 -1.9643397458694309 -18.247454147263198 0 -18.247454147263198 -9.2071153588214543 0 0 0 0 12.264556970339983 -9.7742274508269471 0 -9.7742274508269471 -7.1408727522933759 0 0 0 0 11.887308472985751 -11.116240924238809 0 -11.116240924238809 -10.650264041003538 0 0 0 0 3.7424103100584034 -9.8111451946533634 0 -9.8111451946533634 -0.01103139782208018 0 0 0 0 -24.078774177274227 -13.179465525103296 0 -13.179465525103296 -6.375216634485696 0 0 0 0 5.2531008058072075 -77.227863991836784 0 -77.227863991836784 -36.451134675357025 0 0 0 0 -0.803614565267317 -1.0775461162305504 0 -1.0775461162305504 1.0605229831866581 0 0 0 0 -100.479742879068 55.805053387302905 0 55.805053387302905 20.248104015612626 0 0 0 0 -90.744258513022942 -27.122016505876672 0 -27.122016505876672 -0.18772680704502412 0 0 0 0 -9.4239179117021195 -31.061326509316132 0 -31.061326509316132 6.1398635174809897 0 0 0 0 -11.642601614483768 -10.427550075999065 0 -10.427550075999065 6.0673419164226772 0 0 0 0 -3.9908364780433985 -0.61253796696080087 0 -0.61253796696080087 3.6762194314708125 0 0 0 0 -22.765292045463184 -37.684028602105172 0 -37.684028602105172 2.9220180697921023 0 0 0 0 0.041300099646832678 -49.670908950552985 0 -49.670908950552985 4.242178639938345 0 0 0 0 -6.7110548376249426 -43.972145787156478 0 -43.972145787156478 4.1869277172481816 0 0 0 0 -2.1112303043813654 -42.298560851246293 0 -42.298560851246293 -2.7279962951070047 0 0 0 0 -5.1359604644112551 -34.111541002635931 0 -34.111541002635931 -8.2603016430985008 0 0 0 0 -50.277897523382308 -90.04749748217364 0 -90.04749748217364 -27.099698443256784 0 0 0 0 -19.546866075441358 -19.708607362357725 0 -19.708607362357725 1.2978563927390496 0 0 0 0 -26.789155435280918 -21.143777175660944 0 -21.143777175660944 -17.127882825043343 0 0 0 0 9.4325935627707054 -23.291297526495882 0 -23.291297526495882 -9.4187483932943508 0 0 0 0 7.910530583038053 -30.021333954566217 0 -30.021333954566217 -20.551616617105537 0 0 0 0 -7.6548391611768238 -44.403356612117932 0 -44.403356612117932 -4.0591651933100366 0 0 0 0 -5.774315229264932 -5.5730898048165756 0 -5.5730898048165756 -3.1450220321284803 0 0 0 0 4.4058470321415371 -41.350811698772304 0 -41.350811698772304 -2.7682293644902529 0 0 0 0 121.04670800960412 -47.753751673681109 0 -47.753751673681109 -32.781776517607796 0 0 0 0 -1.5696277910042227 -37.159639787776541 0 -37.159639787776541 -12.50261120425057 0 0 0 0 45.925945597235113 7.0147696940730384 0 7.0147696940730384 2.5937427001335891 0 0 0 0 11.026951396257607 -22.906282207591349 0 -22.906282207591349 -6.5175428084804707 0 0 0 0 37.95154989112234 -11.422545371244269 0 -11.422545371244269 6.1196269561987719 0 0 0 0 55.028446561688725 -27.919550954968145 0 -27.919550954968145 -52.773248004727066 0 0 0 0 38.072108951517293 -34.345160798991856 0 -34.345160798991856 -18.943761895863645 0 0 0 0 46.474095080697225 -46.804355699343432 0 -46.804355699343432 -135.94261551518866 0 0 0 0 -6.2710260773565096 -70.358004741912737 0 -70.358004741912737 -15.302620414613557 0 0 0 0 13.149990195721067 -22.334457589413496 0 -22.334457589413496 -3.4666334516726351 0 0 0 0 -1.2604122356935932 -59.639827902285106 0 -59.639827902285106 19.043304750797688 0 0 0 0 188.38227684734056 11.22971367824357 0 11.22971367824357 -37.95065815946873 0 0 0 0 0.018173019104571697 0.024525690853148596 0 0.024525690853148596 0.13001283140840769 0 0 0 0 -106.94989530238945 -71.451276907853753 0 -71.451276907853753 -27.953048010171187 0 0 0 0 -34.211276538827832 -35.963249683286904 0 -35.963249683286904 -12.279273443760758 0 0 0 0 -22.584341765313184 -15.138386224405622 0 -15.138386224405622 -38.935221460018511 0 0 0 0 97.659557664002932 -27.853142430074513 0 -27.853142430074513 -32.494372960307373 0 0 0 0 54.477312490364966 16.451792405152446 0 16.451792405152446 25.499452023592312 0 0 0 0 0.4199419466604557 -0.45521814175494768 0 -0.45521814175494768 0.86914816774404358 0 0 0 0 118.90908069055286 -2.1714837587915099 0 -2.1714837587915099 -29.416760264532058 0 0 0 0 53.407972138047626 -42.975194235852541 0 -42.975194235852541 -13.905294843938464 0 0 0 0 51.911124814331743 7.2246766286662023 0 7.2246766286662023 20.805484917545982 0 0 0 0 -16.3765941290917 8.8550553111126646 0 8.8550553111126646 9.1822955563256983 0 0 0 0 -2.8097547235224556 -3.6612972579265772 0 -3.6612972579265772 -3.7134538402361841 0 0 0 0 -88.364025102937831 22.883585568815761 0 22.883585568815761 6.3336798140280735 0 0 0 0 -10.74838294418123 -15.959887425532088 0 -15.959887425532088 15.513268784838147 0 0 0 0 -1.6955304489201377 -1.9582066412834083 0 -1.9582066412834083 2.2196786237022934 0 0 0 0 136.49860963289939 -153.30169460301113 0 -153.30169460301113 76.083272234885953 0 0 0 0 -1.1419393458057279 -3.2216912144583461 0 -3.2216912144583461 -1.0884020295668222 0 0 0 0 81.305209777949131 -73.141586552283115 0 -73.141586552283115 35.076480824136524 0 0 0 0 33.591652576566275 -22.856967844506471 0 -22.856967844506471 -2.7661269531963626 0 0 0 0 325.453527205922 170.64349833141023 0 170.64349833141023 -317.82857421011431 0 0 0 0 -26.385457789176144 -69.650597119383747 0 -69.650597119383747 79.260637954626873 0 0 0 0 -30.198804679874229 -49.702640707697356 0 -49.702640707697356 -7.0172222350556694 0 0 0 0 -6.270970395020413 -72.391463081761685 0 -72.391463081761685 -21.309987963824824 0 0 0 0 -27.603723675952097 14.486387167664361 0 14.486387167664361 -8.0780222251050873 0 0 0 0 13.120307406013724 -23.245723084767143 0 -23.245723084767143 -1.6074725023564724 0 0 0 0 -34.565524990498034 -72.975848440211394 0 -72.975848440211394 7.9853910340862058 0 0 0 0 34.91747520575052 -107.75829853674531 0 -107.75829853674531 17.813429557205382 0 0 0 0 -8.2278516377841697 -13.520999276424845 0 -13.520999276424845 -0.60734841487465019 0 0 0 0 -15.892080072701944 -12.71097533124383 0 -12.71097533124383 -7.830870108245449 0 0 0 0 -81.581415718866765 -4.3292807788348 0 -4.3292807788348 23.131457240193413 0 0 0 0 -56.813604188211912 -9.9553567080947687 0 -9.9553567080947687 13.224574403124279 0 0 0 0 -0.9090248346687777 -1.0290273653966366 0 -1.0290273653966366 -1.6889113064395787 0 0 0 0 -142.62603947870898 -114.39068261061357 0 -114.39068261061357 -49.073298033901665 0 0 0 0 -192.08325244983666 66.671545200220862 0 66.671545200220862 -15.796263048196124 0 0 0 0 -41.714441575804912 -93.784491905608547 0 -93.784491905608547 -100.40512336037136 0 0 0 0 17.136424175607146 -26.363377259489425 0 -26.363377259489425 -77.345773162622208 0 0 0 0 -151.36312366100174 -97.610991206705876 0 -97.610991206705876 -25.880616884453048 0 0 0 0 -147.56798770023215 31.764385046782991 0 31.764385046782991 -5.6955814826469577 0 0 0 0 3.6493124244242381 -23.877670463416507 0 -23.877670463416507 -49.623257497551094 0 0 0 0 -28.586589887780406 32.222014893681262 0 32.222014893681262 -146.03288887731833 0 0 0 0 50.614982795613628 -10.450413823857161 0 -10.450413823857161 -52.945788137240015 0 0 0 0 11.845019001997116 -1.9509157649408735 0 -1.9509157649408735 -7.9682936031858844 0 0 0 0 31.06426123424535 -14.474230364925461 0 -14.474230364925461 -9.8416371054554475 0 0 0 0 36.634699907173172 36.133889928492863 0 36.133889928492863 10.900744661987119 0 0 0 0 13.569311092082103 12.506424580664316 0 12.506424580664316 26.239849312438309 0 0 0 0 -15.401753984536299 49.400930495539797 0 49.400930495539797 -19.983064687554361 0 0 0 0 -7.0533471643207122 -4.6292619039040801 0 -4.6292619039040801 55.984851996559883 0 0 0 0 -7.2032266595474539 -16.173686265407014 0 -16.173686265407014 -8.2317060749410302 0 0 0 0 -1.2732549236766717 -5.2364063063791377 0 -5.2364063063791377 4.5066815242262095 0 0 0 0 -5.9725295640541844 -4.1046997550365631 0 -4.1046997550365631 -3.0768667635347811 0 0 0 0 0.10811060337580658 -6.2306907105917162 0 -6.2306907105917162 3.3114732713130053 0 0 0 0 20.498482394000462 49.50051397041716 0 49.50051397041716 53.035913918269216 0 0 0 0 -49.995297047449618 -38.34255983183003 0 -38.34255983183003 6.4799606309097726 0 0 0 0 -65.198033257851193 -16.081047739038695 0 -16.081047739038695 10.873192801132973 0 0 0 0 -27.046535988409232 18.556988682521478 0 18.556988682521478 29.932779170876529 0 0 0 0 -39.910083848226577 21.27810422042603 0 21.27810422042603 88.842765594423327 0 0 0 0 -76.049671850367304 -43.765495057330554 0 -43.765495057330554 35.120887903602124 0 0 0 0 2.4308939872407791 -12.74555319677529 0 -12.74555319677529 33.995749490732805 0 0 0 0 -21.659850451886996 -52.746017094083072 0 -52.746017094083072 -111.83703471878835 0 0 0 0 -31.702487643144025 -15.383247222588579 0 -15.383247222588579 52.120828499617346 0 0 0 0 -8.1917782050490047 -10.140604317003067 0 -10.140604317003067 8.4095825783526266 0 0 0 0 53.786446705787512 -21.719288181637239 0 -21.719288181637239 -151.39200905468897 0 0 0 0 -1.8434928708193183 -16.647918183567526 0 -16.647918183567526 -64.659394032649288 0 0 0 0 -1.1043069282750366 -3.2519409889355302 0 -3.2519409889355302 -3.4143392184487311 0 0 0 0 -0.67368047013960819 -1.8034015705953124 0 -1.8034015705953124 0.74484488376135261 0 0 0 0 0.12068118390263827 -0.44394680975953804 0 -0.44394680975953804 -0.23873109298094164 0 0 0 0 -1.909069085764953 -4.185770944413747 0 -4.185770944413747 1.1965583367706145 0 0 0 0 -2.2289961174997188 -3.0222397326851933 0 -3.0222397326851933 -0.003184542558301473 0 0 0 0 -1.3513541900674682 -2.9883999743324239 0 -2.9883999743324239 -1.1855477630633686 0 0 0 0 -0.63568461054637737 -1.9983155558511498 0 -1.9983155558511498 -1.8277829139492496 0 0 0 0 -1.3566846404521975 -0.3671725369831691 0 -0.3671725369831691 1.2971380258460812 0 0 0 0 0.42219936442275241 -1.6358633879114279 0 -1.6358633879114279 0.11996363541819122 0 0 0 0 -0.48341643209641916 -2.2793160304718185 0 -2.2793160304718185 -1.8114233057713136 0 0 0 0 -0.42449702243923682 -1.3930813449635195 0 -1.3930813449635195 1.0554184368342092 0 0 0 0 -0.62506879232023493 3.5140014078642707 0 3.5140014078642707 -2.1539186626978335 0 0 0 0 1.5345627754599036 -1.5943861134572117 0 -1.5943861134572117 -4.6515096135540972 0 0 0 0 -6.0364880222821329 -10.665699726906134 0 -10.665699726906134 9.1499623048241432 0 0 0 0 0.004827181835707961 -12.310962784711592 0 -12.310962784711592 -8.4357446554422495 0 0 0 0 -4.4834395321468037 -8.8654966126050567 0 -8.8654966126050567 -10.644883308006683 0 0 0 0 -0.91114389900167225 -4.1784852053606301 0 -4.1784852053606301 9.0722034626523964 0 0 0 0 -0.44664469350240221 -3.8086575500979336 0 -3.8086575500979336 2.6125869101840564 0 0 0 0 -1.9805919068635376 -5.2132485438414733 0 -5.2132485438414733 -3.620867878134959 0 0 0 0 -0.34777782510005739 -1.5726240484197831 0 -1.5726240484197831 0.99766706568960117 0 0 0 0 -1.6854744473644132 -4.2956252188669168 0 -4.2956252188669168 -2.6754789253827767 0 0 0 0 -3.0192981868150932 -4.941384157680659 0 -4.941384157680659 -0.0019411917528486811 0 0 0 0 -1.8822939807625585 -6.3385400098086393 0 -6.3385400098086393 -1.9807086116516075 0 0 0 0 -4.3093169381362486 -4.7694542759782053 0 -4.7694542759782053 -2.1773274525185116 0 0 0 0 0.9690055185523363 -4.1983386120482464 0 -4.1983386120482464 -4.528036666859407 0 0 0 0 -2.9007664139615343 -1.8641265674195893 0 -1.8641265674195893 -5.552810789187788 0 0 0 0 10.041409815984252 -9.0392026474455633 0 -9.0392026474455633 0.0010723176383180544 0 0 0 0 0.63825780995142622 -3.6555684052145807 0 -3.6555684052145807 -2.5000434090034105 0 0 0 0 6.4982416987675151 -11.830075055891939 0 -11.830075055891939 9.7328580722642073 0 0 0 0 -1.8296859755832173 2.9228864797605638 0 2.9228864797605638 15.0972125743574 0 0 0 0 -0.33673056456575123 -1.3484860090187141 0 -1.3484860090187141 0.31546192618303692 0 0 0 0 5.7003013461865066 -5.7516332209597749 0 -5.7516332209597749 -14.271349793165427 0 0 0 0 9.5792279296465495 -11.967140056898643 0 -11.967140056898643 -6.6555738924962498 0 0 0 0 5.6341859096742155 -4.8784413103967381 0 -4.8784413103967381 6.780019493526197 0 0 0 0 1.6453026971981295 -0.34082816852359343 0 -0.34082816852359343 -1.0391272360523374 0 0 0 0 -44.184589252463184 -8.4361315986170666 0 -8.4361315986170666 5.7873283660701418 0 0 0 0 8.297974457056057 -7.0980277229764397 0 -7.0980277229764397 2.3877276055136463 0 0 0 0 -104.60402974840531 -0.15837281461699604 0 -0.15837281461699604 11.596953020780347 0 0 0 0 0.64335260288458773 1.0688062065985022 0 1.0688062065985022 -1.0942364012303187 0 0 0 0 21.337287717085019 -8.4316379780939315 0 -8.4316379780939315 -5.8377602525870316 0 0 0 0 -16.046742827146772 -62.181532719332608 0 -62.181532719332608 -0.060933726098499466 0 0 0 0 30.41973717422843 -19.183005354625493 0 -19.183005354625493 0.94361773815762717 0 0 0 0 56.970660536667083 -61.815920455861487 0 -61.815920455861487 0.057930960421799682 0 0 0 0 38.45095311460625 -38.850390844501362 0 -38.850390844501362 4.4262351539364317 0 0 0 0 38.562822511254126 -39.472809395199874 0 -39.472809395199874 3.2976356653452967 0 0 0 0 11.178447418537871 -57.272066282377637 0 -57.272066282377637 2.1589805488268894 0 0 0 0 -7.0270369693826069 -25.901339260912209 0 -25.901339260912209 4.1930401366762453 0 0 0 0 -4.3963647195337217 -25.58072998850912 0 -25.58072998850912 -2.6668923894612817 0 0 0 0 29.779636481898706 -44.293612367378955 0 -44.293612367378955 2.8164493923759437 0 0 0 0 32.384424211666328 -27.129362159594166 0 -27.129362159594166 -6.9102690177387558 0 0 0 0 13.885024162302216 -55.619812736586027 0 -55.619812736586027 7.7249715307771112 0 0 0 0 81.759818444523262 -96.864139724086272 0 -96.864139724086272 15.191101306802011 0 0 0 0 24.869403655056885 -72.405128303711535 0 -72.405128303711535 12.880597503146419 0 0 0 0 7.3975800658881781 -50.721103008756472 0 -50.721103008756472 9.6602975133173459 0 0 0 0 -32.959909734727262 -18.677957597377826 0 -18.677957597377826 11.370995411853073 0 0 0 0 -5.4083687019228819 -78.290021612723649 0 -78.290021612723649 57.97937534659286 0 0 0 0 22.455203022748719 -39.366040506269201 0 -39.366040506269201 15.912165915411606 0 0 0 0 10.350560718234647 -12.331574085795182 0 -12.331574085795182 8.0508463188016322 0 0 0 0 12.844401762145072 -16.92515576061929 0 -16.92515576061929 12.193854658982019 0 0 0 0 0.90204583276818084 -32.343625760671785 0 -32.343625760671785 -5.3984460481333372 0 0 0 0 15.320142679395758 -14.357831928042287 0 -14.357831928042287 -27.936734874205285 0 0 0 0 -56.317463050685546 8.1836484924278921 0 8.1836484924278921 7.6989763961664721 0 0 0 0 -96.628084819414653 -31.516610677936114 0 -31.516610677936114 46.339552322300733 0 0 0 0 -0.11362192169526786 -3.2881762608257006 0 -3.2881762608257006 5.7183898073042343 0 0 0 0 0.56703275802919961 -26.98175807534426 0 -26.98175807534426 18.764260987150919 0 0 0 0 12.789517993485914 -16.592120541186631 0 -16.592120541186631 8.5391644213486728 0 0 0 0 151.75225627593181 -117.53218346087306 0 -117.53218346087306 53.33870896974986 0 0 0 0 -49.224762090885633 -102.21416933446017 0 -102.21416933446017 93.964268572453875 0 0 0 0 -178.20168488792842 123.84839364323852 0 123.84839364323852 -64.363380218725069 0 0 0 0 27.101837417654679 -31.947074137868185 0 -31.947074137868185 -13.346741001718328 0 0 0 0 12.500005330522526 -14.770152372278972 0 -14.770152372278972 0.9752012389653828 0 0 0 0 19.746222762507159 -41.046580987582274 0 -41.046580987582274 44.08667248301208 0 0 0 0 58.509716228682464 -19.458878118548455 0 -19.458878118548455 -12.401577709024423 0 0 0 0 -0.17879570685443014 -12.840394408744032 0 -12.840394408744032 -0.94707116609060904 0 0 0 0 37.212280075114904 0.46288206661120057 0 0.46288206661120057 107.36915838189452 0 0 0 0 33.271177755163535 35.9030922767015 0 35.9030922767015 47.027848655088746 0 0 0 0 45.050772108737647 5.2831382493568526 0 5.2831382493568526 53.681531629001256 0 0 0 0 -0.14184772571213089 -0.75289927469076545 0 -0.75289927469076545 0.52472852799112957 0 0 0 0 7.2673321621487048 21.471583625301719 0 21.471583625301719 98.702577567884873 0 0 0 0 0.75078456431053375 -0.18484297989069631 0 -0.18484297989069631 -1.1531398974808553 0 0 0 0 42.866437691061265 44.42444820584933 0 44.42444820584933 54.479055619929568 0 0 0 0 49.897144843681417 6.2973114637788967 0 6.2973114637788967 12.956842877960298 0 0 0 0 0.30844968382249593 -4.4920953262443248 0 -4.4920953262443248 5.4900463321511523 0 0 0 0 2.9986432677133052 -10.858886034962779 0 -10.858886034962779 -4.362398900801054 0 0 0 0 2.9038478474989597 -6.0056167359250239 0 -6.0056167359250239 -5.5904582467037471 0 0 0 0 1.6018825381443982 -6.3094478865831007 0 -6.3094478865831007 3.700863000002812 0 0 0 0 1.5710132176027802 -4.4817742101196814 0 -4.4817742101196814 3.7112283222494753 0 0 0 0 0.45648146022597302 -9.9218897305381688 0 -9.9218897305381688 -1.6725656990456628 0 0 0 0 -0.49049160668505465 -8.1438508488645311 0 -8.1438508488645311 -1.8738323370271246 0 0 0 0 -0.6551136616022859 -4.8338277588172787 0 -4.8338277588172787 -0.93238524223852437 0 0 0 0 0.030667897039126757 -1.9013251746459474 0 -1.9013251746459474 2.1124794074086424 0 0 0 0 15.925559188146508 3.3209794903814327 0 3.3209794903814327 36.669680656625133 0 0 0 0 -2.8087601918541623 -11.248575688858182 0 -11.248575688858182 -8.7407801241570269 0 0 0 0 -23.382238200078518 16.436723922553938 0 16.436723922553938 38.683559699075886 0 0 0 0 7.7517829006257983 -14.56541340976171 0 -14.56541340976171 8.7949731366224455 0 0 0 0 4.5085161957523274 -8.807171838113689 0 -8.807171838113689 9.7155501738413648 0 0 0 0 -170.55766672340906 -255.60599556641682 0 -255.60599556641682 -96.475842945694239 0 0 0 0 -144.31239303440361 -216.13599243944554 0 -216.13599243944554 -102.52063807387458 0 0 0 0 -76.330695283892055 -244.79549882423089 0 -244.79549882423089 -172.25691266376816 0 0 0 0 48.593185028406879 -69.088826121551392 0 -69.088826121551392 -155.0153716661589 0 0 0 0 -42.795894928396592 -50.398309559903282 0 -50.398309559903282 202.16201458213618 0 0 0 0 -51.021712124331316 -207.43172117340509 0 -207.43172117340509 -335.85673317401961 0 0 0 0 -0.7842334080553357 -2.1400776185586778 0 -2.1400776185586778 -0.65540290881870789 0 0 0 0 -300.78241701289608 -217.74885684375477 0 -217.74885684375477 -113.10771903576824 0 0 0 0 -262.94890486836448 -283.86368785454397 0 -283.86368785454397 0.32788058334335801 0 0 0 0 -287.24990172523121 -162.09794848080492 0 -162.09794848080492 -91.296626307383121 0 0 0 0 -277.97984673242172 -321.02432606895309 0 -321.02432606895309 -184.47197882450564 0 0 0 0 -363.54320919755628 -202.61397650924846 0 -202.61397650924846 -62.588815124559915 0 0 0 0 -275.20068345689833 -215.51077121606068 0 -215.51077121606068 -65.406213081470923 0 0 0 0 -285.86779622043468 -97.850380816555116 0 -97.850380816555116 -9.1722302503148967 0 0 0 0 -231.56692360359557 -169.88138834192796 0 -169.88138834192796 -99.365530381022836 0 0 0 0 -339.95109679654479 -207.73293331396235 0 -207.73293331396235 -0.25544544058357133 0 0 0 0 -0.27339105978724254 0.46090959380764573 0 0.46090959380764573 -0.61924168519419709 0 0 0 0 143.28371119314852 -18.227615809351846 0 -18.227615809351846 -11.152628783231194 0 0 0 0 -470.72837947978587 -140.98417890143173 0 -140.98417890143173 -11.582396704070561 0 0 0 0 -0.13364597504964421 0.1556251400195201 0 0.1556251400195201 -1.5002131163508921 0 0 0 0 76.029534190778577 -23.391997990518576 0 -23.391997990518576 -1.2853139071521582 0 0 0 0 -187.63741591199471 -92.766705015417585 0 -92.766705015417585 -37.197703812511463 0 0 0 0 21.506511664286336 -24.959282398089272 0 -24.959282398089272 -9.8672733159546624 0 0 0 0 0.15688773285564184 -3.1425145110491979 0 -3.1425145110491979 -1.5379647409909865 0 0 0 0 -32.114039188434617 -52.196061540598748 0 -52.196061540598748 -54.196164342796692 0 0 0 0 -74.925345001312053 -52.308650809707615 0 -52.308650809707615 -31.779078340239266 0 0 0 0 -135.39671255868143 -41.847260816568451 0 -41.847260816568451 0.68181115706829587 0 0 0 0 -200.91764519410481 -128.20375391131165 0 -128.20375391131165 -42.065820612115203 0 0 0 0 -239.4140277757524 -187.02642579432359 0 -187.02642579432359 -46.150470406872046 0 0 0 0 -172.77940373758292 -179.83429199936018 0 -179.83429199936018 -59.557300427135488 0 0 0 0 -163.98661952171096 -187.93736276960408 0 -187.93736276960408 -76.320462567625327 0 0 0 0 -131.82006420864491 -154.86915233600303 0 -154.86915233600303 -84.726250538464228 0 0 0 0 -135.77577286244923 -176.88102518625965 0 -176.88102518625965 -152.72581260821607 0 0 0 0 -160.85486461720257 -203.60688389833831 0 -203.60688389833831 -94.612034889447386 0 0 0 0 -152.23768198879407 -209.18323395455081 0 -209.18323395455081 -101.06014397837134 0 0 0 0 -117.89045528056067 -202.68943640724319 0 -202.68943640724319 -77.133519527233148 0 0 0 0 -134.62271789208717 -219.37862788172788 0 -219.37862788172788 -85.429141897260706 0 0 0 0 106.67411301289212 116.82741763200102 0 116.82741763200102 63.877928319903731 0 0 0 0 -104.65736887560433 -157.95216099131176 0 -157.95216099131176 -173.61025647033239 0 0 0 0 -105.70224610240348 -142.5661562842979 0 -142.5661562842979 -225.73250201196061 0 0 0 0 -141.07886995056106 -210.26077004615217 0 -210.26077004615217 -190.18990530522933 0 0 0 0 -7.8424150194757303 0.030916684627754876 0 0.030916684627754876 0.37896601550023234 0 0 0 0 -84.020328746303676 -135.324430701854 0 -135.324430701854 -161.9751011704866 0 0 0 0 -31.202562107301674 38.661091228403166 0 38.661091228403166 89.533895916989422 0 0 0 0 47.783220120985789 1.8797019871708471 0 1.8797019871708471 -62.13742267082489 0 0 0 0 -39.841555842727757 13.965697649367939 0 13.965697649367939 23.176178369158151 0 0 0 0 -61.629062741957569 11.273127519169066 0 11.273127519169066 28.75261859004604 0 0 0 0 -85.447521945906828 -49.785115469345328 0 -49.785115469345328 -15.257990586906089 0 0 0 0 -16.325946329721965 -0.20718783146681119 0 -0.20718783146681119 3.9634804844173885 0 0 0 0 -0.39454192428878515 -23.494384918047206 0 -23.494384918047206 30.316009138728106 0 0 0 0 27.715834758673843 -24.462590786313058 0 -24.462590786313058 24.503615698406065 0 0 0 0 -149.28164924648499 -3.6189145937410103 0 -3.6189145937410103 69.9886297805715 0 0 0 0 12.026087732379821 -32.229000060850012 0 -32.229000060850012 33.923897670851147 0 0 0 0 -1.2179417631632803 -22.41070278199458 0 -22.41070278199458 38.991670240566009 0 0 0 0 -41.460899252737136 -29.918466861613069 0 -29.918466861613069 73.991284182055097 0 0 0 0 -33.009799354073039 13.502280531309225 0 13.502280531309225 15.099665192306929 0 0 0 0 -7.4971811930845433 -16.269073610295891 0 -16.269073610295891 41.257571027726954 0 0 0 0 57.792164247646724 -67.105961496996315 0 -67.105961496996315 -5.5963188342102512 0 0 0 0 61.063199437345247 -55.521131186174898 0 -55.521131186174898 -18.130267140331853 0 0 0 0 108.25757224071458 -133.65390304618995 0 -133.65390304618995 64.690912362013478 0 0 0 0 -14.085294633236117 -26.496554155894046 0 -26.496554155894046 277.67611841262988 0 0 0 0 -11.409715497765617 -7.4912026614776508 0 -7.4912026614776508 -3.2052616188368006 0 0 0 0 64.940994524009852 -31.935441325389547 0 -31.935441325389547 -21.457403130762941 0 0 0 0 64.10164028708698 -36.787098402133779 0 -36.787098402133779 4.4978291224206259 0 0 0 0 46.11300212469132 2.4270091045145818 0 2.4270091045145818 -5.2384813224580284 0 0 0 0 52.340218567333523 -12.423774846967717 0 -12.423774846967717 25.355890126462327 0 0 0 0 52.833665515319581 -13.789666975630098 0 -13.789666975630098 24.023286465060664 0 0 0 0 55.421561898975369 -8.4352398138144054 0 -8.4352398138144054 20.155768240379984 0 0 0 0 58.34726109647454 -20.072950521520397 0 -20.072950521520397 31.166689787598443 0 0 0 0 63.013367261065468 -12.318916652846383 0 -12.318916652846383 18.974038636908517 0 0 0 0 55.792290680945825 -30.244503297384654 0 -30.244503297384654 52.834847344762238 0 0 0 0 47.12828191511835 3.499055001353554 0 3.499055001353554 44.189358348620431 0 0 0 0 4.7561270831054259 -17.012390107277042 0 -17.012390107277042 36.876802994287573 0 0 0 0 50.819131244610617 -21.71909892297117 0 -21.71909892297117 -0.48632216151418106 0 0 0 0 4.518177366301984 -13.04268767528265 0 -13.04268767528265 25.2700255722375 0 0 0 0 -5.8623507753414508 -4.6134266230833987 0 -4.6134266230833987 4.905709431805235 0 0 0 0 13.797202944011929 -18.87772907240651 0 -18.87772907240651 21.119377757029724 0 0 0 0 17.180106239447582 -26.494786927505629 0 -26.494786927505629 27.36433009083521 0 0 0 0 17.275543539902401 -27.266095306629722 0 -27.266095306629722 36.08973110973966 0 0 0 0 17.038330620254328 -29.292743778121803 0 -29.292743778121803 20.048745234698572 0 0 0 0 13.166498311066562 -33.277335602935636 0 -33.277335602935636 34.77454256735291 0 0 0 0 14.699047785058838 -34.634441187710763 0 -34.634441187710763 29.169938562210518 0 0 0 0 1.1906277525267797 -39.988422114507557 0 -39.988422114507557 36.603612239550785 0 0 0 0 13.953891107804338 -31.59947984387918 0 -31.59947984387918 16.81280887604953 0 0 0 0 17.661131401295279 -44.078391151226242 0 -44.078391151226242 27.403390968916938 0 0 0 0 11.46597309289632 -31.376270256983844 0 -31.376270256983844 18.460853947948635 0 0 0 0 21.715334905527016 -48.902556538381759 0 -48.902556538381759 21.517419026463813 0 0 0 0 14.426815427762904 -48.305916421792062 0 -48.305916421792062 50.13105412177174 0 0 0 0 20.695127073448248 -41.590067763369007 0 -41.590067763369007 29.219526600802055 0 0 0 0 35.710472905145025 -41.452543443727336 0 -41.452543443727336 51.040589815518615 0 0 0 0 16.672927267144587 -53.625940393307246 0 -53.625940393307246 48.185160478864418 0 0 0 0 23.922826255664859 -84.307807152026726 0 -84.307807152026726 130.40369000527789 0 0 0 0 -3.7575966368099216 13.760179415662606 0 13.760179415662606 271.6209334499581 0 0 0 0 7.550135871577254 1.5914964324638277 0 1.5914964324638277 96.299812143122836 0 0 0 0 1.1459628384843157 0.073168160249480252 0 0.073168160249480252 -0.28599756853910208 0 0 0 0 -14.021909388895438 -87.80077159778557 0 -87.80077159778557 -229.22614835783679 0 0 0 0 -2.5703471213931834 -111.04409436996821 0 -111.04409436996821 -182.06520465526773 0 0 0 0 -4.6488876888515733 3.1559575595329079 0 3.1559575595329079 56.670752265610645 0 0 0 0 -39.688373870092505 -8.206490435236617 0 -8.206490435236617 64.925138784357841 0 0 0 0 -8.4088081253088376 3.4319385139206133 0 3.4319385139206133 118.74318791836777 0 0 0 0 2.8702179241508325 -0.2142607453496197 0 -0.2142607453496197 -0.73843967675837519 0 0 0 0 7.6740924550754244 -59.88608523833318 0 -59.88608523833318 122.33252964030817 0 0 0 0 -28.777733002744696 -49.172145071564046 0 -49.172145071564046 77.699094187079027 0 0 0 0 -9.5937321290584165 -39.153756350967797 0 -39.153756350967797 45.162751485142508 0 0 0 0 -59.101282431234296 -25.766708816152459 0 -25.766708816152459 66.4795788229967 0 0 0 0 -8.4865300110097905 -46.28763059632729 0 -46.28763059632729 60.193368325364645 0 0 0 0 1.2767966107032862 -37.07250534837749 0 -37.07250534837749 51.380420414283435 0 0 0 0 17.171513829824477 -52.951751382684961 0 -52.951751382684961 42.868171439993603 0 0 0 0 -19.835509313691716 -39.752133295582098 0 -39.752133295582098 50.491699268430239 0 0 0 0 -1.2408907813882637 -23.304869654100706 0 -23.304869654100706 47.145008223045721 0 0 0 0 -249.86854759037669 12.840371002226675 0 12.840371002226675 45.19788666938075 0 0 0 0 57.954879943565857 -88.345068207543591 0 -88.345068207543591 9.8666065065845032 0 0 0 0 14.296377130751353 109.82639670487606 0 109.82639670487606 -63.105110580188921 0 0 0 0 284.73507783913738 -3.6463465562083002 0 -3.6463465562083002 -96.333074748716172 0 0 0 0 211.14760515913622 -242.79539942333213 0 -242.79539942333213 129.84653702885771 0 0 0 0 41.946880441096255 -53.939017052859526 0 -53.939017052859526 15.192837109862012 0 0 0 0 45.081218141256159 -37.105126532957001 0 -37.105126532957001 105.37307171029533 0 0 0 0 54.437218766604929 -110.22124317848284 0 -110.22124317848284 85.079561733451555 0 0 0 0 54.761995065042356 -89.989120402638946 0 -89.989120402638946 9.364235901113716 0 0 0 0 -33.679750519910158 -95.48193925882515 0 -95.48193925882515 173.42692409644224 0 0 0 0 -39.899572212830208 -41.317331244330489 0 -41.317331244330489 105.7656416969985 0 0 0 0 -11.649749834483373 -85.843393168161128 0 -85.843393168161128 162.34788097025739 0 0 0 0 -61.336268883229422 -53.283213799997611 0 -53.283213799997611 207.48157549783718 0 0 0 0 -28.894217456168917 -62.925242671168235 0 -62.925242671168235 81.37979368455126 0 0 0 0 -33.927356201081317 -186.24346879753119 0 -186.24346879753119 344.2768113032289 0 0 0 0 -91.035001900986117 -20.791643128431133 0 -20.791643128431133 261.82134777677129 0 0 0 0 -6.6667431104888237 -56.398612762084667 0 -56.398612762084667 -35.391426722395408 0 0 0 0 -46.069950076828718 16.87930322086504 0 16.87930322086504 52.765072604866873 0 0 0 0 -8.8146485839388333 -59.835642434256442 0 -59.835642434256442 81.794202391043655 0 0 0 0 -4.3638860513074178 -32.527203900790482 0 -32.527203900790482 4.3796845303004375 0 0 0 0 -476.33669769805408 25.790304603816821 0 25.790304603816821 504.04751409610617 0 0 0 0 -2.1147434181367259 -23.657061757360779 0 -23.657061757360779 52.006577739343939 0 0 0 0 2.1345969064381425 -2.6934399544013274 0 -2.6934399544013274 5.1411465264404796 0 0 0 0 323.70955333244092 -277.55787939476795 0 -277.55787939476795 -112.85310367232159 0 0 0 0 404.88857257665859 101.6907518739572 0 101.6907518739572 16.26099076285027 0 0 0 0 3.3445380867015411 -28.632465455125871 0 -28.632465455125871 50.601527237577614 0 0 0 0 -157.16358220837355 -131.43551781595488 0 -131.43551781595488 69.796942227359978 0 0 0 0 42.437686368993056 -37.839110888439698 0 -37.839110888439698 25.24008467580579 0 0 0 0 58.228032584407629 -129.85211019804956 0 -129.85211019804956 -41.441674465484539 0 0 0 0 13.849622311348867 -44.144857422641508 0 -44.144857422641508 -28.902709159672668 0 0 0 0 125.1760851797917 -93.659310492676013 0 -93.659310492676013 -52.037735231446277 0 0 0 0 93.753465773585049 7.8633495902140567 0 7.8633495902140567 -76.988369117170805 0 0 0 0 65.879741902276081 -593.95047155926295 0 -593.95047155926295 -458.989301397909 0 0 0 0 73.595434008319401 228.97085299047509 0 228.97085299047509 -395.98320734882873 0 0 0 0 261.59815567728742 -8.5066316104421276 0 -8.5066316104421276 -913.65449785374585 0 0 0 0 -92.074335731329029 81.691140498918685 0 81.691140498918685 41.103461232611153 0 0 0 0 7.6837504356273509 -8.4063846884102738 0 -8.4063846884102738 -4.3246086500703171 0 0 0 0 -371.45558194789356 -397.79037905703285 0 -397.79037905703285 -314.67140286607901 0 0 0 0 53.081346490558133 135.24115310097113 0 135.24115310097113 -442.18111820218837 0 0 0 0 -27.465384070639629 -49.214319065024029 0 -49.214319065024029 -14.646653278585291 0 0 0 0 2.1410001603308046 -65.42036417460622 0 -65.42036417460622 -10.398704019185971 0 0 0 0 3.9376503751756804 -11.889760443907456 0 -11.889760443907456 12.179308603801815 0 0 0 0 -47.627837448604623 -76.590139768301015 0 -76.590139768301015 -9.0847494356785319 0 0 0 0 155.90978580422075 10.724911011969198 0 10.724911011969198 -53.419746512066922 0 0 0 0 88.989731832014513 -44.867469576034637 0 -44.867469576034637 68.87707134016091 0 0 0 0 76.594081062663463 -102.13383571967643 0 -102.13383571967643 -98.700140220786125 0 0 0 0 38.71330511551038 -37.606947969213294 0 -37.606947969213294 17.541198389309052 0 0 0 0 14.623742957896866 91.251949866687937 0 91.251949866687937 -52.490214166355145 0 0 0 0 79.06874371777667 -190.32965924347445 0 -190.32965924347445 -396.1381592339302 0 0 0 0 67.147945095305658 -194.7662755261772 0 -194.7662755261772 -49.204507182375437 0 0 0 0 22.656850663610648 -14.439311263368943 0 -14.439311263368943 -51.911474457012986 0 0 0 0 -28.656284461896576 -55.96945108671207 0 -55.96945108671207 -81.814585320069455 0 0 0 0 -1.7076689056177443 -4.4693304703934729 0 -4.4693304703934729 0.17202365326812341 0 0 0 0 32.338326160657743 -67.012877093973657 0 -67.012877093973657 -36.650118427860434 0 0 0 0 -5.1166315194222989 -49.649486762064043 0 -49.649486762064043 -20.043362876327592 0 0 0 0 53.438788616011152 -39.384425509786524 0 -39.384425509786524 -11.061672385476413 0 0 0 0 4.0373899891883269 -34.411931564972278 0 -34.411931564972278 0.13315021587982301 0 0 0 0 -18.214138894713777 -39.56830126829653 0 -39.56830126829653 -10.636226014315259 0 0 0 0 0.33562981079921883 -40.934840182208063 0 -40.934840182208063 -57.442602312272356 0 0 0 0 -6.292928573847842 -7.6874432238368229 0 -7.6874432238368229 0.60055257833079878 0 0 0 0 -72.433482560565608 -51.349878423578048 0 -51.349878423578048 87.894107870146399 0 0 0 0 8.946581771353916 -56.094901634728117 0 -56.094901634728117 -0.97483825596393103 0 0 0 0 -46.6494272594866 -57.785318150330617 0 -57.785318150330617 -42.261307900275909 0 0 0 0 -31.618485369208202 -177.78431767540496 0 -177.78431767540496 15.785474283951316 0 0 0 0 61.143023512904847 -159.40818983973895 0 -159.40818983973895 10.42333461011367 0 0 0 0 -108.72027009313751 -133.29826719900615 0 -133.29826719900615 196.5151087273216 0 0 0 0 -74.405113642562355 6.2509309652562024 0 6.2509309652562024 139.73666749947415 0 0 0 0 -70.633126388945129 -78.714776665738668 0 -78.714776665738668 93.290739658574239 0 0 0 0 -4.0288434586389528 -24.684309065053732 0 -24.684309065053732 33.271722945375934 0 0 0 0 -57.968651144703472 -301.57626713973968 0 -301.57626713973968 511.6601879355112 0 0 0 0 -273.55229534781256 -134.97442776770185 0 -134.97442776770185 -943.20963760630912 0 0 0 0 61.76088548692951 -50.617619257771366 0 -50.617619257771366 364.60084309669764 0 0 0 0 -5.2771322687373736 -2.6870473060405686 0 -2.6870473060405686 -1.3332876575697092 0 0 0 0 -44.558370964692585 -187.85265796168096 0 -187.85265796168096 71.985174676549832 0 0 0 0 21.966929312118964 -375.17335683191232 0 -375.17335683191232 125.69073282802128 0 0 0 0 22.42183816662282 -377.20968945620189 0 -377.20968945620189 -47.235100397338101 0 0 0 0 -47.284485659894472 -210.11560354851281 0 -210.11560354851281 240.40146695369367 0 0 0 0 -40.266572093585104 -43.544423382875848 0 -43.544423382875848 -42.892864382678106 0 0 0 0 32.085036326991485 -129.7641757251622 0 -129.7641757251622 95.230154988734284 0 0 0 0 -2.5675791758585547 -32.626956997170055 0 -32.626956997170055 98.746030316765484 0 0 0 0 1.7260333570455941 -149.22170588019799 0 -149.22170588019799 291.52358187285972 0 0 0 0 54.852915974079224 -134.2601589754322 0 -134.2601589754322 226.50023364785011 0 0 0 0 109.38971493422696 -104.12631656469603 0 -104.12631656469603 161.12911136895855 0 0 0 0 76.257853808189168 -166.85969821119488 0 -166.85969821119488 42.731199926511181 0 0 0 0 -33.702622552329444 -123.30805178483934 0 -123.30805178483934 159.01946176014553 0 0 0 0 54.5659065153136 -146.22081889313085 0 -146.22081889313085 156.91530206280731 0 0 0 0 98.526622102367583 -157.3304413851838 0 -157.3304413851838 95.705495480207901 0 0 0 0 59.164767081247192 -147.01149001640806 0 -147.01149001640806 173.69388894640679 0 0 0 0 64.488573275498766 -171.81836183860105 0 -171.81836183860105 233.31664294668735 0 0 0 0 80.908081233263601 -167.94842178734325 0 -167.94842178734325 170.0458276036079 0 0 0 0 131.13787031730135 -153.70128002837009 0 -153.70128002837009 151.38726051951926 0 0 0 0 -8.153291102436242 -29.540414573646558 0 -29.540414573646558 -86.288623895830824 0 0 0 0 193.03290126028332 -99.33473489674725 0 -99.33473489674725 232.4908265566819 0 0 0 0 158.21638869072194 -201.38658129101168 0 -201.38658129101168 231.31464613113599 0 0 0 0 59.244360978388613 -210.29275180957302 0 -210.29275180957302 300.64008680213738 0 0 0 0 181.67508484059999 123.91296384607267 0 123.91296384607267 -42.922669889147073 0 0 0 0 -10.468329680239036 -7.1742710304508961 0 -7.1742710304508961 -3.5825004035175603 0 0 0 0 35.229918935746809 -71.270591398726538 0 -71.270591398726538 -204.91180987350526 0 0 0 0 27.886194354046893 -141.6027884131363 0 -141.6027884131363 296.25697762772711 0 0 0 0 45.239639978612104 -87.354429485150831 0 -87.354429485150831 169.22631231190098 0 0 0 0 88.616353342593357 -135.32008931717974 0 -135.32008931717974 105.71625693841997 0 0 0 0 73.896487180894837 -145.27992505879229 0 -145.27992505879229 133.22819564456768 0 0 0 0 -13.090562412425886 -9.7392782883234403 0 -9.7392782883234403 -5.0979603686663317 0 0 0 0 53.110256606069015 -85.499886655469709 0 -85.499886655469709 110.73573505247805 0 0 0 0 11.453267333036365 -47.709213908265156 0 -47.709213908265156 -201.23653736700362 0 0 0 0 -252.69077822078384 -25.694641676329411 0 -25.694641676329411 256.88526680736686 0 0 0 0 33.786469512994245 45.803991153892639 0 45.803991153892639 -7.6309961588012811 0 0 0 0 2.6243193491617109 -0.29017798227516067 0 -0.29017798227516067 -0.15136298159207584 0 0 0 0 -18.601229574097488 -58.080023825117678 0 -58.080023825117678 -204.81446137233434 0 0 0 0 -22.026267332608995 -58.087861519228682 0 -58.087861519228682 -181.073710326742 0 0 0 0 2.5873543148984481 -77.906512616789769 0 -77.906512616789769 -209.31017212769075 0 0 0 0 -39.152185849324951 -98.166917537625523 0 -98.166917537625523 -191.30743291594626 0 0 0 0 -24.91542366057331 -118.380737402058 0 -118.380737402058 -193.19655885334942 0 0 0 0 -12.953734815034977 -127.55865268724847 0 -127.55865268724847 -219.23188292311534 0 0 0 0 -0.12635275296388193 -4.3912471082476046 0 -4.3912471082476046 7.7707947721449884 0 0 0 0 -13.481974263509073 -132.25044418762263 0 -132.25044418762263 -193.44620651388686 0 0 0 0 -132.15131728921696 -79.975873435170797 0 -79.975873435170797 -35.684212122880126 0 0 0 0 -110.51043681074555 -277.6059376156918 0 -277.6059376156918 -367.62546707892034 0 0 0 0 -165.15901605436835 -171.87105789915586 0 -171.87105789915586 -108.20531126045171 0 0 0 0 125.20897536087236 88.242066417782553 0 88.242066417782553 -230.87212955825817 0 0 0 0 242.53672088929031 -62.323580411357398 0 -62.323580411357398 -1225.5660194824777 0 0 0 0 82.902041586757832 -87.735795695505658 0 -87.735795695505658 -463.42209563189317 0 0 0 0 63.098813805480177 -42.529379252493527 0 -42.529379252493527 -225.94199512152591 0 0 0 0 36.485492663154901 -58.299076642801083 0 -58.299076642801083 -231.51352995652269 0 0 0 0 13.12786400161076 -71.243658500256061 0 -71.243658500256061 -220.83329615622642 0 0 0 0 30.291738996383913 -97.352148372287047 0 -97.352148372287047 -293.00854092928057 0 0 0 0 -18.699660833502548 -52.01841914886927 0 -52.01841914886927 -13.353775401719759 0 0 0 0 -34.678051566006616 -33.73047916275209 0 -33.73047916275209 -0.36626177497146273 0 0 0 0 -18.825014393933088 -51.617930045096728 0 -51.617930045096728 2.1618868300320173 0 0 0 0 3.2980412791839626 -60.634773546300494 0 -60.634773546300494 -3.841824496492336 0 0 0 0 -5.9608333773139748 -61.258220703348343 0 -61.258220703348343 9.3810223727341508 0 0 0 0 2.5721976631011785 -64.905491832003463 0 -64.905491832003463 -2.3142195324471686 0 0 0 0 6.8896994475508109 -64.757041575687253 0 -64.757041575687253 -2.9770900001967675 0 0 0 0 8.5181478110898752 -62.583236366939673 0 -62.583236366939673 -3.4379821786869798 0 0 0 0 -0.18780989417791716 -52.509932933478922 0 -52.509932933478922 -13.048047298045276 0 0 0 0 11.848611488640017 -63.930999837624768 0 -63.930999837624768 -12.417208872078845 0 0 0 0 11.145346911569504 -69.939854323902182 0 -69.939854323902182 -2.1824059957689315 0 0 0 0 27.926624052111947 -269.65015182397838 0 -269.65015182397838 209.15418908766878 0 0 0 0 9.7088039559603203 -62.501666919937634 0 -62.501666919937634 -5.6594414143000904 0 0 0 0 -13.904676223390737 -33.125007784948068 0 -33.125007784948068 -47.853119586265557 0 0 0 0 -9.9747243795172835 -49.605688614908104 0 -49.605688614908104 -13.421214737725677 0 0 0 0 -10.260004049505369 -51.991583615319541 0 -51.991583615319541 -31.87293707491699 0 0 0 0 -42.021021513122832 -59.683405871042851 0 -59.683405871042851 -24.645329801980552 0 0 0 0 -0.17946555776896389 -12.52019507072135 0 -12.52019507072135 8.7457065949049735 0 0 0 0 -41.94256856161519 -49.356615923948993 0 -49.356615923948993 -20.032312652394467 0 0 0 0 -41.138384718353336 -51.4257846647306 0 -51.4257846647306 -7.1975036287076364 0 0 0 0 10.188422803931154 -23.299075925322356 0 -23.299075925322356 -4.4980607319776738 0 0 0 0 -40.354043027055013 -29.323764355553067 0 -29.323764355553067 4.3465969070930441 0 0 0 0 4.947789968973666 3.1507984881336597 0 3.1507984881336597 15.861142725923855 0 0 0 0 -5.2361033097647578 -21.183060995437735 0 -21.183060995437735 26.256151768169659 0 0 0 0 44.685867336047522 -250.94437987828132 0 -250.94437987828132 78.978920022535021 0 0 0 0 -106.6576273076098 -62.862760521396922 0 -62.862760521396922 28.892416347622202 0 0 0 0 -42.197490601469326 -50.904092204833432 0 -50.904092204833432 -17.433434175498405 0 0 0 0 11.524582921594007 -25.233965584231079 0 -25.233965584231079 -33.085913740931112 0 0 0 0 -34.900958880774851 -36.798771167088489 0 -36.798771167088489 -31.440772378307884 0 0 0 0 -46.649680577196705 -36.326488268088724 0 -36.326488268088724 -28.548397750679214 0 0 0 0 -34.223145604122649 -17.541930612277255 0 -17.541930612277255 5.1725845016341871 0 0 0 0 -312.55709321550967 230.43128374145817 0 230.43128374145817 -166.78637815601724 0 0 0 0 6.6808271514782263 -20.63308928266413 0 -20.63308928266413 -34.750674475979082 0 0 0 0 142.72360798271256 33.34645260598154 0 33.34645260598154 -286.7221533364791 0 0 0 0 14.369453863720992 -17.250177022604475 0 -17.250177022604475 10.868917342553232 0 0 0 0 -7.1818032007716539 -7.204503726804937 0 -7.204503726804937 -0.20060732591060315 0 0 0 0 -65.049051628120651 15.930692739631013 0 15.930692739631013 94.23027146539971 0 0 0 0 7.4264877685855026 -100.33727292581716 0 -100.33727292581716 171.2024743339316 0 0 0 0 -17.586252148525091 -38.727324889753618 0 -38.727324889753618 39.914777093625162 0 0 0 0 -21.040012503459366 7.8290399771517514 0 7.8290399771517514 18.497528256430087 0 0 0 0 -16.2508503620993 -11.688926626390639 0 -11.688926626390639 30.088144474160799 0 0 0 0 8.6342179772836971 -29.280959302970587 0 -29.280959302970587 28.161906466746586 0 0 0 0 4.7383794277411653 -25.335247030317987 0 -25.335247030317987 24.388498612039257 0 0 0 0 16.459159149424522 -15.038345860126356 0 -15.038345860126356 13.480192877028458 0 0 0 0 3.7116947449526378 -5.5879869777541558 0 -5.5879869777541558 6.6912896709509369 0 0 0 0 -11.300234220361745 2.2962674074278766 0 2.2962674074278766 20.948229365852967 0 0 0 0 -71.190180563819013 46.511416257219025 0 46.511416257219025 7.9369885666284858 0 0 0 0 10.817820662719896 23.653264224225495 0 23.653264224225495 8.2435291577408805 0 0 0 0 -50.79551944594823 -20.294803766780205 0 -20.294803766780205 15.809268566470564 0 0 0 0 -249.36689501116052 -158.34985558898188 0 -158.34985558898188 -31.649738561471167 0 0 0 0 -73.648073234289768 -15.966423818462772 0 -15.966423818462772 29.330755336823131 0 0 0 0 -26.235837067384253 -18.413076416400703 0 -18.413076416400703 15.646076045668172 0 0 0 0 -24.191182625690999 -43.350857626588549 0 -43.350857626588549 8.4356595318822656 0 0 0 0 -20.780806518458121 -36.311415686192049 0 -36.311415686192049 16.969421627713018 0 0 0 0 5.8837571779530258 -20.29513948347897 0 -20.29513948347897 -14.858866362690151 0 0 0 0 -105.42764489051478 -120.54410449307989 0 -120.54410449307989 55.427736353705768 0 0 0 0 4.9062621734012204 -24.379086702769172 0 -24.379086702769172 38.539334887536072 0 0 0 0 -61.826217050198466 -97.027762425674155 0 -97.027762425674155 -5.7300146855436651 0 0 0 0 -135.37204236577963 -23.921011225913389 0 -23.921011225913389 -3.6495021957699549 0 0 0 0 -36.504819121979381 -129.40636233022087 0 -129.40636233022087 28.885512699603169 0 0 0 0 172.47891137258921 -64.27503478961853 0 -64.27503478961853 -5.332553796350112 0 0 0 0 313.57104722364602 -119.9211916006177 0 -119.9211916006177 -30.80189354836466 0 0 0 0 -34.520268067228244 -101.09785774070969 0 -101.09785774070969 101.30828594234708 0 0 0 0 -187.97541190895936 -39.186655351302534 0 -39.186655351302534 115.76435665780514 0 0 0 0 -0.73382828425790514 2.7034544033066794 0 2.7034544033066794 2.2456798074202773 0 0 0 0 -20.06292370878873 -62.499842704894036 0 -62.499842704894036 -32.883795100501175 0 0 0 0 -79.128373276911589 -101.33983873815987 0 -101.33983873815987 29.127555225871674 0 0 0 0 0.88432790565820696 -14.474304122889485 0 -14.474304122889485 -0.43032334473891343 0 0 0 0 2.7935016865230864 -44.724502151741035 0 -44.724502151741035 13.199512833774861 0 0 0 0 5.2647630478345633 -45.674194124166931 0 -45.674194124166931 20.410185237086953 0 0 0 0 37.910230936540756 -80.763734707513322 0 -80.763734707513322 -6.2607043071766668 0 0 0 0 13.758189598124773 -57.86153044517738 0 -57.86153044517738 -27.47938349433889 0 0 0 0 49.713211615748151 -86.839089540856548 0 -86.839089540856548 81.862945610155293 0 0 0 0 -8.1389107520457031 -20.417324818365845 0 -20.417324818365845 -23.591676835853036 0 0 0 0 -12.747777251843218 -62.240755273168361 0 -62.240755273168361 12.366750692237474 0 0 0 0 46.011045513661884 -100.98814715763979 0 -100.98814715763979 80.594981055215612 0 0 0 0 -19.934268872995744 -54.394495280534841 0 -54.394495280534841 54.88155968880119 0 0 0 0 -11.953547995406552 -121.16835949405731 0 -121.16835949405731 34.294110920116168 0 0 0 0 -17.575916857257639 -33.575149436631506 0 -33.575149436631506 -22.862753559030374 0 0 0 0 14.039510274594704 -66.552509173097405 0 -66.552509173097405 -11.168424518242318 0 0 0 0 -10.470087426539976 -42.091084651526216 0 -42.091084651526216 0.85455764251810251 0 0 0 0 -16.508150674739589 -30.778426636778022 0 -30.778426636778022 -11.924693824948505 0 0 0 0 23.307047393034736 -51.966329833536292 0 -51.966329833536292 -3.3209264705510577 0 0 0 0 3.4697134762645874 -61.597924171444902 0 -61.597924171444902 -6.6194371382716781 0 0 0 0 8.3630252545672121 -37.13644708598018 0 -37.13644708598018 -7.4784461106877878 0 0 0 0 52.116365696379034 -93.195542378847676 0 -93.195542378847676 -57.407737593806814 0 0 0 0 -15.512289298860196 -62.240003281445752 0 -62.240003281445752 37.333041051504551 0 0 0 0 -4.5226914425869964 -22.563994327449699 0 -22.563994327449699 -17.396218473155983 0 0 0 0 -65.205603276039255 33.557597072911449 0 33.557597072911449 -12.388828948460286 0 0 0 0 -10.429578239591137 -53.689207395647827 0 -53.689207395647827 30.227166544638749 0 0 0 0 14.213934736795636 -56.041635761997895 0 -56.041635761997895 -62.469315424103115 0 0 0 0 10.463770843183738 -56.995821526666987 0 -56.995821526666987 0.89583017012046184 0 0 0 0 8.5028857210108981 -43.270306846949097 0 -43.270306846949097 -18.953525094009819 0 0 0 0 -8.901784618927195 -47.699836702424363 0 -47.699836702424363 -19.974764032631356 0 0 0 0 11.182380064517929 -65.921512880384398 0 -65.921512880384398 -5.6628292842797237 0 0 0 0 8.8360136272822274 -60.08157882310843 0 -60.08157882310843 -1.7650578896282241 0 0 0 0 14.897323518885969 -70.404128891865184 0 -70.404128891865184 0.27104536005253976 0 0 0 0 -10.481557315778161 -37.608193939159591 0 -37.608193939159591 -39.769593801125893 0 0 0 0 14.02127103298335 -65.004866570878221 0 -65.004866570878221 -5.5249181595736445 0 0 0 0 -0.78315874754116521 -57.268905485595042 0 -57.268905485595042 12.071106846160546 0 0 0 0 -7.1848420746212849 -63.725643500264155 0 -63.725643500264155 7.9960413331864828 0 0 0 0 -28.918209581453993 -27.925239053314726 0 -27.925239053314726 -8.6596471766533796 0 0 0 0 -2.5011249905696786 -46.117921396318152 0 -46.117921396318152 -11.742181491578421 0 0 0 0 -14.862465945787854 -54.60668064838093 0 -54.60668064838093 16.355042566872172 0 0 0 0 -1.5460865445698353 -28.093132145212625 0 -28.093132145212625 33.664968457456894 0 0 0 0 -6.415330506839382 -57.32583243047884 0 -57.32583243047884 15.049113457946078 0 0 0 0 -47.792009288812551 -94.756191294827659 0 -94.756191294827659 130.15126156275073 0 0 0 0 -131.20871818847081 15.344846644620702 0 15.344846644620702 39.687552457729907 0 0 0 0 63.961349156226788 -221.72258986984889 0 -221.72258986984889 32.88155230502889 0 0 0 0 -18.088938346423674 14.086590187362162 0 14.086590187362162 -25.683160900645817 0 0 0 0 -196.37149103159754 5.5869886332657188 0 5.5869886332657188 78.515590683804476 0 0 0 0 15.649776934023976 -5.2178938125980494 0 -5.2178938125980494 -11.055703458599965 0 0 0 0 4.5756094270416696 -4.9861336839190074 0 -4.9861336839190074 1.751205995984435 0 0 0 0 25.822905911110865 -24.428265928901965 0 -24.428265928901965 -35.847318491199985 0 0 0 0 -0.82983713979002971 -17.395665455541909 0 -17.395665455541909 0.13373579507512545 0 0 0 0 -203.59746953706417 -21.344769240262394 0 -21.344769240262394 -8.852744847536087 0 0 0 0 -9.0948739666353617 -12.182047436272562 0 -12.182047436272562 -6.8329619547975398 0 0 0 0 -3.3193989201789833 -3.7479564582218359 0 -3.7479564582218359 14.6054966511457 0 0 0 0 3.1698354397540243 -29.666898077459336 0 -29.666898077459336 -72.15111322440498 0 0 0 0 18.586860782827898 -28.254442510515219 0 -28.254442510515219 32.34506850859907 0 0 0 0 -25.690125900197017 -46.961252804277137 0 -46.961252804277137 6.1808785509056179 0 0 0 0 -194.21665667179332 23.254823126415431 0 23.254823126415431 27.138439197282423 0 0 0 0 -193.07955647717972 26.220085229477263 0 26.220085229477263 31.84399168274831 0 0 0 0 -95.92554543656297 77.236042857119173 0 77.236042857119173 -165.64062230118725 0 0 0 0 -160.74029586165125 -7.2180388587730704 0 -7.2180388587730704 -29.437730979771004 0 0 0 0 -163.99115955060915 58.423942206631182 0 58.423942206631182 65.120219874908798 0 0 0 0 -110.39412247477139 36.670647976336113 0 36.670647976336113 5.3135431172268 0 0 0 0 5.7690688885923009 -55.619387104494308 0 -55.619387104494308 1.7767929883775651 0 0 0 0 3.3241235179666546 -76.237497930284007 0 -76.237497930284007 57.70161072013434 0 0 0 0 2.253169231705705 -2.6595094179368317 0 -2.6595094179368317 0.83954903379935786 0 0 0 0 -12.515973530451447 -7.8315830865612952 0 -7.8315830865612952 9.0045119917194825 0 0 0 0 28.808081746524294 -38.989106985969556 0 -38.989106985969556 12.052002248194185 0 0 0 0 4.3782545651956752 -40.195656461510225 0 -40.195656461510225 37.677832007182587 0 0 0 0 -26.824388173374246 -61.775341419990582 0 -61.775341419990582 3.0281962634107913 0 0 0 0 35.978437081463198 -15.300092952340492 0 -15.300092952340492 4.182965821284597 0 0 0 0 27.304006790644053 -20.337117512746772 0 -20.337117512746772 38.154643219386344 0 0 0 0 182.27897006616331 -76.483295912665199 0 -76.483295912665199 17.056647527342648 0 0 0 0 93.384299587709393 -47.737763712648302 0 -47.737763712648302 27.102041561462102 0 0 0 0 -20.631444007014579 -86.148410045676428 0 -86.148410045676428 146.1247180163482 0 0 0 0 28.496389908588753 -105.06309034949118 0 -105.06309034949118 120.45507724567142 0 0 0 0 15.946753089032427 -74.713153310018242 0 -74.713153310018242 57.786744475566593 0 0 0 0 15.445675196871889 -104.17816501860216 0 -104.17816501860216 120.49417977635449 0 0 0 0 -7.1636782987989136 -121.35619712182233 0 -121.35619712182233 178.96980364836782 0 0 0 0 -64.042051539037857 -46.40477661965997 0 -46.40477661965997 231.25585747087098 0 0 0 0 -50.115615053942747 -83.245867276229546 0 -83.245867276229546 326.96266099595232 0 0 0 0 358.99437786630369 -254.74167761158606 0 -254.74167761158606 181.93636215639708 0 0 0 0 59.898798601177987 -182.67156176959543 0 -182.67156176959543 253.38655451880186 0 0 0 0 -10.016152453092218 -94.037380994850537 0 -94.037380994850537 250.29882023998653 0 0 0 0 47.602968913028235 -235.63761691958098 0 -235.63761691958098 592.23283415360493 0 0 0 0 432.83770479456507 295.14161527089891 0 295.14161527089891 -299.09362266062089 0 0 0 0 67.661135488948275 -229.39253616816131 0 -229.39253616816131 -246.52466456373577 0 0 0 0 -22.234116069602145 72.099045507728704 0 72.099045507728704 583.56933121480688 0 0 0 0 -100.04993910234953 -24.250160099469213 0 -24.250160099469213 49.175373820366076 0 0 0 0 -22.412672985779817 122.94990605531444 0 122.94990605531444 132.21795782401023 0 0 0 0 208.2328009868852 -3.7805017924565618 0 -3.7805017924565618 431.36306340029114 0 0 0 0 -73.224748837053994 -437.76956259017606 0 -437.76956259017606 323.4364665945759 0 0 0 0 70.31420231127413 -205.9418445865449 0 -205.9418445865449 -127.14359997424253 0 0 0 0 -212.30894544790499 -240.41132791876589 0 -240.41132791876589 610.12810136104235 0 0 0 0 -0.089711668389505839 0.2200275800260556 0 0.2200275800260556 5.7554881768277824 0 0 0 0 -247.42084867787707 -229.52319500824524 0 -229.52319500824524 837.92479482313502 0 0 0 0 -41.586973181056237 -49.238801269064425 0 -49.238801269064425 232.30894330907904 0 0 0 0 -43.319924964936035 157.4842642141939 0 157.4842642141939 448.41353395077749 0 0 0 0 -256.55247240768404 -165.43603788729888 0 -165.43603788729888 609.65702530540943 0 0 0 0 -41.601405759676709 -40.236997200707265 0 -40.236997200707265 8.039976006904908 0 0 0 0 -75.260558506917732 -125.39855730564886 0 -125.39855730564886 -164.11726280079574 0 0 0 0 1.0366731916384779 -2.9316370092754482 0 -2.9316370092754482 3.6178241503330071 0 0 0 0 134.39131076483818 -391.80227233746427 0 -391.80227233746427 -91.579275587653683 0 0 0 0 48.538623246855423 -178.98687684335164 0 -178.98687684335164 -169.52834298876405 0 0 0 0 -277.92377504889555 -259.41606613999829 0 -259.41606613999829 -27.484363481482433 0 0 0 0 -167.42184208303661 -314.63321583634024 0 -314.63321583634024 -110.72093257997767 0 0 0 0 -51.077693803781585 -113.77475910063367 0 -113.77475910063367 -72.981324724692968 0 0 0 0 -132.17088876747584 10.60856134433925 0 10.60856134433925 -217.88872769842055 0 0 0 0 -2.1963135664618676 -256.05848522473661 0 -256.05848522473661 0.17267872733646072 0 0 0 0 -38.035481462476582 -104.51493551018393 0 -104.51493551018393 -7.6560424851631979 0 0 0 0 -254.72949323673311 -338.07891891599866 0 -338.07891891599866 -200.37543673855703 0 0 0 0 35.519237987376982 -281.86045866502536 0 -281.86045866502536 -34.118570929160342 0 0 0 0 44.867850545097099 -222.34271055001409 0 -222.34271055001409 132.3229606571258 0 0 0 0 134.59867230335658 -207.47231399651355 0 -207.47231399651355 4.4224783287500031 0 0 0 0 103.4022015056762 -328.04486755396283 0 -328.04486755396283 100.34054316897527 0 0 0 0 104.80248466982448 -296.77477912959876 0 -296.77477912959876 157.32898313440091 0 0 0 0 -574.37103807565109 8.1383665019238833 0 8.1383665019238833 119.98349081935885 0 0 0 0 -416.59672831229545 332.13365951348896 0 332.13365951348896 -101.70651159253612 0 0 0 0 -3.9326839429856406 -2.3283752585929918 0 -2.3283752585929918 -2.1899858799718857 0 0 0 0 -97.398733731162793 14.518917879206128 0 14.518917879206128 1.8094757123908494 0 0 0 0 -187.07899357307542 114.02816349510977 0 114.02816349510977 9.4818258894374594 0 0 0 0 -129.88584544421155 -52.129266432558325 0 -52.129266432558325 138.22897813977033 0 0 0 0 -37.728858418980963 -40.21569352052029 0 -40.21569352052029 98.552310277606011 0 0 0 0 23.096564546227455 -197.76220976207696 0 -197.76220976207696 196.70850953751142 0 0 0 0 -17.326480647723656 -196.97946528902685 0 -196.97946528902685 359.38698375824606 0 0 0 0 -172.38061697629428 -60.299703309825418 0 -60.299703309825418 149.19424319869722 0 0 0 0 -34.699091043295539 -125.02183448897313 0 -125.02183448897313 241.64260393357836 0 0 0 0 -30.669626077185967 -16.79747604833392 0 -16.79747604833392 134.05014163443411 0 0 0 0 -159.67675645499367 -89.557181599582691 0 -89.557181599582691 152.46571069693891 0 0 0 0 309.49453480512602 -359.91773854474013 0 -359.91773854474013 158.04410112545884 0 0 0 0 98.729447911784519 -160.96518265290433 0 -160.96518265290433 200.41104241961148 0 0 0 0 111.48776756680309 -141.91270704887575 0 -141.91270704887575 129.14954371102795 0 0 0 0 228.46143413156642 -342.08943092172012 0 -342.08943092172012 245.99721498251893 0 0 0 0 163.84229978997882 -394.45928404132974 0 -394.45928404132974 203.7793729789264 0 0 0 0 203.2059171048968 -251.03426131064771 0 -251.03426131064771 76.61169362522196 0 0 0 0 253.45490145807707 -253.94672974422429 0 -253.94672974422429 361.11380372219719 0 0 0 0 196.70323182899301 -244.13295224880858 0 -244.13295224880858 218.18209134199424 0 0 0 0 102.47808646096382 -156.30200753360987 0 -156.30200753360987 218.54345894772268 0 0 0 0 116.66029824194993 -94.398261101654498 0 -94.398261101654498 449.90593766141683 0 0 0 0 428.54232721695735 -154.38529573388223 0 -154.38529573388223 196.97115716875487 0 0 0 0 540.49756690057256 -573.46861450069991 0 -573.46861450069991 416.15074821872986 0 0 0 0 333.68654318534391 -460.59837847443123 0 -460.59837847443123 850.8669659900479 0 0 0 0 4.7583246352095188 -6.1725156451799279 0 -6.1725156451799279 -14.099950241814028 0 0 0 0 -11.585215129632033 -34.483207511941465 0 -34.483207511941465 -45.585478761920456 0 0 0 0 -14.391305520101014 -72.810711330619597 0 -72.810711330619597 -30.255274216058751 0 0 0 0 -14.31853854201438 -70.805793122252055 0 -70.805793122252055 -6.9844965288066305 0 0 0 0 166.92407087522952 -106.65808772401215 0 -106.65808772401215 119.5283548708212 0 0 0 0 -46.024492450942034 -151.00911213971995 0 -151.00911213971995 173.49059656153258 0 0 0 0 178.49924385544364 -311.89111757372302 0 -311.89111757372302 196.58622969368298 0 0 0 0 2.7241227123959106 -36.036818150056206 0 -36.036818150056206 -25.160929901445343 0 0 0 0 8.3406411834148457 -33.296140898879457 0 -33.296140898879457 -26.841689399538154 0 0 0 0 8.7814277381402448 -20.782628914802167 0 -20.782628914802167 3.803883775072407 0 0 0 0 -26.323872250559361 -38.642314236394668 0 -38.642314236394668 -13.274348321741854 0 0 0 0 150.95409300153551 -398.54607088784905 0 -398.54607088784905 290.66478212185029 0 0 0 0 -9.1711528939449636 -31.562658037377332 0 -31.562658037377332 -19.80418805291265 0 0 0 0 -14.422303201301709 -26.25877327033049 0 -26.25877327033049 -28.808634297748938 0 0 0 0 2.1878556008448484 -22.693818665635433 0 -22.693818665635433 -12.730748007316592 0 0 0 0 20.792822541083297 -53.25555225265748 0 -53.25555225265748 -38.972186389437411 0 0 0 0 -45.927285487909103 -45.568481599371808 0 -45.568481599371808 -14.963151632871813 0 0 0 0 -32.112806752744376 -36.080773999867134 0 -36.080773999867134 -31.280898889030809 0 0 0 0 245.70037181053181 -245.99984725782451 0 -245.99984725782451 19.956990854909236 0 0 0 0 16.070829705560755 -9.0986470496754919 0 -9.0986470496754919 -24.523453830414837 0 0 0 0 -11.389945774411899 -254.69907928491466 0 -254.69907928491466 13.485129827196943 0 0 0 0 117.18340029830142 -213.22997582345124 0 -213.22997582345124 156.41849404121058 0 0 0 0 87.374285802423401 -288.35742084583762 0 -288.35742084583762 333.55671917532163 0 0 0 0 126.98750833186568 -335.35862393912976 0 -335.35862393912976 175.77495691267541 0 0 0 0 241.4441677103132 -159.75243442330247 0 -159.75243442330247 178.90705783624435 0 0 0 0 199.00921926359297 -260.89222699482343 0 -260.89222699482343 -20.055750395782525 0 0 0 0 168.27539725039969 -158.31654484842511 0 -158.31654484842511 -13.383232707490606 0 0 0 0 175.54570917341698 -187.01080999733676 0 -187.01080999733676 -190.25750097715354 0 0 0 0 204.07269256962172 -229.00942272619886 0 -229.00942272619886 33.147143639595015 0 0 0 0 168.55163002655536 -110.4270919479568 0 -110.4270919479568 -45.280287197349026 0 0 0 0 362.46528896686505 -180.91509849858267 0 -180.91509849858267 -68.307767096535827 0 0 0 0 1.1188691269709139 -1.3379962325151951 0 -1.3379962325151951 3.569238493742148 0 0 0 0 399.66975788809805 75.666964099479628 0 75.666964099479628 -27.770027702215884 0 0 0 0 140.86799108646665 -210.58058857791548 0 -210.58058857791548 79.058004601767607 0 0 0 0 141.00962703935329 -123.68823075750333 0 -123.68823075750333 -43.064761418238049 0 0 0 0 145.54889043616504 -143.05015927321824 0 -143.05015927321824 -94.376459832361434 0 0 0 0 -96.335081203687878 -182.82319816659583 0 -182.82319816659583 -36.4317111071814 0 0 0 0 -177.96024419011155 -224.80727488386037 0 -224.80727488386037 -22.440564293588977 0 0 0 0 -67.494096806168045 -196.96375226818191 0 -196.96375226818191 -41.029452852213581 0 0 0 0 -72.279842916103007 -119.80596499302555 0 -119.80596499302555 9.5010110253933817 0 0 0 0 85.109124969931145 -128.89718769737374 0 -128.89718769737374 -14.761179180084582 0 0 0 0 86.687737093845499 -96.900489325966191 0 -96.900489325966191 -59.045832519375836 0 0 0 0 -20.489245061820839 -93.826775118017395 0 -93.826775118017395 22.094800023554853 0 0 0 0 -73.22966422837635 -139.36178700861456 0 -139.36178700861456 -6.5804114043421578 0 0 0 0 -51.345741093992729 -147.59982435763959 0 -147.59982435763959 -38.850122355106578 0 0 0 0 -52.477875137354204 -140.30937413515676 0 -140.30937413515676 -73.580991262817406 0 0 0 0 -22.237261190242862 -109.50320605598245 0 -109.50320605598245 -81.619656866008881 0 0 0 0 -3.1818166168159223 -101.20498499481982 0 -101.20498499481982 -47.198866268908205 0 0 0 0 83.152119970067361 -101.35543207337832 0 -101.35543207337832 -100.54733887634757 0 0 0 0 7.981207452660783 -127.39330778640488 0 -127.39330778640488 -66.267032728988852 0 0 0 0 287.65272558231118 -8.8503020935695531 0 -8.8503020935695531 -72.963195246229589 0 0 0 0 86.014144664890409 -174.8269228907011 0 -174.8269228907011 -194.091809186928 0 0 0 0 415.36426623624629 -181.64547385458172 0 -181.64547385458172 -319.12674932886148 0 0 0 0 87.968436074651891 -80.819379633034259 0 -80.819379633034259 101.27043736814812 0 0 0 0 1.313166784181746 -1.707553737123078 0 -1.707553737123078 1.7643692132623272 0 0 0 0 -115.0293741526084 -16.016973724848867 0 -16.016973724848867 271.5376937477522 0 0 0 0 113.88320285533177 -74.305461833079789 0 -74.305461833079789 -96.413160221920407 0 0 0 0 -3.3598199966454558 53.421747935439271 0 53.421747935439271 -45.530375335911231 0 0 0 0 3.3619084388431517 -4.4439142153479594 0 -4.4439142153479594 4.148101584951533 0 0 0 0 -147.47888266710834 -118.78782198971021 0 -118.78782198971021 8.7469031950531644 0 0 0 0 -193.03782958310694 -175.59634079284297 0 -175.59634079284297 -7.8375600801291512 0 0 0 0 -124.56757971043874 -180.19111752135382 0 -180.19111752135382 -96.58772136459811 0 0 0 0 -156.29388217922133 -203.7875450026022 0 -203.7875450026022 -61.746441961651726 0 0 0 0 -141.04272866327028 -135.90456195178922 0 -135.90456195178922 -77.013613461400382 0 0 0 0 -115.52292961569401 -171.48856980602795 0 -171.48856980602795 -38.325833801234694 0 0 0 0 -46.233216963217274 -276.96075672385996 0 -276.96075672385996 -102.86505555416807 0 0 0 0 -8.8129076571967744 -186.65526076219612 0 -186.65526076219612 -109.26752234689775 0 0 0 0 -119.89759232531287 -186.10713447854505 0 -186.10713447854505 -83.817226417253551 0 0 0 0 -124.34803412831934 -176.2222267652287 0 -176.2222267652287 -32.459579836111516 0 0 0 0 -108.44812922342317 -205.44584047682656 0 -205.44584047682656 -54.0657622119179 0 0 0 0 -89.413249140248809 -176.75826164001319 0 -176.75826164001319 -79.388747351753409 0 0 0 0 -80.281180443613266 -125.77059024472692 0 -125.77059024472692 -47.510664903493307 0 0 0 0 -98.931574083325359 -163.37149082118049 0 -163.37149082118049 -119.90327378634538 0 0 0 0 -111.12748518486842 -113.87558105678909 0 -113.87558105678909 -80.83383165235864 0 0 0 0 -131.88333811667144 -147.15498103615755 0 -147.15498103615755 -104.50756954369717 0 0 0 0 -166.75308676706845 -144.79388184811069 0 -144.79388184811069 -81.467209377398831 0 0 0 0 -126.98139077828819 -132.21787871388369 0 -132.21787871388369 -163.92852080308512 0 0 0 0 -234.20831003232433 -306.51408646109394 0 -306.51408646109394 -255.15269213075953 0 0 0 0 -252.53740003868188 -212.79648697852099 0 -212.79648697852099 -113.90877729886415 0 0 0 0 -151.67807831733444 -162.17297096537368 0 -162.17297096537368 -203.17029431531955 0 0 0 0 -188.12277650224314 -189.06397577208554 0 -189.06397577208554 -137.53742201144632 0 0 0 0 -2.9541917516692635 -1.3329499992468072 0 -1.3329499992468072 0.88846673416859545 0 0 0 0 -1.9464435900163153 -131.70278489736074 0 -131.70278489736074 197.35518594687528 0 0 0 0 -108.27202716877218 -281.78316038979392 0 -281.78316038979392 -502.7775862208473 0 0 0 0 -95.526615534996381 -161.44824342988431 0 -161.44824342988431 -93.304098982145661 0 0 0 0 -89.326888310210052 -171.62126982198242 0 -171.62126982198242 -79.236334955669008 0 0 0 0 -156.47761699434341 -187.86416801903761 0 -187.86416801903761 -102.07929391103971 0 0 0 0 -140.4869812364509 -179.01461817209838 0 -179.01461817209838 -135.84564936326933 0 0 0 0 -110.85790283084862 -135.26674739324153 0 -135.26674739324153 -120.42641306927771 0 0 0 0 -141.69586515358606 -127.55422450046171 0 -127.55422450046171 -79.446553665489773 0 0 0 0 -192.00842402070703 -171.91243256565576 0 -171.91243256565576 -123.63284202876821 0 0 0 0 -77.75754046052316 -111.26585997524307 0 -111.26585997524307 -80.870965741676628 0 0 0 0 -95.079983833458527 -109.53753412325091 0 -109.53753412325091 -50.843680179372313 0 0 0 0 -120.14744965519822 -102.13983543612994 0 -102.13983543612994 -55.968444598177484 0 0 0 0 -119.82675925044259 -89.384627314882891 0 -89.384627314882891 -14.101588137375074 0 0 0 0 -111.66348678153372 -110.59314836308295 0 -110.59314836308295 -54.856538502855983 0 0 0 0 -105.19888562660526 -100.92361736033672 0 -100.92361736033672 -101.13215514468175 0 0 0 0 -80.194655669321946 -112.28629955493307 0 -112.28629955493307 -90.030140058217512 0 0 0 0 -74.258242517779308 -126.57798212781199 0 -126.57798212781199 -75.456227169066551 0 0 0 0 -108.96876934121156 -123.8050628217261 0 -123.8050628217261 -14.090360415968462 0 0 0 0 -176.35685428248507 -164.38090130788805 0 -164.38090130788805 2.2885361549233494 0 0 0 0 -179.34119569442919 -123.8067937423948 0 -123.8067937423948 91.674292042109641 0 0 0 0 -368.79647034718801 -219.08638863073793 0 -219.08638863073793 94.782535863645194 0 0 0 0 -214.10116044936876 -281.79985317615865 0 -281.79985317615865 0.32267702527315123 0 0 0 0 -152.24072703067577 24.982409827458468 0 24.982409827458468 272.09964081801445 0 0 0 0 -0.95083629011556781 -1.6932035244735744 0 -1.6932035244735744 -0.24690517022944292 0 0 0 0 -298.06530352957179 -68.282880436682717 0 -68.282880436682717 212.55654964185669 0 0 0 0 -61.838197893357574 4.1829588646141929 0 4.1829588646141929 103.79538334781682 0 0 0 0 -77.118848991519371 -58.556319013844586 0 -58.556319013844586 -1.8365122563045588 0 0 0 0 -197.87610945592314 -69.293973574236588 0 -69.293973574236588 64.491758404074062 0 0 0 0 -87.264448215636548 -80.160057675113421 0 -80.160057675113421 -4.0431559597054729 0 0 0 0 -55.242314420946059 -102.23392812321617 0 -102.23392812321617 -24.209835071334965 0 0 0 0 -37.288496038916492 -97.911125564183749 0 -97.911125564183749 -51.617814866790923 0 0 0 0 -3.2073022493896133 -74.666682649047289 0 -74.666682649047289 33.726810285228566 0 0 0 0 -9.4298422094495891 -105.38053821048857 0 -105.38053821048857 -24.885007177887019 0 0 0 0 -14.873270311578381 -31.173255359150062 0 -31.173255359150062 28.796880955633242 0 0 0 0 165.94419810703403 -7.025145852152491 0 -7.025145852152491 96.414878848940134 0 0 0 0 -3.5676730975537794 0.57644720339158084 0 0.57644720339158084 0.015734269906625326 0 0 0 0 -59.531848960626405 -56.932101743030103 0 -56.932101743030103 63.095409129877225 0 0 0 0 21.922384450183017 -4.6494075064911158 0 -4.6494075064911158 96.390992726635886 0 0 0 0 77.284410190561175 -142.04037047344536 0 -142.04037047344536 140.63824992672016 0 0 0 0 -2.6454557582183043 -95.411489915808488 0 -95.411489915808488 138.23661140113836 0 0 0 0 53.901933361575175 -121.59795056349867 0 -121.59795056349867 57.075755267986096 0 0 0 0 5.8596192838549541 -16.235507882915044 0 -16.235507882915044 29.302136929767585 0 0 0 0 -37.219584693077195 -113.28447421630699 0 -113.28447421630699 226.78170487138414 0 0 0 0 -2.0951064018558512 -2.7194777641467454 0 -2.7194777641467454 -0.56434135028949584 0 0 0 0 45.596789978946617 -50.357907068842906 0 -50.357907068842906 0.0033135918238258455 0 0 0 0 -46.622259547020803 -44.24141639098525 0 -44.24141639098525 202.50384854404547 0 0 0 0 5.1062610063308966 -86.504200513329124 0 -86.504200513329124 49.372380790273382 0 0 0 0 37.751649440284382 17.800583954871399 0 17.800583954871399 37.010530351893976 0 0 0 0 3.7819137474216404 -147.1914436781517 0 -147.1914436781517 -85.502306911683263 0 0 0 0 -18.760619694858178 -150.95914471764627 0 -150.95914471764627 -33.636285666972981 0 0 0 0 -12.525917398732417 -115.98263222632522 0 -115.98263222632522 45.372747320266171 0 0 0 0 19.220279897352157 -113.18845031306046 0 -113.18845031306046 -54.906817286420846 0 0 0 0 -27.13766710902928 -139.81027968075796 0 -139.81027968075796 -73.415803720210533 0 0 0 0 -59.132066982041124 -148.46250031660202 0 -148.46250031660202 -44.73887243361969 0 0 0 0 -45.163641081617243 -213.41261239173036 0 -213.41261239173036 -113.57325551383838 0 0 0 0 34.534974353891812 -280.16596069515981 0 -280.16596069515981 -229.14359566413987 0 0 0 0 -43.848949933544645 -341.66753710535704 0 -341.66753710535704 -125.21273545021904 0 0 0 0 -20.17626636922023 -418.2682370642126 0 -418.2682370642126 -138.97301926142973 0 0 0 0 117.41527425393269 -314.13193778774257 0 -314.13193778774257 -266.45030378267256 0 0 0 0 177.81629077886282 -210.35812044708837 0 -210.35812044708837 -197.61582623422146 0 0 0 0 18.813766510551432 -148.35685289617686 0 -148.35685289617686 -128.00060016666248 0 0 0 0 -7.8450936054505291 -175.14532619105012 0 -175.14532619105012 -130.44752128047639 0 0 0 0 -79.334324259820278 -135.20738417933535 0 -135.20738417933535 -68.812411983604761 0 0 0 0 -48.712860510028804 -188.91428027073925 0 -188.91428027073925 -92.741768281004624 0 0 0 0 -20.976690857427457 -204.63163690622241 0 -204.63163690622241 -84.057689053333888 0 0 0 0 19.396137007190191 -193.5814158771791 0 -193.5814158771791 -118.88527085498208 0 0 0 0 -69.005247143764791 -292.00378012130932 0 -292.00378012130932 -39.98744830317446 0 0 0 0 -105.07608238862304 -243.14593353082091 0 -243.14593353082091 -93.541522601938595 0 0 0 0 -108.95194316928064 -225.93288685851076 0 -225.93288685851076 -17.079678136135044 0 0 0 0 -144.25424752727849 -251.24049464063137 0 -251.24049464063137 -9.5759701272891107 0 0 0 0 -133.81136139950536 -287.98306003164498 0 -287.98306003164498 -0.14730417003738694 0 0 0 0 -87.205752584737638 -333.72056607003742 0 -333.72056607003742 -110.64024871075526 0 0 0 0 -97.030599431331211 -359.12169202628138 0 -359.12169202628138 -0.10101243951066863 0 0 0 0 -237.5303998311083 -427.97891592030282 0 -427.97891592030282 0.11502401923007402 0 0 0 0 -185.79357668098237 -320.73273739884735 0 -320.73273739884735 182.76365177033585 0 0 0 0 -173.67494470364454 -451.99207495420615 0 -451.99207495420615 -108.53419908958313 0 0 0 0 -82.004495792534726 -547.40826440477394 0 -547.40826440477394 -263.74032721662297 0 0 0 0 -109.44743171602204 -670.474827555307 0 -670.474827555307 -632.76885724390741 0 0 0 0 -103.86145381047027 -263.35472132637005 0 -263.35472132637005 -645.7638164438896 0 0 0 0 156.42245163617918 -318.85981698263276 0 -318.85981698263276 -445.02357604870667 0 0 0 0 -469.88255773590936 -695.85567643643844 0 -695.85567643643844 -37.636353234935086 0 0 0 0 -369.60027864055519 -270.98894526523145 0 -270.98894526523145 483.04748684956576 0 0 0 0 -326.64654835275724 -740.76744839785533 0 -740.76744839785533 -938.944351577823 0 0 0 0 289.63618720266095 -551.34267488860496 0 -551.34267488860496 -969.18467279882771 0 0 0 0 -3.6434026962425037 -5.2251420402940276 0 -5.2251420402940276 -5.0049940266423079 0 0 0 0 260.57395563889804 -290.24320004587935 0 -290.24320004587935 70.053697905183071 0 0 0 0 -87.213087588716007 -337.75980336226712 0 -337.75980336226712 0.10200187726150034 0 0 0 0 83.109386392390661 -161.42165603999274 0 -161.42165603999274 121.70125773272594 0 0 0 0 214.37017001776258 -271.86573921178569 0 -271.86573921178569 0.047478152276203146 0 0 0 0 210.13560195640457 -160.07602716892177 0 -160.07602716892177 214.46795411581115 0 0 0 0 217.07697023010644 -267.3956063440682 0 -267.3956063440682 -203.14939566230169 0 0 0 0 -40.519244957995397 113.49985167078921 0 113.49985167078921 116.4329208745603 0 0 0 0 -8.8214746274934015 -9.5465849388037185 0 -9.5465849388037185 -7.2219494805967912 0 0 0 0 209.69247123789319 -429.73606912370451 0 -429.73606912370451 285.3342802819825 0 0 0 0 -105.13481574777143 -82.331977964056932 0 -82.331977964056932 0.045417435121635208 0 0 0 0 -0.35377025144892826 -2.362150956346369 0 -2.362150956346369 4.2281469313416835 0 0 0 0 -165.39385783143553 -622.51636696732021 0 -622.51636696732021 -520.66574915423553 0 0 0 0 -1309.2386212137935 -825.25793931774388 0 -825.25793931774388 -0.93504815260835694 0 0 0 0 -4.493200134423418 -4.4440338081685127 0 -4.4440338081685127 -3.1243319525647166 0 0 0 0 -702.49705330097277 -379.07459261786607 0 -379.07459261786607 547.02886564353685 0 0 0 0 -607.48768798375022 -263.70357772783973 0 -263.70357772783973 52.974668563012528 0 0 0 0 -717.18547220034588 -572.67139787011774 0 -572.67139787011774 -149.95952840234531 0 0 0 0 -502.94024876316325 -126.15401507382558 0 -126.15401507382558 -234.44660790343187 0 0 0 0 -491.79336990564207 -200.10255452550041 0 -200.10255452550041 -101.40736298712 0 0 0 0 -210.11778129125742 67.251882733107777 0 67.251882733107777 -370.43205660962121 0 0 0 0 -412.85248892583331 -240.38273308704447 0 -240.38273308704447 -678.73569787968881 0 0 0 0 -206.76664496779267 -78.19737970730057 0 -78.19737970730057 -937.22083105694765 0 0 0 0 -477.80270751178614 -325.70409977553936 0 -325.70409977553936 -378.84325934857043 0 0 0 0 -467.47635165940301 -44.132280016085133 0 -44.132280016085133 -736.8280387929226 0 0 0 0 -286.70187701948998 -224.59835705516707 0 -224.59835705516707 -1036.7189054194969 0 0 0 0 -282.68989296022028 -261.90433203781504 0 -261.90433203781504 -997.95961810009612 0 0 0 0 -160.00312907328043 30.689968222199241 0 30.689968222199241 139.16201139170698 0 0 0 0 266.09936407841451 -603.08645723167137 0 -603.08645723167137 258.882063428111 0 0 0 0 74.38995650324614 -230.85380242290739 0 -230.85380242290739 -626.89686016756605 0 0 0 0 -27.142611958966882 11.556529212612077 0 11.556529212612077 -708.33853111884309 0 0 0 0 -138.53018017586874 -320.454111807554 0 -320.454111807554 -1077.3737259566842 0 0 0 0 94.75886237371742 64.348889714916368 0 64.348889714916368 -1174.5674699944284 0 0 0 0 -200.73439453990432 -250.08117555492572 0 -250.08117555492572 -782.46263435168839 0 0 0 0 408.75939174239056 116.54637384741454 0 116.54637384741454 -661.00913064267661 0 0 0 0 218.55741695616598 -67.614925372869038 0 -67.614925372869038 -1306.6813229574036 0 0 0 0 -42.927375761162239 -42.266075953750146 0 -42.266075953750146 -2502.1607183720189 0 0 0 0 -40.749934349241357 44.763592068023513 0 44.763592068023513 -1143.9566508895805 0 0 0 0 199.97417248673082 -106.02797273620672 0 -106.02797273620672 -1354.5020534669748 0 0 0 0 203.55980945538613 -121.7873471920866 0 -121.7873471920866 -1300.3153942938516 0 0 0 0 92.889442185994994 -169.08447779666312 0 -169.08447779666312 -1306.4184727289758 0 0 0 0 388.44604540629916 36.512287972625018 0 36.512287972625018 -1272.2468480441021 0 0 0 0 352.71441788108496 -159.50814572504169 0 -159.50814572504169 -1480.9979964707527 0 0 0 0 -143.94522520551982 202.95255838547746 0 202.95255838547746 -203.21730366713018 0 0 0 0 -4.1177913841456757 -11.337346122825693 0 -11.337346122825693 -26.579664156710351 0 0 0 0 0.25556487899928015 -2.3595746013313033 0 -2.3595746013313033 -4.5207577108551718 0 0 0 0 19.686726315580017 -36.09058734322025 0 -36.09058734322025 -37.819296503934311 0 0 0 0 177.73468107308145 -275.19281056007821 0 -275.19281056007821 -361.44071796926437 0 0 0 0 -1270.4047215366227 -232.19384864177846 0 -232.19384864177846 -61.26029700676736 0 0 0 0 -745.82366590373931 87.277981781367998 0 87.277981781367998 464.22471711553226 0 0 0 0 3.6630674023304834 -0.93001079523243391 0 -0.93001079523243391 -0.13697633839032619 0 0 0 0 -2353.2742101671611 -1625.4175807186766 0 -1625.4175807186766 -1039.4778312197959 0 0 0 0 187.92225694745866 -219.1558786385358 0 -219.1558786385358 -1293.6527969121962 0 0 0 0 -215.42911517518587 -252.99177101045643 0 -252.99177101045643 -1182.6326762615354 0 0 0 0 -196.17779832175074 -201.058734790362 0 -201.058734790362 -1050.2542084825764 0 0 0 0 -408.49800794659677 107.96479833865305 0 107.96479833865305 -1493.8376228837196 0 0 0 0 -848.75684852635095 -346.38341611625037 0 -346.38341611625037 -1045.2516922359282 0 0 0 0 13.200113795523066 -474.02784702035933 0 -474.02784702035933 -1955.3030804251139 0 0 0 0 -338.67025493906112 37.627282216559252 0 37.627282216559252 -12.993220492198816 0 0 0 0 -0.13632556325985234 -3.3818255240420605 0 -3.3818255240420605 -7.4108890384927406 0 0 0 0 -172.31779550656938 393.3948197740574 0 393.3948197740574 -1435.5866076435304 0 0 0 0 -258.85964596696431 -706.99931494501652 0 -706.99931494501652 -1079.0688466579595 0 0 0 0 -627.18103669580887 -549.60004874121842 0 -549.60004874121842 -267.15807932156167 0 0 0 0 -20.899355131565244 -399.81162256157404 0 -399.81162256157404 -1573.8275602471722 0 0 0 0 140.67185685467848 -202.94476042896713 0 -202.94476042896713 -636.28054116158455 0 0 0 0 -155.16764469903137 -274.12728969177988 0 -274.12728969177988 -534.75533007967897 0 0 0 0 -148.13956059665725 -489.94681008231237 0 -489.94681008231237 -727.56959885908873 0 0 0 0 -94.57937185872288 -497.83330727801876 0 -497.83330727801876 -907.00063642275927 0 0 0 0 -89.075656498323951 -390.3258656381804 0 -390.3258656381804 -696.95751544745872 0 0 0 0 -81.228791206900496 -359.44636747320328 0 -359.44636747320328 -678.35600472116312 0 0 0 0 63.256894466641825 -374.45425499450357 0 -374.45425499450357 -676.83138621131184 0 0 0 0 -104.40418604158185 -433.65317660091387 0 -433.65317660091387 -941.80861538657336 0 0 0 0 -58.19834827896193 -469.41462863205925 0 -469.41462863205925 -1104.931905504418 0 0 0 0 10.306525414460339 -8.1649409621086306 0 -8.1649409621086306 -8.2209376150058233 0 0 0 0 -148.8363954614324 -451.66215597042901 0 -451.66215597042901 -407.40022638759547 0 0 0 0 44.439400328352349 -482.55063831400184 0 -482.55063831400184 -533.14315509987227 0 0 0 0 -87.003263531063567 -440.57513263041619 0 -440.57513263041619 -529.42074129736284 0 0 0 0 111.83590922253643 -442.42400420919148 0 -442.42400420919148 -606.28783609488164 0 0 0 0 -0.35068087158238725 -3.9613257085353055 0 -3.9613257085353055 -4.2420474188694755 0 0 0 0 1.3853546954394318 -2.7319882476508894 0 -2.7319882476508894 -4.4271610232084129 0 0 0 0 -1.4270314745299402 -9.5068870109098498 0 -9.5068870109098498 -9.0377208797399362 0 0 0 0 -5.05073414280929 -6.4861672744468706 0 -6.4861672744468706 3.9259901366015129 0 0 0 0 -3.1927820556120423 -8.2291238022912694 0 -8.2291238022912694 -8.9418825022003148 0 0 0 0 0.17880043974732729 -10.440984899415326 0 -10.440984899415326 -13.227158573847561 0 0 0 0 -13.237189341281919 -24.364504710894835 0 -24.364504710894835 -3.275119111953245 0 0 0 0 -9.2141844768848387 -4.8256760708682123 0 -4.8256760708682123 59.638119895502314 0 0 0 0 -19.451655371856759 -19.340519443714584 0 -19.340519443714584 -0.13367251309682615 0 0 0 0 -6.7245001798849611 -9.7801464676535943 0 -9.7801464676535943 12.537156552712048 0 0 0 0 -333.69619789860008 -88.642372461763443 0 -88.642372461763443 -66.505709218152333 0 0 0 0 -928.72812145136777 178.9327261920389 0 178.9327261920389 -279.95504993695067 0 0 0 0 -580.27318440129602 -377.85144328604292 0 -377.85144328604292 -57.513652655004989 0 0 0 0 153.39712455004337 -57.346370638777444 0 -57.346370638777444 -245.81859519184218 0 0 0 0 -131.74292509068619 -336.52280183255061 0 -336.52280183255061 -237.84719296687399 0 0 0 0 61.440451797177957 80.209300102149427 0 80.209300102149427 47.991745783394435 0 0 0 0 9.915984144893585 -10.928107109040127 0 -10.928107109040127 -3.3488185046936252 0 0 0 0 7.846352727006888 -115.29712795592059 0 -115.29712795592059 -65.190515439289811 0 0 0 0 -16.810189068564796 -21.51076798810027 0 -21.51076798810027 0.092800139376777224 0 0 0 0 -10.791269004090282 -18.449370239100972 0 -18.449370239100972 0.62854284615195866 0 0 0 0 -12.563488928394918 -19.68057896878625 0 -19.68057896878625 -9.109590992948057 0 0 0 0 -507.88174840174906 -36.206794403475214 0 -36.206794403475214 121.85751271038316 0 0 0 0 -507.57694449427436 -40.933940951430486 0 -40.933940951430486 3.6274716575098864 0 0 0 0 -7.5933723391244712 -76.381477012091636 0 -76.381477012091636 -113.36887093968289 0 0 0 0 -619.32726953642043 -53.685402655512604 0 -53.685402655512604 113.29339341317245 0 0 0 0 -10.018394639117552 -19.222102249155078 0 -19.222102249155078 -33.435366890437422 0 0 0 0 -806.48824288501601 17.406451236410248 0 17.406451236410248 76.220257853092335 0 0 0 0 -618.52212466520723 16.531181715676212 0 16.531181715676212 41.882083602515195 0 0 0 0 338.82037089816004 743.51628346100915 0 743.51628346100915 365.43893549255881 0 0 0 0 -0.97063009687975921 -2.226995624877226 0 -2.226995624877226 -4.7731148396168663 0 0 0 0 -692.63429159950101 -137.37858296486047 0 -137.37858296486047 -10.191851466599473 0 0 0 0 -1742.5663806349839 430.89090120400579 0 430.89090120400579 5.1740226329529833 0 0 0 0 34.14523663478758 140.89360309249241 0 140.89360309249241 -142.41625372293129 0 0 0 0 279.63505124026415 -384.61917546637414 0 -384.61917546637414 -222.33088600219526 0 0 0 0 -160.97868833529355 19.581305725176207 0 19.581305725176207 112.79744628946355 0 0 0 0 -8.7322043815055679 -10.059298756593574 0 -10.059298756593574 -4.1082980872238721 0 0 0 0 -130.47391229615459 64.625662894075504 0 64.625662894075504 5.3892586461952305 0 0 0 0 104.93722300562877 -33.842884850822884 0 -33.842884850822884 -28.092211918532485 0 0 0 0 -1.2251960643246065 -9.8789196026483523 0 -9.8789196026483523 3.7891720502043711 0 0 0 0 6.0638935090937593 -58.175673904719588 0 -58.175673904719588 -98.378795394728513 0 0 0 0 -23.476289900618212 28.323349140777282 0 28.323349140777282 -1.5949713676818646 0 0 0 0 -43.036032399912074 -53.367613191512646 0 -53.367613191512646 63.230324725758692 0 0 0 0 -19.688415554799576 -46.922951694075891 0 -46.922951694075891 -100.12947204750526 0 0 0 0 -44.687849858697973 -202.90202062147864 0 -202.90202062147864 -449.85826375529723 0 0 0 0 169.06453198821328 -332.22597670563118 0 -332.22597670563118 -18.907942423355962 0 0 0 0 9.4893781193204632 -35.67396580813147 0 -35.67396580813147 40.932705826147867 0 0 0 0 -59.540947023733679 -386.84235824576172 0 -386.84235824576172 -307.57030806350303 0 0 0 0 131.46489511202253 -203.84933585956242 0 -203.84933585956242 -446.07883739121462 0 0 0 0 -425.15675322271727 -743.05524230605943 0 -743.05524230605943 -839.62662051575171 0 0 0 0 -487.22274926962928 -476.94427238866774 0 -476.94427238866774 -484.80952026566229 0 0 0 0 49.390315608605306 -338.1903317335782 0 -338.1903317335782 -971.44461071807746 0 0 0 0 -1100.9739106510606 -123.85726547261584 0 -123.85726547261584 -965.49007285973767 0 0 0 0 -376.63381091731208 -648.84131907955452 0 -648.84131907955452 -763.57784300647472 0 0 0 0 -315.13615943866171 -513.08511581644416 0 -513.08511581644416 -625.39190909388708 0 0 0 0 -2160.7008475641924 152.20665399261634 0 152.20665399261634 674.65225045831176 0 0 0 0 -256.46357470556904 -482.1557755662725 0 -482.1557755662725 -684.43453166975814 0 0 0 0 -286.11451869485609 -848.57679113035556 0 -848.57679113035556 -1615.070883921464 0 0 0 0 -4.7068611499037942 -6.949747304571126 0 -6.949747304571126 -11.615391783061881 0 0 0 0 -175.0524633895111 -523.79866783585749 0 -523.79866783585749 -731.41035256308533 0 0 0 0 -157.39001699698565 -164.93268233797426 0 -164.93268233797426 -443.90786523703082 0 0 0 0 -46.151536326673522 -184.26260158116565 0 -184.26260158116565 -678.43813515520014 0 0 0 0 -211.67368951865865 -469.95869727795434 0 -469.95869727795434 -695.44076075742487 0 0 0 0 -72.31712773217896 -33.724804198076527 0 -33.724804198076527 13.64119230563665 0 0 0 0 12.989189863830688 -59.684408641107439 0 -59.684408641107439 -20.905100910008514 0 0 0 0 2.4361137126397807 -58.908813537826063 0 -58.908813537826063 -20.838226458351528 0 0 0 0 -0.1358103140116782 -27.003498444905972 0 -27.003498444905972 -20.906489416134718 0 0 0 0 -13.225188566375436 -19.650661037272585 0 -19.650661037272585 -6.9785232975555118 0 0 0 0 -36.561100087899831 -56.312960870236566 0 -56.312960870236566 -10.675632524853427 0 0 0 0 -0.51681218558999753 -440.06810776395901 0 -440.06810776395901 -759.92473128042184 0 0 0 0 -809.34038466385573 -1353.4939926232091 0 -1353.4939926232091 0.96593268766082474 0 0 0 0 -30.93213496284443 -8.5982315002293035 0 -8.5982315002293035 15.248415869788914 0 0 0 0 -9.0261836952015244 -1.7049143296321461 0 -1.7049143296321461 -0.23268724054680945 0 0 0 0 -174.86206637491705 -395.25295923010708 0 -395.25295923010708 -924.33204667287282 0 0 0 0 -4.3621052763765746 0.16268300201593178 0 0.16268300201593178 0.067825107101214144 0 0 0 0 -9.5536323042724689 -20.217784934391602 0 -20.217784934391602 -7.0317838776099961 0 0 0 0 7.4934303998525138 -13.386542076521437 0 -13.386542076521437 -19.917575436949846 0 0 0 0 3.6968698045384372 -16.202168141549919 0 -16.202168141549919 -11.152574541069043 0 0 0 0 -7.9343178709999336 -11.59682655361366 0 -11.59682655361366 -8.4777764842821739 0 0 0 0 4.177897822286468 -11.567687188195123 0 -11.567687188195123 -16.391169605805771 0 0 0 0 1.3472051117818182 -2.9939636954284055 0 -2.9939636954284055 -0.53604622198156093 0 0 0 0 -2.986087079236313 -4.6971329315369985 0 -4.6971329315369985 0.024371926545427414 0 0 0 0 2.7391164626969839 -16.024649216284161 0 -16.024649216284161 -21.214620269980514 0 0 0 0 -1.5328555664455052 -15.944186662207358 0 -15.944186662207358 6.1459831025276799 0 0 0 0 -15.187419631534794 0.21907731233477534 0 0.21907731233477534 -1.8139963391295169 0 0 0 0 -7.8569686977571109 -16.590702167668496 0 -16.590702167668496 -15.828504984645406 0 0 0 0 3.0447935301926918 -12.516185090084036 0 -12.516185090084036 -16.820516031666557 0 0 0 0 -17.114212553147809 -10.943394882335269 0 -10.943394882335269 -5.477602257480612 0 0 0 0 -0.67354752999381162 -4.8280209503645892 0 -4.8280209503645892 -12.340964097369579 0 0 0 0 5.7046223112338339 7.2236455106030917 0 7.2236455106030917 -7.0073785348504316 0 0 0 0 -1.924336018077156 -7.3378383606759598 0 -7.3378383606759598 -14.7274835461576 0 0 0 0 3.5928618494071998 -14.622970648590126 0 -14.622970648590126 -21.662208184709016 0 0 0 0 7.9774951697181677 -8.5364584784183535 0 -8.5364584784183535 -25.763742233422818 0 0 0 0 7.0851390402240213 -8.7036180830837111 0 -8.7036180830837111 -15.58024596299947 0 0 0 0 9.7955504192505032 -18.33185737608801 0 -18.33185737608801 -25.38857685320545 0 0 0 0 6.6296688898146385 -25.632817856683687 0 -25.632817856683687 -25.185265474327025 0 0 0 0 -7.0029529989956529 -14.895214294727381 0 -14.895214294727381 -19.901597752470593 0 0 0 0 5.9388730952050537 -23.535963645954325 0 -23.535963645954325 -21.571696844574035 0 0 0 0 9.0405404467310291 -28.096677698751591 0 -28.096677698751591 -22.075886984734097 0 0 0 0 -7.154520269502882 -20.394995923028922 0 -20.394995923028922 -29.74020070109691 0 0 0 0 15.115538437341456 -24.230290563857125 0 -24.230290563857125 -27.76789136131265 0 0 0 0 12.16670065829021 -18.458299425014047 0 -18.458299425014047 -39.036546842289681 0 0 0 0 -10.026170034732786 -29.83989485332495 0 -29.83989485332495 -30.857222144448315 0 0 0 0 2.9507323777070269 -20.390844915091293 0 -20.390844915091293 -23.990073337990907 0 0 0 0 -2.7649378560581681 -30.87650593539729 0 -30.87650593539729 -27.903718234578264 0 0 0 0 3.3359854161171825 -34.564668774193706 0 -34.564668774193706 -28.697926688721054 0 0 0 0 -6.5408988349372521 -28.80116117419675 0 -28.80116117419675 -30.242901088124199 0 0 0 0 4.3640769374906085 -36.508170176963176 0 -36.508170176963176 -32.642480109978351 0 0 0 0 3.8430117188690929 -35.467939912639849 0 -35.467939912639849 -22.470849763854858 0 0 0 0 -7.0934726676259743 -37.115095890317207 0 -37.115095890317207 -11.157361844656407 0 0 0 0 -2.3073035042179981 -26.706151921942364 0 -26.706151921942364 -2.6862039956686203 0 0 0 0 4.3569600186820026 -40.717295142767398 0 -40.717295142767398 -35.241714549825701 0 0 0 0 -2.7539560242221341 -46.512188327615149 0 -46.512188327615149 -25.812067234761344 0 0 0 0 4.500254336551734 -42.281777859865542 0 -42.281777859865542 -36.407363306600018 0 0 0 0 -3.0298083312809467 -51.175004590755634 0 -51.175004590755634 -42.73549335890857 0 0 0 0 15.997217936906964 -45.561653461074457 0 -45.561653461074457 -49.136111719060864 0 0 0 0 14.052078997199715 -38.002098007178574 0 -38.002098007178574 -44.441234220910701 0 0 0 0 13.446841824537842 -38.257299123004486 0 -38.257299123004486 -44.503355321467097 0 0 0 0 10.93555690742869 -33.590389663342648 0 -33.590389663342648 -42.152032138663344 0 0 0 0 4.8104453806809033 -33.303868657669227 0 -33.303868657669227 -35.680642046147113 0 0 0 0 15.191405813195161 -26.38014844366262 0 -26.38014844366262 -31.253122369249468 0 0 0 0 19.171169580920832 -14.831122509523993 0 -14.831122509523993 -29.615294419971178 0 0 0 0 8.4108508006684133 -21.861578175197792 0 -21.861578175197792 -34.127072332601529 0 0 0 0 21.439226836359012 -27.06765760442795 0 -27.06765760442795 -39.009622145422327 0 0 0 0 17.396487194895599 -23.020470735775234 0 -23.020470735775234 -42.743786084771273 0 0 0 0 31.505548940986046 -16.290866000985261 0 -16.290866000985261 -39.731481476417684 0 0 0 0 26.353636038587865 -27.996119707231628 0 -27.996119707231628 -51.289719422391499 0 0 0 0 26.329084784461884 -12.196873026019603 0 -12.196873026019603 -42.666285321785836 0 0 0 0 41.849505695703556 -2.6807973538598162 0 -2.6807973538598162 -37.054310201070621 0 0 0 0 40.971636088614559 -16.667400118453088 0 -16.667400118453088 -54.627288761432283 0 0 0 0 16.549248592724325 -8.1455473342357436 0 -8.1455473342357436 -30.276190229933491 0 0 0 0 14.213644078576181 -3.7774857674376108 0 -3.7774857674376108 -26.458239034225699 0 0 0 0 27.284150403429521 -4.297689232887933 0 -4.297689232887933 -30.495658603191259 0 0 0 0 0.46604758487762865 -1.0435698463859069 0 -1.0435698463859069 0.52073643403351966 0 0 0 0 26.711863525270019 5.4438138254699879 0 5.4438138254699879 -21.832761042373022 0 0 0 0 32.575940792929032 29.705130876369367 0 29.705130876369367 13.109273568541539 0 0 0 0 8.5974623651782167 5.3101178424039972 0 5.3101178424039972 -17.281853864304139 0 0 0 0 -1.2972029927332187 9.4946621714843786 0 9.4946621714843786 83.369024952415202 0 0 0 0 27.103025552845793 17.893586098754895 0 17.893586098754895 -9.4728592202955042 0 0 0 0 26.498645703077727 0.50470723058151634 0 0.50470723058151634 -35.043164253540454 0 0 0 0 70.783060416579247 -0.069043749441334512 0 -0.069043749441334512 -59.141335309483111 0 0 0 0 45.583204460461275 10.353224773614784 0 10.353224773614784 -40.954963178548496 0 0 0 0 79.245519602438435 34.9512954387028 0 34.9512954387028 -34.754171364129434 0 0 0 0 47.092901503638132 15.227870923481532 0 15.227870923481532 -26.655062547026318 0 0 0 0 28.380988772667479 12.730459597500158 0 12.730459597500158 -21.470241989853093 0 0 0 0 60.791719425586052 51.85896741214674 0 51.85896741214674 -0.91374084435301484 0 0 0 0 41.409599223508849 24.753691589998198 0 24.753691589998198 -10.392722341348417 0 0 0 0 -2.3576875784128788 12.601619771121477 0 12.601619771121477 9.7205798262148164 0 0 0 0 69.80459863669239 -120.71702484667185 0 -120.71702484667185 -39.202145919873146 0 0 0 0 114.24122162866115 -96.751866315735242 0 -96.751866315735242 -136.28117537268554 0 0 0 0 121.74560903923702 -97.380774868230219 0 -97.380774868230219 -263.2048678540159 0 0 0 0 437.50646484698518 332.39184237935115 0 332.39184237935115 -1045.8950779642037 0 0 0 0 109.44932701211656 42.393096612358931 0 42.393096612358931 0.056544452512753196 0 0 0 0 140.59718515195709 67.283982253222348 0 67.283982253222348 -75.095644339948194 0 0 0 0 106.58141163317487 21.813343215588247 0 21.813343215588247 -72.630178923873245 0 0 0 0 126.54575204195135 24.354238727533811 0 24.354238727533811 -138.94308265027939 0 0 0 0 106.78879252774641 -15.251751203031745 0 -15.251751203031745 -137.79705301965259 0 0 0 0 77.290313624806004 -19.152704996879038 0 -19.152704996879038 -70.51133074684185 0 0 0 0 64.087679006188409 -38.603595331980614 0 -38.603595331980614 -95.190611686935881 0 0 0 0 86.593878799674712 13.379854817096202 0 13.379854817096202 -75.348223454377148 0 0 0 0 65.415515507280361 -5.5559608323092107 0 -5.5559608323092107 -64.716021976717457 0 0 0 0 57.384503968220088 -10.22303776134504 0 -10.22303776134504 -52.308001711586257 0 0 0 0 52.593439749703975 -30.926330579284695 0 -30.926330579284695 -71.171699494387212 0 0 0 0 38.902708504116163 -49.495640169428953 0 -49.495640169428953 -70.031900612455502 0 0 0 0 64.432605296023212 -49.921697117561962 0 -49.921697117561962 -74.467355298722396 0 0 0 0 34.234018297262082 -46.675019157792121 0 -46.675019157792121 -60.910104273483739 0 0 0 0 29.253996337320132 -49.954694400095832 0 -49.954694400095832 -62.256508077276521 0 0 0 0 46.784617623023223 -33.917734566934087 0 -33.917734566934087 -59.943975643123849 0 0 0 0 37.293617421659292 -36.098000020690961 0 -36.098000020690961 -60.350084091827739 0 0 0 0 40.490642290737014 -21.134195361599268 0 -21.134195361599268 -48.575538303513895 0 0 0 0 18.426083687074424 -36.748366669820825 0 -36.748366669820825 -50.162292911554687 0 0 0 0 22.179065119693405 -38.583343402322498 0 -38.583343402322498 -52.001790720154531 0 0 0 0 29.840786710541579 -31.123172962121316 0 -31.123172962121316 -48.507861113015679 0 0 0 0 6.2656139039827394 -50.929417903542344 0 -50.929417903542344 -50.40109189323266 0 0 0 0 -56.892614201922697 -59.732300141817177 0 -59.732300141817177 -29.708790943470376 0 0 0 0 5.3497856609028531 -49.582452146834839 0 -49.582452146834839 -47.686209216277348 0 0 0 0 -33.615006680400256 -75.879605471178365 0 -75.879605471178365 -49.492099682298431 0 0 0 0 0.44366039007582003 -65.430217126278876 0 -65.430217126278876 -52.223138906319036 0 0 0 0 -5.0846044647914823 -109.48729850840755 0 -109.48729850840755 -0.41782358812270104 0 0 0 0 -48.391721986405173 -86.425373357507851 0 -86.425373357507851 -12.515885779961536 0 0 0 0 11.717931647915975 -82.084024524609049 0 -82.084024524609049 -56.858750108163804 0 0 0 0 -57.595991616559331 -59.278832521707955 0 -59.278832521707955 -43.888668078240244 0 0 0 0 -63.694355357994937 -94.882528549351264 0 -94.882528549351264 -47.433083020094955 0 0 0 0 1.3576139101887605 -5.7847179398746107 0 -5.7847179398746107 11.870486434729344 0 0 0 0 -590.69539161852845 -207.48064793752201 0 -207.48064793752201 -159.35743095302314 0 0 0 0 -495.29962670677924 -500.0440140451974 0 -500.0440140451974 -163.16881104852217 0 0 0 0 -6.8582453393864853 -44.500402018492423 0 -44.500402018492423 -38.920537228223111 0 0 0 0 -37.668634741959977 -51.003396756146685 0 -51.003396756146685 -39.85915122303777 0 0 0 0 -19.027172763817362 -53.990709048266581 0 -53.990709048266581 -32.369878267765671 0 0 0 0 4.1103343492617341 -11.36816984212804 0 -11.36816984212804 17.074146189783164 0 0 0 0 -702.20634566391527 -1014.2525205926067 0 -1014.2525205926067 -740.67481006397429 0 0 0 0 -3.3497147264536977 -1.1460382089837964 0 -1.1460382089837964 5.1896015005949963 0 0 0 0 -303.09803275651939 23.073917781443015 0 23.073917781443015 30.982473440213653 0 0 0 0 -441.88759817394021 -361.34463711988792 0 -361.34463711988792 -693.87578187456234 0 0 0 0 -534.37417975045537 -561.5864518883609 0 -561.5864518883609 -975.81870090827579 0 0 0 0 -459.30513379058539 -253.57522833346275 0 -253.57522833346275 -696.7961905842385 0 0 0 0 -545.97919955234511 -719.75733874348998 0 -719.75733874348998 -1359.6569056286971 0 0 0 0 -430.30919844593154 -507.01452270201844 0 -507.01452270201844 -1046.7635788574844 0 0 0 0 -222.10401387616002 -393.60825785328052 0 -393.60825785328052 -1159.9350265212488 0 0 0 0 -157.07904502042948 -315.95886941951903 0 -315.95886941951903 -1234.157269791307 0 0 0 0 -179.35228077831562 -458.35292429258698 0 -458.35292429258698 -1069.871568886083 0 0 0 0 -244.59719146615771 -353.41743600311975 0 -353.41743600311975 -1142.2205300673231 0 0 0 0 -248.57355385167466 -333.70182856148313 0 -333.70182856148313 -1055.487403863568 0 0 0 0 -443.68847524277226 -441.15698884511949 0 -441.15698884511949 -1142.3004803823769 0 0 0 0 -440.9791382145122 -423.38090284867576 0 -423.38090284867576 -1214.5490800787811 0 0 0 0 -645.49513563464279 -633.82102771245627 0 -633.82102771245627 -1171.5591536572756 0 0 0 0 -48.393732845666818 86.308578717915225 0 86.308578717915225 -424.07721836144628 0 0 0 0 -142.74358114286588 -699.05765917932513 0 -699.05765917932513 -1825.9049630486988 0 0 0 0 -3.2912888732750787 -2.7442028306299733 0 -2.7442028306299733 4.2867267294115514 0 0 0 0 -493.94762092557357 -823.15866110956267 0 -823.15866110956267 -1384.1610006154078 0 0 0 0 -302.07866659333376 -608.72373405915278 0 -608.72373405915278 -1368.6247780743433 0 0 0 0 -324.25914176482183 -538.72450684336218 0 -538.72450684336218 -1132.1818000957574 0 0 0 0 -339.82051492849132 -510.26692105391703 0 -510.26692105391703 -1170.5133953520171 0 0 0 0 -474.70357485386194 -558.35750557830397 0 -558.35750557830397 -1083.5185043819802 0 0 0 0 -326.28857980485009 -411.67634311151232 0 -411.67634311151232 -1020.352309509035 0 0 0 0 -303.1439531121805 -568.15915819949441 0 -568.15915819949441 -1084.5274157310923 0 0 0 0 -367.39472661189211 -513.02503900603551 0 -513.02503900603551 -943.46429079647351 0 0 0 0 -263.58776055310591 -598.68299338181896 0 -598.68299338181896 -1107.3982778899226 0 0 0 0 -226.9775323097856 -511.14559373370867 0 -511.14559373370867 -949.88485033028701 0 0 0 0 -285.94319199351594 -495.13633929559001 0 -495.13633929559001 -849.31409748498118 0 0 0 0 -316.2883509130188 -484.18449035850426 0 -484.18449035850426 -782.5229571788368 0 0 0 0 -200.55887505100691 -418.29286027696799 0 -418.29286027696799 -916.22997529867462 0 0 0 0 -265.30471875853254 -369.92625007953393 0 -369.92625007953393 -737.22751595968293 0 0 0 0 -258.95366278364963 -499.95002968332847 0 -499.95002968332847 -929.95729411746834 0 0 0 0 -251.45693635879115 -364.37796408581085 0 -364.37796408581085 -1026.1740630838176 0 0 0 0 -177.00393144608097 -482.94566745717748 0 -482.94566745717748 -898.88571799474448 0 0 0 0 -172.03110200526135 -372.6977918265402 0 -372.6977918265402 -867.5275980104052 0 0 0 0 -210.84816917646094 -323.45867764583818 0 -323.45867764583818 -507.65108299647545 0 0 0 0 -4.5781976859463498 -1.2057770258577705 0 -1.2057770258577705 1.0042023815805692 0 0 0 0 -226.56905185453797 -230.43671589678706 0 -230.43671589678706 -359.02657100843408 0 0 0 0 -23.778385805147991 2.4602639199401892 0 2.4602639199401892 1.2383281915826956 0 0 0 0 -181.88257522815911 -407.36941811892666 0 -407.36941811892666 -720.72828401408333 0 0 0 0 -103.33085269864387 -196.94321567848237 0 -196.94321567848237 -582.41138853190751 0 0 0 0 -37.904965272646223 -17.280502154557325 0 -17.280502154557325 -9.8137479375673138 0 0 0 0 -1.5328545651261152 -0.21463886336481153 0 -0.21463886336481153 0.69122412739033479 0 0 0 0 -42.482504712752416 9.1130637425158056 0 9.1130637425158056 3.4602957077022438 0 0 0 0 -79.007333820234635 -3.9878646623474197 0 -3.9878646623474197 25.628131454723189 0 0 0 0 83.034595449542394 -30.133576583757531 0 -30.133576583757531 -27.679089671670226 0 0 0 0 -60.400363441316586 44.179319761402439 0 44.179319761402439 -0.78660829938598908 0 0 0 0 -2.2709731535507842 -0.69214870701553366 0 -0.69214870701553366 0.2824578920760672 0 0 0 0 81.856904327549273 -9.3946053291292628 0 -9.3946053291292628 -33.301577021120465 0 0 0 0 -210.76570962275582 -307.34817030791964 0 -307.34817030791964 -609.92002637747282 0 0 0 0 -2.9017778557899874 -45.452786933899915 0 -45.452786933899915 198.19121427804566 0 0 0 0 5.6016593480235315 59.861043810862611 0 59.861043810862611 173.08511511256802 0 0 0 0 29.688512382330373 -37.605041120143142 0 -37.605041120143142 49.154142463616154 0 0 0 0 69.30784246433177 -77.620193129216204 0 -77.620193129216204 -5.2250900183717022 0 0 0 0 -22.234657858076389 -23.022322695542243 0 -23.022322695542243 58.280642514218925 0 0 0 0 -46.696742396055924 -0.74157694590940082 0 -0.74157694590940082 40.565800897325971 0 0 0 0 -226.72452676655666 -403.73130167974159 0 -403.73130167974159 -732.87649277245509 0 0 0 0 -223.06482559484721 -369.2341464783749 0 -369.2341464783749 -666.33439642738085 0 0 0 0 -187.78142105208826 -403.80895982602669 0 -403.80895982602669 -740.31915922607004 0 0 0 0 -191.96711598570982 -421.1763734744527 0 -421.1763734744527 -635.95402605248091 0 0 0 0 -87.073704802056 -410.59818220125408 0 -410.59818220125408 -755.12943751194689 0 0 0 0 -188.15018311496533 -369.61752137760777 0 -369.61752137760777 -755.06557144679573 0 0 0 0 -246.83200853106973 -475.78669892177459 0 -475.78669892177459 -781.49088176009536 0 0 0 0 -218.99036674578383 -458.74370215016097 0 -458.74370215016097 -854.64276978716953 0 0 0 0 -207.08907168613223 -489.19339003352798 0 -489.19339003352798 -892.06891396096034 0 0 0 0 -218.36066192323051 -511.23423371428362 0 -511.23423371428362 -881.9026988015039 0 0 0 0 -202.73022525784108 -452.35705683803644 0 -452.35705683803644 -830.86506319169712 0 0 0 0 -247.35768495908997 -483.06948810182803 0 -483.06948810182803 -811.23733281964087 0 0 0 0 -173.23602144278993 -465.79771219344548 0 -465.79771219344548 -914.00352733843465 0 0 0 0 -172.90513911860035 -504.27676718230578 0 -504.27676718230578 -986.5488919563868 0 0 0 0 -168.46597792608372 -410.9070663644834 0 -410.9070663644834 -879.32829549514281 0 0 0 0 -193.51735432039641 -469.9150181782843 0 -469.9150181782843 -896.07106161292177 0 0 0 0 -181.18178342356987 -442.35577501362422 0 -442.35577501362422 -873.66615465147697 0 0 0 0 -200.53614498028765 -411.34866056387546 0 -411.34866056387546 -758.82065823135781 0 0 0 0 -200.31551738470444 -450.06840932778141 0 -450.06840932778141 -836.16121243812086 0 0 0 0 -153.71835831778299 -374.86378185683134 0 -374.86378185683134 -814.82018764611348 0 0 0 0 -179.5637080828601 -374.51493648183532 0 -374.51493648183532 -794.71156575429632 0 0 0 0 -145.71359179656429 -267.02692637781729 0 -267.02692637781729 -719.64743247246588 0 0 0 0 -79.141602340358077 -287.78910298646224 0 -287.78910298646224 -833.94516822876903 0 0 0 0 -177.75703720559977 -357.42336604808224 0 -357.42336604808224 -731.97083136989386 0 0 0 0 -178.47598923527403 -406.32303336470432 0 -406.32303336470432 -842.77288612764096 0 0 0 0 -163.00594351738982 -401.3010181166901 0 -401.3010181166901 -872.01779814861948 0 0 0 0 -53.380576185547397 -334.60016962158988 0 -334.60016962158988 -890.95656796215917 0 0 0 0 -125.28716090336093 -350.4845345782669 0 -350.4845345782669 -827.76950447550189 0 0 0 0 -234.56931458812323 -346.42702265031403 0 -346.42702265031403 -887.83198605077632 0 0 0 0 -87.406637513457099 -375.69685036188457 0 -375.69685036188457 -920.04691484046634 0 0 0 0 248.81332258356269 365.27562100360228 0 365.27562100360228 -125.27628741492663 0 0 0 0 -5.3718458178864665 -3.5038776319572307 0 -3.5038776319572307 -0.33981461722657258 0 0 0 0 -132.60240335252456 -379.26076440502584 0 -379.26076440502584 -980.93746175268461 0 0 0 0 -158.62829250282812 -404.79428164377532 0 -404.79428164377532 -878.95488132086757 0 0 0 0 -160.10445072346192 -447.12709380644083 0 -447.12709380644083 -960.82829443203991 0 0 0 0 -213.18326724768849 -434.97947960097372 0 -434.97947960097372 -872.53154775963048 0 0 0 0 -144.88552545252242 -523.57973760787536 0 -523.57973760787536 -860.62284720825846 0 0 0 0 -166.25722729177505 -474.81874076760141 0 -474.81874076760141 -910.46348282355757 0 0 0 0 -233.84138871508549 -462.89119924752549 0 -462.89119924752549 -801.70377311541233 0 0 0 0 -204.18326416608761 -452.7775326951305 0 -452.7775326951305 -855.13898367857473 0 0 0 0 -246.46715454339574 -404.35349532579858 0 -404.35349532579858 -887.24629871038269 0 0 0 0 -109.31639423048182 -481.98834076616185 0 -481.98834076616185 -1012.5562864626409 0 0 0 0 -174.60933361018033 -453.41351584437507 0 -453.41351584437507 -1024.6547785343573 0 0 0 0 -123.32557997195545 -420.19957143333522 0 -420.19957143333522 -1282.6728776713499 0 0 0 0 -276.60424632922513 -341.02050999358471 0 -341.02050999358471 -935.93549167665333 0 0 0 0 -83.17048071224599 -596.12235581697382 0 -596.12235581697382 -1118.8294145979016 0 0 0 0 -119.62709674143116 -562.70798933936021 0 -562.70798933936021 -1040.2784963987651 0 0 0 0 -98.932873471403582 -580.8730632253064 0 -580.8730632253064 -1078.6290012967074 0 0 0 0 -144.10377445629274 -541.5662660601738 0 -541.5662660601738 -1095.5416488150295 0 0 0 0 -167.83457074876787 -542.00587016853387 0 -542.00587016853387 -973.36522412844351 0 0 0 0 -217.78553737801849 -594.4856791349448 0 -594.4856791349448 -1025.5813494967733 0 0 0 0 -263.27760053369457 -562.43032480543843 0 -562.43032480543843 -916.11144408640394 0 0 0 0 -219.16818945964042 -542.17901504183101 0 -542.17901504183101 -976.1468522780051 0 0 0 0 -283.26436406795983 -600.19421200992656 0 -600.19421200992656 -1003.1865563185274 0 0 0 0 -209.63609375678061 -591.83685485006572 0 -591.83685485006572 -1126.3560087305814 0 0 0 0 -210.41582707375346 -574.4519698626973 0 -574.4519698626973 -1034.2784741846917 0 0 0 0 -153.46749736869242 -619.55074622544998 0 -619.55074622544998 -1067.122968968557 0 0 0 0 -140.73396437624615 -427.7881966042587 0 -427.7881966042587 -1097.5900916340674 0 0 0 0 -284.3565183562896 -624.27371532786492 0 -624.27371532786492 -1139.5996907563131 0 0 0 0 -140.98767142723227 -438.73713208916161 0 -438.73713208916161 -1433.183602847279 0 0 0 0 6.6055198326533997 -18.717110807563756 0 -18.717110807563756 5.8792302126747629 0 0 0 0 -0.54964946300242445 -36.669548612069775 0 -36.669548612069775 -19.980711900359893 0 0 0 0 0.23488044551521625 -16.073323993276745 0 -16.073323993276745 9.9878091120256158 0 0 0 0 2.2215081531612668 -14.245827584076324 0 -14.245827584076324 -38.639985414392868 0 0 0 0 1.4945052960173513 -8.678965253429638 0 -8.678965253429638 -0.52942920372603197 0 0 0 0 -160.53173275986046 -491.30763607258086 0 -491.30763607258086 -865.85561625246191 0 0 0 0 -68.789930633822223 -542.24443819958105 0 -542.24443819958105 -1058.9676436709669 0 0 0 0 -353.2431445345992 -264.42645307091516 0 -264.42645307091516 -299.15998965984909 0 0 0 0 -4.6781520664335403 -23.098392461035473 0 -23.098392461035473 -18.623793078666495 0 0 0 0 -1.4558221448314725 -32.587817333733256 0 -32.587817333733256 -41.370863640710013 0 0 0 0 -5.3753129221252038 -18.953692194518936 0 -18.953692194518936 -3.098482280784232 0 0 0 0 5.6959627680246285 -13.493433722170053 0 -13.493433722170053 2.8678240040039142 0 0 0 0 1.5171379960811464 -21.936134186158597 0 -21.936134186158597 -21.968869119722513 0 0 0 0 2.7480620355421266 -23.01866445642969 0 -23.01866445642969 -7.5165438176804571 0 0 0 0 -19.9144312446806 -17.261444553084857 0 -17.261444553084857 13.792971734379535 0 0 0 0 27.405283625383163 -28.063352879820741 0 -28.063352879820741 -56.472772005050501 0 0 0 0 0.12178517548119316 -4.2724076904924004 0 -4.2724076904924004 -6.2672097903153698 0 0 0 0 -109.58036936183998 -79.410974979844468 0 -79.410974979844468 -187.57163213876265 0 0 0 0 7.8508843390372931 -119.20099133452459 0 -119.20099133452459 -21.008837278455758 0 0 0 0 19.68135598755876 -11.641888312827021 0 -11.641888312827021 0.81466548569235897 0 0 0 0 67.390998154100089 -618.31795284544569 0 -618.31795284544569 -558.09209235337767 0 0 0 0 -196.67701775564638 -918.64867324980514 0 -918.64867324980514 -1130.2956354903854 0 0 0 0 5.5323023530046953 -5.2029012360409368 0 -5.2029012360409368 -3.6819136542572153 0 0 0 0 198.93294045065704 70.969869291595387 0 70.969869291595387 -1203.3459026197525 0 0 0 0 -742.99648827989586 -842.74990453564533 0 -842.74990453564533 -761.28671015742657 0 0 0 0 -84.055044700372719 -539.33938477953984 0 -539.33938477953984 -1547.2951397654106 0 0 0 0 30.757279112753167 -495.72056772857104 0 -495.72056772857104 -849.4143232208844 0 0 0 0 -333.40071958868793 -208.0276850030823 0 -208.0276850030823 -1239.3651074788759 0 0 0 0 -620.69923509480941 -625.77857455111007 0 -625.77857455111007 -804.80602548870229 0 0 0 0 622.76745672860852 -516.89750526308853 0 -516.89750526308853 -516.14483064984051 0 0 0 0 -90.724805293000827 -810.77422923012637 0 -810.77422923012637 262.03184528220663 0 0 0 0 -227.69975227286341 -559.83946037201258 0 -559.83946037201258 -472.7977889531976 0 0 0 0 159.58570041566418 -191.99959492321796 0 -191.99959492321796 -820.01305272659192 0 0 0 0 84.831555694348936 -951.88860296620805 0 -951.88860296620805 -991.81616570193 0 0 0 0 55.290698203651573 -912.70739769071383 0 -912.70739769071383 -856.76984293892747 0 0 0 0 26.729506281015347 -714.3301448592465 0 -714.3301448592465 -972.37209617796179 0 0 0 0 -36.15256954661163 -662.79623356360025 0 -662.79623356360025 -503.17231553223974 0 0 0 0 -195.18148069338349 -1047.1090160029489 0 -1047.1090160029489 -468.00546623366631 0 0 0 0 25.84482593460416 -592.25443847566203 0 -592.25443847566203 -439.13967653227883 0 0 0 0 401.85303229391138 -555.48658017740308 0 -555.48658017740308 -2588.9804630055605 0 0 0 0 -4.058562922299302 -6.9365511515961487 0 -6.9365511515961487 -2.8636714627662414 0 0 0 0 23.170275042881258 -1429.2810874932256 0 -1429.2810874932256 -1721.1201053268014 0 0 0 0 296.24403837435239 -1107.207016617609 0 -1107.207016617609 -67.853103656344729 0 0 0 0 -392.61594960988623 -1089.2518203094533 0 -1089.2518203094533 -68.318418351653236 0 0 0 0 0.98886679095909502 -197.19198890826721 0 -197.19198890826721 814.62289976503234 0 0 0 0 14.747653989471019 -50.070637485892121 0 -50.070637485892121 -61.872718736471143 0 0 0 0 6.5655017864765455 -2.7289219034031902 0 -2.7289219034031902 2.0208751274766783 0 0 0 0 -355.93188469050074 -259.17284042277061 0 -259.17284042277061 975.09459161162158 0 0 0 0 43.177562443339411 -43.080690594100815 0 -43.080690594100815 -147.05937347096187 0 0 0 0 124.40404839203984 -563.94237569403776 0 -563.94237569403776 -518.47705762346959 0 0 0 0 18.491446740372339 42.328514490152884 0 42.328514490152884 -64.507182671011833 0 0 0 0 0.17429882124997675 -60.534566040907521 0 -60.534566040907521 19.157298848309438 0 0 0 0 37.054307934035023 -41.867964569220931 0 -41.867964569220931 -38.533749374430045 0 0 0 0 24.395510665319307 -75.065583526616138 0 -75.065583526616138 -1.5123878032463836 0 0 0 0 -4.1023732832982205 -50.377378749519266 0 -50.377378749519266 -2.9635352181940107 0 0 0 0 215.82428878970677 -469.71186042791305 0 -469.71186042791305 -328.14731479889815 0 0 0 0 222.25360272370654 -378.14121410079736 0 -378.14121410079736 588.59353351163372 0 0 0 0 0.22344015635826509 -537.57277317583976 0 -537.57277317583976 1045.2682868890943 0 0 0 0 -2.7216903299897979 -4.5486248747820959 0 -4.5486248747820959 -1.1755234961543479 0 0 0 0 235.48991206905339 -577.81369145948884 0 -577.81369145948884 454.97540713220951 0 0 0 0 -162.182254995736 -416.16619929023727 0 -416.16619929023727 509.61267286001384 0 0 0 0 -1.7391905484407175 -2.4868173220262157 0 -2.4868173220262157 -0.10904876817976117 0 0 0 0 0.36444683123227151 -910.6762291578716 0 -910.6762291578716 -258.80334001244228 0 0 0 0 282.37540996104872 -819.55792963325985 0 -819.55792963325985 -82.606744854292629 0 0 0 0 -80.406647570933274 -907.90072808998411 0 -907.90072808998411 598.75043940518663 0 0 0 0 154.95871526696646 -424.47624758970596 0 -424.47624758970596 740.84360415777701 0 0 0 0 -160.0127636659854 -802.85024648709077 0 -802.85024648709077 1796.5103429208175 0 0 0 0 520.98215360038739 -792.91178716660579 0 -792.91178716660579 481.59290501044234 0 0 0 0 221.06566150844765 -770.43651401300281 0 -770.43651401300281 517.0021679653546 0 0 0 0 -10.745379419869153 -14.617185763424565 0 -14.617185763424565 -4.5794405450840259 0 0 0 0 246.07078515813191 -601.55642473110493 0 -601.55642473110493 894.29681322693341 0 0 0 0 85.229211132500495 -276.72962488163466 0 -276.72962488163466 239.20096841888881 0 0 0 0 327.34064324667997 -553.50320366027518 0 -553.50320366027518 317.85683706745112 0 0 0 0 571.59530581842864 -492.29870183920389 0 -492.29870183920389 271.62215369212208 0 0 0 0 448.4621085699182 -627.47446622989082 0 -627.47446622989082 398.88708932329973 0 0 0 0 837.44326278862718 -441.6007671949319 0 -441.6007671949319 421.15335568929004 0 0 0 0 -103.85283081566922 -212.99241187905591 0 -212.99241187905591 451.52700642678246 0 0 0 0 905.0978490022826 -882.3446920582046 0 -882.3446920582046 377.70793398906426 0 0 0 0 -2.7410580047829711 -3.4905025806798697 0 -3.4905025806798697 -0.14018657066259266 0 0 0 0 271.168007516746 -165.42953150403628 0 -165.42953150403628 429.53027362754801 0 0 0 0 2.2405425926990574 -452.72368170794289 0 -452.72368170794289 516.90025430086098 0 0 0 0 129.65643299441581 -504.38647551952272 0 -504.38647551952272 849.75696354120191 0 0 0 0 -6.7740516730724636 -7.8791183793343933 0 -7.8791183793343933 -1.8999184681763666 0 0 0 0 685.24219918012386 -1079.0819227679167 0 -1079.0819227679167 390.5478953779093 0 0 0 0 -0.93885264925640399 -2.3118226612898916 0 -2.3118226612898916 -0.17307103608811047 0 0 0 0 537.11625010702119 -740.133199518943 0 -740.133199518943 578.75613566882748 0 0 0 0 671.79718112475894 -821.20710718617738 0 -821.20710718617738 1148.313707887959 0 0 0 0 417.650630057331 -549.29995127809525 0 -549.29995127809525 736.1617483862974 0 0 0 0 593.0136319786543 -638.82096666268444 0 -638.82096666268444 443.37354248988413 0 0 0 0 360.78749480662009 -510.95417714965151 0 -510.95417714965151 515.74289499137376 0 0 0 0 176.29142756821238 -458.83777760492376 0 -458.83777760492376 543.7729477706871 0 0 0 0 425.76179579165182 -552.73943998403047 0 -552.73943998403047 494.40507160068955 0 0 0 0 310.97879997614655 -559.01157385954866 0 -559.01157385954866 590.60306029596541 0 0 0 0 58.327787070316845 -412.33621610080991 0 -412.33621610080991 553.97084518941483 0 0 0 0 -11.536090675966989 -441.76414100470174 0 -441.76414100470174 537.12063583146301 0 0 0 0 9.4722877945896471 -470.84609600109252 0 -470.84609600109252 576.07125548697229 0 0 0 0 -24.944037695360748 -433.59460871007468 0 -433.59460871007468 574.51435270635193 0 0 0 0 101.48934966309025 -551.43993678219704 0 -551.43993678219704 451.1857740743726 0 0 0 0 -56.973334621347021 -513.78437815233701 0 -513.78437815233701 443.51794546796373 0 0 0 0 -125.20068718331095 -395.97943973052497 0 -395.97943973052497 379.1793737701737 0 0 0 0 -14.034101870420272 -568.46686275053617 0 -568.46686275053617 188.35723923030309 0 0 0 0 159.69647919503768 -563.07858485666657 0 -563.07858485666657 382.11673386886105 0 0 0 0 76.472198486640991 -419.35693449853352 0 -419.35693449853352 426.79796892814375 0 0 0 0 244.21030632178008 -455.5186864872594 0 -455.5186864872594 516.59129245758459 0 0 0 0 327.93105336041481 -605.11242182838032 0 -605.11242182838032 512.7779678205552 0 0 0 0 339.1175432302698 -511.06482996000705 0 -511.06482996000705 230.56517080101185 0 0 0 0 405.51358265648742 -428.6885594934065 0 -428.6885594934065 330.62306442738191 0 0 0 0 126.23228729920811 -430.58493555936366 0 -430.58493555936366 266.93875335710982 0 0 0 0 42.943482047194266 -366.66155781534326 0 -366.66155781534326 93.69758770660701 0 0 0 0 241.01491717522731 -319.72932356843739 0 -319.72932356843739 96.929179708298761 0 0 0 0 -10.930090626981951 -11.535677876104621 0 -11.535677876104621 -2.6526556394615213 0 0 0 0 235.75767418768373 -262.20527737327029 0 -262.20527737327029 -30.832605116247578 0 0 0 0 319.49839287954092 -354.85349986995425 0 -354.85349986995425 1368.097320042596 0 0 0 0 -511.98579731264908 -462.68538924525819 0 -462.68538924525819 1961.1069333450541 0 0 0 0 -4.4739054008045684 -3.4351645013714034 0 -3.4351645013714034 -0.28321025755695928 0 0 0 0 -176.13672045434942 -568.07583637237258 0 -568.07583637237258 1853.0111951867802 0 0 0 0 -97.688580774807633 -56.440003007483028 0 -56.440003007483028 1596.5983483298987 0 0 0 0 -96.894276723411167 -195.63725990200419 0 -195.63725990200419 78.61098783811758 0 0 0 0 137.27170329881847 -191.25708249281888 0 -191.25708249281888 -967.26277153849151 0 0 0 0 129.80147076492347 -292.57400402262681 0 -292.57400402262681 -47.925738908452331 0 0 0 0 -160.18454616145755 -706.44662049713588 0 -706.44662049713588 -105.7920874685642 0 0 0 0 -17.696335473287036 -416.02491335923696 0 -416.02491335923696 3.0464623118023155 0 0 0 0 -259.8399016194453 -375.2612079609703 0 -375.2612079609703 157.02254147937492 0 0 0 0 16.772868007334182 -269.92290827011675 0 -269.92290827011675 1198.4690830917862 0 0 0 0 -15.951717201050499 -7.8658182791833227 0 -7.8658182791833227 -1.3470935354450297 0 0 0 0 -88.135179604665609 -760.61191034293915 0 -760.61191034293915 971.44424359174445 0 0 0 0 61.376363208026305 -813.3298107534938 0 -813.3298107534938 281.09544541747164 0 0 0 0 -159.82747937408567 -283.41578599665081 0 -283.41578599665081 1226.5000429640895 0 0 0 0 196.09560636153037 -420.30594725386254 0 -420.30594725386254 -163.21588960918234 0 0 0 0 232.90761942378231 -262.7085638714525 0 -262.7085638714525 252.24187751626232 0 0 0 0 81.555019585855916 -273.70465872263503 0 -273.70465872263503 264.97456662516925 0 0 0 0 -80.283018758098478 25.727716759940449 0 25.727716759940449 91.264156258865114 0 0 0 0 -23.70609298581445 -12.396029657440138 0 -12.396029657440138 3.4126868734770994 0 0 0 0 69.616142590406525 -226.25995870733823 0 -226.25995870733823 489.43747016256384 0 0 0 0 265.78193985120743 -201.6084784445593 0 -201.6084784445593 -107.97646276778141 0 0 0 0 283.04285640990565 -244.33537342942964 0 -244.33537342942964 -2.2524209526345658 0 0 0 0 1116.4282219751767 -260.48234056590081 0 -260.48234056590081 -2.793724091548853 0 0 0 0 451.05469774247467 -635.44340309323343 0 -635.44340309323343 501.86291463324596 0 0 0 0 205.16141377698659 -299.30047948456559 0 -299.30047948456559 152.81218060572974 0 0 0 0 -77.960999797145632 -522.04389593380984 0 -522.04389593380984 417.21709363664559 0 0 0 0 -63.88592126713047 -368.94769214639746 0 -368.94769214639746 520.36342796677309 0 0 0 0 12.7532464025644 -396.81123693163499 0 -396.81123693163499 593.81889105695518 0 0 0 0 115.18776978460664 -451.83479165087556 0 -451.83479165087556 545.79235949839858 0 0 0 0 534.83846579454621 -134.25486773496141 0 -134.25486773496141 555.87255982517672 0 0 0 0 126.76109307020306 -400.27172115192707 0 -400.27172115192707 772.02589275136052 0 0 0 0 298.37620633996994 -410.88748390376895 0 -410.88748390376895 233.59533019387163 0 0 0 0 194.35387912165243 -549.56050606176905 0 -549.56050606176905 236.7041640075513 0 0 0 0 202.00309053568344 -538.48477484690375 0 -538.48477484690375 207.25124046360861 0 0 0 0 538.92974792723544 -568.36357860765929 0 -568.36357860765929 -33.270143650421232 0 0 0 0 482.95069237898497 -619.66210080907695 0 -619.66210080907695 48.16395287395062 0 0 0 0 394.00056454439255 -538.68186996925851 0 -538.68186996925851 -15.372409863273788 0 0 0 0 392.35359086659446 -466.54393937512214 0 -466.54393937512214 121.83479680592336 0 0 0 0 457.08482938336238 -471.18161475368652 0 -471.18161475368652 102.54472374324541 0 0 0 0 375.85081283461113 -558.1375250019255 0 -558.1375250019255 101.10705609933575 0 0 0 0 282.25857356475171 -459.27810054409292 0 -459.27810054409292 16.202853685354057 0 0 0 0 222.02662874569796 -516.76804583659032 0 -516.76804583659032 128.3934111067183 0 0 0 0 139.14231875854603 -580.25446002150238 0 -580.25446002150238 119.95917281889342 0 0 0 0 312.74770832682043 -611.58420783962265 0 -611.58420783962265 -18.691673885798082 0 0 0 0 285.68807155555078 -534.4327053589177 0 -534.4327053589177 -237.8420669542611 0 0 0 0 -195.32688594057981 -543.03865830993163 0 -543.03865830993163 48.552736275065399 0 0 0 0 130.09271589237323 -581.71374376093081 0 -581.71374376093081 100.35985021806664 0 0 0 0 174.09624943896051 -593.35416769019594 0 -593.35416769019594 55.404111086729245 0 0 0 0 179.79908071855607 -582.72955405862194 0 -582.72955405862194 94.818849666622555 0 0 0 0 144.35230197673536 -619.7986671029405 0 -619.7986671029405 -58.34807959389218 0 0 0 0 330.8575804991342 -511.65340561679295 0 -511.65340561679295 -38.591875280308159 0 0 0 0 516.81419393506803 -647.66069582762248 0 -647.66069582762248 -56.401084443103173 0 0 0 0 182.87651530850781 -777.60598103607754 0 -777.60598103607754 -20.446658582019154 0 0 0 0 1033.2297422485572 -590.7097646897073 0 -590.7097646897073 51.012401710311678 0 0 0 0 -3.3350116947090953 -4.4223389675605809 0 -4.4223389675605809 -2.141547200243636 0 0 0 0 638.52688641551504 -765.31338619856979 0 -765.31338619856979 -23.553900573049305 0 0 0 0 -310.229377430559 -378.91036001915427 0 -378.91036001915427 410.47040109225782 0 0 0 0 -171.7767812723032 -838.44504571398647 0 -838.44504571398647 16.999634892132235 0 0 0 0 -173.39783339565474 -585.7234342989268 0 -585.7234342989268 463.82890640683399 0 0 0 0 67.575364396192526 -295.39186938287185 0 -295.39186938287185 427.12513682947974 0 0 0 0 482.35007948588463 -403.26473595546486 0 -403.26473595546486 431.56549429423103 0 0 0 0 301.67538527409488 -965.4558429539793 0 -965.4558429539793 1031.2277826589952 0 0 0 0 561.13093720853794 -155.34941053695729 0 -155.34941053695729 914.11286394105991 0 0 0 0 371.42296014686872 -447.57443402822173 0 -447.57443402822173 -281.84282831969904 0 0 0 0 155.40922528337978 -595.6819012929227 0 -595.6819012929227 318.88840564408201 0 0 0 0 434.40847637518891 -443.96523394912947 0 -443.96523394912947 308.24185420388676 0 0 0 0 232.81345950246759 -485.06505577729331 0 -485.06505577729331 470.81437863427709 0 0 0 0 327.00330974929238 -1008.2032959149051 0 -1008.2032959149051 45.775883364323818 0 0 0 0 169.66465014147252 -409.03152348569711 0 -409.03152348569711 193.62579665997328 0 0 0 0 241.77265295197867 -570.58184760544736 0 -570.58184760544736 188.80449082578707 0 0 0 0 198.9379021482855 -632.65905325709537 0 -632.65905325709537 201.31835602558567 0 0 0 0 224.71403293681215 -580.20658375877611 0 -580.20658375877611 259.99227568715651 0 0 0 0 228.08485840855792 -539.5279803938929 0 -539.5279803938929 192.16208070072389 0 0 0 0 279.07183493666525 -549.29464307652415 0 -549.29464307652415 1.2833096724025381 0 0 0 0 324.10593278433953 -441.87109378348032 0 -441.87109378348032 235.41933217118094 0 0 0 0 301.80271393124713 -453.52305286962292 0 -453.52305286962292 342.99420472844849 0 0 0 0 228.53474014329549 -557.62726737587946 0 -557.62726737587946 197.72039825794127 0 0 0 0 325.65234913860331 -494.69379993791881 0 -494.69379993791881 288.29613288741893 0 0 0 0 414.02774548518937 -513.79360208188336 0 -513.79360208188336 -9.2443826891430945 0 0 0 0 608.82089837205649 -310.42673849542541 0 -310.42673849542541 201.192692438206 0 0 0 0 395.89848703191092 -451.82847624048372 0 -451.82847624048372 -9.4867465577850822 0 0 0 0 389.77088027189166 -504.33712313575779 0 -504.33712313575779 -124.80444150806943 0 0 0 0 271.85463457874357 -416.71156472176517 0 -416.71156472176517 -117.48034863859721 0 0 0 0 340.46520408889046 -340.74717760097519 0 -340.74717760097519 -290.32321806778782 0 0 0 0 340.67043721380469 -394.39270250550362 0 -394.39270250550362 -165.61101424716952 0 0 0 0 326.08743347375093 -340.72864718399433 0 -340.72864718399433 -278.3900203256635 0 0 0 0 316.73706800233049 -520.59400231064501 0 -520.59400231064501 -232.31400492464309 0 0 0 0 316.01601930877587 -447.96338649320842 0 -447.96338649320842 1.358521957819903 0 0 0 0 262.97388835646416 -516.5113611343113 0 -516.5113611343113 -59.461119093001344 0 0 0 0 264.19074258541877 -590.10268310751508 0 -590.10268310751508 -470.77426815688523 0 0 0 0 298.26990990556078 -397.7473837988382 0 -397.7473837988382 -418.63939536261023 0 0 0 0 342.18010073230835 -327.39754582707792 0 -327.39754582707792 -662.41423306221259 0 0 0 0 311.44683886507119 -479.48502323723005 0 -479.48502323723005 -1177.4103910952917 0 0 0 0 -0.24448108256910928 -762.27678691878828 0 -762.27678691878828 -437.98694056574823 0 0 0 0 13.782176028402318 -581.41294931504217 0 -581.41294931504217 -23.928678929754824 0 0 0 0 0.16664420086090104 -672.27495395965252 0 -672.27495395965252 266.78794249495149 0 0 0 0 187.38507340809156 -562.74650229399413 0 -562.74650229399413 -21.935026952646695 0 0 0 0 111.42041837837314 -550.39409624573454 0 -550.39409624573454 199.39373085690022 0 0 0 0 223.36817636642809 -616.17908031306069 0 -616.17908031306069 -65.572136773510238 0 0 0 0 181.65747107115021 -602.55222504238554 0 -602.55222504238554 195.66640460964459 0 0 0 0 141.491172769267 -555.63393854459628 0 -555.63393854459628 453.05288119243414 0 0 0 0 33.91508926559618 -535.62333325159489 0 -535.62333325159489 541.05703304604685 0 0 0 0 280.19847708427454 -47.516627275441707 0 -47.516627275441707 -112.58017420602118 0 0 0 0 -79.83034037714242 -72.703638565984875 0 -72.703638565984875 -44.098683322983561 0 0 0 0 -62.138411442196229 -70.398953919655469 0 -70.398953919655469 -80.267392552108504 0 0 0 0 12.535189292252355 -10.437684796747732 0 -10.437684796747732 -28.936707720459665 0 0 0 0 -76.414188500577438 -42.696143006432976 0 -42.696143006432976 -47.880568594380748 0 0 0 0 -1033.3297913157585 -949.32668156261207 0 -949.32668156261207 -144.76071121839595 0 0 0 0 -1091.7207655951934 177.40899208869814 0 177.40899208869814 147.42761022640479 0 0 0 0 279.64505131058104 228.89564842534128 0 228.89564842534128 -777.83470202000899 0 0 0 0 -366.97111595463139 162.04711235387549 0 162.04711235387549 123.49241290683131 0 0 0 0 15.448717826887503 -9.349924459174872 0 -9.349924459174872 -22.286133187395706 0 0 0 0 -95.53380927759099 -64.408657314877928 0 -64.408657314877928 -18.348950646850426 0 0 0 0 -66.983881873435166 -36.809040354381068 0 -36.809040354381068 -1.6132895808732428 0 0 0 0 -55.520798167992325 -40.278428039986466 0 -40.278428039986466 -58.774286087450491 0 0 0 0 -5.8945792073864141 -25.223749446784495 0 -25.223749446784495 -20.684950950488201 0 0 0 0 4.9589739261791692 -28.209068726988335 0 -28.209068726988335 -22.687680349175935 0 0 0 0 14.948839066003529 -4.9053579105991503 0 -4.9053579105991503 8.5956602531296085 0 0 0 0 11.886138458059577 -27.331928920164501 0 -27.331928920164501 -25.040271238540299 0 0 0 0 2.5684163093458992 -3.1455006155663909 0 -3.1455006155663909 1.5424373030310079 0 0 0 0 -50.144495807115163 -58.911200851489411 0 -58.911200851489411 -40.388038640860032 0 0 0 0 -38.587458313806565 -35.325459709592906 0 -35.325459709592906 -50.323788227222394 0 0 0 0 -59.449197502770403 -53.709229297939601 0 -53.709229297939601 -37.615130548281741 0 0 0 0 -59.437596666575402 -62.893618623896984 0 -62.893618623896984 -88.453942094529339 0 0 0 0 -73.086980141597451 -63.098307299092994 0 -63.098307299092994 -44.042556164473353 0 0 0 0 -69.070064906978587 -74.382988460365596 0 -74.382988460365596 -22.595143315818859 0 0 0 0 -54.863250096446791 -55.815842751171658 0 -55.815842751171658 -33.196689171330945 0 0 0 0 122.1012652001009 8.0804684176764567 0 8.0804684176764567 -34.40339958891127 0 0 0 0 1.6401219550115727 -1.6371531841623295 0 -1.6371531841623295 -0.31349257275256548 0 0 0 0 -92.062909398973716 -95.501607611080544 0 -95.501607611080544 -28.129169364401605 0 0 0 0 -27.175710254280673 -30.566060070180193 0 -30.566060070180193 -24.218149681897131 0 0 0 0 119.91755472460318 -61.941670746829004 0 -61.941670746829004 -18.534082998554368 0 0 0 0 -41.36409231966536 -85.372828262370604 0 -85.372828262370604 -29.94517451991851 0 0 0 0 87.009637507988373 -27.931249256216688 0 -27.931249256216688 -49.21971831592964 0 0 0 0 -37.153413113515853 -47.291034657311684 0 -47.291034657311684 -12.195758947433205 0 0 0 0 -7.6915224070617967 -18.994484246429238 0 -18.994484246429238 22.304138140049929 0 0 0 0 -81.358191290637478 -62.100298747063789 0 -62.100298747063789 5.9972136349084053 0 0 0 0 -151.8400103440872 -213.18188182159975 0 -213.18188182159975 -104.96396417696087 0 0 0 0 -11.132259403993523 -30.992817551483256 0 -30.992817551483256 -50.008390448804633 0 0 0 0 70.090090561516263 -136.76116201616242 0 -136.76116201616242 -20.906306692362705 0 0 0 0 -102.87209113667268 -112.84462439901108 0 -112.84462439901108 148.55564532248809 0 0 0 0 -20.582865308606415 -23.357316459958383 0 -23.357316459958383 -14.463744542212225 0 0 0 0 2.7635075646048008 -12.878514792635897 0 -12.878514792635897 -5.0539788409133308 0 0 0 0 -10.709543266024433 -15.98502865369521 0 -15.98502865369521 18.48752756953526 0 0 0 0 -221.98742524770205 -138.06919451146314 0 -138.06919451146314 30.153736108486555 0 0 0 0 -31.157072029731353 -19.666146349103656 0 -19.666146349103656 37.298278586284141 0 0 0 0 376.94843614695856 185.60695118775402 0 185.60695118775402 -96.124502698046854 0 0 0 0 -3.9374183365359698 -12.494870556252522 0 -12.494870556252522 -9.122380558713985 0 0 0 0 6.366841760580531 3.7299506302245646 0 3.7299506302245646 -3.354828671637847 0 0 0 0 -131.66282872797456 -83.604248106872546 0 -83.604248106872546 -33.08111070637824 0 0 0 0 5.7757649888607929 -27.794583920725174 0 -27.794583920725174 -22.938810063888354 0 0 0 0 -1858.6465827767242 -393.82740336650568 0 -393.82740336650568 339.32806380821421 0 0 0 0 -929.71979887742759 -153.01766278491277 0 -153.01766278491277 53.393669696713914 0 0 0 0 147.49572424640064 -582.77428954071729 0 -582.77428954071729 -299.82597619845183 0 0 0 0 -923.97949280207104 -366.8889286505364 0 -366.8889286505364 30.315898102038773 0 0 0 0 -162.38834188347391 -208.29163150690511 0 -208.29163150690511 -153.19492807642382 0 0 0 0 -410.36348385103338 -392.21629671552 0 -392.21629671552 -5.5067372878547758 0 0 0 0 -503.90439912634611 -246.70356496291788 0 -246.70356496291788 -63.316729852735079 0 0 0 0 -832.41037296201102 -149.36114617262501 0 -149.36114617262501 -27.627463825672748 0 0 0 0 -927.78162916147994 -195.98234316725939 0 -195.98234316725939 62.683125396943069 0 0 0 0 -770.32923728883907 -12.22014384533577 0 -12.22014384533577 -40.271340084567782 0 0 0 0 -640.74444078427041 -154.99538396181742 0 -154.99538396181742 30.478596600823948 0 0 0 0 -167.95617304810003 -139.89157107590108 0 -139.89157107590108 -119.74960092407127 0 0 0 0 -705.57955885571937 -7.0340189060516423 0 -7.0340189060516423 -34.972155877549085 0 0 0 0 -826.06518830317509 -70.432782424770267 0 -70.432782424770267 3.4549012165371096 0 0 0 0 -479.96198195227771 -170.70518435770646 0 -170.70518435770646 -57.76316047002183 0 0 0 0 -397.86531142096646 -4.3579909104555554 0 -4.3579909104555554 13.835460064918152 0 0 0 0 -677.94600822128996 -93.356311968047521 0 -93.356311968047521 93.927204414183507 0 0 0 0 -287.7787242804261 -93.7402611770558 0 -93.7402611770558 -8.8895045752833539 0 0 0 0 -532.90166679587128 17.926254706690088 0 17.926254706690088 -79.60997462447267 0 0 0 0 -876.87558465046459 285.21174664328282 0 285.21174664328282 -280.62545984437747 0 0 0 0 -809.55192771559814 -18.201690060330293 0 -18.201690060330293 0.97639754290867131 0 0 0 0 -590.11072986260115 268.49180930791772 0 268.49180930791772 117.20452498976374 0 0 0 0 -662.47311271948274 83.267759841663064 0 83.267759841663064 -813.57645156478611 0 0 0 0 2.113071522059272 -6.5901247117707271 0 -6.5901247117707271 -3.0289821178893597 0 0 0 0 -7.2816858981455539 -18.686699312609665 0 -18.686699312609665 -8.095167049672364 0 0 0 0 -8.1816326758380455 -25.815064270677794 0 -25.815064270677794 14.109964193270571 0 0 0 0 -16.002927635583262 -14.798777484296032 0 -14.798777484296032 3.7348993173573746 0 0 0 0 -45.710215774430253 -20.580242465443007 0 -20.580242465443007 122.76363214290905 0 0 0 0 -14.95093934074248 37.706141857119292 0 37.706141857119292 24.042921415271849 0 0 0 0 -16.968849540360679 -12.832484398331871 0 -12.832484398331871 11.393970799781528 0 0 0 0 -11.139901775073668 -58.337617221297478 0 -58.337617221297478 -102.60013742358569 0 0 0 0 -1781.1350313121293 317.72540259825109 0 317.72540259825109 181.30168555029377 0 0 0 0 -5.7546246063948416 -10.807431270472371 0 -10.807431270472371 -9.401282533844622 0 0 0 0 48.789207065030496 -117.43158912887702 0 -117.43158912887702 -184.53166967751167 0 0 0 0 -991.61572947731474 407.68902542424621 0 407.68902542424621 -315.01740598489414 0 0 0 0 -1393.3964848116739 178.74920951653257 0 178.74920951653257 -13.214293049022672 0 0 0 0 -11.540877424507926 -8.8313383852510015 0 -8.8313383852510015 49.421951233085565 0 0 0 0 -18.454209897206852 -19.598643438069448 0 -19.598643438069448 -0.10855634060132857 0 0 0 0 -14.037556951843726 -24.726935018154109 0 -24.726935018154109 4.8559696222873754 0 0 0 0 1.4060467037234048 -17.5121959882581 0 -17.5121959882581 12.45577804604909 0 0 0 0 -35.092430732463981 -35.51995210993482 0 -35.51995210993482 19.411744450691913 0 0 0 0 -5.4420169407410945 -9.0818305332976479 0 -9.0818305332976479 22.614265230570538 0 0 0 0 311.60559466972336 -191.84161105526618 0 -191.84161105526618 70.016396905724832 0 0 0 0 1.4399324256201282 -1.3919514241247128 0 -1.3919514241247128 8.1875141904190514 0 0 0 0 -108.02330707257715 42.14011083567857 0 42.14011083567857 400.74340955650769 0 0 0 0 21.640515832549909 -25.241248445497945 0 -25.241248445497945 -32.829450668661593 0 0 0 0 22.49883956271151 -46.732730769277623 0 -46.732730769277623 21.594809107027231 0 0 0 0 -54.148372769639536 -267.06380567070937 0 -267.06380567070937 195.64725166816061 0 0 0 0 -112.39734876187867 -353.30748617652898 0 -353.30748617652898 86.534117257609978 0 0 0 0 185.86912068043603 -610.88026560358776 0 -610.88026560358776 609.13747923337269 0 0 0 0 844.17839417895811 -538.2934011088646 0 -538.2934011088646 58.058693765568023 0 0 0 0 -1007.5259380595089 -640.97390913384879 0 -640.97390913384879 -159.05112316576378 0 0 0 0 -181.02669582134695 -352.44038466016718 0 -352.44038466016718 -372.86775976349236 0 0 0 0 -54.359448910854553 -64.767574133116796 0 -64.767574133116796 -80.761949071253184 0 0 0 0 -118.66898129101173 -250.22058711917271 0 -250.22058711917271 -197.22144385690808 0 0 0 0 -120.36280890401395 -130.03893533394512 0 -130.03893533394512 240.64093125201907 0 0 0 0 -387.9410153692952 -301.52592784429362 0 -301.52592784429362 76.08327090342209 0 0 0 0 -167.82380444605587 -285.03963460467094 0 -285.03963460467094 78.430567944204086 0 0 0 0 -250.86223823373439 -359.04438098405808 0 -359.04438098405808 55.665629363013977 0 0 0 0 -329.64553954624716 -258.28443551365308 0 -258.28443551365308 25.160727670936467 0 0 0 0 -455.48689436293716 -263.68571271092151 0 -263.68571271092151 64.824437627263251 0 0 0 0 -396.85940590800237 -245.0406761977124 0 -245.0406761977124 33.975492785495589 0 0 0 0 -410.90773539418296 -292.57650947156071 0 -292.57650947156071 58.195473310017405 0 0 0 0 -400.56255182246969 -244.4172847761929 0 -244.4172847761929 28.245582309416932 0 0 0 0 -242.27472379162691 -321.91245853418036 0 -321.91245853418036 -37.617290726797364 0 0 0 0 -34.745217942872841 -393.2857214372907 0 -393.2857214372907 -179.54363423212999 0 0 0 0 -224.41022570378118 -399.63114732838312 0 -399.63114732838312 69.481930051228119 0 0 0 0 -104.56290142999205 -250.64948915301738 0 -250.64948915301738 -402.83615317458316 0 0 0 0 -67.366620496810356 -337.57709515662646 0 -337.57709515662646 -205.17477098032759 0 0 0 0 14.242043498285483 -14.94440079963988 0 -14.94440079963988 -17.331308135092854 0 0 0 0 -206.86217883992504 -248.15090559419787 0 -248.15090559419787 -94.503133034755592 0 0 0 0 365.09056837899698 -402.30360009403194 0 -402.30360009403194 37.194778711391336 0 0 0 0 344.96642334561329 -576.05654066761781 0 -576.05654066761781 61.590816936928604 0 0 0 0 -51.187369949615459 -312.85982052777786 0 -312.85982052777786 -103.02968599120868 0 0 0 0 201.30144976125302 -179.65851970360382 0 -179.65851970360382 -1090.0771290292978 0 0 0 0 483.01630688097066 -636.75614782788398 0 -636.75614782788398 -430.31619461620721 0 0 0 0 527.85320383222279 -607.2264127649014 0 -607.2264127649014 -145.05079761253364 0 0 0 0 479.74748100183206 -666.46711243267782 0 -666.46711243267782 -1.8260858226276468 0 0 0 0 535.11179015412199 -538.12251972898866 0 -538.12251972898866 88.481480377689877 0 0 0 0 705.16136053016453 -675.893627540956 0 -675.893627540956 183.53658161006388 0 0 0 0 2.1419533153477914 -1.7377222032614057 0 -1.7377222032614057 0.15561326780000506 0 0 0 0 324.72748310690804 -688.55716453201603 0 -688.55716453201603 1173.1176421441342 0 0 0 0 572.66677970151795 -530.85765642404112 0 -530.85765642404112 262.4762008438629 0 0 0 0 586.30435573278373 -463.18123769340127 0 -463.18123769340127 159.31927091896796 0 0 0 0 550.4167040346947 -487.39634232686149 0 -487.39634232686149 235.80123409175076 0 0 0 0 536.41624712431076 -527.54911876819824 0 -527.54911876819824 120.65396537246488 0 0 0 0 -10.551782395301416 -18.551881675214645 0 -18.551881675214645 103.00113004690502 0 0 0 0 -66.976371494922205 -156.99196343858057 0 -156.99196343858057 133.04933680141403 0 0 0 0 -2.5553279683226719 -102.54348910269255 0 -102.54348910269255 162.6915416827469 0 0 0 0 -1.6124833171266957 -5.2250506305257716 0 -5.2250506305257716 -5.0605942591171384 0 0 0 0 4.3549538007349611 -9.0613924810772914 0 -9.0613924810772914 -4.2235392361833197 0 0 0 0 17.646027245576988 -106.50994811375404 0 -106.50994811375404 279.05694698785737 0 0 0 0 124.55318558849831 -262.90885660387721 0 -262.90885660387721 388.9750328884038 0 0 0 0 89.340492876552162 -264.85857920206399 0 -264.85857920206399 286.25281886819721 0 0 0 0 182.97306801409286 -212.01268020846328 0 -212.01268020846328 201.45188691763906 0 0 0 0 208.15577933911118 -283.10240414709187 0 -283.10240414709187 226.75256200821605 0 0 0 0 273.72531951354176 -464.58459597701585 0 -464.58459597701585 460.34214929610062 0 0 0 0 396.6623598180895 -423.22706189721316 0 -423.22706189721316 202.52002699127479 0 0 0 0 233.03646077307349 -365.11230356498709 0 -365.11230356498709 305.78292418627461 0 0 0 0 402.98464775682078 -380.97348804855937 0 -380.97348804855937 217.3722040928842 0 0 0 0 191.59166113237825 -209.67345265152017 0 -209.67345265152017 167.36750089812995 0 0 0 0 68.192941811292258 -205.91270177140723 0 -205.91270177140723 251.68554020752708 0 0 0 0 103.57812503579771 -95.992559119096768 0 -95.992559119096768 87.629741199310956 0 0 0 0 34.262542436197691 -98.882025964829154 0 -98.882025964829154 154.82003335116224 0 0 0 0 79.0216770125935 -14.433457876516059 0 -14.433457876516059 58.482792919079657 0 0 0 0 -0.56862570329394657 -27.55216104306237 0 -27.55216104306237 66.704391322464289 0 0 0 0 -50.596184597496176 -16.321423771947593 0 -16.321423771947593 76.649343028562726 0 0 0 0 -33.407711138741433 20.51623102794747 0 20.51623102794747 44.866056096445391 0 0 0 0 -29.595022530796626 -13.813161022285968 0 -13.813161022285968 -0.79316967361628876 0 0 0 0 -33.219122297530703 -9.8547813704299188 0 -9.8547813704299188 -8.038711090797733 0 0 0 0 -16.908361725905706 9.0362880996799504 0 9.0362880996799504 8.2748872585762001 0 0 0 0 -32.666384612630594 -4.2927464642518842 0 -4.2927464642518842 4.7933748079565746 0 0 0 0 -32.992226469979698 -14.202458312645945 0 -14.202458312645945 0.62401235250647602 0 0 0 0 -42.851608278564527 28.043717055164961 0 28.043717055164961 47.474079117072506 0 0 0 0 33.471394606021931 -62.521390653520939 0 -62.521390653520939 3.6900728098189575 0 0 0 0 -63.451598806295806 -41.617982708563432 0 -41.617982708563432 -8.6332084401437896 0 0 0 0 -41.185801107584666 -15.884067655249964 0 -15.884067655249964 -14.346068174789252 0 0 0 0 -40.884558922109136 -20.38118746402688 0 -20.38118746402688 21.09821133103685 0 0 0 0 -1.2694980541087943 -7.8440445239927641 0 -7.8440445239927641 5.7775672013057857 0 0 0 0 -25.395155233629339 -6.6148848357515817 0 -6.6148848357515817 -11.938207878305548 0 0 0 0 -49.342716891904274 -28.39629287324351 0 -28.39629287324351 9.8952614381632884 0 0 0 0 -59.215548673384546 -31.120404689634597 0 -31.120404689634597 12.896807426033774 0 0 0 0 -18.347459429205628 -18.975842051266227 0 -18.975842051266227 -27.81863569685629 0 0 0 0 -39.695380384326199 -44.434610982779304 0 -44.434610982779304 -52.020765578279679 0 0 0 0 -20.388140638417099 -42.109794577743742 0 -42.109794577743742 57.637331088059 0 0 0 0 47.781768649874721 -45.388156623121176 0 -45.388156623121176 -9.0025349878033012 0 0 0 0 1.7974246483427123 -33.730875127102991 0 -33.730875127102991 -11.385817865389981 0 0 0 0 -43.96705769737855 -50.88449550623136 0 -50.88449550623136 5.3015107531209651 0 0 0 0 3.5461049759602616 -4.0996071363263837 0 -4.0996071363263837 4.2361543795501859 0 0 0 0 -24.341620015497028 -22.410363667677302 0 -22.410363667677302 -10.691447264969611 0 0 0 0 -30.610688710905379 -11.555211911378137 0 -11.555211911378137 22.857652643375332 0 0 0 0 -43.800987787613849 -4.4430955388925213 0 -4.4430955388925213 23.559802159437822 0 0 0 0 -2.7645013284790032 -7.7840979802965933 0 -7.7840979802965933 -3.5079445320033642 0 0 0 0 -8.4004849586599448 -14.004779684932146 0 -14.004779684932146 -23.665389154339209 0 0 0 0 8.5837212737533264 -86.170522746444476 0 -86.170522746444476 19.526508181928307 0 0 0 0 -13.470856301028107 0.3818152761705278 0 0.3818152761705278 29.515549609988739 0 0 0 0 -19.280841421481455 -169.03868427887573 0 -169.03868427887573 -412.0779117823331 0 0 0 0 64.978710898722056 -77.79497019563496 0 -77.79497019563496 -340.39415129102736 0 0 0 0 -0.89217641063950737 -2.3611133601016014 0 -2.3611133601016014 11.561854821575585 0 0 0 0 -112.72275429365254 -50.337644674906187 0 -50.337644674906187 29.250911766866921 0 0 0 0 1.9664299585579812 -15.085703836582233 0 -15.085703836582233 16.765544446069157 0 0 0 0 -9.3104795870021917 -13.746032962233585 0 -13.746032962233585 -0.59828823296902556 0 0 0 0 -10.196562360571448 -15.576056317683758 0 -15.576056317683758 36.858775830449119 0 0 0 0 -0.70274228317130394 -19.374485212192354 0 -19.374485212192354 2.023831051365363 0 0 0 0 -46.785308986058226 -12.697088921682735 0 -12.697088921682735 28.721732222489663 0 0 0 0 -20.810642395896139 -7.9088152559734226 0 -7.9088152559734226 24.80272897073155 0 0 0 0 -10.679539577166423 0.36823655837768854 0 0.36823655837768854 9.5050643260249501 0 0 0 0 -129.27918594600123 -52.192530777770116 0 -52.192530777770116 214.40653797202685 0 0 0 0 -172.05969107830606 113.98214545884912 0 113.98214545884912 -186.65774953516302 0 0 0 0 -55.074197136200382 -5.6779733720359218 0 -5.6779733720359218 32.836106471133917 0 0 0 0 -23.081485863534908 5.5598603426205955 0 5.5598603426205955 34.085148039073829 0 0 0 0 -74.669595222585485 4.0158281453586824 0 4.0158281453586824 38.845006916168131 0 0 0 0 -26.949105909515126 -7.238085344061524 0 -7.238085344061524 5.043761852334967 0 0 0 0 -50.850427069912257 -17.110612580854649 0 -17.110612580854649 27.937616967469239 0 0 0 0 -129.9689912761969 -6.7507463058245776 0 -6.7507463058245776 55.410429659526926 0 0 0 0 -78.124682712059439 25.715246104266953 0 25.715246104266953 29.483983368554618 0 0 0 0 -315.88634054599152 -301.5747726500158 0 -301.5747726500158 310.07770676349537 0 0 0 0 -51.995882107741636 -434.00893763124077 0 -434.00893763124077 72.161091638870857 0 0 0 0 6.1270177444238598 -19.045109443614862 0 -19.045109443614862 34.267071212893178 0 0 0 0 -1.9218967288054785 -7.1639099613033537 0 -7.1639099613033537 -5.7153461425841208 0 0 0 0 247.05084092117613 -178.87861442572739 0 -178.87861442572739 79.494787202464977 0 0 0 0 2.307927314652261 82.047435280971968 0 82.047435280971968 -100.39931872916532 0 0 0 0 -616.52415654500692 -212.21550361464006 0 -212.21550361464006 -35.04634330981844 0 0 0 0 -172.02562747272532 -67.731689037638262 0 -67.731689037638262 120.83357024136785 0 0 0 0 5.6428668261086372 -16.836928542360624 0 -16.836928542360624 38.15712068121563 0 0 0 0 -16.225737012311583 -20.180902884327224 0 -20.180902884327224 13.483069690998491 0 0 0 0 -14.661535347710014 -319.9619857586722 0 -319.9619857586722 -318.44960459587128 0 0 0 0 -31.729730677633597 -96.264803941323351 0 -96.264803941323351 -213.62803587376766 0 0 0 0 265.14784289872478 -85.335086553857764 0 -85.335086553857764 -278.04324824488776 0 0 0 0 179.61158560968033 -186.71189698483158 0 -186.71189698483158 -325.5266254668598 0 0 0 0 149.5798937471227 -68.802637407950215 0 -68.802637407950215 -202.89755602034347 0 0 0 0 3.7706372515282851 -13.074146959852207 0 -13.074146959852207 32.415834964530788 0 0 0 0 -917.74948449598742 -458.98539591927056 0 -458.98539591927056 457.03401465198294 0 0 0 0 -419.27849999645332 30.428130405780394 0 30.428130405780394 -49.297812705060096 0 0 0 0 -157.95253470645548 -625.94644189490191 0 -625.94644189490191 1568.5819939028206 0 0 0 0 639.26923395222184 -546.20177664138919 0 -546.20177664138919 329.84448316330963 0 0 0 0 464.11109031679007 -80.704783076948843 0 -80.704783076948843 -20.657140965026883 0 0 0 0 49.891543030746107 -205.6060874073105 0 -205.6060874073105 150.00363684263903 0 0 0 0 236.09602571431606 -197.60370366910774 0 -197.60370366910774 200.21295858511803 0 0 0 0 268.65139599806753 -175.12967932318497 0 -175.12967932318497 69.440448152079625 0 0 0 0 89.087614164724073 9.5065744518578867 0 9.5065744518578867 12.108157651931833 0 0 0 0 1.2143793019313307 -64.693928675429561 0 -64.693928675429561 119.06297668695879 0 0 0 0 7.8348649971812847 -47.368174530936813 0 -47.368174530936813 31.670424639822158 0 0 0 0 98.664240185709787 -32.350108806465869 0 -32.350108806465869 93.604619622845348 0 0 0 0 213.07393757029058 -183.68586786863852 0 -183.68586786863852 124.5225658587442 0 0 0 0 193.40975617696677 -184.64082313782001 0 -184.64082313782001 163.46364215782887 0 0 0 0 324.33976916801475 -317.31171556607842 0 -317.31171556607842 209.78440132497508 0 0 0 0 429.58887567716738 -347.92857920347706 0 -347.92857920347706 189.00755208892588 0 0 0 0 302.26139476055323 -355.76498796084616 0 -355.76498796084616 231.27059261424438 0 0 0 0 521.79721520063322 -420.46727752480365 0 -420.46727752480365 210.7817692671947 0 0 0 0 397.10935541898289 -290.62450121328766 0 -290.62450121328766 222.54743768371918 0 0 0 0 389.4469456072693 -311.8135892612263 0 -311.8135892612263 170.4665623208333 0 0 0 0 532.22737181212869 -451.93949182716824 0 -451.93949182716824 142.42532478435442 0 0 0 0 574.48097723100727 -483.85082685679845 0 -483.85082685679845 156.3509689307939 0 0 0 0 615.54228318434616 -447.26734862777448 0 -447.26734862777448 168.31321930103059 0 0 0 0 599.85409950342728 -450.1643538061644 0 -450.1643538061644 165.24689045521882 0 0 0 0 557.82418441134359 -443.66310517228339 0 -443.66310517228339 182.67564221517932 0 0 0 0 562.17390631097805 -437.00757734557192 0 -437.00757734557192 184.87566564143708 0 0 0 0 516.36165958335187 -403.80879511752937 0 -403.80879511752937 298.50408201532991 0 0 0 0 606.33403265856941 -473.4200296745139 0 -473.4200296745139 233.06968004657392 0 0 0 0 634.85526598101569 -426.49699876440172 0 -426.49699876440172 185.92234817634017 0 0 0 0 673.22442189636195 -528.66937906637213 0 -528.66937906637213 239.22038806728597 0 0 0 0 654.61140115740272 -414.2776504951762 0 -414.2776504951762 274.53936876453008 0 0 0 0 523.4393860686032 -519.54385800706314 0 -519.54385800706314 239.55701832392151 0 0 0 0 910.36128236843069 -388.43572877246152 0 -388.43572877246152 420.3326453531381 0 0 0 0 796.04472362171418 -771.56872550286221 0 -771.56872550286221 699.24374632899708 0 0 0 0 657.63524016302381 -362.5021314093035 0 -362.5021314093035 310.43277446096545 0 0 0 0 617.99254196517722 -477.50987050760887 0 -477.50987050760887 395.1616422201223 0 0 0 0 594.85634406526151 -322.15880331700464 0 -322.15880331700464 763.8892111785317 0 0 0 0 523.67853549328356 -493.92860250147896 0 -493.92860250147896 312.59301991038865 0 0 0 0 486.56178881388041 -300.9919454510291 0 -300.9919454510291 79.489521606623384 0 0 0 0 499.48385245635291 -486.91084318487083 0 -486.91084318487083 485.72147990265148 0 0 0 0 481.77248725753998 -446.05518386253152 0 -446.05518386253152 452.99432372900264 0 0 0 0 524.12378026149599 -615.82390245216448 0 -615.82390245216448 560.17275746345422 0 0 0 0 472.7186527265294 -529.04092644497905 0 -529.04092644497905 518.62553927302724 0 0 0 0 702.68088031463412 -556.09079218397346 0 -556.09079218397346 508.71101606063439 0 0 0 0 459.67627846381583 -667.34789873993122 0 -667.34789873993122 523.81904829180712 0 0 0 0 550.04633337387531 -601.75532133742354 0 -601.75532133742354 471.28901107496495 0 0 0 0 334.32246278988168 -597.01917150199188 0 -597.01917150199188 534.64192012824606 0 0 0 0 744.21147685628966 -360.96860804109383 0 -360.96860804109383 638.92493066357747 0 0 0 0 556.75552816312302 -629.38024192317243 0 -629.38024192317243 581.19056432188518 0 0 0 0 781.36422505977862 -597.95410487903791 0 -597.95410487903791 203.50967691791266 0 0 0 0 401.75619301682309 -636.49494030049664 0 -636.49494030049664 811.95908716766121 0 0 0 0 462.05277391689742 -431.00657206411961 0 -431.00657206411961 337.45090847056053 0 0 0 0 2.259433876395633 -15.038075127165939 0 -15.038075127165939 21.540965969903937 0 0 0 0 -9.258779620968923 -4.7373999924530601 0 -4.7373999924530601 3.82659394738792 0 0 0 0 152.39569904776727 -122.15166220359879 0 -122.15166220359879 127.8294917831663 0 0 0 0 -2.8151058749863296 -23.896545484817125 0 -23.896545484817125 -0.34410934261541115 0 0 0 0 0.044616560990476728 -18.140287214719308 0 -18.140287214719308 -4.1475022902920919 0 0 0 0 -1.6651836276068934 -26.206378448457144 0 -26.206378448457144 -16.313510995727484 0 0 0 0 -2.464171765393985 -24.904383475613031 0 -24.904383475613031 -3.7812234870598331 0 0 0 0 -0.19746154128336002 -2.7043015595868454 0 -2.7043015595868454 -2.3137898694381107 0 0 0 0 76.864276110303763 -17.252092092347084 0 -17.252092092347084 -19.550479029846656 0 0 0 0 -8.2664306985951441 -15.125796896386106 0 -15.125796896386106 -15.001349383064188 0 0 0 0 0.40173849267375772 -26.623671744298917 0 -26.623671744298917 -3.9886408348029363 0 0 0 0 -1.1614458873154945 -28.44890015875535 0 -28.44890015875535 -1.2269663468400722 0 0 0 0 -2.6990493007397163 -27.301027843719112 0 -27.301027843719112 0.1085275132481911 0 0 0 0 1073.031822082703 -637.11355040879153 0 -637.11355040879153 852.18344180547865 0 0 0 0 179.58752841238311 -467.57390399519431 0 -467.57390399519431 511.77280298127516 0 0 0 0 -88.481870012823492 -45.465364075895195 0 -45.465364075895195 177.96125038926039 0 0 0 0 620.95242267778667 -570.09304372931365 0 -570.09304372931365 362.5874126401377 0 0 0 0 55.372157012498064 -145.13982783626307 0 -145.13982783626307 140.08254698098426 0 0 0 0 4.1396085389933432 -30.128668551244573 0 -30.128668551244573 -1.6406056138239364 0 0 0 0 -9.5551907547301909 -14.086445727985197 0 -14.086445727985197 -19.490405312261029 0 0 0 0 1478.7274032846271 -396.33395906028818 0 -396.33395906028818 217.37126543354316 0 0 0 0 -163.74196860035954 59.641897827060347 0 59.641897827060347 137.56956971852196 0 0 0 0 0.51624530545255709 -1.2170520228675628 0 -1.2170520228675628 3.9824707810558877 0 0 0 0 50.784671768771659 29.673986774378136 0 29.673986774378136 -57.496716727018793 0 0 0 0 1873.3795738912522 -826.67723878999277 0 -826.67723878999277 206.6810359121082 0 0 0 0 1157.8810741607449 -630.67560685163062 0 -630.67560685163062 448.2324665752385 0 0 0 0 1042.7413967883667 -361.7648064485154 0 -361.7648064485154 16.047568580972438 0 0 0 0 1018.2652890266704 -189.97972365025146 0 -189.97972365025146 261.49512606946519 0 0 0 0 1043.3774881266145 0.65098500787007652 0 0.65098500787007652 51.987216222741154 0 0 0 0 582.15727238701947 -618.15096135642943 0 -618.15096135642943 199.7322628830716 0 0 0 0 440.62377358067533 -240.33051544414502 0 -240.33051544414502 -368.03387651975936 0 0 0 0 -759.38130549923062 28.735880524746108 0 28.735880524746108 580.70947455086934 0 0 0 0 -1234.5983677764743 -836.43040779155126 0 -836.43040779155126 423.8265868577837 0 0 0 0 3.4174847828617203 -16.526451336064568 0 -16.526451336064568 43.597699762978706 0 0 0 0 -642.24646262876922 -30.937370056378313 0 -30.937370056378313 264.81646298419946 0 0 0 0 625.54592316437265 -747.60176104907532 0 -747.60176104907532 120.47319538530246 0 0 0 0 -525.26955166122389 -87.482336652502681 0 -87.482336652502681 1472.9547075424689 0 0 0 0 -603.30304956037799 284.66763244551657 0 284.66763244551657 -120.03299745024424 0 0 0 0 2.0217473384882574 -7.4279463382099706 0 -7.4279463382099706 20.304295735788106 0 0 0 0 -1018.1129620046941 280.4577630314684 0 280.4577630314684 902.22530094847571 0 0 0 0 -561.72233574238635 412.06504261837608 0 412.06504261837608 943.48498716637914 0 0 0 0 1080.0527289856 -613.69701549896217 0 -613.69701549896217 299.75652542786975 0 0 0 0 1.6385898731323607 -4.4714406095531842 0 -4.4714406095531842 13.834500345334519 0 0 0 0 586.71687875691714 -481.49942653439666 0 -481.49942653439666 1112.1708034844523 0 0 0 0 945.68535532353053 -67.884775327761872 0 -67.884775327761872 763.85911934376782 0 0 0 0 -118.20681614042405 -233.35379258353169 0 -233.35379258353169 -298.20030505501813 0 0 0 0 -92.08927669156401 19.349907537762192 0 19.349907537762192 61.710814221867622 0 0 0 0 -1.0707933215891217 -2.6475773226839792 0 -2.6475773226839792 -8.6137396470674261 0 0 0 0 -439.11052901080984 -294.55346061059208 0 -294.55346061059208 -218.31151158141438 0 0 0 0 -53.538694724091329 458.0135585690582 0 458.0135585690582 859.37381271291815 0 0 0 0 -148.54522967773664 -561.01018683936491 0 -561.01018683936491 -786.95408424185734 0 0 0 0 0.48175156207798864 -106.55173227991691 0 -106.55173227991691 -518.39992302598694 0 0 0 0 39.538562666581129 -209.44589351479226 0 -209.44589351479226 -302.57022302538826 0 0 0 0 429.75042144230247 115.87304399232016 0 115.87304399232016 -897.09735767576649 0 0 0 0 155.91979702089156 326.33027860041102 0 326.33027860041102 289.91596432994265 0 0 0 0 114.12119667619845 204.17862995772703 0 204.17862995772703 -853.79182747765208 0 0 0 0 -0.26640360922101536 1.9518824045680958 0 1.9518824045680958 439.03276540667503 0 0 0 0 -2.0746758997350412 -3.3382447439748901 0 -3.3382447439748901 -5.883907058772607 0 0 0 0 137.72483990671935 43.647420685642373 0 43.647420685642373 -161.95519845801027 0 0 0 0 271.90980126894283 -73.027970091327916 0 -73.027970091327916 -144.81132693486143 0 0 0 0 263.09955805096251 8.8769433190136624 0 8.8769433190136624 -545.46391546310224 0 0 0 0 211.0687407675432 -96.814546901920039 0 -96.814546901920039 -148.51422434689448 0 0 0 0 -2.7945617562347422 -6.6462717102422886 0 -6.6462717102422886 -12.045312703815092 0 0 0 0 298.74260911910096 -206.64533688928532 0 -206.64533688928532 3.9895065247910679 0 0 0 0 -234.66731543035712 -897.9669018316381 0 -897.9669018316381 -1368.062989736598 0 0 0 0 127.67728086183342 -105.13458151218583 0 -105.13458151218583 85.469774540018989 0 0 0 0 147.10450197180035 -129.75166757642 0 -129.75166757642 -16.173270261800099 0 0 0 0 53.595185626480088 -107.38198569839005 0 -107.38198569839005 82.568201710033463 0 0 0 0 119.64516562196513 -129.35560359666852 0 -129.35560359666852 -15.527048561652919 0 0 0 0 273.57273435501702 -187.906519565915 0 -187.906519565915 -147.79222879641748 0 0 0 0 208.26938951781631 -90.570952152754217 0 -90.570952152754217 -115.89599011038808 0 0 0 0 278.68671811459353 -135.15442324515607 0 -135.15442324515607 -385.9479285355992 0 0 0 0 224.36836354150728 -255.0201949068869 0 -255.0201949068869 -161.62941345091411 0 0 0 0 228.58056269765802 -291.62216997666837 0 -291.62216997666837 -36.385885339062952 0 0 0 0 58.961094595382747 -229.80553327395683 0 -229.80553327395683 -57.574467955573709 0 0 0 0 116.73385705813416 -179.55208069678338 0 -179.55208069678338 -14.792391528968437 0 0 0 0 -31.943363909216714 -220.81642446023034 0 -220.81642446023034 8.7663421100960477 0 0 0 0 -59.147693077466101 -203.14227178596593 0 -203.14227178596593 20.076836178035592 0 0 0 0 -146.348532378237 -279.6135634898601 0 -279.6135634898601 -22.549583810108743 0 0 0 0 -91.814645406222553 -289.15958824832433 0 -289.15958824832433 -43.178179022717813 0 0 0 0 -42.701975563457381 -215.13864161578385 0 -215.13864161578385 8.1163966238309513 0 0 0 0 -51.934846899312106 -216.18855628832898 0 -216.18855628832898 48.250973403311946 0 0 0 0 39.988671512415749 -78.145351764589577 0 -78.145351764589577 190.50727477132023 0 0 0 0 267.48350234449572 -42.703329998169465 0 -42.703329998169465 13.783756657539925 0 0 0 0 126.57603646493681 109.9833833893299 0 109.9833833893299 -294.4804267312029 0 0 0 0 -63.611772747419309 -295.92461716934122 0 -295.92461716934122 53.03478156051915 0 0 0 0 -0.88537363996002227 -3.002266292134145 0 -3.002266292134145 -6.5019628746767353 0 0 0 0 6.7734013790395693 -283.45084218177908 0 -283.45084218177908 -418.64507676241919 0 0 0 0 -61.052275740679761 -366.77476791761546 0 -366.77476791761546 -175.68814876817487 0 0 0 0 -31.363336398455431 -210.17902512755609 0 -210.17902512755609 -164.06218280061239 0 0 0 0 -108.33224095257901 -321.20532309544205 0 -321.20532309544205 -118.68699614397337 0 0 0 0 -114.95410976561834 -303.97548298630136 0 -303.97548298630136 4.0219903413244538 0 0 0 0 -123.23414645490993 -178.88170036610791 0 -178.88170036610791 -73.246446077755536 0 0 0 0 -116.94623495168071 -66.350806987829856 0 -66.350806987829856 1.4267246145027457 0 0 0 0 -49.183100975395064 -156.72835155086614 0 -156.72835155086614 -79.273020109918434 0 0 0 0 19.631821417264291 36.234748673588911 0 36.234748673588911 -0.61797898197164614 0 0 0 0 1.6412423057712644 -0.89751976216692952 0 -0.89751976216692952 0.68081695770220563 0 0 0 0 -51.0784344661879 -47.832176114363392 0 -47.832176114363392 -30.642607214391319 0 0 0 0 -55.987160695658531 -56.569331827358837 0 -56.569331827358837 -45.988296328721844 0 0 0 0 -87.537095597588632 -29.253524140258378 0 -29.253524140258378 48.181853838039387 0 0 0 0 236.31376057409398 -367.20302552791372 0 -367.20302552791372 354.18721539842227 0 0 0 0 -235.56775769241358 28.327804098322304 0 28.327804098322304 0.15067663604168047 0 0 0 0 212.56824275416147 -468.79152739491656 0 -468.79152739491656 219.88157196020256 0 0 0 0 -2.1601166128844227 -1.3740865059496983 0 -1.3740865059496983 -0.6357323049572372 0 0 0 0 -359.75162987558724 -282.53983392353439 0 -282.53983392353439 43.677184300922818 0 0 0 0 -382.38109422672278 -71.630497293772351 0 -71.630497293772351 54.026171952132927 0 0 0 0 -144.61149607616971 -230.44188658866915 0 -230.44188658866915 3.8190807728715299 0 0 0 0 -113.86006752918001 -339.44686754796749 0 -339.44686754796749 -59.999822263162059 0 0 0 0 -184.77073035760441 -421.75410268197993 0 -421.75410268197993 202.47294006489392 0 0 0 0 -89.940967951690254 -253.19744504942355 0 -253.19744504942355 31.644755501954933 0 0 0 0 43.487361420979141 -342.50800808726831 0 -342.50800808726831 88.295642773191503 0 0 0 0 96.315664684070725 -525.09372095127765 0 -525.09372095127765 124.96382000945596 0 0 0 0 138.00175752500945 -414.83633648689647 0 -414.83633648689647 -19.935876263978571 0 0 0 0 43.913479878785438 -414.6933997254273 0 -414.6933997254273 23.749046833549073 0 0 0 0 93.38339950192676 -518.99503907316011 0 -518.99503907316011 162.96125773683525 0 0 0 0 225.39256693182688 -548.58676602078776 0 -548.58676602078776 131.30591536196698 0 0 0 0 44.196997995855781 -588.39024638135379 0 -588.39024638135379 211.22229094947761 0 0 0 0 146.72453174460679 -452.1250485614537 0 -452.1250485614537 249.45445726272737 0 0 0 0 227.77254837869987 -476.44909413079404 0 -476.44909413079404 231.09750817597887 0 0 0 0 226.99122821971105 -518.15215601871387 0 -518.15215601871387 250.52866393455224 0 0 0 0 239.38697607038921 -439.44717824941836 0 -439.44717824941836 332.39506800580602 0 0 0 0 348.94933474446589 -538.70319967292016 0 -538.70319967292016 232.61557871465993 0 0 0 0 349.98951856807253 -498.45015740558847 0 -498.45015740558847 166.1939280061888 0 0 0 0 277.59093242880772 -568.04195900160448 0 -568.04195900160448 163.63760470167472 0 0 0 0 459.09033489078865 -530.86372154100991 0 -530.86372154100991 168.38763335338081 0 0 0 0 487.27436884156486 -470.40118948236704 0 -470.40118948236704 175.22302387157765 0 0 0 0 355.57662426876141 -485.43173552510939 0 -485.43173552510939 289.31213438651685 0 0 0 0 401.43857901445153 -560.47015392235153 0 -560.47015392235153 236.34788181395197 0 0 0 0 458.64915314399695 -517.28820457185066 0 -517.28820457185066 294.96202105747943 0 0 0 0 466.56043977610534 -550.38278707872269 0 -550.38278707872269 428.55250945974331 0 0 0 0 508.53321636915643 -490.77368534481866 0 -490.77368534481866 426.62601551541536 0 0 0 0 378.92022639343486 -621.8008199469441 0 -621.8008199469441 696.77048097963416 0 0 0 0 217.37132416320674 -386.30972812927939 0 -386.30972812927939 420.84075310970002 0 0 0 0 297.75255342679884 -522.24537667473123 0 -522.24537667473123 444.3934061481159 0 0 0 0 190.98292601754656 -399.27280334102034 0 -399.27280334102034 433.7290335335274 0 0 0 0 34.45861623285964 -26.357297020442275 0 -26.357297020442275 2.1761549393377209 0 0 0 0 -3.153261496778839 -6.2867935351744251 0 -6.2867935351744251 -0.12709705475151623 0 0 0 0 47.51742884349369 -66.473087554881204 0 -66.473087554881204 417.26675098282283 0 0 0 0 190.03457260522919 -471.38072931542411 0 -471.38072931542411 1190.6937266258064 0 0 0 0 39.128558281947335 -209.02820984798927 0 -209.02820984798927 764.14752614180566 0 0 0 0 7.9190942843934948 -5.1619111807788087 0 -5.1619111807788087 0.94077603289001033 0 0 0 0 156.39958272259537 41.107559787042192 0 41.107559787042192 25.440310324402162 0 0 0 0 1.1885807841106271 -15.991987876558383 0 -15.991987876558383 10.983254455648421 0 0 0 0 -8.7490960246246914 -8.3614395144883851 0 -8.3614395144883851 0.26386556559283747 0 0 0 0 9.1904316814714093 -8.6914113978437371 0 -8.6914113978437371 3.5626649622274087 0 0 0 0 1.2113831821705787 -13.972308369606878 0 -13.972308369606878 9.2154819759634847 0 0 0 0 -3.5918274501054839 -13.863067696163853 0 -13.863067696163853 12.034947948446643 0 0 0 0 -0.27814639850294043 -15.11257985655584 0 -15.11257985655584 10.846136552325333 0 0 0 0 0.3134240638173651 -13.645723357185489 0 -13.645723357185489 14.164617140431801 0 0 0 0 2.1376141961809481 -16.024256352444354 0 -16.024256352444354 10.953955626418974 0 0 0 0 1.8023532256047474 -16.896874238338569 0 -16.896874238338569 15.423842226882698 0 0 0 0 1.1093122054007836 -26.628513174780892 0 -26.628513174780892 -2.4976038324410865 0 0 0 0 -0.097825095559528563 -14.98637245082864 0 -14.98637245082864 18.316900802725286 0 0 0 0 4.7828673511976376 -24.268040017030216 0 -24.268040017030216 -1.5238466490027349 0 0 0 0 1.3574054648495633 -14.4859410938748 0 -14.4859410938748 1.2087768834680634 0 0 0 0 -0.98629520540271187 -27.28403171899572 0 -27.28403171899572 4.7511236089003432 0 0 0 0 16.884003069812024 -29.008863037801348 0 -29.008863037801348 1.9450449772220963 0 0 0 0 3.7641973482277535 -25.549229421046221 0 -25.549229421046221 2.4104669605249001 0 0 0 0 -7.1052991723826153 -22.328294378250732 0 -22.328294378250732 0.68788983773832513 0 0 0 0 -6.2661234788584466 -8.8708528905795703 0 -8.8708528905795703 8.523741104065822 0 0 0 0 4.8071236196737175 -26.845027359218733 0 -26.845027359218733 14.959282284771689 0 0 0 0 -4.8897313223569654 -8.3804012023174437 0 -8.3804012023174437 25.250360017005733 0 0 0 0 6.5523047743621419 -15.182486525017151 0 -15.182486525017151 1.7223585683165359 0 0 0 0 -10.283222143159946 7.5586731990260887 0 7.5586731990260887 40.384953694244359 0 0 0 0 -6.9021725006605266 -35.563215431084245 0 -35.563215431084245 1.9903197379262565 0 0 0 0 -10.027226799540585 6.1115219320988672 0 6.1115219320988672 199.78412374011532 0 0 0 0 -19.649892015002251 -21.639485372051244 0 -21.639485372051244 8.0060030334259356 0 0 0 0 -4.3735193334729559 -1.2419154356936914 0 -1.2419154356936914 6.0116735678898223 0 0 0 0 -29.516152439010888 -39.654543151550143 0 -39.654543151550143 37.196224252863658 0 0 0 0 -37.646140010576346 -29.659160906513989 0 -29.659160906513989 4.514980202933657 0 0 0 0 -0.96447279101266759 -23.306435324600898 0 -23.306435324600898 -24.995211988984011 0 0 0 0 61.154614272760227 -105.24456844100951 0 -105.24456844100951 -10.586047329520042 0 0 0 0 -3.956543469481403 -87.089456846095345 0 -87.089456846095345 -10.48157718901146 0 0 0 0 14.946218802473595 -65.017640800190293 0 -65.017640800190293 15.279864078387618 0 0 0 0 -9.2784536691833637 -108.39702689649675 0 -108.39702689649675 64.836442564763274 0 0 0 0 -24.691702895506751 -59.444565293884807 0 -59.444565293884807 71.353287335234199 0 0 0 0 -28.750292791548418 -71.959846337245835 0 -71.959846337245835 106.04453806951824 0 0 0 0 37.355669034528546 -26.180253465878195 0 -26.180253465878195 198.73752518290894 0 0 0 0 -31.59609865717357 -57.725628462765599 0 -57.725628462765599 76.776372488318884 0 0 0 0 -36.835650856606662 -21.01078477054034 0 -21.01078477054034 77.926412626187926 0 0 0 0 -40.240154835308203 -30.050798762940758 0 -30.050798762940758 126.73083579212107 0 0 0 0 -17.784238129708683 -21.938074631878408 0 -21.938074631878408 9.5140326995242503 0 0 0 0 -14.415469284227584 -55.795926529746794 0 -55.795926529746794 13.74729730148465 0 0 0 0 -10.754348339145508 19.830282256534701 0 19.830282256534701 25.36007136603439 0 0 0 0 -20.528036933101248 -16.658464358828496 0 -16.658464358828496 -13.020463326756726 0 0 0 0 -2.8391523231694009 5.8009269133253838 0 5.8009269133253838 4.6305471193263656 0 0 0 0 -13.407417159163742 -3.5854768535791663 0 -3.5854768535791663 1.6449948468070943 0 0 0 0 -41.086986730137141 -22.166400414436794 0 -22.166400414436794 1.4762748970388202 0 0 0 0 -30.190418850805145 -6.609888665157996 0 -6.609888665157996 19.580987417844881 0 0 0 0 -45.724644797381188 4.312372573198445 0 4.312372573198445 42.661686037259642 0 0 0 0 -23.47542562893068 -1.8504769021492393 0 -1.8504769021492393 20.56661434306443 0 0 0 0 -16.341823551749258 10.013952906526356 0 10.013952906526356 9.607493485797022 0 0 0 0 1.8209166114102118 -1.6502459726834786 0 -1.6502459726834786 12.230121292653166 0 0 0 0 -4.333983490949322 -2.1476158224613755 0 -2.1476158224613755 21.404398514515378 0 0 0 0 -4.2074556162260706 -0.90445281228312524 0 -0.90445281228312524 32.396212895069766 0 0 0 0 -2.1759997542614471 -4.1984741249076691 0 -4.1984741249076691 12.582591973645492 0 0 0 0 1.425656685976719 -3.846369208111355 0 -3.846369208111355 17.775274014729803 0 0 0 0 0.20614876850595465 -1.9510088987390191 0 -1.9510088987390191 14.838532200396003 0 0 0 0 0.61984517023788044 -1.3350179530785553 0 -1.3350179530785553 1.8661071252709824 0 0 0 0 -12.258051954646362 -0.88448211332979554 0 -0.88448211332979554 4.4556557677824458 0 0 0 0 -3.970861810608767 -81.829808318438154 0 -81.829808318438154 -146.91026124305063 0 0 0 0 0.25306397070377784 -0.17655413613779558 0 -0.17655413613779558 0.11618563648922731 0 0 0 0 -24.834012064788112 29.435074953506046 0 29.435074953506046 -7.871050785688567 0 0 0 0 -21.92906588473852 2.0288959053959843 0 2.0288959053959843 -15.336571884447039 0 0 0 0 -194.73601789454551 141.78187474948572 0 141.78187474948572 -41.239351298805559 0 0 0 0 -7.6935796139550803 52.852542713803814 0 52.852542713803814 -402.00503689923789 0 0 0 0 -280.16326189104802 -15.210155950762783 0 -15.210155950762783 224.43474957277431 0 0 0 0 396.65570050010865 -226.43723484487964 0 -226.43723484487964 -626.08081172511629 0 0 0 0 -3.7380190319527173 -203.31727551498625 0 -203.31727551498625 163.33843257834451 0 0 0 0 -1.932198145014226 -12.936370258724892 0 -12.936370258724892 -36.24694429247036 0 0 0 0 174.73817618150497 -167.78745138206068 0 -167.78745138206068 -9.1019490599392157 0 0 0 0 -100.874516847005 -92.774032946857915 0 -92.774032946857915 69.634996751535496 0 0 0 0 -97.648127129826207 -56.829981786409917 0 -56.829981786409917 58.313708942179801 0 0 0 0 -102.90904749925539 18.013021511353145 0 18.013021511353145 104.56461792039772 0 0 0 0 -89.73488592247304 35.71612686255321 0 35.71612686255321 31.612075122990063 0 0 0 0 -76.952317089460848 -24.63135738724668 0 -24.63135738724668 32.715663364855573 0 0 0 0 -82.188501579890726 -34.127726898183028 0 -34.127726898183028 90.336726616302258 0 0 0 0 -54.294291940663243 -58.541113814142591 0 -58.541113814142591 55.201253351657215 0 0 0 0 -45.446434255078202 -25.618351368342701 0 -25.618351368342701 32.737939308064824 0 0 0 0 -54.522071359970141 -50.677382550529728 0 -50.677382550529728 3.8380316560651409 0 0 0 0 2.2135107801586855 13.49906804580678 0 13.49906804580678 289.55115675476009 0 0 0 0 -10.196967596115428 -66.039726906510623 0 -66.039726906510623 -42.799417215743233 0 0 0 0 -56.721715993820908 48.023421297614732 0 48.023421297614732 295.44077266025124 0 0 0 0 -1.6438027778613673 -0.45628107592761324 0 -0.45628107592761324 -0.35270474304141697 0 0 0 0 -21.057131681969622 -112.76444825293584 0 -112.76444825293584 -0.70855625733383931 0 0 0 0 -87.42324908261071 27.440732958435547 0 27.440732958435547 308.83987212194552 0 0 0 0 -15.031669302144792 -18.855021665246632 0 -18.855021665246632 4.1516452227611307 0 0 0 0 -46.960797165171243 -48.070756966961198 0 -48.070756966961198 420.12723026639287 0 0 0 0 -48.780084587808233 3.1129958883175277 0 3.1129958883175277 398.98813939683532 0 0 0 0 11.000077339645941 32.580182902664092 0 32.580182902664092 303.02675654150516 0 0 0 0 -16.591161117365118 -67.813969106180593 0 -67.813969106180593 243.47448311132393 0 0 0 0 -4.1006538026849739 -41.027940168180066 0 -41.027940168180066 297.56016324288794 0 0 0 0 -25.357205811989843 -99.440144494521519 0 -99.440144494521519 323.34665880443936 0 0 0 0 -44.038921751489397 -61.314633815833076 0 -61.314633815833076 347.93287784651329 0 0 0 0 -38.135209472471615 -56.213094697683118 0 -56.213094697683118 344.00746158527909 0 0 0 0 -16.600527563240405 -19.352207990507651 0 -19.352207990507651 4.1694734493163121 0 0 0 0 -24.897571278677788 -39.334984955654363 0 -39.334984955654363 132.19031897384775 0 0 0 0 -5.369170735735679 -38.231392381294427 0 -38.231392381294427 131.33664785719884 0 0 0 0 6.403631479741307 -57.491168257725803 0 -57.491168257725803 197.50373520936409 0 0 0 0 10.631164955033455 -6.2275471021166595 0 -6.2275471021166595 181.28440107719507 0 0 0 0 -30.245688162976876 -75.133511626438121 0 -75.133511626438121 201.4146241933031 0 0 0 0 -27.993541848554742 -65.045915925802547 0 -65.045915925802547 155.83774354233537 0 0 0 0 -25.481124991871184 -70.243143426312599 0 -70.243143426312599 146.65871705971949 0 0 0 0 -12.748604222826543 -108.84579621681223 0 -108.84579621681223 75.022244117819355 0 0 0 0 -30.350434689433314 -132.1455895939871 0 -132.1455895939871 127.41327418919172 0 0 0 0 -33.289938417803569 -108.64835831872665 0 -108.64835831872665 195.49201045752125 0 0 0 0 -37.499225077404844 -74.929860627384983 0 -74.929860627384983 172.11318760097492 0 0 0 0 -5.8469435728329699 -88.015264013738488 0 -88.015264013738488 188.87671562538162 0 0 0 0 -43.577759970226907 -174.32997314523527 0 -174.32997314523527 115.80749611678584 0 0 0 0 -8.435222526837606 -84.2658745629451 0 -84.2658745629451 308.28806398617598 0 0 0 0 -16.37247208863846 -115.84386080941476 0 -115.84386080941476 228.1258288795143 0 0 0 0 -21.072233757324284 -162.06817577794391 0 -162.06817577794391 40.599998386112929 0 0 0 0 -1.5304450763433124 -130.42713137442479 0 -130.42713137442479 31.354796084444388 0 0 0 0 70.780509587799315 18.43696885661484 0 18.43696885661484 -4.5925555238536617 0 0 0 0 52.925438512771507 -61.05891741296 0 -61.05891741296 49.431542359927562 0 0 0 0 34.80968905500049 -81.325993457193363 0 -81.325993457193363 125.40594686417171 0 0 0 0 38.444215292125591 -107.61443279029481 0 -107.61443279029481 261.64954712830513 0 0 0 0 44.947155267203925 -129.17794581647831 0 -129.17794581647831 206.55780172485902 0 0 0 0 130.97705982867046 -70.603592164319707 0 -70.603592164319707 125.87223742645801 0 0 0 0 87.570737390400609 -75.8751668684381 0 -75.8751668684381 213.00504400023783 0 0 0 0 117.01845199062518 1.5189068606478031 0 1.5189068606478031 154.09898933604563 0 0 0 0 95.639819818374235 -65.019513897586876 0 -65.019513897586876 205.99124677725194 0 0 0 0 64.805505264754174 -38.037046182009362 0 -38.037046182009362 127.61939769604214 0 0 0 0 14.679215832453337 38.461117099285502 0 38.461117099285502 73.706968347163638 0 0 0 0 23.169462363286584 2.2378675138743347 0 2.2378675138743347 165.51979470025981 0 0 0 0 68.881680549864541 -13.23737085609082 0 -13.23737085609082 142.73596228444512 0 0 0 0 384.80937929777429 -290.2502239557798 0 -290.2502239557798 -122.4285203001491 0 0 0 0 61.575422889232868 -87.277758469297623 0 -87.277758469297623 185.53441535493039 0 0 0 0 112.26528296876131 -92.967293408887599 0 -92.967293408887599 40.436271210164705 0 0 0 0 128.18778024305357 -24.829962118110416 0 -24.829962118110416 254.19674632338865 0 0 0 0 92.284969960950548 -59.895324456765593 0 -59.895324456765593 187.67271852545673 0 0 0 0 0.15897241106722504 -93.997725145527511 0 -93.997725145527511 421.20510248962819 0 0 0 0 -32.676018513331655 -85.590189428956364 0 -85.590189428956364 419.13047647522399 0 0 0 0 8.4258502215525368 -114.17573651095654 0 -114.17573651095654 350.94965164488531 0 0 0 0 9.2641722983498767 -105.65038939809801 0 -105.65038939809801 413.4156992018543 0 0 0 0 105.84539279190358 -156.37801432032575 0 -156.37801432032575 288.59279975909521 0 0 0 0 62.530108226113953 -122.03706425121345 0 -122.03706425121345 408.34201609421598 0 0 0 0 62.530108226696029 -122.03706425125711 0 -122.03706425125711 408.34201609417869 0 0 0 0 315.70902811345877 -178.54399677094625 0 -178.54399677094625 249.53333513768621 0 0 0 0 62.530108226230368 -122.03706425128621 0 -122.03706425128621 408.34201609426964 0 0 0 0 89.881395934207831 -88.293968164172838 0 -88.293968164172838 442.8767082359991 0 0 0 0 126.06401750618534 -210.02826392555289 0 -210.02826392555289 428.90378810840775 0 0 0 0 262.46592021465767 -97.7313210154025 0 -97.7313210154025 203.84231146351522 0 0 0 0 150.07384130259743 -357.43431567897642 0 -357.43431567897642 1296.7007520181069 0 0 0 0 -0.4151920341926143 -2.7649078749826472 0 -2.7649078749826472 -2.4610951877555847 0 0 0 0 63.553731076812255 78.50350590585731 0 78.50350590585731 -106.10130783770001 0 0 0 0 32.18328538518108 -175.00007656440721 0 -175.00007656440721 69.49705892029111 0 0 0 0 84.764809642409091 -77.582959945859329 0 -77.582959945859329 96.62151667623948 0 0 0 0 6.3900482435929007 -50.298160317873226 0 -50.298160317873226 63.964235807346995 0 0 0 0 66.878356044850079 -101.5391798090518 0 -101.5391798090518 104.90403435372718 0 0 0 0 44.864560396104935 -43.88442225039762 0 -43.88442225039762 75.240468681124185 0 0 0 0 25.003506091205054 -15.806694619191148 0 -15.806694619191148 65.047021837486682 0 0 0 0 11.525894193538988 -1.7341088359407877 0 -1.7341088359407877 110.89259229880463 0 0 0 0 14.395091413149203 -24.141143106870459 0 -24.141143106870459 -20.047203429727233 0 0 0 0 -0.084966064503532834 -52.912687960959829 0 -52.912687960959829 -0.50216062054641952 0 0 0 0 1.0242242801250541 -65.501852209226854 0 -65.501852209226854 51.019169754902123 0 0 0 0 -3.8994325987769116 -30.973116913853573 0 -30.973116913853573 66.574181499479891 0 0 0 0 0.073966249572549714 -54.698217492584263 0 -54.698217492584263 34.314563693417767 0 0 0 0 101.90760420714469 -70.79471136917391 0 -70.79471136917391 14.430644666650551 0 0 0 0 3.9901112724182894 -28.324714267441777 0 -28.324714267441777 -3.5306043130149192 0 0 0 0 -2.1856753419308177 -7.7102064732905404 0 -7.7102064732905404 -24.875292995790716 0 0 0 0 79.240883049580589 -19.177579580355996 0 -19.177579580355996 -28.651192500652542 0 0 0 0 -1.191799362706206 -86.13609198660771 0 -86.13609198660771 -13.472967528901791 0 0 0 0 -0.30270272509369534 -55.774546159351303 0 -55.774546159351303 -38.07477453446154 0 0 0 0 -20.581057183910161 -54.520219926403115 0 -54.520219926403115 -60.444479639098745 0 0 0 0 0.60894858193205437 -43.160237829468315 0 -43.160237829468315 -68.284175095342562 0 0 0 0 1.1504622833273572 0.30907177136983677 0 0.30907177136983677 -1.170558452187608 0 0 0 0 -39.084674769634148 -55.894089488972895 0 -55.894089488972895 -62.508121566214868 0 0 0 0 -19.637185545994726 -60.420120756658889 0 -60.420120756658889 -74.210734480981955 0 0 0 0 -40.667284764573196 -62.42021298074269 0 -62.42021298074269 -38.286264729813411 0 0 0 0 -16.058808283924009 -67.305061508452582 0 -67.305061508452582 -70.656588052373991 0 0 0 0 0.021374589756305795 -45.190889466306544 0 -45.190889466306544 -61.51568335533193 0 0 0 0 6.4629363803724118 -15.137139484106228 0 -15.137139484106228 -24.189275671967152 0 0 0 0 0.012796847975205038 -40.64825297284542 0 -40.64825297284542 15.961347232996559 0 0 0 0 -1.3999594501648858 0.36123646995742575 0 0.36123646995742575 1.0545909016720607 0 0 0 0 42.590731895154022 5.7367146238593705 0 5.7367146238593705 -97.48061270283597 0 0 0 0 48.977611044410878 20.893635334586179 0 20.893635334586179 -98.529889235904193 0 0 0 0 40.688245611323509 13.890328858833527 0 13.890328858833527 -10.880736682667248 0 0 0 0 -21.248389822940226 -83.67290329048501 0 -83.67290329048501 20.226828321571702 0 0 0 0 -1.2623220369993362 0.28785114985774385 0 0.28785114985774385 0.95538638036286727 0 0 0 0 0.88588997451734031 -74.318849533627827 0 -74.318849533627827 -133.09723947173916 0 0 0 0 21.337549600888451 -34.644210671077872 0 -34.644210671077872 -69.692421768617777 0 0 0 0 -127.90348385340985 -94.565074275948973 0 -94.565074275948973 -50.847150668047107 0 0 0 0 -59.163418284035288 -40.006363230635543 0 -40.006363230635543 -31.262243892618244 0 0 0 0 -40.632517070618633 -149.23457063678006 0 -149.23457063678006 -186.49709795814306 0 0 0 0 2.1762137166006141 59.774497803463873 0 59.774497803463873 -153.6641923848747 0 0 0 0 -189.16294961589301 -36.054173528650608 0 -36.054173528650608 47.626597024132252 0 0 0 0 12.880319339150446 12.610320240675719 0 12.610320240675719 -5.0262159405205011 0 0 0 0 38.368519098527031 -146.98272805652869 0 -146.98272805652869 -190.60604646211323 0 0 0 0 -107.66874027232188 -237.21425762273316 0 -237.21425762273316 -59.093424661463359 0 0 0 0 -1.4042838341668471 -2.3735933225603745 0 -2.3735933225603745 -1.1705976888847722 0 0 0 0 4.8041475353529677 7.2919871539606902 0 7.2919871539606902 -114.70920595179268 0 0 0 0 -113.92379856128628 -30.037605771039125 0 -30.037605771039125 -1.6209930457480368 0 0 0 0 7.3085996323722782 -1.3677221314262695 0 -1.3677221314262695 -3.9300992283796852 0 0 0 0 5.0556296267022844 5.1417145669893216 0 5.1417145669893216 -5.2473980381273577 0 0 0 0 7.1844751536063995 0.038573049362184975 0 0.038573049362184975 -2.9529577826542663 0 0 0 0 -62.08608738654948 13.520432943695141 0 13.520432943695141 2.2641816739487695 0 0 0 0 1.8975222156586824 -51.144202273185329 0 -51.144202273185329 -39.021868995132536 0 0 0 0 -69.445604410022497 -94.832910679486304 0 -94.832910679486304 -35.095951256786066 0 0 0 0 -51.721836292272201 -68.955536355106233 0 -68.955536355106233 -42.143790661791627 0 0 0 0 -57.346588381420588 -36.687746782930844 0 -36.687746782930844 -10.675892332466901 0 0 0 0 -54.141284605728288 -74.534328505455505 0 -74.534328505455505 -8.3839770279300865 0 0 0 0 1.1589176293558907 -0.3518066993416511 0 -0.3518066993416511 -0.25792368532585641 0 0 0 0 3.9686790513549397 -3.5294303469099333 0 -3.5294303469099333 -5.0547831923555364 0 0 0 0 -6.3042887189658359 -4.5015047963647703 0 -4.5015047963647703 -0.82019745021079871 0 0 0 0 15.951016387312848 -3.5331297636964791 0 -3.5331297636964791 -9.536686915473183 0 0 0 0 12.905544737492164 -6.6726100595442404 0 -6.6726100595442404 -6.4373373306370922 0 0 0 0 0.45519925584295606 -0.39169859761523895 0 -0.39169859761523895 -1.4654916161731428 0 0 0 0 -44.297221723922121 -56.379631119985788 0 -56.379631119985788 -47.21804165764479 0 0 0 0 11.853077716025837 -4.0201547257776724 0 -4.0201547257776724 -6.9898466038066545 0 0 0 0 5.9822131601795263 -2.68694260929351 0 -2.68694260929351 -5.5515604819156579 0 0 0 0 11.715218630080926 -7.2638009685942961 0 -7.2638009685942961 -15.3857351452898 0 0 0 0 7.4250433293927927 -4.9950623098793585 0 -4.9950623098793585 -2.2659764152081152 0 0 0 0 6.3591696904068158 -4.3329488770300486 0 -4.3329488770300486 -24.484352997447786 0 0 0 0 9.7287555700022494 -2.3896025403100793 0 -2.3896025403100793 -11.937984697080537 0 0 0 0 -0.84732273546978831 -10.799283164523786 0 -10.799283164523786 -13.19537597890394 0 0 0 0 -0.22210874815937132 -2.6525926367321517 0 -2.6525926367321517 -17.079082687979962 0 0 0 0 -16.938511936023133 15.493881843437748 0 15.493881843437748 -27.386156134367411 0 0 0 0 -0.84652463064345795 -0.16939658808337299 0 -0.16939658808337299 0.71295143938736771 0 0 0 0 94.831262024808893 -25.412758841870868 0 -25.412758841870868 8.8369263989561659 0 0 0 0 104.28416832897801 -46.103188219315484 0 -46.103188219315484 -7.6489256290033154 0 0 0 0 6.7509198050756822 4.5046299930959322 0 4.5046299930959322 -9.0257960848512084 0 0 0 0 0.68245202179159037 -0.29180918013680923 0 -0.29180918013680923 -0.0023829486628486052 0 0 0 0 4.8851700373488711 -4.6138204688859332 0 -4.6138204688859332 -16.537218413162464 0 0 0 0 177.35728508707689 -14.467596002870778 0 -14.467596002870778 0.75558491555057117 0 0 0 0 1.8897055695078961 -19.995412121081813 0 -19.995412121081813 90.683746929116751 0 0 0 0 1.6793480408237258 -0.71235705867512422 0 -0.71235705867512422 -1.0975810673756605 0 0 0 0 89.244200255372562 -139.64949383210796 0 -139.64949383210796 -20.42669467615633 0 0 0 0 44.20149878612574 -106.39577639328081 0 -106.39577639328081 -39.041812462641246 0 0 0 0 34.049560115534405 -148.71510946203944 0 -148.71510946203944 -63.31416414170053 0 0 0 0 82.179594203393208 -30.536483472346845 0 -30.536483472346845 -32.983187229618125 0 0 0 0 40.052694639853144 -75.999094019879067 0 -75.999094019879067 -50.166850811081531 0 0 0 0 195.09879302621994 -63.88225101210719 0 -63.88225101210719 -50.268065378760184 0 0 0 0 94.487385302520124 -92.38154205479259 0 -92.38154205479259 13.099087336142475 0 0 0 0 53.125186867317097 53.199398887109282 0 53.199398887109282 49.410781856365247 0 0 0 0 4.6198271653929623 -27.817562989207545 0 -27.817562989207545 -1.2495426524801587 0 0 0 0 -64.6011886683591 -9.6686513863519394 0 -9.6686513863519394 31.773171532986453 0 0 0 0 -6.6639560482114852 -18.977646912351602 0 -18.977646912351602 -2.8442289271674142 0 0 0 0 -2.6663396951626055 -27.277831806831273 0 -27.277831806831273 0.75172537331218336 0 0 0 0 2.6529479242490197 -29.255754722123584 0 -29.255754722123584 0.74512666165173869 0 0 0 0 2.3655614383278589 -25.893622695402883 0 -25.893622695402883 -2.880795961748845 0 0 0 0 -6.9180689043241728 -25.364875379829869 0 -25.364875379829869 -2.7851456412709013 0 0 0 0 -2.6709843725693645 -26.380249012704553 0 -26.380249012704553 -5.8751298581046285 0 0 0 0 -38.415808517729602 -51.432805171427844 0 -51.432805171427844 32.94624576649403 0 0 0 0 -7.0564249808616104 -20.679947591174809 0 -20.679947591174809 -5.6779606203849795 0 0 0 0 31.855601989896968 -68.639572947252191 0 -68.639572947252191 39.018419223186356 0 0 0 0 76.50349327850563 -127.22033896071025 0 -127.22033896071025 53.216812057605694 0 0 0 0 -7.1185848217661167 -21.032573367082769 0 -21.032573367082769 -10.312821401440967 0 0 0 0 130.83254500337353 -143.56498441271742 0 -143.56498441271742 21.237856529686724 0 0 0 0 -7.1948100508161588 -22.808367328138047 0 -22.808367328138047 -7.1326796616781394 0 0 0 0 -14.673358150385866 -25.530708985458205 0 -25.530708985458205 -8.0991108696007359 0 0 0 0 -17.387768910477462 -22.247622352115286 0 -22.247622352115286 -12.334435843965366 0 0 0 0 164.24912404436327 -35.273365392578853 0 -35.273365392578853 -43.536265291431846 0 0 0 0 69.751129669573857 -5.2566851215478891 0 -5.2566851215478891 -129.4679747102191 0 0 0 0 51.011672126041958 -39.103870741219225 0 -39.103870741219225 -75.740658489632551 0 0 0 0 41.227985792138497 -13.426522840835787 0 -13.426522840835787 -47.362644301811997 0 0 0 0 56.949168949620798 1.559363489618363 0 1.559363489618363 -4.3825167478235016 0 0 0 0 39.538184526561963 -19.907527917995367 0 -19.907527917995367 -27.205417432058766 0 0 0 0 47.973178885091329 -13.67358549167875 0 -13.67358549167875 -39.667564719366055 0 0 0 0 113.84980541387631 -40.90560838674719 0 -40.90560838674719 -28.506133787950603 0 0 0 0 -24.513498409625754 -25.083913866157673 0 -25.083913866157673 -12.024975069713946 0 0 0 0 -6.5445220804311468 -23.491539097145505 0 -23.491539097145505 -14.998506254671774 0 0 0 0 7.4079668548620248 -28.595364723669149 0 -28.595364723669149 -2.8112050949785043 0 0 0 0 11.067857351965358 -57.126206156915714 0 -57.126206156915714 65.163606383881415 0 0 0 0 -1.6642883262422963 -22.363429422268716 0 -22.363429422268716 3.4655625386243649 0 0 0 0 9.0056996450512088 -46.157909143415964 0 -46.157909143415964 11.51301506922664 0 0 0 0 27.646181132047786 -33.208598543470998 0 -33.208598543470998 20.48286941653987 0 0 0 0 5.0785021815972868 -24.111838208759764 0 -24.111838208759764 -3.6575632480708009 0 0 0 0 13.060035388204312 -36.984414105978175 0 -36.984414105978175 -8.6983129579329876 0 0 0 0 6.056383422848711 -19.593886486314194 0 -19.593886486314194 -12.882227137959793 0 0 0 0 11.091133041362809 -1.4756137147152799 0 -1.4756137147152799 -38.34991035845087 0 0 0 0 29.853604957810603 -46.628742972229929 0 -46.628742972229929 -29.038795364181169 0 0 0 0 7.4158796325136791 -34.375115216967515 0 -34.375115216967515 -27.950826733122994 0 0 0 0 21.525976052682381 -62.288581525944664 0 -62.288581525944664 -25.378977397500421 0 0 0 0 -5.3283293089552899 -60.785884770677285 0 -60.785884770677285 90.08324188098959 0 0 0 0 19.98464033341952 -86.659018539825183 0 -86.659018539825183 60.638085228662021 0 0 0 0 -0.32578524001138476 -5.6734096400559153 0 -5.6734096400559153 -2.1468657315051924 0 0 0 0 103.36107880172858 28.731414559336258 0 28.731414559336258 -67.201704334476744 0 0 0 0 -17.741128366615158 -62.207798135497796 0 -62.207798135497796 111.66247606003617 0 0 0 0 -27.823282947501866 -24.559687605849831 0 -24.559687605849831 46.677720785677593 0 0 0 0 -33.238913640554529 -12.481243994470788 0 -12.481243994470788 32.826405063831771 0 0 0 0 -42.456453324382892 -1.4625722770679204 0 -1.4625722770679204 63.95872569875246 0 0 0 0 -51.068442348361714 -7.9552103776659351 0 -7.9552103776659351 84.293187951306209 0 0 0 0 -74.334281618095702 40.717012060973502 0 40.717012060973502 30.614300111745251 0 0 0 0 -74.334281618066598 40.717012060952584 0 40.717012060952584 30.614300111719785 0 0 0 0 -74.334281618037494 40.717012060914499 0 40.717012060914499 30.614300111716148 0 0 0 0 -8.8597721825935878 -55.213104622556784 0 -55.213104622556784 19.949565538825482 0 0 0 0 -0.4476952257015796 -15.707917626891369 0 -15.707917626891369 -14.07994250039901 0 0 0 0 22.664858831456513 -37.249996914380972 0 -37.249996914380972 -9.3414952490402356 0 0 0 0 1.1977557736245217 -28.078658264817932 0 -28.078658264817932 -43.179909902679356 0 0 0 0 -22.105930569377961 -26.678000250738478 0 -26.678000250738478 -11.717469009159686 0 0 0 0 -17.087107861865661 -27.17531000121744 0 -27.17531000121744 19.251046254394964 0 0 0 0 -51.881567541367986 -99.155183434480477 0 -99.155183434480477 -20.433569195383825 0 0 0 0 -61.731342950137332 -17.483465158851686 0 -17.483465158851686 35.192760644811642 0 0 0 0 -7.6276607724139467 -45.480875109486078 0 -45.480875109486078 -52.843862866120617 0 0 0 0 -5.7144372875045519 -12.824619114581196 0 -12.824619114581196 5.52120786843102 0 0 0 0 -8.0565842923679156 14.261772784338973 0 14.261772784338973 18.23380951605759 0 0 0 0 0.76420239460431105 -9.7485567625460163 0 -9.7485567625460163 8.019093761888449 0 0 0 0 -6.3747938102605985 -11.888587725186426 0 -11.888587725186426 5.5418144140357981 0 0 0 0 -6.155587515240768 -11.834156791374198 0 -11.834156791374198 0.99427963506059314 0 0 0 0 -2.4734268617395685 -7.0289484340805757 0 -7.0289484340805757 1.0825744573639546 0 0 0 0 -4.463988077812246 -12.333046729875093 0 -12.333046729875093 5.4154547188112474 0 0 0 0 -42.798523480349104 52.686661012088507 0 52.686661012088507 -13.578872303382013 0 0 0 0 -4.9576202720199944 -12.782408953408549 0 -12.782408953408549 5.4715195072497522 0 0 0 0 -23.27063893344166 19.215826591266705 0 19.215826591266705 -32.565385636920837 0 0 0 0 -48.764130371855572 20.732746541633333 0 20.732746541633333 19.545128996029234 0 0 0 0 -17.03939127016929 -12.174787924175689 0 -12.174787924175689 8.6939513877168793 0 0 0 0 1.6503750643241943 -2.6241849533077755 0 -2.6241849533077755 -2.2728093205539537 0 0 0 0 -25.687983919269755 -12.304837716385919 0 -12.304837716385919 -10.581943161514118 0 0 0 0 47.026416246626468 -17.289683961590981 0 -17.289683961590981 -20.01231500529957 0 0 0 0 -32.882873215410655 -5.3772871166020195 0 -5.3772871166020195 16.274633968463604 0 0 0 0 -35.385216955502983 -7.7182866391103744 0 -7.7182866391103744 17.979803108455599 0 0 0 0 3.5173279398150044 -29.203164462815494 0 -29.203164462815494 4.443730780154965 0 0 0 0 29.241995790434885 -57.398401888238368 0 -57.398401888238368 21.555733232115472 0 0 0 0 29.782583320811682 -53.602850884235977 0 -53.602850884235977 -4.8065659056446748 0 0 0 0 90.071774413954699 -109.55302621936335 0 -109.55302621936335 46.942378515256223 0 0 0 0 75.458232353368658 -57.512117887589739 0 -57.512117887589739 -30.065691631394657 0 0 0 0 5.3988109243291547 58.141633938396808 0 58.141633938396808 -103.00484641866387 0 0 0 0 47.797683482342109 -23.978688699248323 0 -23.978688699248323 -72.326830934434838 0 0 0 0 36.016933375576627 -14.675870338769528 0 -14.675870338769528 -55.01749096469166 0 0 0 0 -43.558384102518175 -44.042838243466122 0 -44.042838243466122 -9.4726755461870198 0 0 0 0 3.0388002358595259 -15.009493431231931 0 -15.009493431231931 -50.530712595214936 0 0 0 0 0.77997179867661259 -0.98669158605864027 0 -0.98669158605864027 -0.82565982035536223 0 0 0 0 -2.5406666073395172 -30.628667992663395 0 -30.628667992663395 -6.3609459810213025 0 0 0 0 -3.7489592379424721 -34.320330366384042 0 -34.320330366384042 -17.597278875711254 0 0 0 0 4.2477993028733181 -14.132574434604976 0 -14.132574434604976 -29.112968653111238 0 0 0 0 4.4599508446990512 -10.872091781568088 0 -10.872091781568088 -8.2511137507099193 0 0 0 0 8.0759324402170023 -11.853157946738975 0 -11.853157946738975 -12.217091157428513 0 0 0 0 3.2582186899670518 -3.7016152517750953 0 -3.7016152517750953 -5.9146156198991147 0 0 0 0 9.2438633205056249 -8.7570914886064202 0 -8.7570914886064202 -7.3716268376338121 0 0 0 0 4.6479249600961339 -4.688317784330593 0 -4.688317784330593 1.5322229409025567 0 0 0 0 0.26203892102466853 0.29797517669475404 0 0.29797517669475404 -1.1037620162022521 0 0 0 0 4.1888569903603639 -8.1414877220590824 0 -8.1414877220590824 -27.336207076141363 0 0 0 0 -2.764540875556122 -16.387255353657565 0 -16.387255353657565 14.229264148742004 0 0 0 0 3.0790777181100566 -4.0141827254633426 0 -4.0141827254633426 -22.459812910410164 0 0 0 0 2.1053503796119912 -11.85165598011406 0 -11.85165598011406 -13.229390686105035 0 0 0 0 1.726377145096194 -9.2250824717502837 0 -9.2250824717502837 -22.365755991254218 0 0 0 0 -2.8521406467625638 -10.846705569767437 0 -10.846705569767437 -22.817814440964867 0 0 0 0 -4.1334016340551898 -16.370609137956762 0 -16.370609137956762 -28.646184509818681 0 0 0 0 -3.5546075570746325 -8.5429146169503838 0 -8.5429146169503838 -30.313485196573311 0 0 0 0 -4.3800729548606796 -9.1753163668899376 0 -9.1753163668899376 7.510524801792144 0 0 0 0 -4.6976017993656569 -11.711695611456207 0 -11.711695611456207 -4.1911709168514761 0 0 0 0 -6.2559977529635944 -14.370568364221526 0 -14.370568364221526 7.6177422909345296 0 0 0 0 0.33661886322719425 -5.6930787313394973 0 -5.6930787313394973 10.257581547357153 0 0 0 0 -24.611633961074403 -24.586508639375552 0 -24.586508639375552 -3.3931399720231639 0 0 0 0 -4.7675085194423446 -17.765932660989165 0 -17.765932660989165 -11.316490172188423 0 0 0 0 -13.790715448209085 -16.274551909854381 0 -16.274551909854381 -3.67497970192926 0 0 0 0 -0.55626085142284865 -7.3573982927362351 0 -7.3573982927362351 3.1414091380157743 0 0 0 0 -12.775596962019335 -17.277590581021741 0 -17.277590581021741 -3.4608027556460002 0 0 0 0 1.7672026493857231 -6.9424868531923778 0 -6.9424868531923778 1.7328589710770155 0 0 0 0 -1.1708792246645316 -9.1817223349917185 0 -9.1817223349917185 5.1959539793551812 0 0 0 0 -3.3364969103037083 -5.119855919374924 0 -5.119855919374924 -1.1372834570915573 0 0 0 0 -16.642267901217565 -15.117015496810836 0 -15.117015496810836 13.619354341360122 0 0 0 0 -0.10313987619190357 -0.19886933790645855 0 -0.19886933790645855 1.3943223725717584 0 0 0 0 -0.22287679999499233 -8.8780380269970181 0 -8.8780380269970181 4.6085848512508392 0 0 0 0 -1.097268447469105 -8.0646206051017373 0 -8.0646206051017373 5.95878796976573 0 0 0 0 -2.075457199056757 -5.4560243173915417 0 -5.4560243173915417 -3.7222218514899765 0 0 0 0 0.16422644004705944 -12.262268944002699 0 -12.262268944002699 -3.9581351582883144 0 0 0 0 0.21462067209358793 -6.1618988242098567 0 -6.1618988242098567 -5.4068227057250624 0 0 0 0 3.2077082118594262 -9.5611828441958551 0 -9.5611828441958551 -11.715768235771066 0 0 0 0 0.49619025160063757 -7.8221400196602531 0 -7.8221400196602531 6.0827837066860866 0 0 0 0 2.0961277943215038 -5.4610753995018797 0 -5.4610753995018797 2.3098263761768574 0 0 0 0 3.2467809547488287 -5.3049275920953818 0 -5.3049275920953818 -3.1362152322798238 0 0 0 0 -0.66307696023832818 0.13246521497645958 0 0.13246521497645958 2.4538354000279443 0 0 0 0 0.0050572311120049562 -10.93494191164541 0 -10.93494191164541 4.5091028114304663 0 0 0 0 -0.79346021894212981 0.33070831003945855 0 0.33070831003945855 0.70318613917975359 0 0 0 0 0.002369632715726766 1.5155385136784307 0 1.5155385136784307 -0.048779402670114547 0 0 0 0 -0.15958729510102637 -51.892420030397766 0 -51.892420030397766 36.059788697730255 0 0 0 0 12.625746145655285 -0.98866551755577348 0 -0.98866551755577348 -28.56274382058632 0 0 0 0 2.654160306757305 -4.5160491060022707 0 -4.5160491060022707 -7.1007171241501688 0 0 0 0 -0.10129492676787777 -8.8511035331217727 0 -8.8511035331217727 -2.5877222684412118 0 0 0 0 0.42889346470110468 -5.8912400137535315 0 -5.8912400137535315 -11.97733488538961 0 0 0 0 0.22179707841112872 -0.24977685732677113 0 -0.24977685732677113 -2.0643376898796535 0 0 0 0 -6.553584073408274 -19.31107442551729 0 -19.31107442551729 -3.0597441043446452 0 0 0 0 1.2062727756419918 -11.857402726617693 0 -11.857402726617693 -28.733374558266377 0 0 0 0 -2.4887586494514835 -9.387866501310782 0 -9.387866501310782 -4.4103303064894135 0 0 0 0 -1.058487155365583 -5.8571676234842016 0 -5.8571676234842016 -8.3255052691956735 0 0 0 0 -5.2532721284296713 0.22528208338860622 0 0.22528208338860622 11.50890934178824 0 0 0 0 -6.3438963505614083 -33.940174384640159 0 -33.940174384640159 -38.142886291844661 0 0 0 0 1.5284746467223158 -23.445707033602503 0 -23.445707033602503 -74.729596256015952 0 0 0 0 -0.036397681814390598 -31.193946674396578 0 -31.193946674396578 -52.603645836414216 0 0 0 0 -6.5205585334413172 -20.488320834157626 0 -20.488320834157626 -52.964209453963122 0 0 0 0 1352.2223184840332 -1209.4170634266211 0 -1209.4170634266211 827.28285893634893 0 0 0 0 1345.3960666090716 -1565.3718871716601 0 -1565.3718871716601 -63.324955826987207 0 0 0 0 480.52553895940946 20.502985844745126 0 20.502985844745126 -127.8074897333945 0 0 0 0 56.275046245922567 75.721257081765543 0 75.721257081765543 -100.60797298735861 0 0 0 0 1261.8873770143764 -703.75891339252166 0 -703.75891339252166 2381.1330275607907 0 0 0 0 0.64669561289784383 -0.96192457518121799 0 -0.96192457518121799 -0.48589479357430676 0 0 0 0 1262.2658334320477 -930.22554716747527 0 -930.22554716747527 1000.281651440615 0 0 0 0 17.570923754596151 -47.625999198156023 0 -47.625999198156023 10.525642115762821 0 0 0 0 -52.684330820575269 -48.854213132781297 0 -48.854213132781297 34.608882716518565 0 0 0 0 25.610609044355442 -33.621368472126505 0 -33.621368472126505 2.9990468174637499 0 0 0 0 25.054481481853145 -152.3950007378844 0 -152.3950007378844 59.828707771412155 0 0 0 0 -9.0032517975389581 -16.201798928292895 0 -16.201798928292895 5.4794403807636414 0 0 0 0 217.60840464598732 18.153364111753945 0 18.153364111753945 -98.510454799519721 0 0 0 0 905.87353591092801 -652.03809164568929 0 -652.03809164568929 122.79770355230721 0 0 0 0 241.97716970267356 -190.36390162145926 0 -190.36390162145926 160.31208750616133 0 0 0 0 198.60008546970494 17.492869577312376 0 17.492869577312376 28.929687810828909 0 0 0 0 539.76541807579633 -243.04497031599658 0 -243.04497031599658 0.20322333709555096 0 0 0 0 942.4917172017449 -127.97812750810681 0 -127.97812750810681 -169.53920679051771 0 0 0 0 482.57830275864399 -101.11051714440509 0 -101.11051714440509 36.983918925525359 0 0 0 0 1493.6709995332421 128.39579023900023 0 128.39579023900023 2026.6155032505012 0 0 0 0 0.86779337006753821 -1.4827690480970546 0 -1.4827690480970546 0.82629812169125216 0 0 0 0 1323.048465337466 -601.97946216158448 0 -601.97946216158448 -343.90463012580858 0 0 0 0 486.55283630796907 -556.25282478584006 0 -556.25282478584006 400.10318970786648 0 0 0 0 675.47562673263383 -1297.7336585874582 0 -1297.7336585874582 921.11057805055043 0 0 0 0 214.98543006472028 -684.90924943299342 0 -684.90924943299342 550.21532770214617 0 0 0 0 187.89134110372106 -530.36308083310087 0 -530.36308083310087 274.08888861119885 0 0 0 0 220.79047311301838 -725.1569004313983 0 -725.1569004313983 200.64188652394841 0 0 0 0 -4.3132220123516163 -492.64615631284505 0 -492.64615631284505 812.38253013766189 0 0 0 0 -99.545676035737415 -188.47500688771015 0 -188.47500688771015 593.44263345665286 0 0 0 0 -293.50469030967815 -199.16818911439111 0 -199.16818911439111 642.74770669322606 0 0 0 0 -632.8272572667338 -61.26434552459682 0 -61.26434552459682 896.48183958320487 0 0 0 0 -222.05065845256468 -636.45605636741766 0 -636.45605636741766 1371.3566280000841 0 0 0 0 3.2607853393301944 -7.2448169239893971 0 -7.2448169239893971 15.347920380541225 0 0 0 0 2007.6094165086706 -775.21565335505375 0 -775.21565335505375 -13.271070964241517 0 0 0 0 -252.10438881712435 177.60879708697166 0 177.60879708697166 195.81573235168889 0 0 0 0 -68.630193292668991 -102.80657951690864 0 -102.80657951690864 -133.01172768753145 0 0 0 0 -589.74219750322027 -262.09473320610914 0 -262.09473320610914 9.7271097000957525 0 0 0 0 917.61715486961475 -203.26800216852371 0 -203.26800216852371 -287.93086099968968 0 0 0 0 4.6407785007500735 -16.595230800727961 0 -16.595230800727961 38.517577027386437 0 0 0 0 -323.00353060170255 -614.04336364855749 0 -614.04336364855749 114.9044766922234 0 0 0 0 855.81173017398987 -832.83978693067661 0 -832.83978693067661 313.43312324484941 0 0 0 0 989.72728326598008 -729.01346286906028 0 -729.01346286906028 393.78540475323462 0 0 0 0 1379.0282873462293 -1228.4103217281463 0 -1228.4103217281463 729.66877080918312 0 0 0 0 49.877750991097855 -41.817424632748953 0 -41.817424632748953 -11.502332059393666 0 0 0 0 1013.2606061968099 -817.74926809353519 0 -817.74926809353519 367.04214824248993 0 0 0 0 8.9368208036652845 -4.7234759796111057 0 -4.7234759796111057 -4.0349209292371597 0 0 0 0 1180.3902086613016 -610.89682853104932 0 -610.89682853104932 316.28891840819051 0 0 0 0 1092.3167027343516 -792.99012311748265 0 -792.99012311748265 -57.510093165969465 0 0 0 0 -47.333765891587973 -83.24798690103853 0 -83.24798690103853 68.317808008436259 0 0 0 0 4.6850726600587222 -32.917750106317044 0 -32.917750106317044 -1.9180415435093892 0 0 0 0 1211.6355212292328 -593.09723548672355 0 -593.09723548672355 140.5263343379338 0 0 0 0 -2.5581175678377335 -7.0870373331007102 0 -7.0870373331007102 14.180224306692125 0 0 0 0 -6.5741447164079148 -18.416103785662315 0 -18.416103785662315 -18.020335789246072 0 0 0 0 3.8637338234366325 -31.195891313107722 0 -31.195891313107722 -1.1543784743953438 0 0 0 0 2.7947237444277562 -33.701072758955888 0 -33.701072758955888 0.3771986396968714 0 0 0 0 3.3192867754114559 -32.743228306240781 0 -32.743228306240781 -1.9392948754380086 0 0 0 0 -10.29911792683226 -20.068951202952654 0 -20.068951202952654 3.7564250656858817 0 0 0 0 3.6191672944205493 -35.68515700638045 0 -35.68515700638045 5.4100140539139829 0 0 0 0 -2.2201940319137066 -30.087989581082638 0 -30.087989581082638 0.12863058492166601 0 0 0 0 0.0052171752759022638 -28.993795305218555 0 -28.993795305218555 0.65743293250397983 0 0 0 0 -0.22379449030268006 -29.789322388848632 0 -29.789322388848632 -1.4528591182925084 0 0 0 0 -1.6859149519150378 -29.273265667407941 0 -29.273265667407941 -0.85457918336487637 0 0 0 0 -1.8145522669146885 -31.215965434526879 0 -31.215965434526879 -0.49823273814308777 0 0 0 0 -6.0235251569902175 -29.198354678367423 0 -29.198354678367423 -0.29327642563839618 0 0 0 0 -3.4339240087574581 -27.194071786586392 0 -27.194071786586392 -3.4108563523677731 0 0 0 0 -4.772864874023071 -23.837882939047631 0 -23.837882939047631 -9.0140171610601101 0 0 0 0 -4.5892801274458179 -27.870453992217335 0 -27.870453992217335 -1.6389597684810724 0 0 0 0 -5.7325796365475981 -28.641166913290363 0 -28.641166913290363 -4.200455373663317 0 0 0 0 11.253690385055961 -25.525053563780602 0 -25.525053563780602 5.8088256203995456 0 0 0 0 -3.901737348896404 -30.197316995382266 0 -30.197316995382266 2.3431016489175818 0 0 0 0 -1.5211097599676577 -27.397010906150172 0 -27.397010906150172 -1.8590910682360118 0 0 0 0 0.64686737346528389 -32.782525823045489 0 -32.782525823045489 5.3523163996742369 0 0 0 0 -0.83456870595546206 -29.033567018942449 0 -29.033567018942449 -5.6032334857845854 0 0 0 0 -4.765920528645438 -19.314837290860169 0 -19.314837290860169 -11.205860086693065 0 0 0 0 9.0508167501175194 -22.568677496346936 0 -22.568677496346936 -1.6030255326913903 0 0 0 0 9.8661904046603013 -27.736792178882752 0 -27.736792178882752 12.081151017608136 0 0 0 0 8.8868029435834615 -15.155389371057481 0 -15.155389371057481 -10.908490160165456 0 0 0 0 7.5325561099489278 -14.18336094223514 0 -14.18336094223514 5.6116811846004566 0 0 0 0 0.16717994076316245 -8.8637081870801921 0 -8.8637081870801921 -11.656800892842966 0 0 0 0 5.7792354312150565 -15.130813099736315 0 -15.130813099736315 -53.496860376169934 0 0 0 0 -0.027356758862367769 0.078211714543092725 0 0.078211714543092725 0.228901003819038 0 0 0 0 -0.72973892359732417 -17.677150274274027 0 -17.677150274274027 -10.869966185297926 0 0 0 0 9.9405315166586661 -12.463732347901896 0 -12.463732347901896 36.563423046363823 0 0 0 0 -18.297097803704673 -15.657232454878795 0 -15.657232454878795 65.776373670543762 0 0 0 0 5.3756287766736932 -18.463821849761871 0 -18.463821849761871 -21.997978809121378 0 0 0 0 3.1495230493896429 -10.619608414202517 0 -10.619608414202517 3.1902324272589526 0 0 0 0 4.9977666893051378 -13.385734510250359 0 -13.385734510250359 2.8512178388670684 0 0 0 0 5.3502832232697983 -19.029692857804548 0 -19.029692857804548 -20.606187402888736 0 0 0 0 0.2902733311590282 -1.1914737465618384 0 -1.1914737465618384 5.4887191112116245 0 0 0 0 -5.7942725877946941 -24.561635277447749 0 -24.561635277447749 -12.981413254361541 0 0 0 0 -7.0947439646297425 -25.862154889370231 0 -25.862154889370231 -10.063013701073942 0 0 0 0 -2.8931432977478835 -27.060062900934099 0 -27.060062900934099 -10.799685057923853 0 0 0 0 -3.5493172296773992 -29.538837879474158 0 -29.538837879474158 -19.217053671420217 0 0 0 0 -1.2865107450707001 -20.136159781105562 0 -20.136159781105562 -8.2263278488080687 0 0 0 0 4.4986863337981049 -19.580639526092455 0 -19.580639526092455 -14.524637192114596 0 0 0 0 2.9237708589135423 -12.081674924045497 0 -12.081674924045497 4.7473569871161745 0 0 0 0 7.5275770292537345 -28.549524345126883 0 -28.549524345126883 -0.21271754040481028 0 0 0 0 -14.463909575464641 -28.130650633974255 0 -28.130650633974255 -20.115747232715876 0 0 0 0 -1.4966367680681287 -23.135246231000565 0 -23.135246231000565 -18.716572932907184 0 0 0 0 -1.623939089538041 -17.138075814558292 0 -17.138075814558292 3.7190892777837421 0 0 0 0 3.2522543382292497 -26.370367789225838 0 -26.370367789225838 2.7943108736683371 0 0 0 0 1.2511397684174881 -23.09604967103769 0 -23.09604967103769 -2.5630272402172523 0 0 0 0 6.6260744601968327 -18.355134402304884 0 -18.355134402304884 -13.900262942953532 0 0 0 0 78.471014264006953 -14.313142412197749 0 -14.313142412197749 -24.83017847707788 0 0 0 0 70.01087771586117 -28.385440714124854 0 -28.385440714124854 -47.501589546579453 0 0 0 0 6.5037422325112857 -27.035433695212305 0 -27.035433695212305 -5.4378718314937942 0 0 0 0 28.750448443341156 -29.761186429253002 0 -29.761186429253002 -1.7068820082645288 0 0 0 0 13.88486522881891 -17.309765029910572 0 -17.309765029910572 9.5833547156158669 0 0 0 0 15.935258799023359 -43.492605267185581 0 -43.492605267185581 -38.873516316677978 0 0 0 0 -54.420067338080116 -73.221261577884434 0 -73.221261577884434 37.074742297658076 0 0 0 0 3.3681077647379425 -16.169947416626087 0 -16.169947416626087 -10.725612719578749 0 0 0 0 10.725894543098079 -10.223427571426758 0 -10.223427571426758 9.2105197555817497 0 0 0 0 -68.152118184771098 103.4240368142664 0 103.4240368142664 37.732920390915297 0 0 0 0 -127.50286508060526 182.04948595634141 0 182.04948595634141 -208.03687468631711 0 0 0 0 -325.58201533943793 -71.201337739475889 0 -71.201337739475889 -39.742875459976858 0 0 0 0 41.103354718246919 -17.243661619215459 0 -17.243661619215459 -75.439605167865693 0 0 0 0 -6.9806969983913589 -19.555576042091452 0 -19.555576042091452 -44.171898737130554 0 0 0 0 70.41351491901878 -58.876498625848853 0 -58.876498625848853 -25.424201806603378 0 0 0 0 -32.419771127184504 23.663708430296765 0 23.663708430296765 20.467999926696393 0 0 0 0 -7.246911461794312 -19.389780572156319 0 -19.389780572156319 -36.540265766415423 0 0 0 0 4.6292114065072383 -102.23315890605113 0 -102.23315890605113 -32.121441134886936 0 0 0 0 38.012231418324518 -75.687343366863502 0 -75.687343366863502 -11.05706307530204 0 0 0 0 -2.4862733366899192 -11.953233421811092 0 -11.953233421811092 3.515857390997553 0 0 0 0 9.2481327839385159 -12.290223070525727 0 -12.290223070525727 0.41456336340911193 0 0 0 0 -6.9894809835677734 -38.949524586640678 0 -38.949524586640678 44.259977268274554 0 0 0 0 -9.3833959397816216 -24.805578891206721 0 -24.805578891206721 -18.885601493181639 0 0 0 0 -1.09850841423156 -13.151029132492017 0 -13.151029132492017 6.7172476278371613 0 0 0 0 -23.724290234200453 -6.6003597445414925 0 -6.6003597445414925 -41.908509119115479 0 0 0 0 -2.4607039208240167 -11.116966104581479 0 -11.116966104581479 1.1522425309485698 0 0 0 0 0.96788233693615666 -18.284609386634102 0 -18.284609386634102 0.92305475175771434 0 0 0 0 -4.3979356110144749 -14.532639791719248 0 -14.532639791719248 -9.5985857992783572 0 0 0 0 -7.7690459363852113 -19.649144318293612 0 -19.649144318293612 -9.3811642162330315 0 0 0 0 0.084170895192073658 -11.558242077489922 0 -11.558242077489922 -6.9839283842138684 0 0 0 0 3.5737417005840477 -13.685742116644846 0 -13.685742116644846 -9.6328690030822131 0 0 0 0 3.9142239824065399 -2.7646452710855636 0 -2.7646452710855636 -5.4998331888163463 0 0 0 0 39.888284895478137 -129.82162515802383 0 -129.82162515802383 277.26359978859637 0 0 0 0 135.93051740007286 47.10938829088218 0 47.10938829088218 -59.262023282267364 0 0 0 0 -3.5321644845535332 -3.6008799912335405 0 -3.6008799912335405 -0.95626588395373346 0 0 0 0 12.728334461160557 -10.403567570098858 0 -10.403567570098858 -19.572276297589269 0 0 0 0 -13.957892392638314 -120.35409375738709 0 -120.35409375738709 100.33178442573626 0 0 0 0 -3.5834335595695848 -4.0803917492773749 0 -4.0803917492773749 1.2937753029979975 0 0 0 0 190.64961753559328 -162.37497601336872 0 -162.37497601336872 -0.50961744626692962 0 0 0 0 16.571393460675608 -27.866264801936268 0 -27.866264801936268 -47.504349081086275 0 0 0 0 389.89288124732411 -124.80446834592794 0 -124.80446834592794 -20.950289067754056 0 0 0 0 207.9252268903947 -2.5228365635293812 0 -2.5228365635293812 101.05604656027208 0 0 0 0 18.094835858879378 -24.83142884494373 0 -24.83142884494373 7.695128622709035 0 0 0 0 24.797709264748846 -16.6278217887957 0 -16.6278217887957 -0.70536026129411766 0 0 0 0 -136.03082685180198 66.032385979064202 0 66.032385979064202 138.94458032249895 0 0 0 0 -7.3505912901931296 -16.432725301872097 0 -16.432725301872097 8.005141198255135 0 0 0 0 32.924674110527121 -25.811900556674573 0 -25.811900556674573 -0.61161302054824773 0 0 0 0 479.64128334914494 -459.66436936191349 0 -459.66436936191349 178.91119647207779 0 0 0 0 1.2255947772687961 -1.2818392295810099 0 -1.2818392295810099 -0.92400269851558292 0 0 0 0 313.91264223604958 -527.28894433339701 0 -527.28894433339701 152.81435399326983 0 0 0 0 339.93635136927332 -465.2483329098477 0 -465.2483329098477 295.02281150427734 0 0 0 0 685.51080232696404 -173.88328217975322 0 -173.88328217975322 -92.565246183991803 0 0 0 0 232.37035511501745 -179.48104798255827 0 -179.48104798255827 454.01224889663911 0 0 0 0 357.40085235167135 -298.08602468451636 0 -298.08602468451636 85.980145568286844 0 0 0 0 662.33372028218309 -302.09179395112938 0 -302.09179395112938 199.87065383167646 0 0 0 0 381.97469323695987 -236.95945850017961 0 -236.95945850017961 185.72782007665592 0 0 0 0 411.84008652551711 -244.91290142105481 0 -244.91290142105481 -4.5358703637721192 0 0 0 0 242.40654071707468 -64.568233896912716 0 -64.568233896912716 -56.576950167755172 0 0 0 0 370.50290748319094 3.8347379221431765 0 3.8347379221431765 -80.402831156257889 0 0 0 0 530.62738123559393 -187.69608230080075 0 -187.69608230080075 -39.045819836581359 0 0 0 0 115.99610973277595 -32.652422063331301 0 -32.652422063331301 -57.409903087322164 0 0 0 0 262.1844584716091 -55.502199242034749 0 -55.502199242034749 -83.962186088498129 0 0 0 0 331.86803330849943 -260.15783566738526 0 -260.15783566738526 -3.2083970413523275 0 0 0 0 111.95027382571416 -245.70544301416453 0 -245.70544301416453 6.7281153781059402 0 0 0 0 112.86993888702273 -182.6879533770034 0 -182.6879533770034 -30.581743855680998 0 0 0 0 30.688904268601618 -224.08072953556621 0 -224.08072953556621 37.004038798021156 0 0 0 0 75.698330348608579 -351.99133164529485 0 -351.99133164529485 228.12927701790431 0 0 0 0 66.907029826528742 -242.52317110834974 0 -242.52317110834974 263.5163757989103 0 0 0 0 0.73231404407806622 -0.55370996219225788 0 -0.55370996219225788 -0.92804053021319177 0 0 0 0 -1.0342585766676358 -1.9689893838318042 0 -1.9689893838318042 2.5300656795071852 0 0 0 0 -664.30171603113558 135.57214734467061 0 135.57214734467061 -8.534701505697285 0 0 0 0 1251.8789356377074 -627.70651954021855 0 -627.70651954021855 189.11844529596056 0 0 0 0 -409.11096143981558 -227.93903636194545 0 -227.93903636194545 135.83821539731343 0 0 0 0 5.9188245886414279 -421.25249547550482 0 -421.25249547550482 223.02828436266554 0 0 0 0 195.79308996256805 -371.7161139534096 0 -371.7161139534096 208.13839643253959 0 0 0 0 335.65768282093177 -447.38269379057397 0 -447.38269379057397 381.7265460926219 0 0 0 0 223.96404169882226 -326.95429161281709 0 -326.95429161281709 225.64598354171585 0 0 0 0 222.89284339847109 -311.33990361490214 0 -311.33990361490214 235.89765431380329 0 0 0 0 144.72973573748095 -286.18603410786818 0 -286.18603410786818 246.89804878558789 0 0 0 0 126.8815266384081 -308.9076871158627 0 -308.9076871158627 320.69699591734479 0 0 0 0 354.18944382360132 -246.3723623827334 0 -246.3723623827334 260.20215862843543 0 0 0 0 60.84997234401817 -360.22596085547912 0 -360.22596085547912 285.88153172739931 0 0 0 0 78.068494668314088 -293.72432235392489 0 -293.72432235392489 303.62378274587263 0 0 0 0 73.529891451731146 -278.21477396002558 0 -278.21477396002558 308.40118942385379 0 0 0 0 68.795584093953948 -290.92006888834294 0 -290.92006888834294 369.77084471295802 0 0 0 0 139.02153133949832 -334.6388792769726 0 -334.6388792769726 326.61800314322045 0 0 0 0 137.37068694726622 -317.83018616915251 0 -317.83018616915251 322.45739124199827 0 0 0 0 70.383146365820721 -352.54819690517252 0 -352.54819690517252 374.90874760938641 0 0 0 0 259.88802332705382 -357.4493518876925 0 -357.4493518876925 334.99658082280348 0 0 0 0 5.1678916722958093 -252.73189797688269 0 -252.73189797688269 395.77909197419103 0 0 0 0 201.3187845954053 -475.21796884175274 0 -475.21796884175274 488.10328238987859 0 0 0 0 84.896325060402887 -322.17100959862728 0 -322.17100959862728 427.8520078631027 0 0 0 0 -72.337620925798547 -356.57306241824517 0 -356.57306241824517 540.24854599933315 0 0 0 0 21.348361033935362 -202.66722085968377 0 -202.66722085968377 441.36818499778337 0 0 0 0 -101.05527670925221 -62.666335456513934 0 -62.666335456513934 326.14554835561376 0 0 0 0 31.225260123620956 -169.54575059752318 0 -169.54575059752318 290.01915209531671 0 0 0 0 97.719348387447099 -172.63633730152787 0 -172.63633730152787 275.71945745450239 0 0 0 0 94.517273630965065 -232.57873650455213 0 -232.57873650455213 347.63549794373557 0 0 0 0 100.45503286691383 -210.26833817856414 0 -210.26833817856414 256.49409250627832 0 0 0 0 143.41377473924149 -238.03491082094524 0 -238.03491082094524 265.81502215697105 0 0 0 0 187.4575963869338 -213.31958082122605 0 -213.31958082122605 226.18767623751319 0 0 0 0 180.80028780392604 -194.34086263587506 0 -194.34086263587506 176.04547005918266 0 0 0 0 148.43423103272653 -187.19487674797756 0 -187.19487674797756 209.5052927822253 0 0 0 0 156.74187289823931 -153.94244861385516 0 -153.94244861385516 259.86715631664356 0 0 0 0 148.7847850838989 -174.28211954885592 0 -174.28211954885592 220.43001941697275 0 0 0 0 146.86254288454438 -197.57211149306613 0 -197.57211149306613 257.75581598734561 0 0 0 0 108.65926402467267 -162.42295148099765 0 -162.42295148099765 225.82385713057101 0 0 0 0 147.3050449719085 -181.68154002403617 0 -181.68154002403617 214.28215521194147 0 0 0 0 142.53844820085214 -181.136339570573 0 -181.136339570573 239.4762181579199 0 0 0 0 111.48714077831028 -225.47089055572269 0 -225.47089055572269 224.12051666133073 0 0 0 0 114.87518014205943 -204.97527005079121 0 -204.97527005079121 348.04881623588244 0 0 0 0 45.25091410351888 -264.53307922575686 0 -264.53307922575686 322.46932556635875 0 0 0 0 149.39000315731619 -251.2491278242565 0 -251.2491278242565 118.58056293831032 0 0 0 0 149.48904382938781 -264.60046793527567 0 -264.60046793527567 263.72934499350049 0 0 0 0 83.788018237741198 -310.17165029434727 0 -310.17165029434727 242.72631707903815 0 0 0 0 211.6593365079716 -210.36891204183894 0 -210.36891204183894 85.528426434824269 0 0 0 0 245.82550631816775 -348.75885722234011 0 -348.75885722234011 205.66056124695888 0 0 0 0 248.76907320656392 -302.4381530779749 0 -302.4381530779749 -67.958456344387287 0 0 0 0 -220.51310832185482 37.973616919369761 0 37.973616919369761 -32.685844659677741 0 0 0 0 252.91737488007129 -103.46205027195492 0 -103.46205027195492 -125.2243993791335 0 0 0 0 -32.758603379093984 29.199771678282787 0 29.199771678282787 123.17232686162242 0 0 0 0 75.452451332486817 -97.075906204025614 0 -97.075906204025614 229.86977850409312 0 0 0 0 74.676822224864736 -118.16317658350772 0 -118.16317658350772 224.2257513134391 0 0 0 0 187.76393667303273 -219.04393192792486 0 -219.04393192792486 144.30701514309112 0 0 0 0 133.98761757828106 -143.9028743490469 0 -143.9028743490469 138.10055722010475 0 0 0 0 0.85213164766442873 0.015444539678409086 0 0.015444539678409086 0.22840154340283192 0 0 0 0 242.61146511293191 -308.91625289468243 0 -308.91625289468243 494.63116478056463 0 0 0 0 239.35245680042317 -337.47752352502471 0 -337.47752352502471 413.44117314696439 0 0 0 0 -17.723216978558412 -237.55183681270569 0 -237.55183681270569 433.92760609376182 0 0 0 0 107.12219094897955 -187.17195668087015 0 -187.17195668087015 269.27080878027618 0 0 0 0 -101.09909192202394 -104.35663548818218 0 -104.35663548818218 413.03362599366562 0 0 0 0 -20.331804978037326 -230.59273882083033 0 -230.59273882083033 520.28250459011497 0 0 0 0 74.420786076714649 -158.14694973175119 0 -158.14694973175119 458.51253114035626 0 0 0 0 225.22382359801486 -340.2393195808545 0 -340.2393195808545 654.58848263941218 0 0 0 0 234.1686495194499 -61.999373986015712 0 -61.999373986015712 556.63371811172692 0 0 0 0 389.36251247540349 -258.9158957622974 0 -258.9158957622974 460.83966806359706 0 0 0 0 137.71076963875748 -205.90611071248645 0 -205.90611071248645 367.31620324914775 0 0 0 0 68.255697504584532 -204.25704270970368 0 -204.25704270970368 458.81738274105373 0 0 0 0 108.41759622598602 -166.00658627785813 0 -166.00658627785813 390.54948079589894 0 0 0 0 112.07361369708087 -161.35242865521059 0 -161.35242865521059 258.64111205541303 0 0 0 0 131.18004632058728 -98.503002535343967 0 -98.503002535343967 294.36262362068419 0 0 0 0 109.48268365151762 -31.992376843783859 0 -31.992376843783859 96.081583163515916 0 0 0 0 144.42378656125402 -161.87190033414799 0 -161.87190033414799 144.12116022142982 0 0 0 0 192.78967506037952 -184.54622493525085 0 -184.54622493525085 183.34607040924129 0 0 0 0 162.49894628237234 -129.53738240323764 0 -129.53738240323764 166.29765573692202 0 0 0 0 227.09292653684679 -177.54389168427542 0 -177.54389168427542 150.08182257213207 0 0 0 0 163.87034527807555 -145.74906691475576 0 -145.74906691475576 151.6783551517683 0 0 0 0 151.16800064238487 -152.34109930250179 0 -152.34109930250179 143.68943422864146 0 0 0 0 86.447347340231318 -99.384089182388379 0 -99.384089182388379 135.83464738016619 0 0 0 0 107.51766301353382 -200.19757204503469 0 -200.19757204503469 272.82877708143451 0 0 0 0 0.21749455582252608 0.056365856774444723 0 0.056365856774444723 1.297512220224597 0 0 0 0 126.05840414020804 -140.89454172407432 0 -140.89454172407432 196.24152701992443 0 0 0 0 137.98840310303603 -101.41808218400683 0 -101.41808218400683 192.27520350944269 0 0 0 0 107.80851846587029 -145.13451702990778 0 -145.13451702990778 198.00878076456092 0 0 0 0 111.65341236546283 -145.90473178046113 0 -145.90473178046113 195.80462542516943 0 0 0 0 208.08480175397563 -218.86300644251241 0 -218.86300644251241 194.3999938104339 0 0 0 0 277.24555784630866 -228.98107476305893 0 -228.98107476305893 175.36692566305828 0 0 0 0 151.69631444964944 -142.63173532448468 0 -142.63173532448468 171.95504132901624 0 0 0 0 282.70991432761366 -154.12465134500371 0 -154.12465134500371 168.61767189501302 0 0 0 0 235.75087889115639 -216.25329030993498 0 -216.25329030993498 183.7951837700557 0 0 0 0 527.83261053913702 -229.95007714403619 0 -229.95007714403619 142.61766808958964 0 0 0 0 335.55513080177775 -112.32070127542408 0 -112.32070127542408 121.83906674734862 0 0 0 0 332.06074979096047 -137.43485171715429 0 -137.43485171715429 253.94813350693039 0 0 0 0 702.71633315492363 -353.70409677472844 0 -353.70409677472844 175.10577170141369 0 0 0 0 45.412025443276889 -189.45606697327491 0 -189.45606697327491 111.53907279931627 0 0 0 0 82.807667601071444 -114.5487754057167 0 -114.5487754057167 168.53647696911457 0 0 0 0 84.122319796168085 -90.428709994358542 0 -90.428709994358542 150.39364356015449 0 0 0 0 176.21984760148189 -158.43915470910633 0 -158.43915470910633 189.1455593658182 0 0 0 0 128.49419778163337 -213.78691630086576 0 -213.78691630086576 74.400560516522091 0 0 0 0 147.30796611756159 -129.836496628036 0 -129.836496628036 201.51812474825874 0 0 0 0 -56.349874234481831 -290.92437772789117 0 -290.92437772789117 -10.353326117006873 0 0 0 0 8.0633016446372494 -154.22986969181966 0 -154.22986969181966 79.641522207266462 0 0 0 0 -47.733405378312455 -257.90337561081606 0 -257.90337561081606 -28.243058965830642 0 0 0 0 6.0619554320379052 -260.4523847681433 0 -260.4523847681433 -31.710447149966058 0 0 0 0 8.51988925674641 -255.94350202640942 0 -255.94350202640942 206.02813916201922 0 0 0 0 -38.998804416196435 -206.80069944669276 0 -206.80069944669276 -20.06888384986533 0 0 0 0 -51.985678132919929 -186.51493727874936 0 -186.51493727874936 137.48264499088691 0 0 0 0 -58.137926188470374 -250.09287456606262 0 -250.09287456606262 -16.341610093826603 0 0 0 0 -98.42150678645703 -205.35940812471335 0 -205.35940812471335 -34.45744382158864 0 0 0 0 -100.48038998725315 -233.84294389308434 0 -233.84294389308434 -113.06276591364531 0 0 0 0 -145.24561973002346 -190.48310687820452 0 -190.48310687820452 -5.6571414395548345 0 0 0 0 -108.37378051588894 -217.74311736415348 0 -217.74311736415348 13.24189502605941 0 0 0 0 -66.213425504944098 -237.26017180629469 0 -237.26017180629469 -6.4563679323600809 0 0 0 0 -105.84631826744953 -184.60224584566032 0 -184.60224584566032 89.697790380856532 0 0 0 0 -78.001256927872419 -152.16595439200796 0 -152.16595439200796 78.485194855153168 0 0 0 0 -92.44895352657295 -177.70268912928032 0 -177.70268912928032 63.604042734686118 0 0 0 0 -92.437420019380625 -177.90866291428415 0 -177.90866291428415 63.876575637784299 0 0 0 0 -48.569996487523895 -168.02365283605957 0 -168.02365283605957 63.611057172914116 0 0 0 0 -17.207526078613228 -132.68889600348439 0 -132.68889600348439 84.106617499889126 0 0 0 0 -134.04393173567041 13.825413206063331 0 13.825413206063331 62.156279567770525 0 0 0 0 -139.95562426966353 -126.87808064140472 0 -126.87808064140472 121.83638659403391 0 0 0 0 -0.1293976484760293 -0.1163332136491313 0 -0.1163332136491313 1.0434101953978985 0 0 0 0 219.55034057894136 -268.68741223665666 0 -268.68741223665666 199.55920580279508 0 0 0 0 0.4011047351287047 -0.1021930708752059 0 -0.1021930708752059 -0.045367297840886778 0 0 0 0 267.61847022707116 -198.11062839102624 0 -198.11062839102624 51.863927233680442 0 0 0 0 56.569690739253474 -96.696046105146024 0 -96.696046105146024 215.29243106262675 0 0 0 0 129.73065513220536 -245.65957569685997 0 -245.65957569685997 160.67308987293382 0 0 0 0 339.34721310452574 -58.447323354151195 0 -58.447323354151195 -18.348298552145934 0 0 0 0 -0.62181014171269133 -0.022960431465135045 0 -0.022960431465135045 4.9468083160198759 0 0 0 0 135.80358833572063 -64.476817824058799 0 -64.476817824058799 45.555727705961544 0 0 0 0 90.267008273460306 -97.731185310718047 0 -97.731185310718047 37.727754989378809 0 0 0 0 -597.66182183365959 -68.546026914008053 0 -68.546026914008053 141.2398451809695 0 0 0 0 -0.2814449023978991 -0.22097868170011736 0 -0.22097868170011736 3.818712809926275 0 0 0 0 -687.34166330561402 19.505728627399094 0 19.505728627399094 59.520800711237825 0 0 0 0 -12.714059580905086 -402.73477223175314 0 -402.73477223175314 42.290897257171991 0 0 0 0 176.88172220733031 -130.75383148253741 0 -130.75383148253741 7.2441815594233958 0 0 0 0 -67.843651258428508 -291.19166813085985 0 -291.19166813085985 83.138647917519847 0 0 0 0 501.11882634698395 -175.63716727400538 0 -175.63716727400538 -99.364954970953477 0 0 0 0 286.69602212036534 -344.23092144701559 0 -344.23092144701559 -16.773890152437161 0 0 0 0 188.92470927702561 -123.0631824188149 0 -123.0631824188149 152.0469762465882 0 0 0 0 -127.8329371855209 -283.04353306367267 0 -283.04353306367267 -100.37580692938172 0 0 0 0 -82.373626101494665 -212.06609087048173 0 -212.06609087048173 -0.60515372734698758 0 0 0 0 -84.329980135762526 -244.36654289717171 0 -244.36654289717171 26.897007944571442 0 0 0 0 -39.359373827511263 -222.02555280586535 0 -222.02555280586535 21.997897845377793 0 0 0 0 -33.952123290837335 -182.34680389064761 0 -182.34680389064761 -15.618655623274208 0 0 0 0 -61.457159335428514 -171.20058001559778 0 -171.20058001559778 -30.757683796195124 0 0 0 0 -60.445709969082145 -166.65462515285935 0 -166.65462515285935 -16.509796117690712 0 0 0 0 -72.312711730313822 -173.71969363346761 0 -173.71969363346761 0.8710781384238544 0 0 0 0 0.14951300941838319 -3.2392463459133456 0 -3.2392463459133456 8.3181649087688463 0 0 0 0 -554.71125636130273 -251.36265918812575 0 -251.36265918812575 157.9399016266525 0 0 0 0 -73.556773698612233 -178.83120727470668 0 -178.83120727470668 -13.271375080605139 0 0 0 0 -371.92162103266401 -154.76800863731091 0 -154.76800863731091 15.373586330386729 0 0 0 0 192.91024363657016 -256.18865875018719 0 -256.18865875018719 -56.880316720103579 0 0 0 0 -38.382277152240931 -71.381627287753417 0 -71.381627287753417 -75.549196195653792 0 0 0 0 149.01543752735193 -198.60321358763079 0 -198.60321358763079 -13.50973322063146 0 0 0 0 49.169847711675175 3.187225726655015 0 3.187225726655015 11.404535590379055 0 0 0 0 741.19754671193868 -549.62196054511617 0 -549.62196054511617 399.2276964296168 0 0 0 0 456.00609017728584 -240.72010990511237 0 -240.72010990511237 70.946527336932206 0 0 0 0 248.4895601870021 -166.89563566433685 0 -166.89563566433685 44.834512119416786 0 0 0 0 -14.033289418216555 -227.01666945171519 0 -227.01666945171519 53.36131442761598 0 0 0 0 0.48765500390648153 -3.7680431756388799 0 -3.7680431756388799 8.8462971235602055 0 0 0 0 -649.27259295646627 -239.35352736266324 0 -239.35352736266324 549.58757725556893 0 0 0 0 -150.74055573048645 -6.6086051596128073 0 -6.6086051596128073 -48.656371816483443 0 0 0 0 -463.37745979763531 42.114897428375002 0 42.114897428375002 332.26891414287297 0 0 0 0 0.030886881719865755 -0.90598757596969648 0 -0.90598757596969648 4.2967417701532771 0 0 0 0 -135.65641564964335 -78.642431246750391 0 -78.642431246750391 268.62923043061301 0 0 0 0 -103.72563318266293 -189.29432578426145 0 -189.29432578426145 -71.584267500868009 0 0 0 0 -113.42697320969842 -157.13884957064133 0 -157.13884957064133 77.50068580291645 0 0 0 0 -47.472284371312071 -103.50163448027217 0 -103.50163448027217 107.5259487086696 0 0 0 0 -37.815302154451274 -122.03427152334393 0 -122.03427152334393 21.506368379725473 0 0 0 0 -8.8939216794169624 -88.302546786657103 0 -88.302546786657103 85.333721794683754 0 0 0 0 -36.759456073869387 -37.38974008304649 0 -37.38974008304649 211.87790547571103 0 0 0 0 16.820806516030643 -218.18508154260289 0 -218.18508154260289 507.77124986673743 0 0 0 0 -73.880239884890216 -23.375902217747807 0 -23.375902217747807 407.35582703303635 0 0 0 0 -7.2791838388288781 -4.4090112493481701 0 -4.4090112493481701 0.74907993693323638 0 0 0 0 -80.215380701346248 32.886607808693256 0 32.886607808693256 14.19419385468575 0 0 0 0 1.2565938858446728 1.1794439594166413 0 1.1794439594166413 1.5089555841107674 0 0 0 0 33.501449632381991 -134.86411651420894 0 -134.86411651420894 557.67520787822332 0 0 0 0 -97.339455348608681 -8.1825842828039868 0 -8.1825842828039868 390.00884312879543 0 0 0 0 -2.4631817184819269 -2.2794174430275684 0 -2.2794174430275684 -0.22905764729563519 0 0 0 0 -11.653187568887006 -198.13790111845913 0 -198.13790111845913 -89.676103314453997 0 0 0 0 53.933219250404363 -94.659003974045731 0 -94.659003974045731 269.8093167133963 0 0 0 0 -202.12792244322918 -212.63203616790264 0 -212.63203616790264 447.04809590357718 0 0 0 0 -208.4762102230593 -197.90763760809804 0 -197.90763760809804 470.16873615176746 0 0 0 0 90.790615773538775 -599.32239246579388 0 -599.32239246579388 704.7907584478362 0 0 0 0 -185.47302583037163 -164.84989150983318 0 -164.84989150983318 516.79040530980819 0 0 0 0 3.1608279276715621 -419.31448584687649 0 -419.31448584687649 545.87648062498954 0 0 0 0 273.54160404322647 -481.39264487702144 0 -481.39264487702144 61.802870278468276 0 0 0 0 349.88545463772425 -121.70966337343739 0 -121.70966337343739 49.760550387607623 0 0 0 0 560.97349649888338 -627.92817881476788 0 -627.92817881476788 491.54944077633644 0 0 0 0 1143.9241003557863 -368.7620954601735 0 -368.7620954601735 -142.85965305803325 0 0 0 0 0.21492217010974757 -1.7244039045564321 0 -1.7244039045564321 0.98665403304808263 0 0 0 0 -864.88174041207094 -43.173417542987238 0 -43.173417542987238 458.59555286144314 0 0 0 0 -333.09809312890275 365.72271222316346 0 365.72271222316346 78.153746938488894 0 0 0 0 13.406886052456684 -178.77365601757515 0 -178.77365601757515 123.59810406589332 0 0 0 0 -310.23777166486616 -422.61825146259253 0 -422.61825146259253 322.41889465191917 0 0 0 0 166.33238683314812 -330.01089402662541 0 -330.01089402662541 303.50793948915498 0 0 0 0 617.56445015102508 -314.38434308651256 0 -314.38434308651256 538.53454401836609 0 0 0 0 364.64445676511968 -91.811091506502663 0 -91.811091506502663 584.13858530302002 0 0 0 0 -45.704798149614362 -99.562551950163652 0 -99.562551950163652 237.12668426312979 0 0 0 0 67.087293866523396 -128.77743315736666 0 -128.77743315736666 183.49939630450172 0 0 0 0 -45.260489961932763 -113.48155362884324 0 -113.48155362884324 335.08088564328182 0 0 0 0 5.4580712790411781 -69.352741715525326 0 -69.352741715525326 111.74042229472161 0 0 0 0 9.826783752620031 -84.341079361765651 0 -84.341079361765651 163.12846625156908 0 0 0 0 -60.066643773463511 -110.50664606048133 0 -110.50664606048133 241.90408443982324 0 0 0 0 -42.632339062101892 -81.796751594400348 0 -81.796751594400348 141.44376752089568 0 0 0 0 -44.864287878395771 -139.6566679370344 0 -139.6566679370344 122.11775837811865 0 0 0 0 -16.272063123691623 -133.47525359462429 0 -133.47525359462429 131.95459495448085 0 0 0 0 -35.754242732062721 -84.890113304873239 0 -84.890113304873239 229.88151671348896 0 0 0 0 -12.965986799043094 -49.698295937281728 0 -49.698295937281728 226.00526875200845 0 0 0 0 5.7372129663344822 -123.84207507022597 0 -123.84207507022597 283.26609894575654 0 0 0 0 -46.942400067070537 -51.355946533177999 0 -51.355946533177999 322.03272401297454 0 0 0 0 -49.820792012037487 -96.810372458512632 0 -96.810372458512632 341.61624135478223 0 0 0 0 27.616230669958895 -82.914523199872178 0 -82.914523199872178 337.04263398363969 0 0 0 0 8.7440613082799246 -43.086445467789702 0 -43.086445467789702 354.79290892092428 0 0 0 0 -11.019496979819451 -87.720311671567572 0 -87.720311671567572 376.01526046025629 0 0 0 0 -3.4142464053617942 -3.3240751331373222 0 -3.3240751331373222 0.84948871366094925 0 0 0 0 -121.46583020248363 3.222479858847521 0 3.222479858847521 392.15806005465856 0 0 0 0 -97.704766893019041 -67.204378029797908 0 -67.204378029797908 353.98101826919333 0 0 0 0 -95.611968193045413 -79.810243035765495 0 -79.810243035765495 414.21484821453396 0 0 0 0 -93.368662675296946 -116.32047169877706 0 -116.32047169877706 339.43255241941893 0 0 0 0 -145.85337859403535 -192.02527999152278 0 -192.02527999152278 251.1504188727356 0 0 0 0 -239.72098718935013 -73.375371516667656 0 -73.375371516667656 416.26207961444084 0 0 0 0 -135.07448754086545 55.620960572745332 0 55.620960572745332 219.68450107441299 0 0 0 0 -243.04914781709158 -82.337149689963823 0 -82.337149689963823 78.126010975479971 0 0 0 0 -64.380066827370683 -71.936177278197079 0 -71.936177278197079 4.8993138663490754 0 0 0 0 -273.14561869166391 -7.4342581719177758 0 -7.4342581719177758 120.7858930104087 0 0 0 0 -236.58319211354137 36.351989606111154 0 36.351989606111154 -18.658949184413643 0 0 0 0 0.48377404369006172 -0.96385467706174666 0 -0.96385467706174666 -1.3837062443413863 0 0 0 0 184.60420686970429 -282.77955562152022 0 -282.77955562152022 125.62358064261798 0 0 0 0 -181.08464165084843 -81.56927706161747 0 -81.56927706161747 -4.0127561525814599 0 0 0 0 14.623274139674322 0.18707905653135981 0 0.18707905653135981 -15.446610016546174 0 0 0 0 -1.2671183447804921 -1.8079553957539189 0 -1.8079553957539189 -0.22024687630491868 0 0 0 0 -2.2607473316536826 -0.46709630398500224 0 -0.46709630398500224 1.2379001792022539 0 0 0 0 10.892628261954087 11.527906992947948 0 11.527906992947948 17.180533492024118 0 0 0 0 39.447187815207485 -62.914886840651192 0 -62.914886840651192 222.64721863406436 0 0 0 0 -1.4698683282313141 -288.68578485963894 0 -288.68578485963894 331.29527717128929 0 0 0 0 34.002051956062587 -182.53379126715527 0 -182.53379126715527 -297.63627387427573 0 0 0 0 24.054926714197791 -162.05523394541979 0 -162.05523394541979 74.867750376569347 0 0 0 0 174.28498605810637 -87.039927359944386 0 -87.039927359944386 14.51326522729596 0 0 0 0 69.995703306500218 -67.523815514221155 0 -67.523815514221155 170.26503268575664 0 0 0 0 4.8280286977387732 12.058768921105184 0 12.058768921105184 -94.260295373826125 0 0 0 0 66.76204220008367 -33.405470339188923 0 -33.405470339188923 -71.317863662165564 0 0 0 0 146.51649364124023 -161.05001009608964 0 -161.05001009608964 -123.33572530504853 0 0 0 0 -1.718104940257497 -2.1054123429976634 0 -2.1054123429976634 -4.0720267172745164 0 0 0 0 8.3711430304394412 115.50930456909717 0 115.50930456909717 -307.91174000856995 0 0 0 0 -175.43773757679992 -32.637907008674176 0 -32.637907008674176 22.87799194107572 0 0 0 0 14.108000110174544 -26.862201429593654 0 -26.862201429593654 1.9743776065776046 0 0 0 0 16.561321472909185 -31.81052233858918 0 -31.81052233858918 8.4486718773368921 0 0 0 0 -3.2091423712882445 -10.133013217944196 0 -10.133013217944196 -6.163510561101841 0 0 0 0 1.591053837993968 -1.9664683482187684 0 -1.9664683482187684 -69.841809290934975 0 0 0 0 4.986303894605399 -13.189130852136802 0 -13.189130852136802 13.650837501420391 0 0 0 0 2.3285924593292293 -58.195381774229645 0 -58.195381774229645 -36.806741102237254 0 0 0 0 -140.68363555877113 -104.5840344365356 0 -104.5840344365356 -23.672096841281927 0 0 0 0 -110.64362998744764 -92.933992779203322 0 -92.933992779203322 -19.285702378784833 0 0 0 0 -67.464605688345955 -21.699246240488748 0 -21.699246240488748 36.176241211820297 0 0 0 0 4.4740082835142232 -8.5553469548012409 0 -8.5553469548012409 13.006933943553808 0 0 0 0 50.665133223112662 -88.342740868540716 0 -88.342740868540716 -35.369415012171885 0 0 0 0 -57.538185762166904 -90.400239502797604 0 -90.400239502797604 38.189642993657799 0 0 0 0 0.30005141387163436 -6.450975598981934 0 -6.450975598981934 -4.0473026846219913 0 0 0 0 -171.8106818351107 -63.113975979077736 0 -63.113975979077736 1199.6376856627176 0 0 0 0 423.27589879067347 -65.578093887015399 0 -65.578093887015399 39.846287817869552 0 0 0 0 152.94281818569107 44.631585309513298 0 44.631585309513298 -502.50698611998382 0 0 0 0 -20.936623440093172 245.97728948792636 0 245.97728948792636 200.80099323301539 0 0 0 0 27.258001769487237 297.52362601089811 0 297.52362601089811 -101.87407643059825 0 0 0 0 2.8772395339734693 2.5674400721774262 0 2.5674400721774262 2.7124715958567331 0 0 0 0 73.48299803034206 -590.28475667322095 0 -590.28475667322095 763.57249847735636 0 0 0 0 333.62871446808367 -740.14203071271959 0 -740.14203071271959 -1036.7578656965263 0 0 0 0 312.5088932005674 -94.647337307455473 0 -94.647337307455473 142.00888135121204 0 0 0 0 641.19791781581353 -66.492456228605135 0 -66.492456228605135 139.02424933109762 0 0 0 0 157.65809545295633 -184.01719725746375 0 -184.01719725746375 303.3607437253371 0 0 0 0 144.57726711700889 -95.40601512051154 0 -95.40601512051154 305.81765938334638 0 0 0 0 300.55219310061011 -65.079258787387971 0 -65.079258787387971 91.559848401173667 0 0 0 0 249.37174988092556 -73.717884963211532 0 -73.717884963211532 91.708877025976619 0 0 0 0 313.92430959741614 24.056779989052075 0 24.056779989052075 -16.097634246107418 0 0 0 0 210.63511014391042 10.026685350522371 0 10.026685350522371 -86.014050588661121 0 0 0 0 55.415699149338252 -67.042972586698738 0 -67.042972586698738 156.16155825647724 0 0 0 0 147.74776414173675 -78.253166080239282 0 -78.253166080239282 157.47752984830441 0 0 0 0 -2.1326483990869747 15.965844442278097 0 15.965844442278097 340.07199044965336 0 0 0 0 -62.156953994410287 -123.75339827698016 0 -123.75339827698016 407.27700124045646 0 0 0 0 -35.267917946127 105.56818106156865 0 105.56818106156865 -164.94485608893251 0 0 0 0 -294.59181962755611 -207.7032789594856 0 -207.7032789594856 164.96599781392746 0 0 0 0 75.467311950495059 -213.14189674180727 0 -213.14189674180727 -280.64046523809884 0 0 0 0 -147.39705107962209 -242.07459963706282 0 -242.07459963706282 -78.978987906582688 0 0 0 0 3.6358089743735036 -132.28357286899063 0 -132.28357286899063 -13.632293645311563 0 0 0 0 85.095995793206384 -191.36989891570136 0 -191.36989891570136 -90.77582007097385 0 0 0 0 145.75748139115149 -91.938755994186209 0 -91.938755994186209 -115.07094167562377 0 0 0 0 184.08402511236454 -132.10106412150952 0 -132.10106412150952 -79.765299176298868 0 0 0 0 256.08691877693082 -31.986086809401826 0 -31.986086809401826 -70.180909528119855 0 0 0 0 146.43346219473733 -113.50493198430564 0 -113.50493198430564 -27.642511401386855 0 0 0 0 123.87639676798426 -90.789321308220337 0 -90.789321308220337 -26.063573616432564 0 0 0 0 254.50667338135281 -82.252820959117344 0 -82.252820959117344 -21.645714952601338 0 0 0 0 30.614757847690271 -171.62554777628884 0 -171.62554777628884 -158.35910627640123 0 0 0 0 0.29782803712024064 -8.0212087694041561 0 -8.0212087694041561 -19.029660519720998 0 0 0 0 289.26918769711574 -61.902686624323849 0 -61.902686624323849 -54.250546263158782 0 0 0 0 396.881146542446 -122.4824573277665 0 -122.4824573277665 -98.284793170932971 0 0 0 0 -3.3386773826742679 -13.487744690039099 0 -13.487744690039099 0.90795566265629901 0 0 0 0 166.710149200464 -106.5559031830353 0 -106.5559031830353 311.98604423019424 0 0 0 0 1036.0661935260614 -382.25550507278058 0 -382.25550507278058 91.615605742643311 0 0 0 0 136.89201809101874 -84.940218775594602 0 -84.940218775594602 -26.059965638128006 0 0 0 0 361.97069924999778 -179.07116904249688 0 -179.07116904249688 -42.813720534242748 0 0 0 0 1.2516251952450852 -9.1007432054904083 0 -9.1007432054904083 -36.08108525988942 0 0 0 0 203.46809534881805 -169.67603838934951 0 -169.67603838934951 95.647787500671257 0 0 0 0 109.66619160775372 -81.178789558179119 0 -81.178789558179119 0.71674428722303674 0 0 0 0 55.917562440172333 -130.3899089361106 0 -130.3899089361106 -24.473460244628484 0 0 0 0 37.141425056322987 -84.234340306093941 0 -84.234340306093941 2.0609485395111591 0 0 0 0 246.62744386902705 -275.59884375394904 0 -275.59884375394904 135.69908443393615 0 0 0 0 -12.503449234100415 -23.579626524443729 0 -23.579626524443729 -28.6317838643741 0 0 0 0 38.978726644850994 -159.26006360426877 0 -159.26006360426877 265.5909578435203 0 0 0 0 28.178070043565413 -130.83247181019544 0 -130.83247181019544 21.825072088461525 0 0 0 0 10.590835554923615 -144.17999763663494 0 -144.17999763663494 48.319629717948317 0 0 0 0 56.485140964202401 -143.29517816732701 0 -143.29517816732701 16.595382055660707 0 0 0 0 65.399283555323564 -148.54479194702759 0 -148.54479194702759 -9.3511508358402011 0 0 0 0 0.74700464526176802 -40.99260568430563 0 -40.99260568430563 4.7884818753886975 0 0 0 0 269.61559327238228 -38.395273695355343 0 -38.395273695355343 -23.139011979928114 0 0 0 0 25.454454717659246 -181.09096895643918 0 -181.09096895643918 75.446444230972702 0 0 0 0 562.59211310127102 -90.95743569135368 0 -90.95743569135368 -163.30433151271052 0 0 0 0 375.33983411954614 -270.2042104547063 0 -270.2042104547063 97.554648524386835 0 0 0 0 -348.45261619411394 -268.2471775771229 0 -268.2471775771229 544.72795021312754 0 0 0 0 94.8027050334195 -102.19928292991153 0 -102.19928292991153 -5.8210612012444471 0 0 0 0 -26.121823724836119 -35.540243064122805 0 -35.540243064122805 -37.118215408665982 0 0 0 0 35.310798776521239 -50.853879733018857 0 -50.853879733018857 16.252619717954076 0 0 0 0 85.098751215514312 -136.34957304493582 0 -136.34957304493582 64.125377873764592 0 0 0 0 43.396906931413469 -120.51560066708589 0 -120.51560066708589 101.30248878448401 0 0 0 0 19.705042926785495 -127.21511742479197 0 -127.21511742479197 73.139241176057112 0 0 0 0 75.014049804732167 -137.91875779101611 0 -137.91875779101611 105.30293794952013 0 0 0 0 81.709193437215617 -124.94998349801062 0 -124.94998349801062 107.74399302971324 0 0 0 0 88.574690180475045 -141.07442521368193 0 -141.07442521368193 67.232335319542472 0 0 0 0 92.485888482727205 -128.61261391984954 0 -128.61261391984954 63.846053091234353 0 0 0 0 -102.06081912119225 16.951658626276412 0 16.951658626276412 76.872551933379924 0 0 0 0 -17.781996460445782 -28.50779389172536 0 -28.50779389172536 -31.404684326493459 0 0 0 0 91.753246522678637 -129.41850721732044 0 -129.41850721732044 54.075987142012309 0 0 0 0 78.517448642332965 -141.08715399698303 0 -141.08715399698303 54.716533495142357 0 0 0 0 115.75540308496693 -151.32497073011382 0 -151.32497073011382 74.76260302583978 0 0 0 0 92.161312693420768 -127.46107238089462 0 -127.46107238089462 62.60271044320325 0 0 0 0 100.9236742307221 -135.60863155829611 0 -135.60863155829611 60.577715909021208 0 0 0 0 62.411640583393819 -89.884268825197069 0 -89.884268825197069 111.57133754361757 0 0 0 0 125.63018336306868 -116.39710980665313 0 -116.39710980665313 65.131958037083677 0 0 0 0 75.504242505709954 -104.08529498187727 0 -104.08529498187727 62.611436648345261 0 0 0 0 107.053170915191 -78.13075583487489 0 -78.13075583487489 11.580550828319247 0 0 0 0 47.166484415678497 -66.151093597904037 0 -66.151093597904037 81.004112200062082 0 0 0 0 21.946662459009531 9.3589658986975337 0 9.3589658986975337 32.376288193499931 0 0 0 0 105.15228310675502 -34.696213296272617 0 -34.696213296272617 18.309347306058044 0 0 0 0 120.79816205488032 -18.710429927681616 0 -18.710429927681616 -22.854605059106689 0 0 0 0 209.09787960210815 -115.74587724035882 0 -115.74587724035882 23.490788210332539 0 0 0 0 -9.8175993849017686 -301.77420076510077 0 -301.77420076510077 -358.34932474314667 0 0 0 0 -174.1848172586906 -2.5735045563017138 0 -2.5735045563017138 21.213791539528074 0 0 0 0 -0.76737973550343241 -2.0883604103968736 0 -2.0883604103968736 -3.3743415400978192 0 0 0 0 -580.25238825295673 -115.00321486450363 0 -115.00321486450363 15.514770797198139 0 0 0 0 -104.9771879861637 -296.42952012451792 0 -296.42952012451792 -474.69527301079052 0 0 0 0 -142.79001425240858 -92.398784154177349 0 -92.398784154177349 6.9161896871740964 0 0 0 0 -304.97979672096881 -146.58622744690558 0 -146.58622744690558 -4.3066118333829309 0 0 0 0 -148.34460934542585 -26.803815064020228 0 -26.803815064020228 23.250684816038287 0 0 0 0 -71.205674161686602 -19.653995398494473 0 -19.653995398494473 -4.4298293043141257 0 0 0 0 -75.100382877439188 -57.848504374184813 0 -57.848504374184813 -5.3045979577148046 0 0 0 0 -1.2861963567260233 -9.0442190110496963 0 -9.0442190110496963 -2.7176470514998687 0 0 0 0 5.5477849559675505 -10.498126437012509 0 -10.498126437012509 7.5805807251158202 0 0 0 0 21.227744674330097 -39.614780361632484 0 -39.614780361632484 -2.2441042988518802 0 0 0 0 31.506287263558988 -22.156885056426972 0 -22.156885056426972 2.2876211623202742 0 0 0 0 2.3534249908294704 -2.6668570541716914 0 -2.6668570541716914 3.9653866226918706 0 0 0 0 384.04421500751118 -57.614476974317476 0 -57.614476974317476 -20.809273751408909 0 0 0 0 19.287955495548886 -37.099694523705239 0 -37.099694523705239 -24.247838204474363 0 0 0 0 -15.933915378256643 -74.262832956357101 0 -74.262832956357101 47.258141958451347 0 0 0 0 -30.201096947068436 38.777504250802053 0 38.777504250802053 23.506232718514184 0 0 0 0 -278.41007746065588 -383.80427790838178 0 -383.80427790838178 -140.35802406227708 0 0 0 0 -43.764792541949646 57.033391947676705 0 57.033391947676705 -164.63547255869855 0 0 0 0 21.961683750701923 -10.064608978048511 0 -10.064608978048511 130.47639481272017 0 0 0 0 137.25071961103276 -302.93839773543391 0 -302.93839773543391 80.289357591090749 0 0 0 0 -14.307315501185258 -124.63460997397851 0 -124.63460997397851 110.28714137117004 0 0 0 0 -50.686588912725711 -402.42851266301898 0 -402.42851266301898 180.02254586901108 0 0 0 0 -530.72233015834945 186.28930356066292 0 186.28930356066292 -23.581143124181835 0 0 0 0 -113.78688871516533 -53.397419349790312 0 -53.397419349790312 61.829991287573876 0 0 0 0 -43.949034572093296 -570.52570639992666 0 -570.52570639992666 -36.811039086171604 0 0 0 0 -0.98540736651172267 -1.5832625341395428 0 -1.5832625341395428 -1.977875231365871 0 0 0 0 -221.42754898022031 15.417060511539603 0 15.417060511539603 160.60929889356703 0 0 0 0 -8.150099088652496 90.563541274773826 0 90.563541274773826 -196.99449863826476 0 0 0 0 12.766015522607631 -93.439965342793812 0 -93.439965342793812 397.1040120418661 0 0 0 0 -134.34231628590715 53.803071577757237 0 53.803071577757237 -3.80998142914666 0 0 0 0 -72.202352177424473 -186.47490396456328 0 -186.47490396456328 363.48006763485819 0 0 0 0 -3.9645225105785471 -5.5897836084944572 0 -5.5897836084944572 0.76496874713264695 0 0 0 0 -0.69221077917196538 -3.0333120896511865 0 -3.0333120896511865 -1.1475521981605192 0 0 0 0 186.33302757771162 -205.2774015244139 0 -205.2774015244139 124.20245550619165 0 0 0 0 -11.635357412196754 -28.659286723916466 0 -28.659286723916466 316.35701966321744 0 0 0 0 171.88739106434514 -31.102003479523205 0 -31.102003479523205 61.224075652194188 0 0 0 0 128.71744139925431 72.062458439194643 0 72.062458439194643 98.812552790275731 0 0 0 0 -39.734377137425327 -30.502849608137922 0 -30.502849608137922 128.64147988896639 0 0 0 0 -55.725018855731832 -54.507407247648018 0 -54.507407247648018 99.942688581054654 0 0 0 0 -7.871235186764352 -29.172245976380623 0 -29.172245976380623 92.451603152589087 0 0 0 0 0.044926244261660031 -41.52696231274922 0 -41.52696231274922 95.669197588301813 0 0 0 0 5.6405263848500908 21.652705827861951 0 21.652705827861951 116.68255755054469 0 0 0 0 -0.63079268361980212 -20.396162901095579 0 -20.396162901095579 -10.787026970939678 0 0 0 0 16.098308256972814 -43.63925208564828 0 -43.63925208564828 -15.408251150460448 0 0 0 0 33.271310430365702 -44.814843265638785 0 -44.814843265638785 -62.941844336617464 0 0 0 0 33.207882886174048 -66.743185740582419 0 -66.743185740582419 52.652116532588877 0 0 0 0 8.6465279933108832 52.85985740937258 0 52.85985740937258 95.887251438378229 0 0 0 0 43.269694409647855 12.975807334481345 0 12.975807334481345 -92.072349687262204 0 0 0 0 5.1696363694645697 -72.701929431158177 0 -72.701929431158177 -104.96885432454478 0 0 0 0 23.055943487534023 -88.336466818039113 0 -88.336466818039113 -146.03572424373053 0 0 0 0 -90.977541186948656 -215.28341416598926 0 -215.28341416598926 -215.73751871488616 0 0 0 0 33.938132447470707 -39.569622923723863 0 -39.569622923723863 -89.668328673890841 0 0 0 0 25.053597904054186 -67.723060274305226 0 -67.723060274305226 -68.911987174319677 0 0 0 0 7.0770408680727996 -103.13478483643956 0 -103.13478483643956 -130.2226563395385 0 0 0 0 20.165179328087106 -61.389391478912273 0 -61.389391478912273 -77.094081298699734 0 0 0 0 -11.459321697129781 -90.023637798048867 0 -90.023637798048867 -84.636426629456651 0 0 0 0 31.426048252225883 -67.268463779395745 0 -67.268463779395745 -91.673877650970553 0 0 0 0 -18.655167305976647 -88.920228969598725 0 -88.920228969598725 -71.12954566568078 0 0 0 0 -54.059302853518602 -135.94696489419218 0 -135.94696489419218 -105.37303319664011 0 0 0 0 -22.540576223422249 -107.05290894806325 0 -107.05290894806325 -89.870164090776029 0 0 0 0 -173.11079634973794 -133.16995031738213 0 -133.16995031738213 -31.717077858632706 0 0 0 0 29.390370848395833 -67.813530656020021 0 -67.813530656020021 -58.429949372474539 0 0 0 0 25.689694922933995 -58.350185748608112 0 -58.350185748608112 -66.827253569181465 0 0 0 0 -9.381850941637822 -62.096604135293944 0 -62.096604135293944 -58.923333452602492 0 0 0 0 31.212716888850991 -69.125799365451854 0 -69.125799365451854 -64.091931965948902 0 0 0 0 30.207389271621651 -69.139456605820556 0 -69.139456605820556 -74.028439016273182 0 0 0 0 25.201366630513803 -65.096566725085381 0 -65.096566725085381 -72.203086987876759 0 0 0 0 37.002533396494982 -58.87769653965816 0 -58.87769653965816 -77.700265909414952 0 0 0 0 34.733866603479328 -56.982157275433622 0 -56.982157275433622 -69.19596731775755 0 0 0 0 23.03481519341949 -67.150817312392292 0 -67.150817312392292 -71.981366345496227 0 0 0 0 37.208916634666821 -60.938828518235312 0 -60.938828518235312 -54.137360956928092 0 0 0 0 37.474864088319009 -52.621973677174651 0 -52.621973677174651 -67.502241288046832 0 0 0 0 36.651339676496718 -47.702754803009157 0 -47.702754803009157 -41.918280834038455 0 0 0 0 23.650355780531754 -45.49702958885544 0 -45.49702958885544 -47.256613006421276 0 0 0 0 34.543049318948761 -60.498585828450075 0 -60.498585828450075 -65.756690186057114 0 0 0 0 9.1514390198499314 -65.7779985624815 0 -65.7779985624815 -63.157272022984657 0 0 0 0 3.8730279917108419 -27.997394042881183 0 -27.997394042881183 -8.8922794821241951 0 0 0 0 33.351568602574844 -66.570449449331647 0 -66.570449449331647 -13.934941972088609 0 0 0 0 43.371749550922686 -56.877521815147929 0 -56.877521815147929 -46.016290630892797 0 0 0 0 31.17870367528667 -44.595038344650447 0 -44.595038344650447 7.4516606634689424 0 0 0 0 26.673187750739089 -43.999176862733066 0 -43.999176862733066 -13.427841965205971 0 0 0 0 41.084338755772478 -62.4921204689457 0 -62.4921204689457 -8.62071595322044 0 0 0 0 111.46513301241066 -92.620525877846603 0 -92.620525877846603 31.622794097019323 0 0 0 0 -24.394820035569865 -102.05060088501523 0 -102.05060088501523 139.57373260715485 0 0 0 0 35.369993112171869 -28.319176611394141 0 -28.319176611394141 17.333461347924867 0 0 0 0 38.312051217684711 -10.402514446724808 0 -10.402514446724808 85.487509668215353 0 0 0 0 109.9477374879225 -188.53423009032917 0 -188.53423009032917 214.50697638018983 0 0 0 0 43.051352032307477 -54.538935588237109 0 -54.538935588237109 38.676597391787482 0 0 0 0 -12.231510409052134 -93.653869986731706 0 -93.653869986731706 60.501039253062117 0 0 0 0 -91.718820389229222 -62.153952138376781 0 -62.153952138376781 60.386624012233483 0 0 0 0 -81.539206898338307 -34.281984866498988 0 -34.281984866498988 88.523656403267296 0 0 0 0 -99.344397157205094 -65.123733234999236 0 -65.123733234999236 38.714376713524871 0 0 0 0 -171.49352244710462 -66.054990636141611 0 -66.054990636141611 51.021283074153871 0 0 0 0 -115.27696653625753 -57.765932360648094 0 -57.765932360648094 31.474292518809762 0 0 0 0 -115.37856587168062 -51.334352430029639 0 -51.334352430029639 50.707114620906395 0 0 0 0 -119.90116458384728 -41.741243012859968 0 -41.741243012859968 53.749717127038821 0 0 0 0 -167.84918510412535 -52.801756780961114 0 -52.801756780961114 67.538476954849102 0 0 0 0 -92.695153731014216 -50.871590947456838 0 -50.871590947456838 11.393597013888211 0 0 0 0 -0.79365263475327907 0.94763958488161393 0 0.94763958488161393 -0.49645800936410467 0 0 0 0 -352.8785337422305 -47.987854351845726 0 -47.987854351845726 83.776013296674591 0 0 0 0 6.4598044425322243 -16.539616712906309 0 -16.539616712906309 43.266763700751987 0 0 0 0 -428.49640255550912 210.09996178454139 0 210.09996178454139 -257.24578935466707 0 0 0 0 79.114215824236453 -3.8800042995299009 0 -3.8800042995299009 -35.067830687548849 0 0 0 0 64.629562098896713 6.56664920548792 0 6.56664920548792 -10.964125534661434 0 0 0 0 -208.76301790819616 -79.999506451841043 0 -79.999506451841043 61.758719436392767 0 0 0 0 -192.89406485597283 -21.903748510046171 0 -21.903748510046171 46.272616100117375 0 0 0 0 36.554540154858842 16.661196211491188 0 16.661196211491188 5.03773753150017 0 0 0 0 -171.24958459449863 -93.960271541818599 0 -93.960271541818599 29.298972010399439 0 0 0 0 -140.74388539312349 -80.449077992508222 0 -80.449077992508222 -6.139782906102937 0 0 0 0 -165.33996031237257 -579.49032734891807 0 -579.49032734891807 408.84263754338554 0 0 0 0 -145.34878983860835 -56.667872142003716 0 -56.667872142003716 -4.3531134324704084 0 0 0 0 -177.42224478643766 -63.329333133732717 0 -63.329333133732717 8.3143990494561422 0 0 0 0 -134.08724475516647 -72.791507238441113 0 -72.791507238441113 -1.9531579072686327 0 0 0 0 -109.691647609965 -57.83814510222976 0 -57.83814510222976 -7.2162553626205579 0 0 0 0 -54.358489039674168 -45.638927425839313 0 -45.638927425839313 -10.74367209441985 0 0 0 0 -96.352343212078267 -73.864835871913044 0 -73.864835871913044 -22.634035279807108 0 0 0 0 -42.70793897403928 -63.707573966625603 0 -63.707573966625603 -30.87761482463327 0 0 0 0 -42.150208800301925 -35.750503289484435 0 -35.750503289484435 11.527103830942451 0 0 0 0 -41.839119674717949 -48.666080915267003 0 -48.666080915267003 12.275514940064056 0 0 0 0 -95.000928303095861 -64.491849643836758 0 -64.491849643836758 -0.17949686776421458 0 0 0 0 -145.75439703455595 -71.31382007343484 0 -71.31382007343484 30.967393221865677 0 0 0 0 -99.144433467299677 -54.939320869672656 0 -54.939320869672656 0.91724710726066405 0 0 0 0 143.44449557026383 -10.756823479803643 0 -10.756823479803643 -214.96547795542472 0 0 0 0 121.53443846858863 -199.35034152083153 0 -199.35034152083153 90.398527314282546 0 0 0 0 258.19228812708752 -178.52841066970768 0 -178.52841066970768 -200.71194064533483 0 0 0 0 84.535149815026671 -115.96388529166597 0 -115.96388529166597 -96.373402544952114 0 0 0 0 102.86535178493796 -39.487481191254119 0 -39.487481191254119 -85.144846493414661 0 0 0 0 53.250397153271479 -28.19727445290664 0 -28.19727445290664 -49.434114798021255 0 0 0 0 97.221027739527926 -25.229282492427956 0 -25.229282492427956 -59.958346926217928 0 0 0 0 61.261009401394404 -90.778635588161706 0 -90.778635588161706 31.306557088839327 0 0 0 0 12.113161877990933 -56.90458483477596 0 -56.90458483477596 50.769371633881747 0 0 0 0 19.884351260203402 -32.766546462255064 0 -32.766546462255064 17.057084883173957 0 0 0 0 44.168905535840167 -58.463317209204433 0 -58.463317209204433 -12.536802309205086 0 0 0 0 24.842697019965271 -37.270634358570533 0 -37.270634358570533 21.001344855205389 0 0 0 0 22.970739693933865 -20.749162792240895 0 -20.749162792240895 7.3141321913390129 0 0 0 0 47.045218269835459 -19.15442935176543 0 -19.15442935176543 -8.195592910193227 0 0 0 0 52.703002085356275 -25.428786099952049 0 -25.428786099952049 -9.5274486460325534 0 0 0 0 63.52231731628126 -20.278091697779018 0 -20.278091697779018 -39.956293828756316 0 0 0 0 55.221500601095613 -24.043590253106231 0 -24.043590253106231 -41.358278665649777 0 0 0 0 75.534974653152858 -25.139682630805282 0 -25.139682630805282 -54.417847407290537 0 0 0 0 52.216532414109679 -11.489690100606822 0 -11.489690100606822 -35.343509584668936 0 0 0 0 -38.81129971408518 30.501092528769732 0 30.501092528769732 -48.787462798607521 0 0 0 0 143.24987911254721 107.58443874028217 0 107.58443874028217 -106.99910568613268 0 0 0 0 -86.621967361490533 197.13096059371492 0 197.13096059371492 -141.71509796531427 0 0 0 0 63.962520378507179 -0.60030487900598928 0 -0.60030487900598928 -77.690781116143626 0 0 0 0 -12.47040050211217 41.277390661949539 0 41.277390661949539 -70.359001354743668 0 0 0 0 167.19044731856411 -52.168247424299807 0 -52.168247424299807 -193.80742424916934 0 0 0 0 200.42777037514315 55.86048204394001 0 55.86048204394001 -211.73096865317166 0 0 0 0 228.73942008076847 38.856549616870325 0 38.856549616870325 -272.84597602583381 0 0 0 0 324.23581774655759 -135.68602842440123 0 -135.68602842440123 -231.68444873669614 0 0 0 0 565.20937769512966 45.01648328407191 0 45.01648328407191 -299.8552559771415 0 0 0 0 404.00735189370062 370.46961232392096 0 370.46961232392096 -167.66522760533189 0 0 0 0 -365.01959174705189 142.35690608039658 0 142.35690608039658 63.94676234416329 0 0 0 0 -508.098722615101 491.27355055775297 0 491.27355055775297 -815.47320872399723 0 0 0 0 -0.62818965162396978 0.048286238821923178 0 0.048286238821923178 1.5664593995771696 0 0 0 0 -223.66360967655783 549.76835951000976 0 549.76835951000976 -80.919386328045221 0 0 0 0 -338.36715877171446 -246.63842021715271 0 -246.63842021715271 -43.122715634904353 0 0 0 0 5.8360933845884517 -13.919798289570522 0 -13.919798289570522 28.372826027448344 0 0 0 0 460.90142431851564 -933.22499233628969 0 -933.22499233628969 1220.8753979359135 0 0 0 0 -294.98939247604903 -102.08209493826556 0 -102.08209493826556 -12.355152511443066 0 0 0 0 1463.1349554668559 -94.770729253390527 0 -94.770729253390527 -230.22625096190109 0 0 0 0 419.95967235673015 -773.0079599683404 0 -773.0079599683404 417.11300754143667 0 0 0 0 645.10423366567557 512.14879400368955 0 512.14879400368955 -414.83205232800174 0 0 0 0 480.2425100835535 -1091.9930193216378 0 -1091.9930193216378 1925.0877694331666 0 0 0 0 598.3585865516452 401.50286522762576 0 401.50286522762576 981.59346566853128 0 0 0 0 -61.899361794115975 -75.254077690376732 0 -75.254077690376732 -48.921411896368738 0 0 0 0 -60.726577829911548 -80.203154644249253 0 -80.203154644249253 -48.919781944294158 0 0 0 0 -41.574020757332619 -75.298650160728073 0 -75.298650160728073 -51.648352475394802 0 0 0 0 -21.615959378545085 -45.661087571332331 0 -45.661087571332331 -33.492263154698435 0 0 0 0 -73.125919562975469 -59.798165982943942 0 -59.798165982943942 -24.585235940424468 0 0 0 0 -108.1268544415434 -90.795430374418814 0 -90.795430374418814 -39.012290577884514 0 0 0 0 -117.83945050640614 -78.285156577218146 0 -78.285156577218146 -20.972283998981133 0 0 0 0 -190.87341227503202 -100.6619797190958 0 -100.6619797190958 -4.485724508933572 0 0 0 0 -144.95652492935187 -88.426296085874725 0 -88.426296085874725 -16.123156161725774 0 0 0 0 6.7363398931125715 -17.528037519963348 0 -17.528037519963348 38.201534572034319 0 0 0 0 -159.11835919094301 -98.323575216476087 0 -98.323575216476087 -40.09787731802092 0 0 0 0 -107.20125801906397 -104.93220563749595 0 -104.93220563749595 -51.376671490749004 0 0 0 0 -116.21093597212894 -92.424216178082531 0 -92.424216178082531 -45.760985427079618 0 0 0 0 -156.3434960284776 -106.11727006988276 0 -106.11727006988276 -29.414709243822642 0 0 0 0 -52.128870650769386 -87.024327842037167 0 -87.024327842037167 -64.429307035878253 0 0 0 0 -122.68864381291496 -97.584530156311303 0 -97.584530156311303 -65.230778095593337 0 0 0 0 -193.10122523768223 -76.32368786660993 0 -76.32368786660993 -45.522735172347183 0 0 0 0 -167.19440986985137 -123.39874570123754 0 -123.39874570123754 -46.792637988987963 0 0 0 0 -103.9625656488497 -126.47176687687738 0 -126.47176687687738 -82.161621426055262 0 0 0 0 -202.57088256424322 -167.82599780708563 0 -167.82599780708563 -62.058758733819332 0 0 0 0 -54.53515112587047 -86.24767035417949 0 -86.24767035417949 -65.43546984071611 0 0 0 0 -111.83423550770021 -115.28274309533344 0 -115.28274309533344 -55.533030533839565 0 0 0 0 4.5693612604154623 -77.731291495531877 0 -77.731291495531877 -62.270055499302657 0 0 0 0 -53.950323311742977 -84.409430837169069 0 -84.409430837169069 -53.021737840197375 0 0 0 0 -7.4141527578249224 -75.192447206548593 0 -75.192447206548593 -64.618195582534668 0 0 0 0 -5.1086656637598935 -61.074196506762746 0 -61.074196506762746 -47.208499422632826 0 0 0 0 -21.131310146291071 -89.13273079566909 0 -89.13273079566909 80.030310161970647 0 0 0 0 15.343769780458388 -77.313126500653652 0 -77.313126500653652 -18.609497570863823 0 0 0 0 -9.4128084482654231 -103.59309087784095 0 -103.59309087784095 43.530258742910519 0 0 0 0 -47.379939360449498 -103.84315628165245 0 -103.84315628165245 -23.595600235918027 0 0 0 0 -51.670842738545616 -54.557768274044065 0 -54.557768274044065 2.6994682792909543 0 0 0 0 -118.08098775448161 -108.33981265004115 0 -108.33981265004115 -34.931882802292421 0 0 0 0 -38.39683423214592 -89.844474360413642 0 -89.844474360413642 -53.374468778533128 0 0 0 0 -183.70880403442425 -165.69240269782335 0 -165.69240269782335 -64.424221322467929 0 0 0 0 -100.19995085696428 -59.630485738142625 0 -59.630485738142625 89.744243067461866 0 0 0 0 -65.804171385501832 -59.563639880437677 0 -59.563639880437677 -150.63665705725634 0 0 0 0 -99.735721577628283 -71.081380062285348 0 -71.081380062285348 196.01592678139059 0 0 0 0 -148.20400113656433 -114.66036360659336 0 -114.66036360659336 323.74300501155585 0 0 0 0 -81.087269380492216 -64.850211740551913 0 -64.850211740551913 90.724041584412532 0 0 0 0 -42.39301472378429 -184.13170802617651 0 -184.13170802617651 254.77748070771213 0 0 0 0 -132.1941581268984 -186.75201661168535 0 -186.75201661168535 299.71860689495043 0 0 0 0 -59.877898785452999 -150.7538912787295 0 -150.7538912787295 218.29998277384578 0 0 0 0 14.202814219172069 -157.93908938396817 0 -157.93908938396817 118.56499224984873 0 0 0 0 1146.7977516606461 -1192.0429978553534 0 -1192.0429978553534 594.01190647924523 0 0 0 0 515.39100192925252 -1052.065723016527 0 -1052.065723016527 933.25079480480781 0 0 0 0 1.4892932066965692 -2.2898488189205608 0 -2.2898488189205608 1.0622713225317604 0 0 0 0 -299.77142763507072 1219.6589228355247 0 1219.6589228355247 -1120.577412820363 0 0 0 0 -148.15459515796829 -245.66434883970874 0 -245.66434883970874 -207.48507607594638 0 0 0 0 -135.13555761977477 19.902823999538896 0 19.902823999538896 -215.94584695594284 0 0 0 0 -146.54449918890532 5.9123503102161976 0 5.9123503102161976 124.13641566671367 0 0 0 0 -376.49828494757821 -21.241002586755485 0 -21.241002586755485 488.92102088205729 0 0 0 0 -248.50128196185324 -85.036445920670758 0 -85.036445920670758 364.78415762975169 0 0 0 0 -249.24467654870023 -372.62718527627703 0 -372.62718527627703 1001.9802595491647 0 0 0 0 1889.7712103521553 -1632.7364995712624 0 -1632.7364995712624 1822.032319693215 0 0 0 0 899.76601886040226 -821.71969622328652 0 -821.71969622328652 47.676239140563666 0 0 0 0 1468.7837135690279 -471.13064749982732 0 -471.13064749982732 -280.09464173016227 0 0 0 0 2.9582475885394288 -5.6238268385461581 0 -5.6238268385461581 10.939644057501274 0 0 0 0 869.03502646014022 -320.56563953325121 0 -320.56563953325121 -113.76631103726459 0 0 0 0 439.35878366734323 -982.02979960597577 0 -982.02979960597577 824.69270437242665 0 0 0 0 85.409734468090392 -556.95369030433994 0 -556.95369030433994 322.26174214641287 0 0 0 0 86.99724930388129 -541.19776686617956 0 -541.19776686617956 459.92048688851992 0 0 0 0 443.41101364677888 -531.02671984857011 0 -531.02671984857011 103.5384503384239 0 0 0 0 165.32466809645211 -472.16393177695591 0 -472.16393177695591 278.48705042913389 0 0 0 0 174.24713375220972 -542.97160663607303 0 -542.97160663607303 316.52961277214217 0 0 0 0 378.91789078600414 -43.005269992246895 0 -43.005269992246895 -202.64989627374007 0 0 0 0 -8.7587233036938414 -242.63706841074645 0 -242.63706841074645 252.60028886322652 0 0 0 0 -4.33148300200628 -241.77099615119005 0 -241.77099615119005 236.77106114119215 0 0 0 0 -58.39270879398282 -298.74100509393179 0 -298.74100509393179 431.11737692533734 0 0 0 0 -146.135123317752 -313.24019988527857 0 -313.24019988527857 690.09408699629785 0 0 0 0 31.557889066938515 -446.06989737169488 0 -446.06989737169488 352.70408086491034 0 0 0 0 36.388801904755383 -386.36272029861584 0 -386.36272029861584 333.86822730529957 0 0 0 0 46.189801805303432 -367.7203762893123 0 -367.7203762893123 310.32186093333576 0 0 0 0 130.2047149948412 -392.85701375083318 0 -392.85701375083318 202.58609286224328 0 0 0 0 128.86601369909351 -358.82099153556197 0 -358.82099153556197 289.8480862455217 0 0 0 0 28.405274823528998 -323.59496980194382 0 -323.59496980194382 332.66138572050977 0 0 0 0 66.536095645111345 -329.29003435760887 0 -329.29003435760887 279.52578932443839 0 0 0 0 85.554604210499747 -292.3523025609901 0 -292.3523025609901 328.57559321309782 0 0 0 0 76.801319657337444 -373.83647185800089 0 -373.83647185800089 338.33332402319263 0 0 0 0 48.579545202399913 -267.67091648530521 0 -267.67091648530521 209.27078942677872 0 0 0 0 51.735571835299197 -254.46580513844356 0 -254.46580513844356 215.4730651701343 0 0 0 0 43.786749066865013 -216.43269777470891 0 -216.43269777470891 131.07674205413423 0 0 0 0 126.38413208829115 -235.80035788295515 0 -235.80035788295515 89.411118581732353 0 0 0 0 87.528249170158233 -124.03022324404537 0 -124.03022324404537 -33.805792793350861 0 0 0 0 194.58317057365457 -397.02060255567949 0 -397.02060255567949 145.58080317168333 0 0 0 0 59.616455792111083 -334.66800305332424 0 -334.66800305332424 571.00056213255857 0 0 0 0 0.61492503920848662 -2.3624469622073576 0 -2.3624469622073576 4.3792910582486382 0 0 0 0 45.431244794555823 56.895627508319762 0 56.895627508319762 755.83531004138217 0 0 0 0 175.19089562605222 -241.36266995950439 0 -241.36266995950439 -174.21861016025605 0 0 0 0 39.669860353453259 109.90151921017298 0 109.90151921017298 309.06569960262868 0 0 0 0 -4.8434041231521405 -10.935284193199031 0 -10.935284193199031 82.007748863117868 0 0 0 0 -8.2732599976097845 49.754941046325939 0 49.754941046325939 81.880754099821658 0 0 0 0 -178.58993283365635 -170.89377323208271 0 -170.89377323208271 -70.072013069440345 0 0 0 0 2.5691420427011522 -6.1928086060078371 0 -6.1928086060078371 9.5036069846626923 0 0 0 0 -86.33114423817824 -20.882878231003588 0 -20.882878231003588 -39.480653128073641 0 0 0 0 -60.487610254293941 -81.313122216070724 0 -81.313122216070724 -23.565706383003999 0 0 0 0 -101.98865075190406 -78.161948739933905 0 -78.161948739933905 -47.043517706101454 0 0 0 0 -103.91145093310479 -105.75860718489707 0 -105.75860718489707 -22.025573927087521 0 0 0 0 -141.76640486346355 -92.387716799254633 0 -92.387716799254633 -22.709963196940407 0 0 0 0 -18.704419804461395 -77.163303307183625 0 -77.163303307183625 -57.14654202798306 0 0 0 0 -65.372802891215542 -99.559489740857089 0 -99.559489740857089 -44.462716887629995 0 0 0 0 -100.10129741852143 -96.671121851359658 0 -96.671121851359658 -37.712619245666247 0 0 0 0 -24.462190025336895 -100.77915963364057 0 -100.77915963364057 -77.073695012388498 0 0 0 0 15.398033795827359 -75.726333938994912 0 -75.726333938994912 -60.68519208321743 0 0 0 0 18.484421422290325 -66.211173965101466 0 -66.211173965101466 -34.068404693605075 0 0 0 0 37.590014787323526 -93.188607480876783 0 -93.188607480876783 -28.80534861287083 0 0 0 0 26.50825494449964 -59.01880613862977 0 -59.01880613862977 -51.645520003878573 0 0 0 0 29.587328198409523 -89.452127334257057 0 -89.452127334257057 -24.677774809203811 0 0 0 0 26.878336495501571 -115.6091745211412 0 -115.6091745211412 62.104301072432463 0 0 0 0 46.942208006832516 -87.037892072516115 0 -87.037892072516115 -24.832445690169379 0 0 0 0 35.839442616390443 -116.13683732652498 0 -116.13683732652498 27.139793721964679 0 0 0 0 10.548442645426803 -125.50181356569023 0 -125.50181356569023 56.502033919097357 0 0 0 0 45.961211365472991 -194.66300329016781 0 -194.66300329016781 142.82988065222253 0 0 0 0 68.720321276808136 -137.80219820152286 0 -137.80219820152286 2.0746816616092474 0 0 0 0 48.701929545703024 -146.22386943699371 0 -146.22386943699371 -17.985393693711558 0 0 0 0 8.9443432742737059 -62.905147759844567 0 -62.905147759844567 -36.112979915830238 0 0 0 0 51.652400167138694 -109.56297720774432 0 -109.56297720774432 -36.430331720954882 0 0 0 0 
</DataArray>
<DataArray type="Float64" Name="cross_section_updated" format="ascii">
0.010818481547677356 1 1 1 1 1 1 1 1 1 1 1 1 0.010429951160381519 1 0.013437089760416829 1 1 1 0.012255359294869868 1 0.010128880591596653 1 1 1 1 1 1 1 1 1 1 1 0.010264450759440385 1 1 0.010066470639437565 0.01075703607581203 1 1 1 1 1 1 1 1 1 1 1 1 0.0098675240459883389 1 1 1 1 1 1 1 1 1 1 1 1 0.010011431718850765 0.010031855459899125 1 0.0098947709472234809 1 0.013144633721318591 0.0083210625157407823 1 1 1 1 1 0.007152710115178075 1 1 1 1 1 1 0.0086851183421444069 1 0.010584080389324294 1 1 1 1 1 1 0.010234265385702509 0.0068172184118371207 1 1 0.010003759419181848 1 0.010627186290923695 1 1 1 0.010703164010807365 1 0.0092011091521810168 1 1 1 1 1 1 0.0094406944943954321 1 1 0.0098049558877138423 1 1 1 1 1 1 1 1 1 1 1 1 1 1 1 0.0099330110532428861 1 1 1 1 1 1 1 1 1 1 1 1 1 1 0.010056379140178533 1 1 1 1 1 1 0.0098685408906589757 1 1 1 1 1 1 1 0.0095305525371300291 1 1 0.0096979551728088535 1 1 1 1 1 1 1 1 1 0.0097421257422237971 1 1 0.0089985130830357689 1 1 0.0099963598339652647 1 1 1 1 1 1 1 1 0.010427224423575276 0.010003117741751628 1 0.013819848086843041 1 1 0.010260301513827265 1 1 1 1 1 1 1 1 0.013734219621714013 1 1 1 0.010126215906956447 1 1 1 1 1 1 1 0.011874541650604609 1 0.0099983909578829876 0.0095843792831336247 1 0.0096222765349591819 0.01023275826270408 1 1 0.013403501648768098 1 1 1 1 1 1 1 1 1 1 0.011155663147913244 1 1 1 1 1 1 1 1 0.0093725186567394057 0.010217096055590331 1 1 1 1 1 1 0.0091829563854282422 1 1 0.010700564779628136 1 1 1 0.010269393875897743 1 1 1 1 1 1 1 1 1 1 1 1 1 1 1 1 1 1 1 1 1 0.011703568177900204 1 1 1 1 1 1 1 1 1 1 1 1 1 1 1 1 1 1 0.014391031233579453 1 1 1 1 0.0086210102127561861 1 1 1 1 1 1 1 1 1 1 1 1 1 1 0.0076793172090891346 1 1 1 1 1 1 1 1 1 1 1 1 1 1 1 1 1 1 1 1 1 1 1 1 1 1 1 1 1 1 1 1 1 1 0.012881967032363105 1 1 1 1 1 1 0.017103043211646764 1 1 1 1 1 1 1 1 1 1 1 1 1 1 1 0.014712582824489695 1 1 1 1 0.011540818124143613 1 1 0.0097931769751359501 1 0.013665686394932743 1 1 1 1 1 0.011204273158144734 1 1 1 1 1 1 1 0.0079375455224225001 1 1 0.014559437182697952 1 1 1 0.0086611400895576854 1 1 1 1 0.0093432666248495274 1 1 1 1 1 1 1 1 1 1 1 1 1 1 1 1 1 1 1 1 1 1 1 1 1 1 1 1 1 1 1 1 1 1 1 1 1 1 1 1 1 1 1 1 1 1 1 1 1 1 1 0.018338420553963689 1 1 1 1 0.018072623933866768 1 1 1 1 1 1 1 1 1 1 1 1 1 1 1 1 1 1 1 1 1 1 1 1 1 0.0080292654853627334 1 1 1 1 0.00923477028925496 1 1 1 0.0098238230540860366 1 1 1 1 1 1 1 1 1 1 1 1 0.009913229299359819 1 1 1 1 1 1 1 1 1 0.0096383280770164486 1 1 1 1 1 1 1 1 1 1 1 0.0095371970430521407 1 1 0.0098988689660356836 1 1 1 1 1 1 1 1 1 1 1 1 0.0097730554977321429 1 1 0.010191119403170482 1 1 1 0.0097958087936466029 1 1 1 1 0.010099127101351184 1 1 1 0.010096182428175889 1 1 1 1 1 1 1 1 1 1 1 1 1 1 1 1 1 1 0.012756960088055885 1 1 1 1 1 1 1 1 1 1 1 1 1 1 1 1 1 1 1 1 1 1 1 1 1 1 1 1 0.013971478731503647 1 1 0.0099724484618036457 1 1 1 0.014614301356499063 1 1 1 1 1 1 1 1 1 1 1 1 1 1 1 1 1 1 0.015681213580377853 1 1 1 1 1 1 1 1 1 1 1 1 1 1 1 1 1 0.011614355505350601 1 1 1 1 1 1 0.010527737934313896 1 1 1 1 1 1 1 1 1 1 1 1 1 1 1 1 1 1 1 1 1 1 1 1 1 1 1 1 1 1 1 1 1 1 1 1 1 1 1 1 1 1 1 1 1 1 1 1 1 1 1 1 1 1 1 1 1 1 1 1 1 1 1 1 1 1 1 1 1 1 1 1 1 1 0.010137589663298474 1 1 1 1 1 0.011333510104846019 1 1 0.01183791554028959 1 1 1 1 1 1 1 1 1 1 1 1 0.010060195538935361 1 1 1 1 1 1 0.011063713146685908 1 1 1 0.0050364916882499576 1 1 0.006969731516641875 1 1 1 1 0.0075872447211691382 1 1 0.0093719051819263818 1 1 1 1 1 1 1 1 0.0056803992912877726 1 0.010773300683161567 1 1 1 0.0097440231659006778 0.010074290695086427 1 1 1 1 1 1 1 1 1 1 1 0.008982826739592711 1 1 1 0.010323482037340044 1 1 0.011201637678216653 1 1 1 1 1 1 1 1 1 0.01231504763606393 1 1 1 1 1 1 1 1 1 1 1 1 0.008554600063196036 1 0.009528059081190551 1 1 1 1 1 1 1 1 1 1 1 1 1 1 1 1 1 1 1 0.007429345268221383 1 1 0.0079622121497023076 1 1 1 1 1 1 0.010115055011343131 1 1 1 0.0075372642358472316 1 0.0099414886123986926 0.013482403870246819 1 1 1 1 1 1 0.0083401134638864949 0.0048104189585638484 0.012501434792036782 0.014860677289201709 1 0.0021425898343556612 1 1 1 1 1 0.0038054812417099605 1 1 0.0093697372548169362 1 1 0.0098011884217745031 1 1 1 1 1 1 1 1 1 1 1 1 1 1 1 1 1 0.0041919993640568524 1 1 1 1 1 1 1 0.0096872564183584173 1 1 1 1 1 1 1 1 1 1 1 1 1 1 1 1 1 1 1 1 0.010571182194707348 1 1 1 0.0093354462162445646 1 0.0078105807137482056 1 1 0.0085460872566265351 1 1 1 1 1 1 1 1 1 1 1 0.0098787804466481458 1 1 1 1 1 1 1 1 1 1 0.0094851510045421902 1 1 1 1 1 1 1 1 1 1 0.010300796004524234 1 1 0.0096293619627590595 1 1 1 1 1 1 1 1 1 1 1 1 1 1 1 1 1 1 1 0.0089227766661209955 0.011406783196590338 1 0.0097697219176485668 1 1 0.0092266573323834117 0.0097716275936843046 0.0088891513914137743 1 0.011062162188193695 1 1 1 1 1 0.0087676137337685915 1 1 1 1 1 1 1 1 1 1 1 1 1 1 1 1 1 1 1 1 1 1 0.0097721641344655583 1 1 0.010340118391411942 1 1 1 1 1 1 1 1 0.010952129234051816 1 1 1 0.0098085652296694501 1 1 1 1 1 0.0099389423932341684 1 1 1 0.010708498453402044 1 1 1 0.0099877661747876153 1 0.009986470033054121 0.0093196569222223982 1 1 1 1 0.010841738189264587 1 1 0.01071900427476162 1 1 1 1 0.009534015458514334 0.01064212537839683 1 1 0.010496754252124778 0.010806243896170447 1 1 1 1 0.010405047690710252 1 1 1 1 1 1 1 1 1 1 1 1 1 1 1 1 1 1 1 0.01063421521084694 1 0.0096573997993510824 1 1 1 1 1 1 1 1 0.0098859204467781694 0.010180056046375223 1 1 1 0.010781379683426481 0.010607228251589561 1 0.010312143443452777 1 0.010292533633376979 1 1 1 1 0.010004784209456831 1 1 1 1 1 1 1 1 1 1 1 0.010974079949848295 1 1 1 1 1 1 1 1 0.010549280180753465 1 1 1 1 1 1 1 1 1 1 1 1 0.010118112378475562 1 1 1 1 1 1 1 1 1 1 1 1 1 1 0.010155253848538208 1 1 1 1 1 1 1 1 1 1 1 1 1 1 1 0.016526993303471144 1 1 1 1 1 1 1 1 1 1 1 1 1 1 1 1 0.017155560279750431 0.0092006182619598469 1 1 1 0.0094250315836586652 1 1 0.010052603089493047 1 1 1 1 0.010480311546314612 0.0077027740232609894 0.012955735435293455 1 1 1 1 1 1 1 1 1 0.0094104921233231897 1 1 1 1 0.0097703014218150832 1 1 1 1 1 0.011662920787035923 1 1 1 1 1 1 1 1 1 1 1 1 1 1 1 1 1 1 0.0091904780408743163 1 1 1 1 1 1 0.0077144288125919683 0.010025526454041854 1 1 1 1 1 1 1 1 0.011510390384046885 0.0097244616739694065 0.0099914577513683031 1 1 1 1 1 1 1 1 1 1 1 1 1 1 1 1 1 1 1 1 0.010968778965186176 1 1 1 1 1 1 0.010089332024634594 1 1 1 1 1 0.010492308210561203 1 1 1 1 1 1 1 1 1 1 1 1 1 1 1 1 0.01108706502944997 1 1 1 0.0096836586283545294 1 1 1 1 1 1 1 1 0.010259029431718423 1 1 1 0.011628415203778544 1 1 1 1 1 1 1 1 1 1 1 0.0095239084121783481 1 1 1 0.0098473742363019562 1 1 1 1 1 1 1 1 1 1 1 1 1 1 1 0.0098358234733819574 1 0.016102899918584136 1 1 1 1 1 1 0.0094218667163209115 1 1 1 1 1 1 1 1 0.011168014029464586 1 0.0099247962393532556 1 1 1 1 1 1 1 1 1 1 1 0.0098333178621716286 1 1 1 1 1 1 1 1 1 0.010412750378067477 1 1 1 1 0.0094557827765330144 1 1 0.013896721916434721 1 1 1 1 1 1 1 1 0.0097353727145090621 0.010011809450600952 1 1 0.009839652759778713 1 1 1 1 1 1 1 1 1 1 1 1 1 1 1 1 1 1 1 1 1 1 1 1 1 1 1 1 0.0097831527941162205 1 1 1 1 0.0089253536857869173 1 1 1 1 1 1 1 1 0.009952658879883447 1 1 1 1 1 1 1 1 1 1 1 1 1 1 1 1 1 1 1 0.010985456871525448 1 1 1 0.012968366054028173 1 1 1 1 1 1 1 1 1 1 1 1 1 1 1 1 1 1 1 1 0.00333095813839864 1 1 1 1 0.0025590416295697745 1 1 1 1 1 1 1 0.0077861073231666883 1 1 1 0.0096884843478407621 1 1 1 0.0064749104705082092 1 1 1 1 1 1 1 1 0.0051435666567922209 1 1 1 1 1 1 1 1 1 0.0090349609515578636 1 1 0.010026396130254672 0.0081238084499173496 0.0071809862100384141 1 0.01331902500374051 1 1 1 1 1 0.0099889540076117181 1 0.020722812828516009 0.0074961889314840886 1 0.015424831856977413 1 1 1 1 1 1 1 1 0.0053118892088661294 1 1 1 1 0.010029615805246214 1 1 1 0.0095898051846945061 0.014695572836905183 1 1 0.017379843210319816 0.0038120179592308102 1 1 1 1 1 0.010239066364024992 1 0.012197284840243341 1 1 1 1 1 1 0.011983208758790173 0.0088781344186713036 1 0.0044524852527027528 1 1 1 1 1 1 1 1 0.0061718613167766742 1 1 1 1 0.010007542395036323 1 0.0087743924050582116 1 0.014966945570135488 1 1 1 1 1 1 1 1 1 1 1 1 1 1 1 1 1 1 1 1 1 0.012230702742593188 1 0.014115766851518245 1 1 1 1 1 1 0.011631445590338933 1 1 1 1 1 1 1 1 1 1 1 0.01543058083286415 1 1 1 1 1 1 1 1 1 1 1 1 1 1 1 1 1 1 1 1 0.008567299051522561 1 1 1 1 1 1 1 0.0096249293076975731 0.0076840885625910522 1 1 1 1 1 1 1 1 1 1 1 1 1 0.0094364633026595146 1 1 1 0.0095159682291986371 1 1 1 1 1 1 1 1 1 1 1 1 1 1 1 0.0094152406583664847 1 1 1 1 1 1 1 1 1 0.010028460684824669 1 0.0092202208828107961 1 1 1 1 0.0090035566093599716 1 0.0095880342669795154 0.010016173038603644 1 0.0098025076241376793 1 1 1 0.0097039848906338259 1 1 1 1 1 1 1 1 1 1 1 1 1 0.0080506117550771632 1 1 1 1 0.010436499068837871 1 1 1 1 1 1 1 0.010165719656069737 1 1 1 0.010947264258409833 1 0.0099928709707597912 1 1 0.018236039303152714 1 1 1 1 1 1 1 1 1 0.018131281418547706 1 1 1 1 1 1 1 1 1 1 1 1 1 1 1 0.017766874980401991 1 1 1 0.0098899073786276222 0.013622290903999261 1 0.01025997267728811 1 0.0088944026965001276 1 0.011156083100699692 1 1 1 1 1 1 1 0.017915856779538736 1 1 1 1 1 1 1 1 1 1 1 1 1 1 1 1 1 1 1 1 1 1 1 1 1 1 1 1 1 1 1 1 1 1 1 1 1 1 1 1 1 1 1 1 1 1 1 1 1 1 1 1 1 1 1 1 0.0088817929148813958 1 1 1 1 1 1 1 0.0074274351346865844 1 1 1 1 1 1 1 1 1 1 1 1 0.0072411416070444871 1 1 1 1 1 1 1 0.0078611491175650181 1 1 1 1 1 1 1 1 1 0.010739455348003541 1 1 1 0.0097763900390998529 1 1 1 1 1 1 1 1 1 1 1 1 1 1 1 1 1 1 1 1 1 1 1 1 1 1 1 0.0085075863703817055 1 1 1 1 1 0.018254554156459275 1 1 1 0.0068204353154747172 1 1 0.0076033489396619188 1 1 0.009668327261040173 1 1 1 1 1 0.0091241225035140778 1 1 0.0086915408535261779 1 1 1 1 1 1 1 0.010125436407775575 1 0.0090731870901743193 1 1 0.010262397166869297 1 1 1 1 1 1 0.0084514530028952026 1 1 1 1 1 1 0.0096345854335693742 1 1 1 1 1 1 1 1 1 1 1 1 0.0081432039333230316 1 1 1 0.0091282142330873471 1 1 1 1 1 1 1 1 1 1 1 1 1 0.010089455719879278 1 1 1 1 0.0096056789967020988 1 1 1 1 1 1 1 1 0.0094888629613145113 1 1 1 1 1 1 1 1 1 1 1 1 1 1 1 1 1 1 1 1 1 1 1 1 1 1 1 1 0.0098422233047047898 1 1 0.013424373468336111 0.0041873439675744941 1 1 1 0.011856724989215323 0.01000862693531524 1 1 1 1 1 1 1 1 1 1 1 0.011249845045305627 1 1 1 1 1 1 1 1 1 1 1 1 1 1 1 1 1 1 1 0.010142609833620897 1 1 0.01087919287328757 1 1 1 1 1 1 1 1 1 1 1 0.010504228892804404 1 1 0.010345027209636119 1 1 1 0.010557383006546021 1 1 1 1 1 1 1 1 1 1 1 1 1 1 1 1 1 1 1 1 1 1 1 1 1 1 1 1 1 1 1 1 1 1 1 1 1 1 1 1 1 1 1 1 0.0094639547075678412 1 1 1 0.010085457214020837 1 1 1 1 0.0086488822996457319 1 1 0.0092917945294845872 1 1 0.0091857467626571959 1 1 1 1 0.0072694847276116685 0.010534165663651458 1 1 1 1 1 1 1 1 1 1 0.005788547785651986 1 0.0095596607150322636 1 1 1 1 1 1 0.0093449483768931023 1 1 0.010031967517374805 1 1 1 0.0096778616919114997 1 1 0.0096774004856731623 1 1 1 0.009788252920401197 1 1 1 1 1 1 1 1 1 1 1 1 1 1 1 1 1 1 1 1 1 1 1 1 1 1 1 1 1 1 1 0.012445790863707229 1 1 1 1 1 0.009165649730325718 1 1 1 1 1 1 1 0.01017085625592493 1 1 1 0.010440982434022526 1 1 1 1 1 1 1 1 1 1 0.0085454687948783928 1 1 0.0094275896110947721 1 1 1 1 1 0.010660311549701824 1 1 0.0070854878378597899 1 0.010760398186200917 1 1 1 1 1 1 1 1 1 1 1 1 1 1 1 1 1 1 1 1 1 1 1 1 1 1 1 0.0080059886196542328 1 0.008928806776475777 1 1 1 1 1 1 1 1 1 1 0.0097136763715407262 1 1 1 1 1 1 1 1 1 1 1 1 1 1 0.010695757468905862 1 1 1 1 1 1 0.011958777882943928 1 1 1 1 1 1 1 1 1 1 1 1 1 1 1 0.010017801460894536 1 1 1 1 1 1 0.011725074445958288 1 1 1 1 1 1 1 1 1 1 0.012969355929741754 1 1 1 0.010548242970784655 1 1 1 1 0.0097951145732355655 1 1 1 1 0.0099699109391052174 1 1 1 1 1 1 1 1 1 1 0.0096585533921804117 1 1 1 1 1 0.0090373696835770283 1 1 1 1 1 1 1 1 1 1 1 1 0.010030820398729734 1 1 0.0061584845706682406 1 1 1 1 1 1 1 1 1 1 1 1 1 1 1 1 1 1 1 1 1 1 1 1 1 1 1 1 1 1 1 1 1 1 1 1 1 1 1 1 1 1 1 1 1 1 1 1 1 1 0.0099699308156941009 0.010199699466600385 1 1 1 1 1 1 1 1 1 1 1 1 1 1 0.01005851065378386 1 1 1 1 1 1 0.010058407557025771 1 1 1 1 1 1 0.0097985083732719802 1 1 1 1 1 1 1 1 1 1 1 0.010193331625128074 1 1 1 1 0.010218003790468271 1 1 1 0.0095020772118721095 0.0099490278775331339 1 1 0.010264496589599251 1 1 0.0096143757140079878 1 1 1 1 0.00965521564643349 1 1 1 1 1 0.0099179799278045384 1 0.0066311090455512629 1 1 0.0095103958412662282 1 1 0.0099270139626581825 1 1 1 1 1 1 1 1 1 1 0.01007324016160107 1 1 1 1 1 0.0056888647210072817 1 1 0.010006712247004241 1 0.0054663116274625626 0.009490550236408473 1 1 1 1 0.0097272922964136681 1 1 1 1 1 0.005617934970063178 0.010903045314285095 1 1 1 1 1 1 0.0056669342637531532 1 1 0.016077400523322242 1 0.010830838181567149 1 1 0.01119584698251024 1 1 1 1 0.0096694714890067195 0.0046947747979089131 1 1 1 1 1 1 1 1 1 1 1 1 1 1 1 1 1 1 1 1 1 1 1 1 1 1 1 1 1 1 1 1 0.010243926331941228 0.01023014687272995 1 0.01113688613181885 1 1 1 1 1 1 0.013272680002496644 1 1 1 1 1 0.010710575057890621 1 1 1 1 1 1 1 1 0.014703823248471632 1 1 1 0.014964525978189333 1 1 1 1 1 1 1 1 1 1 0.014464081186843494 1 1 0.014325364281954552 1 1 1 1 1 1 1 1 1 0.0099892096812360422 1 1 1 1 0.010017058857099793 1 1 1 1 1 1 0.0095068653671421012 1 1 1 1 1 1 1 0.014003611638802298 1 1 1 1 1 1 1 1 1 1 1 1 1 1 1 1 1 1 1 1 1 1 1 1 1 0.0094502981788935295 1 1 1 1 0.0096088995510974495 1 0.0086915887776010635 1 1 1 1 1 1 0.0098247963982087717 1 1 0.0077052738655050274 1 1 1 1 1 1 1 1 1 1 0.011509212895658079 1 1 1 1 1 1 1 1 0.0097889203858234925 1 1 1 1 0.0098582997422576105 1 1 1 1 1 1 1 1 1 0.0092932097503123888 1 1 0.0087022047005015229 1 1 1 1 1 0.0094089949501891326 0.0095122698805825759 1 1 1 1 1 1 1 1 1 1 1 1 1 0.0065572597361842379 1 0.0093193380580884888 0.0078406330813592696 1 1 1 1 1 1 1 1 1 1 1 1 1 0.0099390291689715835 1 1 1 0.0097283040857236783 0.0095971958599450416 1 1 1 1 1 1 1 1 1 0.012208431252210043 1 1 1 1 1 1 1 1 0.014111185132786676 1 0.01022379956866624 1 0.0077496851800319851 0.01474783288468204 1 1 0.010119116662514707 0.009237226487648402 1 1 1 1 1 1 1 1 1 1 0.008827135744525965 1 0.008468933978096822 1 1 1 0.0066755307224643963 1 0.01006770362640164 0.011448416210889149 0.0054484192965106194 1 1 0.0064162693824226513 1 1 1 1 1 1 1 1 1 0.0099271267397472249 1 1 1 1 1 1 1 1 1 1 1 1 1 1 1 0.0099306206435658805 1 1 1 1 0.0053327685226717105 0.013644280741104447 0.0092410744036452858 1 1 1 1 0.0072568842609130827 1 1 1 1 1 1 0.0098262572590266523 1 1 1 1 1 1 1 1 1 1 1 1 1 1 1 1 1 1 1 1 1 1 1 1 1 1 1 1 1 0.0073931031528235826 1 1 1 1 1 1 1 1 1 1 1 1 0.0099733473601257439 1 1 1 1 1 1 0.0099662857950926272 1 1 1 1 1 1 0.009993685677806079 1 1 1 1 1 1 1 1 1 1 0.0088409977476595694 1 1 1 0.0096849164042141951 1 0.0092379545381269714 1 1 1 1 1 1 1 1 1 1 1 1 1 1 1 1 1 1 1 1 1 1 1 0.0087513504081475624 0.0095530381339127765 1 1 1 1 1 1 0.0073034558133115591 1 1 1 1 1 1 1 1 1 1 1 1 1 1 1 1 1 1 1 1 1 1 1 1 1 1 1 1 1 1 1 1 1 0.0095769494735848705 1 1 0.0053959981083075825 0.010960610475005964 1 1 0.0098174018256125123 1 1 1 1 1 1 1 1 0.0068469264105845418 1 1 1 1 1 1 1 1 1 1 1 1 1 1 1 0.0090003211337878631 1 1 1 1 1 1 1 1 1 1 1 1 1 1 0.0096388127414718475 1 1 1 1 0.0099187660188460626 1 0.011628613940272699 0.009013819830350954 1 1 0.0088727197116051371 1 1 0.0072684962350598268 1 1 1 1 0.0094719686222995113 1 1 1 1 1 0.011322593095184604 1 1 0.0095856623275384512 1 1 1 1 1 1 1 1 1 0.0099915537565913332 1 1 1 0.010312677925255307 1 1 1 1 1 1 1 1 1 1 1 1 1 1 1 1 1 1 1 1 1 1 1 1 1 1 1 1 1 1 1 1 1 1 0.0095565512440941996 1 1 0.0098316024497062029 1 1 1 1 1 1 1 1 0.00978247480806726 1 1 1 1 1 1 1 1 1 0.010331523844223501 1 1 1 1 0.0099458007813410364 1 1 1 1 1 1 1 1 1 1 1 1 1 1 1 1 1 1 1 1 0.010124333245718797 1 0.010054123387860613 1 1 1 1 1 0.0099051839858028835 1 1 1 1 1 1 1 1 1 0.010412971340892939 1 1 1 1 1 1 1 1 1 1 1 1 1 1 0.010779460329209617 1 1 1 1 0.010477117639423893 1 1 1 0.010488300420050875 1 1 1 1 1 1 1 0.010186233334072118 1 1 1 0.014428571362734342 1 1 1 0.0099993860824432353 1 0.0073853278180865869 1 1 1 1 1 1 1 1 0.011830865770872735 1 1 0.0096270397596014308 1 1 1 0.009904800508971353 1 0.0085819178672238376 1 1 1 0.0084131267625872537 1 1 1 0.012236595806873224 1 1 0.0086990452943677167 1 0.01066298610815703 1 1 0.0098370829729848702 1 1 0.010011915588482462 1 1 1 1 1 1 1 1 1 1 1 1 1 1 1 1 1 1 0.0058743834686806953 1 1 1 1 1 0.0038169737231475674 1 1 0.0096932306293972849 1 1 1 1 1 0.009043676340138555 1 1 1 1 1 0.010187245233295847 1 1 1 1 1 1 1 1 0.009746425997396755 1 1 0.0069729815710570173 1 0.0068571356666909163 1 1 1 0.010470358462208694 1 1 1 1 1 1 0.010664897528514829 1 1 0.0068783748504819622 1 1 1 1 0.0098498119060025993 1 1 1 0.0098659851458122987 0.0096367854172243455 1 1 1 1 1 1 0.0095786691393283298 0.012233471594983118 1 1 1 1 0.012646589897563726 1 1 1 0.0092512492483469797 1 1 1 1 1 1 1 1 1 1 1 1 1 1 1 1 1 1 1 1 1 1 1 1 1 1 1 1 1 1 1 1 1 1 1 1 1 1 1 1 1 1 1 1 1 1 1 1 1 1 1 1 1 1 1 1 1 1 1 1 1 1 1 1 1 0.010175595440774086 1 1 1 0.009026238633845142 1 1 1 1 1 1 1 1 1 1 1 0.010164368268885862 1 0.010077510728859967 1 1 1 1 1 1 1 0.0087989350046365038 1 1 1 1 1 1 1 1 1 1 1 1 1 1 1 1 0.0089022889191155002 1 1 0.0094087437431230325 1 1 1 0.010069716248611693 1 1 1 1 1 0.0099827724109100152 1 1 1 1 1 1 1 1 1 1 0.0090302148050958493 1 0.0079325037242113424 1 1 1 1 1 1 1 1 1 1 1 1 1 1 1 1 1 0.0098264277558955081 1 1 1 1 1 1 1 1 1 1 1 1 0.010280759735837454 1 1 1 1 0.0085778066742745619 1 1 0.008825969978185055 1 0.011565199578205317 1 1 1 0.010850522262368828 1 1 1 1 1 1 0.0095916565256678413 1 1 1 1 1 1 1 1 1 1 1 1 0.011034603215641309 1 1 1 1 1 1 1 1 1 1 1 1 1 1 1 1 0.013316134181366446 1 1 1 1 1 0.0094847215399060433 0.010220187273549007 1 1 0.010202260287479012 1 1 1 1 1 1 1 1 1 1 1 1 1 1 1 1 1 1 1 0.015068844525271404 1 1 1 1 1 1 1 1 1 1 0.0091607899351520417 1 1 1 1 1 1 0.0097385622210110576 1 1 0.01587746919369382 1 1 1 1 1 1 1 1 1 1 1 1 1 1 1 1 1 1 1 1 0.0088034481223330623 1 1 1 1 1 1 0.0083822254517215769 1 1 1 1 1 0.0084245203169363118 1 1 0.0085380208400210392 1 0.0099612782209422754 1 0.013850354526931365 1 0.004777649906885199 1 1 1 1 0.0078835857859579327 1 1 1 1 1 0.0056454780194090219 1 1 1 1 0.006532461308033248 1 1 1 1 1 0.010047740163919449 1 1 0.01016364714014005 1 1 1 1 0.010216014204690342 1 1 1 1 0.010185351043619765 1 1 1 1 1 1 1 1 1 1 1 1 1 1 1 1 1 1 1 1 1 0.012481413932779066 1 1 1 1 1 1 1 1 0.0099562443312132074 1 1 1 0.014233347593310665 1 1 1 1 1 0.011598626350700162 1 1 1 1 1 0.0095183121074731356 1 1 1 1 1 1 0.0097385667725332341 1 1 1 1 1 1 1 1 1 1 1 1 1 1 1 1 1 1 1 1 1 1 1 0.0096073592706968584 0.0073603592806082826 1 1 1 1 1 1 0.010036470014559803 1 1 1 1 0.0099984228986869858 1 1 1 0.0081450195593886394 1 1 1 1 1 0.010873015562314396 0.0099877822621341657 1 1 1 0.010115047949009165 1 1 0.010162247808172074 1 1 1 1 1 1 1 1 1 1 0.0098997513742638613 0.010264028657602627 1 1 1 1 1 1 1 1 1 1 1 1 1 1 1 1 1 1 1 1 1 1 0.0093008353205823683 1 0.0081107672377050879 1 1 1 1 0.0071473629306012254 1 1 1 1 1 1 1 1 1 0.010701773171765246 1 1 0.010004053802194657 1 1 1 1 1 1 1 1 1 1 1 1 1 1 1 1 1 1 1 1 1 1 1 1 1 1 1 1 1 1 1 0.011454404560979695 1 1 1 0.010652424647031034 1 1 1 1 0.010643388841672723 1 1 1 1 0.010870396143030165 1 1 1 1 1 1 1 1 1 1 1 1 1 1 1 0.010698796179979765 1 1 1 1 1 1 1 1 1 1 1 1 1 1 1 1 1 1 1 1 1 0.010069642654483164 1 1 0.011875929867282779 1 1 1 0.010081833728989898 1 0.009838039841389444 1 1 1 1 1 0.010650185144721167 1 1 1 1 1 1 1 1 1 1 1 1 1 1 1 1 1 1 1 0.010625210243074799 1 0.009608062546573785 1 0.011955491514652309 1 1 1 1 1 1 1 1 1 0.010860326604169596 1 1 0.012086071326731201 1 1 1 1 1 1 1 1 1 1 1 1 1 1 1 1 1 1 1 1 1 1 1 1 1 1 1 1 1 1 1 1 1 1 1 1 1 1 1 0.008837023583940621 1 1 1 1 1 1 1 1 1 0.0082918367805818981 0.0090046336494817841 1 1 1 1 1 1 1 1 1 1 1 1 1 1 1 1 1 1 0.0090616551194579332 1 1 1 1 1 1 1 1 1 1 1 1 1 1 1 1 1 1 1 1 1 1 1 1 1 1 1 1 1 1 1 1 1 1 1 1 1 1 1 1 1 1 1 1 1 1 1 0.011598211965824749 1 0.0045183034024955764 1 0.0030461757414993488 1 1 1 0.014314013090764442 1 1 0.0062670345370293718 1 0.015062588131552677 1 1 1 1 1 0.010240162792956727 1 1 1 0.011741776735181538 1 0.010217400052822831 1 1 1 0.010370847650259111 1 0.014307158275728918 1 1 1 1 0.0013915137613007729 1 1 1 1 1 1 1 0.003323582594764965 1 1 1 1 1 0.0056579813495866065 1 1 0.0084655581425655529 1 1 1 1 1 1 1 1 1 1 1 1 1 1 1 1 1 1 1 1 1 1 1 1 1 1 1 1 1 1 1 0.006409049942547736 1 1 1 1 1 1 1 1 1 1 1 1 1 1 1 1 1 1 1 1 1 1 1 1 1 1 1 1 0.0055049186597993273 1 1 1 0.01008103083416342 1 1 1 1 1 1 1 1 1 1 1 1 1 1 1 1 1 1 1 1 1 1 1 0.013802277698219855 1 1 1 1 1 1 1 1 1 1 1 0.010969499177083933 1 1 1 1 1 0.012713791925494239 1 1 1 1 1 1 1 0.012159140036858297 1 1 1 1 1 1 0.0051561200215362694 1 1 1 1 0.0059322500641807146 0.01005280530710969 1 0.010678624689464114 1 1 1 1 1 0.01091879565423497 1 1 1 1 1 1 1 0.0096409843336429102 1 1 1 1 0.012515911004906646 1 1 1 1 1 1 1 1 0.01380183069841788 1 1 1 1 1 1 0.012819400590616228 1 1 1 1 1 1 1 0.011075554842007902 1 1 1 1 1 0.010078422925473261 1 1 1 1 1 1 1 1 1 1 1 1 0.010036805548237257 1 1 1 1 1 1 1 1 0.010309077466115783 1 1 1 1 1 1 1 0.010230654540642528 1 1 1 1 0.011022391161290734 1 1 1 1 1 1 1 0.014581402694970991 1 1 0.012887791455990717 1 1 1 1 1 0.0062945659021713327 1 1 1 0.0098924565045854992 0.0079276701495183538 1 1 1 1 1 0.0096887434767295288 1 1 1 1 1 1 1 1 0.009978523068748215 1 1 0.0089244137976802907 1 1 1 1 1 1 1 1 1 1 1 0.0092912211865078115 1 0.0098440917834825298 1 1 1 1 0.0099320824486182728 1 1 1 1 1 1 1 1 1 0.0095464506354096257 1 1 1 1 0.0069510724186523523 1 1 1 1 0.0042594717507422122 1 1 1 1 0.010033486948876114 1 1 1 1 1 1 1 1 1 1 1 1 1 1 1 1 1 1 1 1 1 1 0.0088723110745911795 1 1 1 1 1 0.0099024528325366845 1 1 1 0.008156715455191102 1 1 0.0098308538983966354 1 1 1 1 1 1 1 1 1 1 1 1 1 0.0086911066989195287 1 1 0.0091311541155847751 1 1 1 0.0099629221531380638 1 1 0.0099070874213830016 1 0.0097984891094647711 1 1 1 0.014695159345497259 1 1 1 1 0.0091062339346835632 1 1 1 1 1 1 0.009924736351645095 1 1 1 1 1 1 1 1 1 1 0.015300040670840087 1 1 0.0089934837412526409 1 0.010007753312267602 0.012299603698242345 1 0.011620589937304165 0.0094009183143674152 1 1 1 0.010208940159525918 1 1 1 1 1 1 1 1 1 1 1 1 1 1 1 1 1 1 1 0.0098150908177800627 1 1 1 1 1 1 1 1 1 1 1 1 0.0109522531997997 1 1 1 0.012345270120180744 1 1 1 1 1 1 1 1 1 1 1 1 1 1 1 1 1 1 1 1 1 1 1 1 1 1 1 1 1 1 1 1 1 1 1 1 1 1 1 1 1 1 1 1 1 0.0096833364308051319 1 1 0.010649168044341198 1 1 1 0.0091536795313713615 1 0.010364479640531955 1 1 1 1 1 1 1 1 1 1 1 1 1 1 1 1 0.0091396752243245363 1 0.010070502264496716 1 1 1 1 1 1 1 1 1 1 1 0.011946336950259259 1 0.010223050860343244 1 0.0096522310612436116 1 0.01002572123907132 1 0.0091406871478200077 0.010817567567444893 1 1 1 1 0.0097844691364569469 1 1 1 1 0.011208201520657711 1 0.010010047308677947 0.010143688587528754 1 0.011376188643950519 1 0.011294752284301362 1 1 1 1 1 1 1 1 1 1 1 1 1 1 1 0.010153609443866334 1 1 0.010066243815964743 1 1 0.01081239363558029 1 1 1 0.012984215026195043 1 1 1 0.0099597880921763575 1 1 1 1 1 1 1 1 1 1 1 1 1 1 1 1 1 1 1 0.010394499702285377 1 1 1 1 1 1 1 1 1 1 1 1 1 1 1 1 0.0097262004376375139 1 1 1 1 0.0092144340664233448 0.011335653354369065 1 1 1 1 1 1 1 0.010791218461369653 0.010247892736102333 1 1 1 1 1 1 1 1 1 1 1 1 1 1 1 1 1 1 1 0.0099049121418590194 1 1 1 0.0097704941463147947 1 1 1 1 0.010167312265908337 1 1 0.0097820529068081783 1 1 0.0098862160482056441 1 1 1 1 1 1 1 1 0.0098655820044557807 1 1 1 1 1 1 1 1 1 0.010044216926157645 1 1 1 0.009779945782286862 1 1 1 1 1 1 1 1 1 1 1 1 1 1 1 1 1 1 1 1 1 1 1 1 1 1 1 1 0.0096304241486521898 0.0091319659034552036 1 1 1 1 1 1 0.0098475899978976936 1 1 1 1 1 0.0099413075931744262 1 1 1 1 0.010895911748177455 1 1 1 0.01289918877339569 1 1 1 1 1 0.0056316498094905031 1 1 1 0.0054648793358609508 1 1 1 1 1 1 1 1 1 1 1 1 1 1 1 1 1 0.0088672927659298253 1 1 1 0.0099492179101885615 1 1 1 1 1 1 1 1 1 0.0066347488777590957 1 1 1 0.014486182635849077 1 1 1 1 1 1 0.014750356511392157 1 1 1 1 1 1 1 1 1 0.0034119479560376018 1 1 1 1 0.010179242615064022 1 1 1 1 1 0.010025844942647003 1 1 0.0026981959803400388 1 1 1 1 1 1 1 1 1 1 1 1 1 1 1 1 1 1 1 1 0.010666479481212791 1 1 1 1 1 1 1 1 1 0.0097525982648553385 1 1 0.0041757150981535131 1 1 1 0.011982982314057878 1 1 1 1 1 1 1 1 0.010734205895228844 1 1 1 1 1 0.0069278270109527362 1 1 1 1 1 0.0083710389998198093 1 0.01209130028066664 1 1 1 1 0.0079373355911659012 1 1 0.010003148063747989 1 0.0084954152934820729 1 0.0098502884911699541 1 1 1 1 1 0.0042090509301658131 1 0.011930164905933786 0.012799421088261671 1 1 0.0071383187373291572 1 1 1 0.0097463125710490171 1 1 1 1 1 1 1 0.0091606243886357044 0.0070505652164646361 1 1 1 1 1 1 1 0.010001210739982192 1 1 1 0.0069299811370646027 1 1 1 1 1 1 1 1 0.0069767725209842601 1 1 0.013125912092148936 1 1 1 1 1 1 0.0098594544068844204 1 1 1 1 1 1 1 1 0.0084838409928585934 1 0.0094306764170348344 1 0.012825482283929863 1 1 0.012350583548003283 0.010480703241994301 1 1 0.009167183499020716 1 0.012870623147689027 0.010057088765369593 1 1 1 0.0085788828782620008 1 0.011741174887970758 1 1 1 0.0078274410966806297 0.0096227092436055699 0.0120638023381789 1 1 0.0082667922772083138 0.011031766360800737 1 0.009986235626114089 1 0.0083845021837970681 1 1 1 0.010852980570785011 1 1 1 1 1 0.011859953075711954 1 1 1 0.0068401990167844852 1 1 0.012079579286592377 0.0075009376869136831 1 1 1 1 1 1 0.0095958741636381229 1 1 1 1 0.0099405192658646481 1 1 1 1 1 1 1 1 1 1 0.0098306897259488185 1 0.011660812949833182 0.012667245697420875 1 1 0.011428315446835223 1 0.0085304067446776953 0.0091381185668880146 1 1 0.011925317824068249 1 0.0089008397424790789 0.012150744384403818 1 1 1 1 1 1 1 0.0087674054653284709 1 1 1 0.01066549919757572 1 1 1 1 1 1 1 1 1 1 1 0.010173889447248898 1 1 0.010654080747711193 1 1 1 1 1 0.011533036497210594 1 1 1 0.0090471349319972 1 1 0.0090975372671007228 1 1 1 0.0084927175502353264 1 1 1 1 1 0.010081951622054589 1 1 1 1 0.010083000140215116 0.010192444718131096 1 0.0099960386860802036 1 0.0097008648060392562 1 0.010951535798914391 0.011041792736103104 1 1 1 1 1 0.0085140667995152533 0.0090654542910690618 1 0.01038231072376471 0.010071576490940865 1 0.010091041227393198 1 1 1 0.011163813558469435 0.0094208100918096276 1 0.0099997687661953043 1 1 0.010390905023825867 1 1 1 1 0.010147128002767451 1 0.010139949903234311 1 1 1 0.012788650340575285 1 1 0.0092137478553328371 1 1 1 1 0.010698317124191521 1 1 1 1 0.010801884156437987 1 1 1 1 1 1 1 1 1 1 1 1 0.0097814825233730907 1 1 1 1 1 1 1 1 1 0.0097468394036378057 1 1 1 0.0098813101916439081 1 1 1 1 1 1 1 1 1 1 1 1 1 1 1 1 1 1 1 1 1 1 1 1 1 1 1 1 1 1 1 1 1 1 1 1 1 1 1 1 1 1 1 1 1 1 1 1 1 1 1 1 1 1 1 1 1 1 1 0.0069898402206056264 1 1 1 1 1 1 1 1 0.0099756032459629614 1 1 1 1 1 1 0.010278243490743601 1 1 1 0.0096068419228166526 1 1 1 1 1 1 1 0.0049367486099426323 1 1 1 1 1 0.011501939057713569 0.0090862713092776295 1 1 1 0.0080488252595469351 1 0.0082791024490027031 1 0.0095243744985683467 1 1 1 1 1 1 0.0094964456516233916 0.011333852532054507 1 1 1 1 1 1 0.011424244336774188 1 1 1 1 1 1 1 1 0.013359341011329608 0.0086217742147177753 1 1 1 0.010390802499149943 0.0099009996851252696 1 1 1 1 1 0.010130474377264486 1 1 1 1 1 1 1 1 1 0.012209665385047154 1 1 1 0.010769504289281664 1 1 1 1 1 0.0093834577395080117 1 1 1 1 1 1 1 1 1 1 1 1 1 1 1 0.0097552755678706939 1 1 1 0.0099324238599636759 1 0.0096911130115680637 1 1 1 1 1 1 1 1 1 1 1 1 1 1 1 1 1 1 1 1 1 1 1 1 0.010034406899747158 1 0.0087220839078969124 1 1 1 1 1 1 1 0.0067146850900794289 1 1 1 1 1 1 1 0.011843657987405443 1 0.0099401545986669247 1 1 1 1 1 1 1 1 1 1 1 1 1 0.0081906498334613047 1 1 0.0086035073256663548 0.009978497944852574 1 1 1 1 1 1 1 1 1 1 1 1 1 1 0.011038158540152769 1 1 1 1 1 0.011732749338534175 1 0.011770291757457304 1 1 1 1 1 1 1 1 1 1 1 1 1 1 1 1 1 1 1 1 0.011373026156877259 0.011736954720132534 1 1 1 1 1 1 1 1 1 1 1 1 1 0.010562010437570286 1 1 1 1 1 1 1 1 1 1 1 1 1 1 1 1 1 1 1 1 1 1 1 1 1 1 1 1 1 1 1 1 1 1 1 1 1 1 1 0.0085014184647433828 1 1 0.0094690636649201222 1 1 1 1 1 1 1 1 1 1 1 0.0077239296298786961 1 1 1 1 1 1 1 1 1 0.010023811237445642 1 1 0.0067939307174090802 1 1 1 1 1 1 0.0052318460933490976 1 1 1 1 1 1 1 1 1 1 1 1 1 1 1 1 1 1 1 1 1 1 1 1 1 1 1 1 1 1 1 1 1 1 1 0.010181732085167872 0.0024477684328475836 1 1 1 1 1 0.014596169672220605 1 1 1 1 1 1 1 1 1 1 1 1 1 0.0099798569946935641 1 1 1 1 1 1 1 1 0.014913013751928047 1 1 1 1 1 1 1 1 1 1 1 1 1 1 1 1 1 1 1 1 1 1 1 1 1 1 1 1 1 1 1 1 1 1 1 1 1 1 1 1 1 1 1 1 1 1 1 1 1 1 1 1 1 1 1 1 1 1 1 1 1 1 1 1 1 1 1 1 0.010504846836635493 0.01015589950689752 1 1 1 1 1 1 1 1 1 1 1 1 1 1 1 1 0.011596037417826673 1 1 0.0097093793797891834 1 0.010944547982466083 1 0.0099718633213582222 1 1 0.011566947972253178 1 1 1 1 1 1 1 0.011047318581449264 1 1 1 1 1 1 1 1 1 1 1 1 0.010306009294944223 1 1 1 1 1 1 1 1 1 1 1 1 1 1 0.010077528313650781 1 1 1 1 1 1 1 1 1 1 1 1 1 1 1 1 1 1 1 1 1 1 1 1 1 1 1 1 1 1 1 1 1 1 1 1 1 1 1 1 1 1 1 1 1 1 1 1 1 1 1 1 1 1 1 1 1 1 1 1 1 1 1 1 1 1 1 1 1 1 1 1 1 1 1 1 1 1 1 1 1 1 1 1 1 1 1 1 1 1 0.010884739509110793 1 0.010193827103001634 1 1 1 1 1 1 1 1 1 1 1 1 1 1 1 1 0.01136235014010282 0.010197858745896312 1 1 1 1 1 1 1 1 1 1 1 1 1 1 1 1 1 1 1 1 1 1 1 1 1 1 1 1 1 1 1 1 1 1 1 1 1 1 1 0.013692503126246676 1 1 1 1 0.012943174450148389 1 1 1 1 1 1 1 1 1 0.010911122970767909 1 0.01492619182117523 1 1 1 1 1 1 1 0.015236526875076673 1 1 1 1 1 1 1 1 1 1 1 1 1 1 0.010018657512982051 1 1 1 1 0.010302538804634021 1 1 1 1 1 1 1 1 1 1 1 1 1 0.010215102527342835 1 1 1 0.01028856727468804 1 1 1 1 1 1 1 1 1 1 1 1 1 1 1 1 1 1 1 1 1 1 1 0.015228526102276419 1 1 1 1 0.012087148125579174 1 1 1 1 1 1 0.0099388787513370342 1 1 1 1 0.010628380418970183 1 1 1 1 1 1 0.016969312538826699 1 1 1 1 1 0.01581347480511034 1 1 0.010906884984936574 0.008232663471435208 1 1 1 1 0.0083150475174605439 1 1 1 1 1 1 1 1 1 0.0093450820857265866 1 1 0.010201211868416361 1 1 1 1 1 1 1 1 1 1 1 1 1 1 0.0099980143148803088 1 1 1 1 1 0.010034074149912576 1 1 1 1 0.0099655319699766924 1 1 1 1 1 1 1 1 1 1 1 1 1 1 0.010076193438462661 1 1 1 1 1 0.010364760713150704 1 1 1 1 1 1 0.0099161690378248256 1 1 1 1 1 1 1 1 1 1 1 1 1 0.010190469189779667 1 1 1 1 1 1 0.010496272964245315 1 1 0.0096455048751609828 1 1 1 1 1 1 1 1 1 1 1 0.0098945117216779292 1 1 1 1 1 1 1 1 1 1 1 0.0099986402152154423 1 0.010161586149226975 1 1 1 1 1 0.0096523056595495243 0.010518903822115462 1 1 0.010034139549586684 0.017694474046241811 1 1 0.0099926932819422165 1 1 1 1 0.009876537109011839 1 1 1 1 1 1 0.01049636416125295 1 1 0.0083706960245733715 1 1 1 1 1 1 1 0.010114753064183741 1 1 1 1 1 1 0.0087976236096471653 1 1 1 1 1 1 1 1 1 1 1 1 1 1 1 1 1 0.011414786569156943 1 1 1 0.01059171309462746 1 1 1 1 1 1 1 1 1 1 1 1 1 1 1 1 1 1 1 1 1 0.010123207443574504 1 1 1 1 0.0090263775265345819 1 0.010219732150923056 1 1 0.0098605566860276439 1 1 0.012409953016033546 1 1 1 1 1 0.0099823702414551258 1 1 1 0.0097681253991864347 1 1 0.016041040654068816 1 1 1 1 0.0096531455953244843 1 1 1 1 0.010064598553331775 1 1 1 1 1 1 1 1 1 1 1 1 1 1 1 1 1 1 1 0.010594956124061496 1 1 1 1 1 1 0.010006505545630293 1 1 1 1 1 0.009854942882601617 1 1 1 0.0089769555377460231 1 1 0.0083884947923921083 1 1 1 1 1 1 1 1 1 1 1 1 1 0.01251815177385724 1 0.010218593875721207 1 1 1 1 1 1 1 1 1 1 1 1 1 1 1 1 0.010081559956545451 1 1 1 0.011606693400465742 1 1 1 1 1 1 1 1 1 1 1 1 1 1 1 1 1 1 1 1 1 1 1 1 1 1 1 1 1 1 0.012248304739869334 1 1 0.012389974902322194 1 1 1 1 1 1 1 1 1 1 1 1 1 1 0.012208622787751366 1 1 1 1 1 0.011416996267146155 1 1 1 1 1 1 1 1 1 0.010007230390843112 1 1 1 1 1 1 1 1 1 1 1 1 1 1 1 1 1 1 1 1 1 0.009699880420532183 1 0.011023082991021841 1 0.010721001406484215 1 1 1 1 1 1 1 1 1 0.011019071845698733 1 1 1 1 1 1 1 1 1 1 1 1 1 1 1 1 0.0099978480338006014 0.010002943845879153 1 1 1 1 1 1 1 0.010286829462478383 1 1 1 1 1 1 1 1 1 1 1 1 1 1 1 1 1 0.0096908218915500097 0.0095633010765277995 1 1 1 1 1 1 1 1 1 1 1 1 1 1 1 1 1 1 1 1 1 1 1 1 1 1 1 1 1 1 1 1 1 1 1 1 1 1 1 1 1 1 0.0097148637395564983 1 1 1 1 1 1 1 1 1 1 1 1 1 1 1 1 1 1 1 0.0095173981781487144 1 1 1 1 1 1 1 1 0.0087048217802499477 1 1 1 1 1 1 0.012208975254089739 0.0078336618145542283 1 0.00942672551260074 1 1 0.01257928994397085 1 1 1 0.0099924944111808335 1 0.012176271682030958 1 1 0.0099599299546346172 1 1 0.010059259431018836 1 1 1 1 1 1 1 1 1 1 1 0.0099986747294875944 1 1 1 1 0.0099987447209614073 1 1 1 1 1 1 1 1 1 1 0.0095037948208476341 1 1 0.0091089177437372361 1 1 1 1 1 1 1 1 1 1 1 1 1 1 1 1 1 1 1 1 1 0.0099729823742995861 1 1 0.010061487461697761 1 1 1 1 1 1 1 1 0.0095876338326402067 0.010377701026958376 1 1 1 1 1 0.0080535865560046205 1 1 1 0.010060943864565776 1 1 1 1 0.0095097485437096833 1 1 1 1 1 1 1 1 1 1 1 1 1 1 1 1 1 1 1 1 1 1 1 1 1 1 1 1 1 1 1 1 1 1 0.011351273507630124 0.01025724363073326 1 1 1 1 1 0.0098879239445541015 1 1 1 1 0.0098032672197575343 1 1 1 1 1 1 1 1 0.0094999341890621095 1 1 1 1 1 0.0084198643311503337 1 1 1 0.0085638213385876051 1 1 1 1 1 1 1 1 1 1 1 1 0.0091709472198061755 0.0093019730708518138 1 1 1 1 0.0099863934891470611 0.011759451554222391 1 0.011064011011484576 0.0099989595413354036 1 0.0093032302858978896 1 0.011518051876383616 1 1 0.010999551974679781 0.0099873340236438825 1 1 1 1 0.0096893167425954451 0.010882016448751124 1 1 0.0084649382439737023 0.010070995590427517 1 1 0.007585793333861203 1 1 0.010002861168236067 1 1 1 1 1 1 1 1 1 1 1 1 1 1 1 1 1 1 1 1 1 0.0097746819745380183 1 1 1 0.0098678180925121615 1 1 0.0099168908770790511 1 1 1 0.0098675289528683263 1 0.012508347873021818 0.0099989672603760463 1 0.0097798031045764431 1 1 1 1 1 0.009337802719936502 0.0115833431336633 1 1 0.0065327026553090722 1 1 1 0.010260788621952085 1 1 1 1 1 1 1 1 0.010711046395257488 1 1 0.0099841038037289335 1 1 1 1 0.010232488627541798 0.0087787768124860284 1 0.010000052365742003 1 1 1 1 0.0070602498037421538 1 1 1 1 1 1 1 0.01175072071889836 1 1 1 1 1 1 0.010667794551675424 1 1 1 1 1 1 1 1 1 1 1 1 1 0.009750269571461188 0.010061734337749678 0.01052815854127972 0.0097832717240502413 1 1 0.0099954550929394828 0.01009189332086502 1 1 1 1 1 0.0097238316702097389 0.010000571246565447 1 0.010003301000664887 1 0.009972618950637115 1 0.011379024551847165 1 1 0.0087179472716124289 1 1 0.0099786439802522983 1 0.011837978010531533 0.0083173596026820101 1 1 1 1 1 1 1 1 1 1 0.013956288024219284 1 1 0.014916638147260386 1 1 1 1 1 1 1 1 1 1 1 1 1 1 0.0099056552084780154 1 1 1 0.009446290763527548 1 1 0.0090970853656312401 1 1 1 1 0.0099912770666136536 1 1 1 1 0.0056739247467988549 1 1 1 0.010003966667551928 1 1 1 1 1 0.01162161916691018 1 1 1 1 1 1 0.0052444655565557254 1 0.0097294560844226156 1 1 1 1 1 1 1 1 1 1 1 1 1 1 0.011048570429421428 1 1 0.0090262885705852027 1 0.010017766985753584 0.0098503188436147825 1 1 1 1 1 1 0.009014367569954428 1 1 0.0096858459081856675 1 1 1 0.010433289239953755 0.010756049312793099 1 0.0087736986813740387 1 1 1 1 1 0.0059065989822671798 1 1 1 0.006710981572692256 1 1 1 1 1 1 1 0.0099907843877777899 1 1 1 1 1 1 0.0099483538806611552 1 1 1 1 1 1 0.010132182095579459 1 1 1 1 1 1 1 1 1 1 0.011786721773413854 1 1 1 1 1 1 1 1 1 1 1 1 1 1 1 0.011373228343061132 0.010806034007071929 1 1 1 1 1 1 1 1 1 0.0099591857800525353 1 1 1 1 1 1 1 1 0.011806894189855876 1 1 0.0082824976549847242 1 0.008314643771483457 1 1 1 0.010695095142777354 1 0.010083758669112491 1 1 1 0.011094412692495477 1 0.0083041826812479957 1 1 1 0.011150894517465064 0.0099896814779486375 1 0.0095326046079449861 1 1 1 1 1 1 1 1 1 1 1 0.0087124896210015509 0.010000938344988285 1 0.010410028819335584 1 1 1 0.0099834047314447793 0.0069619905312843892 1 0.0099758464151148279 1 1 1 1 0.0099523868911277468 0.0089132014303747228 1 0.0088041861974596687 1 1 1 1 1 1 0.0093940102591025722 1 0.0084964931046306365 1 1 1 1 0.0093114261688740756 0.01114749590372781 1 1 0.010533631325117693 1 1 0.0097995044035533198 1 1 0.011613271086991932 1 1 0.0082250893470461536 0.010002178822168901 1 1 0.011487540805998514 1 0.008968994091983977 0.011490296619586091 1 1 0.012025385391272726 1 1 1 1 1 1 0.0080254580692155873 0.0082297901422899826 0.0099997176265567058 1 1 1 0.011119224425025435 1 0.0099010677653907867 1 1 1 1 0.007580076523690929 0.0078154977719697982 1 0.0098205549695245097 0.011728159780132221 0.010459162037239456 1 1 1 1 1 1 1 1 1 1 1 1 1 1 1 1 1 1 1 1 1 1 1 1 1 1 0.010102871952067868 1 1 1 0.0097089979781085963 1 1 1 1 1 1 1 1 1 1 1 0.014059511242279676 1 1 1 1 1 0.010936344519532314 1 0.012075266942794052 1 1 0.01011154479365944 1 1 1 1 1 0.010002186878309649 0.0074202858259315302 1 1 1 1 1 0.010627903338326684 1 1 0.010261409394682029 1 1 1 1 1 1 1 1 1 1 1 1 1 1 1 1 1 1 1 1 0.010833332478388597 1 1 1 1 1 1 1 1 1 1 1 0.010798553629059732 0.011109747382621889 1 1 1 1 1 1 1 1 1 0.012355464134219219 1 1 1 1 1 1 1 0.010968343622836479 1 1 1 1 1 1 1 1 1 1 1 1 0.010425457298531768 1 0.010172164360556814 1 1 1 1 1 1 1 1 1 0.012684030849863475 1 0.010478392579720818 1 1 1 1 1 1 1 1 1 0.010605943507994063 0.010210756744259291 1 1 1 1 1 1 1 1 1 1 1 1 1 1 1 1 1 1 1 1 1 1 1 1 1 1 1 1 1 1 1 1 1 0.0098734616708584261 1 1 1 1 1 1 1 1 1 1 1 1 1 0.010525732092676012 1 1 1 1 1 1 1 1 1 1 1 1 1 1 1 1 1 1 1 1 1 1 1 0.011442030094069827 0.0082052037329590662 1 1 1 1 1 1 1 1 1 1 1 1 1 1 1 0.0098417851110400058 1 1 1 1 1 1 1 1 1 1 1 1 1 1 1 1 1 0.0095806428057695105 1 1 1 1 0.0088011245565295937 1 1 1 1 1 1 1 1 1 1 1 0.010359023829984004 0.010466296867613578 1 1 1 1 1 1 1 1 1 1 1 1 1 1 1 1 1 1 1 0.010740062846456049 1 1 1 0.010087159358181066 1 1 1 0.01198047482209914 0.011265397761772697 1 1 0.01000958092660279 0.0093359734100552701 1 0.0099867389336307719 1 1 1 0.010008930785207646 1 1 0.010013584330501498 0.0072801590522480076 1 1 0.0070132829054220039 1 1 0.011254856383421448 0.0099379187016268994 1 1 1 1 0.010027740921096833 1 1 1 0.0096965898940236904 0.0099952702376321194 1 1 1 1 1 1 1 1 0.0075370384561516731 1 1 0.010008971219947788 1 1 1 1 0.010671348989378656 1 1 1 1 1 0.010939816858471146 1 1 0.010012176822663579 1 1 1 1 1 0.010097922876221018 1 1 1 1 0.0093121729867196544 1 1 0.010265948620302241 1 0.010203155316722695 1 1 1 1 1 1 1 0.011159393922272776 1 1 1 0.0076010476706240369 1 1 0.0097601522549951077 1 1 1 1 1 1 1 1 1 1 1 1 1 1 1 1 0.010269751740688372 1 0.010746699620598835 1 1 1 1 1 1 1 1 1 0.010010956554359129 1 1 1 0.010086653863341725 0.010041270890726376 0.0099264004077901265 1 1 1 0.010005142277585678 0.01008531779120261 1 0.010082602039603396 1 0.010064820990307732 0.010243743936647294 1 1 1 0.010281621521859373 1 0.010009619191743693 1 1 1 1 1 1 1 1 1 1 0.010003487302213081 1 1 1 0.0099014289826237969 1 1 1 0.0099692934122460174 1 1 1 1 1 1 1 1 1 1 1 1 1 1 1 1 1 1 1 0.012349208712641939 1 1 1 1 0.0099892291853909548 1 0.012281907161341296 1 1 1 1 1 1 1 1 1 1 1 0.010002262310406459 1 0.010017889593402895 1 1 0.010674928866249357 1 0.0091702747979170735 0.01058360260770597 0.010517973381685523 1 1 1 0.010174721555170321 1 1 1 0.011709626226761116 0.010408558857712141 1 1 1 1 1 1 0.0098554724323942806 1 1 1 1 1 1 1 1 1 0.0099400931971612011 1 1 0.009850718768745265 1 1 1 0.0098326400552227449 1 1 1 1 1 1 1 1 1 1 1 1 1 1 1 1 1 0.0093067911850886337 1 1 1 1 1 1 0.0086100211228792699 0.012928151096875031 1 1 1 0.013799974232556973 1 1 1 1 1 1 1 0.008575436451510059 1 1 1 1 1 1 1 1 1 1 1 1 1 0.0095595567262171822 1 1 1 1 1 1 1 1 1 1 1 1 1 1 1 1 1 1 0.010087812818465009 1 1 1 1 1 0.010248033649323076 1 1 1 1 1 1 1 1 0.014611040493968752 1 1 1 1 1 1 1 1 1 1 1 1 1 1 1 1 1 1 1 1 1 0.015095397991730005 0.010662360296472329 1 1 0.0149336156105726 1 0.016690903255772292 1 1 1 1 1 1 1 1 0.009531608553229513 1 1 1 1 0.011950055900986266 1 1 1 1 0.016242046222499515 1 1 1 0.0070046974395538853 1 0.010006489824501278 1 1 1 0.011699323857963635 0.0046821884759414602 1 0.010024200418236089 1 0.014110662270662055 -3.4694469519536142e-18 1 1 1 1 1 0.014535196707535393 1 1 1 0.0093453591845840001 1 1 1 1 0.0017497045295200827 1 1 1 1 1 1 1 1 1 1 1 1 1 1 1 1 1 1 0.0085711383213461431 1 1 1 1 1 0.0081562867148587924 1 1 1 1 0.010249507908114842 1 1 1 1 1 1 0.010420244888487607 1 1 1 1 1 1 1 1 1 1 1 1 1 1 1 1 1 1 1 1 1 1 1 1 0.0038407084677285555 1 1 1 0.011717289920604066 1 1 0.010588008039679539 1 1 0.0133102675930805 1 1 1 0.0079459875474474535 1 1 0.0073940041320710928 1 0.0075733054597245351 1 1 0.010248433503111977 1 1 1 1 1 1 1 1 1 1 1 1 1 1 1 0.0082352693090717265 1 1 0.01000487312575115 1 0.015006718531326591 1 1 1 1 1 1 1 0.010141913388174658 1 1 0.010369542251038696 1 0.012322639266735739 1 1 1 0.0064857641720323708 1 1 1 1 0.0046808860996489336 1 1 0.0055845498840491909 1 1 0.012190666947171117 1 1 0.0069644672164042437 1 1 1 1 1 1 1 1 1 0.00394186607199356 1 1 0.012573119281323611 1 0.011471096085945216 0.0044604737942331094 0.014089973998042987 1 1 1 1 1 1 1 0.0098874157347644612 1 0.010504012627609414 1 0.0079939153200671159 0.011529998155736425 1 1 1 1 1 1 1 1 1 1 1 0.0098850628367800567 1 1 1 1 1 1 1 1 1 1 1 1 1 1 1 1 1 1 1 1 1 1 1 1 1 1 1 1 0.010557354889979541 1 1 1 1 1 1 0.010480905803986662 1 1 1 1 1 1 1 1 1 1 1 1 1 1 1 1 0.0094664208196872084 1 1 1 1 1 1 1 1 1 1 1 1 1 1 1 1 1 1 1 1 1 1 1 0.010057106835614 0.003935660238084524 1 1 1 1 1 1 1 0.012674175038857666 1 1 1 0.0053245469465819711 0.0097405707617681525 1 1 0.0032459141296357265 1 1 1 1 1 1 1 1 1 1 1 1 1 0.01039107576755873 1 1 1 1 1 1 1 1 1 1 1 1 1 1 1 1 1 1 1 1 1 1 0.010312448956052697 1 1 1 0.010793354760039358 1 1 1 1 1 1 1 1 1 1 1 1 1 1 1 1 1 1 1 1 1 1 0.0098324806386189522 1 1 1 1 1 1 1 1 1 1 1 1 1 1 1 1 1 1 1 1 1 1 1 0.0098541020093338896 1 1 1 1 1 1 1 1 1 1 1 1 1 1 1 1 1 1 1 0.0097098638355701157 1 1 1 1 1 1 1 1 1 1 1 1 1 1 1 1 1 1 1 1 1 1 1 1 1 1 1 1 1 1 1 1 1 1 1 1 1 1 1 1 0.0090866401632412226 1 1 1 1 1 1 1 0.0082604281307096031 1 1 0.01049045928289585 1 1 0.0091737879674683772 1 1 1 1 1 1 1 1 1 1 1 1 1 1 1 1 1 1 1 1 1 1 1 1 1 1 1 1 1 1 0.010122453042843843 1 1 1 1 0.010364335186599462 1 1 1 1 1 1 1 1 0.00913097698762785 1 1 1 1 1 1 1 1 1 1 1 1 1 1 1 1 1 1 0.0096397601508704175 0.010246577382243594 1 0.010196231565010507 1 0.0081142236139601434 1 1 1 0.011394080975206378 1 1 1 1 1 1 0.011601022831909684 1 1 1 0.0074944517246095001 1 1 1 1 0.0057344536505707002 1 1 1 0.0095159286638439901 1 1 1 1 1 0.0083308912631535927 1 1 0.011146763641814493 1 1 1 1 1 1 1 1 1 1 1 1 1 1 1 1 1 1 0.0084893689927720804 1 1 1 1 1 1 1 1 1 1 1 1 1 0.0091484138959504833 1 0.0099805800702804405 1 1 1 0.0085310532317253163 1 0.010201089381234025 1 1 1 1 1 1 1 1 1 1 1 1 1 1 1 0.0073083272237021296 1 1 0.0061043272885276893 1 1 1 1 1 1 1 1 1 1 1 1 1 1 1 1 1 1 1 1 1 1 1 1 1 1 1 1 1 1 1 1 1 0.010071430681692733 1 1 1 1 1 1 1 1 1 1 1 1 1 1 1 1 1 1 1 1 1 1 1 1 1 1 1 1 1 1 1 1 1 1 1 1 1 1 1 1 1 1 1 1 1 1 1 1 1 0.011376858766120896 1 1 1 1 1 0.012343037761561461 1 0.0098176696225265574 1 1 1 1 1 1 1 1 1 1 1 1 1 1 1 1 0.009745347809069476 1 1 1 1 1 1 1 1 1 1 1 1 1 1 1 1 1 1 1 0.0097095647261826491 1 1 1 1 1 0.0099087594432193341 1 1 1 1 0.0098594217742731197 1 1 1 1 1 1 1 1 1 1 1 1 1 1 1 1 1 1 1 1 1 1 1 1 1 1 1 1 1 1 1 1 1 1 1 1 1 1 1 0.0093659353178188135 1 1 1 1 1 1 1 1 1 1 1 1 1 1 1 1 1 1 1 1 1 1 1 1 1 1 1 1 0.011769870094080963 1 0.010411928803514972 1 0.010647180389219288 1 1 1 1 1 0.0099077924810353855 0.011346574769487061 1 0.0080879076590639979 1 1 0.010103037172443494 1 1 0.01247637496112979 1 1 0.0094239477079781919 1 1 1 1 1 1 1 1 1 1 1 1 1 1 1 1 1 0.0092942118290260164 1 1 1 1 1 0.010774478465859204 1 1 1 1 1 1 1 1 1 1 1 0.0094276878775190736 1 1 0.0096736007784701296 1 1 1 1 1 1 1 0.0083121399249318009 1 1 1 1 1 1 1 1 0.0095465907259561118 1 1 1 0.0088564464654126256 1 0.0097532713330945615 1 1 1 1 1 1 1 1 1 1 1 1 1 1 1 1 1 1 1 1 1 1 1 1 1 0.0084404670943827292 1 1 1 0.0094225389984769481 1 1 1 1 1 1 1 1 1 0.0081956243202953478 1 1 1 1 1 1 1 0.0073099686227960196 1 1 1 1 1 1 1 1 1 1 1 1 1 1 1 1 1 1 1 1 1 1 1 1 1 1 1 1 1 1 1 1 1 1 1 0.0093098557394565244 1 1 1 1 1 1 1 1 1 1 1 1 1 1 1 1 1 1 1 1 1 1 1 1 1 1 1 1 1 1 1 1 1 1 1 1 1 1 1 1 1 1 1 1 1 1 1 1 1 1 0.0087505928731374059 1 1 1 1 1 0.0092557863855001164 1 1 1 1 1 1 1 0.010424139069144909 1 1 1 1 1 1 1 1 0.010136961863955832 1 0.0043795224854054045 1 1 1 1 0.012912219728950366 1 1 0.0035238682744563547 1 1 1 0.010671604773952277 0.0122465699978393 1 1 1 0.010513485554808371 0.0099875561350616093 1 0.0063209331850350003 1 1 1 1 1 1 1 1 1 1 1 1 1 1 1 1 1 1 1 1 1 1 1 0.0099925320030607168 0.0086859426452426339 1 0.0088562191853950398 1 1 1 1 1 0.0082871298208306715 1 1 1 1 0.0075881558047970633 1 1 1 0.012385584245464163 1 0.010836292252867108 1 1 1 1 1 1 1 1 1 1 1 1 1 1 1 1 1 1 1 1 1 1 1 1 1 0.01007478351094165 1 1 1 1 1 1 1 1 1 1 0.010223672172076795 1 1 1 1 1 1 1 1 0.0099769030466388287 0.010485049284116222 1 1 1 1 1 1 1 1 1 1 1 1 1 1 1 1 1 0.0071192550201152737 1 1 0.0067600273756527433 0.0067820617617103292 1 1 1 1 1 0.011058353306556292 1 1 1 1 1 1 1 1 1 0.010735624346317706 1 1 1 0.010059175296421021 1 1 1 1 1 0.0099248230856750688 1 0.01250905503820998 1 0.0090702723438220306 0.011189455733842243 1 1 0.010001198411692719 1 1 1 1 1 0.0073476565942830543 1 1 1 1 1 0.014211570819305146 0.010066300008764063 1 1 1 1 0.014453954160731086 1 1 1 1 1 1 0.013712445291266218 1 1 1 1 1 1 1 1 1 1 1 1 1 1 1 1 1 1 1 1 1 1 1 1 1 1 1 1 1 1 1 1 1 1 1 1 1 1 1 1 1 1 1 1 1 1 1 1 1 1 1 1 1 0.0092593994314200748 1 1 0.010215498114427044 1 1 0.010011106081954588 1 0.0073216332099167464 1 1 1 1 1 1 1 1 1 0.0071355164447589516 1 1 0.010316296687242963 1 1 1 1 1 1 1 1 1 1 0.014898722007358761 1 1 1 1 0.012271377076555848 1 1 1 0.011527014889582321 1 1 1 1 0.009055577930766924 1 1 1 1 1 1 1 1 1 0.0092199292757033438 1 1 1 1 0.0084638435797278373 1 1 1 1 1 1 1 1 1 1 1 1 1 1 1 1 1 1 1 1 1 1 1 0.0092431332199159836 1 1 1 1 1 1 1 1 1 0.010040464206050469 1 1 1 1 1 1 0.0097233542607091522 1 1 1 1 1 1 1 1 1 1 1 1 1 1 1 1 1 1 1 1 1 1 1 1 1 1 1 1 1 1 1 1 0.0092084145236870744 1 1 1 0.010999081945087467 1 1 0.0087428787106713993 0.011306602037307647 1 1 1 1 1 1 1 1 1 0.010304581034745538 1 1 1 0.0092876371322523597 0.0094820239302412651 1 1 0.011116130000025207 1 1 1 0.0085320921545116394 0.0095807007397908563 0.012175316044813742 1 1 1 1 1 1 1 1 1 1 1 1 1 1 1 1 1 1 1 1 1 1 1 1 1 1 0.011071903192983876 1 1 0.010134867429473659 1 1 0.010033036415018638 1 1 1 1 1 1 1 0.0059500607765379052 1 1 1 1 1 1 1 1 1 1 1 1 1 0.0098413889246168167 1 1 0.0089242176134512914 1 1 1 1 1 1 1 1 0.0087798628428772466 1 1 1 1 1 1 1 1 1 1 1 1 1 1 1 1 1 1 1 1 1 1 1 1 1 1 1 1 1 1 1 1 1 1 1 1 1 1 1 1 1 1 1 1 1 1 1 1 0.010015482024684309 1 1 1 1 1 1 1 1 1 1 1 1 1 1 1 0.0072761597169020914 1 1 1 1 1 0.010007673976994791 1 1 1 1 1 1 1 0.0099658156247589575 1 1 1 1 0.0099658496667823972 1 1 1 1 1 1 1 1 1 1 0.0096366269808791771 1 1 0.010481679581336717 1 1 1 1 1 1 1 1 0.010007105450007693 0.009777824378839603 1 1 1 0.010017864878379591 1 1 1 1 1 1 1 1 1 1 0.0099850715255670412 1 1 1 0.010001229169247517 1 1 1 0.010141754857730107 1 1 1 1 1 1 1 1 1 1 0.0090599733484686765 1 1 1 1 1 1 0.0087260588576062326 1 1 0.0082641799321114158 1 1 1 1 1 1 1 1 1 1 1 1 1 0.0077277517817426512 1 1 0.0095721201782143078 1 1 1 0.013847808635637074 0.0086991548355567112 1 1 1 1 1 1 0.010164301997403865 1 1 1 1 1 1 1 1 1 1 0.0084565982136707643 1 1 1 1 1 1 1 1 1 0.011356667081214172 1 1 0.009267620954351824 1 1 1 1 1 1 0.0099991015341839885 1 1 1 1 1 1 1 1 1 1 1 1 1 1 0.010004235291468913 1 1 1 1 1 0.009703043401338254 1 1 0.010027283676527898 1 1 1 1 1 1 1 1 1 1 1 0.011279399725285124 1 1 1 1 1 0.010638912656564874 1 0.0093231420742773893 1 0.0099995369579394325 1 1 0.0093611991807212632 1 1 1 1 0.010541695756658913 1 0.0099962025179085815 1 0.0099697262431323874 0.010005976358099225 1 1 0.0096362990228072501 1 1 0.010021151442927921 1 1 1 1 1 1 1 1 1 1 1 1 1 1 0.0099114401584819677 1 1 1 1 1 0.0096603988769795833 1 1 1 1 1 1 1 1 0.0099483976997598207 1 1 1 1 1 1 1 1 1 1 1 0.011802966354610599 1 1 1 1 1 0.014430311285413513 1 1 1 1 1 1 0.0097680646007167245 1 1 1 1 1 0.010962953863082296 0.0069245708580776538 1 1 1 0.0093012048511252211 1 1 1 1 1 1 1 1 1 1 1 1 1 1 1 1 1 1 1 1 1 1 1 0.010000480539403511 1 1 1 1 0.011174045920529316 0.010971403087297155 1 0.010004466877161318 1 1 1 1 1 1 0.010730494542531558 1 1 1 0.010468198529094081 1 1 1 1 1 1 1 0.012699019091081325 1 1 1 0.011867681791198655 1 1 1 1 0.0048627826670484455 1 1 0.005583336386157085 1 1 1 0.011335146114858738 1 1 0.0094860081974374663 1 1 0.0091959560732620023 0.010627816637690954 0.0085835858811800069 1 0.0084504401782747717 0.01027677974397025 1 1 0.0099907431899142352 1 1 0.0098037159274703811 1 1 1 1 1 1 1 0.0098960359734658974 1 1 0.0098542659397026638 1 1 1 1 1 1 1 1 1 1 1 1 1 1 1 1 1 1 1 0.0099058682399428433 0.010074728946935264 1 1 1 1 1 1 1 1 1 1 1 1 1 1 1 1 1 1 1 1 1 1 1 1 1 1 1 1 1 1 1 1 1 1 1 1 1 1 1 1 1 1 1 1 1 1 1 1 1 1 1 1 1 1 1 0.010049798180677064 1 1 1 1 1 1 1 1 1 1 1 1 1 1 1 1 1 1 1 1 1 1 1 1 0.010091240720182087 1 1 1 1 1 1 1 1 1 1 1 1 1 1 1 1 1 1 1 1 1 1 1 1 1 1 1 1 1 1 1 1 1 1 1 1 1 1 1 1 0.010045071696604714 1 0.010003629157099693 1 1 1 1 0.010478113398612645 1 1 1 0.010378315412646829 1 1 1 1 1 1 1 1 1 1 1 1 1 1 1 0.010913386287795424 1 1 1 1 1 1 1 1 1 1 1 0.010982459280408561 1 1 1 0.010447388405259966 1 1 1 1 1 1 1 1 1 0.0091768566545803575 1 0.010249778145458487 1 1 0.0097015709974972771 1 1 1 1 1 1 1 1 1 1 1 0.010099405130226039 1 1 1 1 1 1 1 1 1 1 1 1 1 1 1 1 1 1 1 1 1 1 1 1 0.0095840937302433885 1 1 1 1 1 1 1 1 1 1 1 0.0098837554937944404 1 1 1 0.0098308657169997905 0.0098616539191591721 1 1 1 1 1 1 1 1 1 1 0.0094950222655196953 1 1 1 1 0.0085125904458748566 1 0.012255232089310774 1 1 1 1 0.011734000249875328 1 1 0.009598040373020306 1 1 1 1 1 0.010494209625713622 1 1 1 1 1 1 1 1 1 1 1 1 1 1 1 1 1 1 1 1 1 1 1 1 1 1 1 0.0081004854028418252 1 1 0.0100965681897538 1 1 1 1 0.0063958171635143295 1 1 1 1 1 0.0059584063951312657 1 1 1 1 1 1 1 1 1 1 1 1 0.0036370838368873846 1 1 1 1 1 1 1 1 1 0.0050486194842628692 1 1 1 1 1 1 1 1 1 1 1 1 1 1 1 1 0.009578594895841272 1 1 1 1 1 1 1 0.0088931258305173632 0.01170723719596363 1 1 0.010583455223082822 1 1 1 1 1 1 1 1 1 1 1 1 1 0.0097010511178146613 1 1 1 1 1 0.0092556387671875115 0.010111544933529714 1 1 1 1 1 1 1 1 1 1 1 1 1 1 1 1 1 1 1 1 1 1 1 1 1 1 1 1 1 1 1 1 1 1 1 1 1 1 1 1 1 1 1 1 1 1 1 1 1 1 1 1 1 1 1 1 1 1 1 1 1 1 1 1 1 0.009893651494821902 1 0.01495634031398871 1 1 1 1 1 1 1 1 1 1 1 1 1 1 1 1 1 1 1 1 1 1 1 1 1 1 1 1 1 1 1 1 1 1 1 1 1 1 1 1 1 1 1 1 1 1 1 1 1 1 1 1 1 0.010134293790655197 1 1 0.013459173561565826 1 1 1 1 1 1 1 1 1 1 1 1 1 1 1 1 0.014569617439293804 1 1 1 1 1 1 1 1 1 1 1 1 1 1 1 1 1 1 1 1 1 1 1 1 1 1 1 1 1 1 1 1 1 1 1 0.010240642295833293 1 1 1 1 1 1 1 1 1 1 0.011357463616494468 1 1 1 1 1 1 1 1 1 1 1 1 1 1 1 1 1 1 1 1 1 1 1 1 1 1 1 1 0.010487912463916511 1 1 1 1 1 1 0.01122651321631116 1 1 1 1 1 1 1 1 1 1 1 1 1 1 1 1 1 1 1 1 1 1 1 
</DataArray>
</CellData>
</Piece>
</UnstructuredGrid>
</VTKFile>
